<?xml version="1.0"?>
<VTKFile type="UnstructuredGrid" version="0.1" byte_order="LittleEndian">
<UnstructuredGrid>
<Piece NumberOfPoints="29821" NumberOfCells="10495">
<Points>
<DataArray type="Float64" NumberOfComponents="3" format="ascii">
-0.5 -0.5 0 -0.45580702237719029 -0.47031576190444391 0 -0.43243467811010322 -0.5 0 -0.5 -0.5 0 -0.45580702237719029 -0.47031576190444391 0 -0.47056466239647921 -0.44429109177928727 0 -0.5 -0.5 0 -0.47056466239647921 -0.44429109177928727 0 -0.50000000000000067 -0.43158214482168028 0 -0.45580702237719029 -0.47031576190444391 0 -0.43243467811010322 -0.5 0 -0.42961604146339721 -0.46377633293523041 0 -0.45580702237719029 -0.47031576190444391 0 -0.44641972991597212 -0.44351138480770158 0 -0.42961604146339721 -0.46377633293523041 0 -0.45580702237719029 -0.47031576190444391 0 -0.44641972991597212 -0.44351138480770158 0 -0.47056466239647921 -0.44429109177928727 0 -0.44641972991597212 -0.44351138480770158 0 -0.47056466239647921 -0.44429109177928727 0 -0.44641972991597212 -0.44351138480770158 0 -0.47056466239647921 -0.44429109177928727 0 -0.45944454976877941 -0.42990820002862329 0 -0.49504846672071873 -0.42858433011404418 0 -0.47778632077977401 -0.41813328150579909 0 -0.48231456188247462 -0.42983304566791047 0 -0.50000000000000067 -0.43158214482168028 0 -0.49504846672071873 -0.42858433011404418 0 -0.5 -0.41252923302729261 0 -0.49504846672071873 -0.42858433011404418 0 -0.47778632077977401 -0.41813328150579909 0 -0.47056466239647921 -0.44429109177928727 0 -0.50000000000000067 -0.43158214482168028 0 -0.49667638185075558 -0.43028484614513862 0 -0.50000000000000067 -0.43158214482168028 0 -0.49667638185075558 -0.43028484614513862 0 -0.49504846672071873 -0.42858433011404418 0 -0.50000000000000067 -0.43158214482168028 0 -0.49504846672071873 -0.42858433011404418 0 -0.49667638185075558 -0.43028484614513862 0 -0.49504846672071873 -0.42858433011404418 0 -0.48231456188247462 -0.42983304566791047 0 -0.49667638185075558 -0.43028484614513862 0 -0.49504846672071873 -0.42858433011404418 0 -0.49504846672071873 -0.42858433011404418 0 -0.5 -0.41252923302729261 0 -0.48102210750200741 -0.41393243071879382 0 -0.49504846672071873 -0.42858433011404418 0 -0.47778632077977401 -0.41813328150579909 0 -0.48102210750200741 -0.41393243071879382 0 -0.5 -0.41252923302729261 0 -0.48102210750200741 -0.41393243071879382 0 -0.48367010456116077 -0.39735777334359212 0 -0.49504846672071873 -0.42858433011404418 0 -0.48102210750200741 -0.41393243071879382 0 -0.47778632077977401 -0.41813328150579909 0 -0.46052417483882913 -0.40768223289755412 0 -0.47778632077977401 -0.41813328150579909 0 -0.48102210750200741 -0.41393243071879382 0 -0.46052417483882913 -0.40768223289755412 0 -0.48102210750200741 -0.41393243071879382 0 -0.46699574828329599 -0.3992805313235433 0 -0.46052417483882913 -0.40768223289755412 0 -0.48102210750200741 -0.41393243071879382 0 -0.46699574828329599 -0.3992805313235433 0 -0.47778632077977401 -0.41813328150579909 0 -0.47149697766464538 -0.42787167879528321 0 -0.46582828669008169 -0.41944469631335762 0 -0.47056466239647921 -0.44429109177928727 0 -0.49667638185075558 -0.43028484614513862 0 -0.48231456188247462 -0.42983304566791047 0 -0.47056466239647921 -0.44429109177928727 0 -0.47149697766464538 -0.42787167879528321 0 -0.48231456188247462 -0.42983304566791047 0 -0.47778632077977401 -0.41813328150579909 0 -0.47149697766464538 -0.42787167879528321 0 -0.48231456188247462 -0.42983304566791047 0 -0.48680409162406041 -0.37573720864611132 0 -0.49999999999999389 -0.39347632123290488 0 -0.5 -0.37142231553439942 0 -0.48680409162406041 -0.37573720864611132 0 -0.49999999999999389 -0.39347632123290488 0 -0.48367010456116077 -0.39735777334359212 0 -0.48680409162406041 -0.37573720864611132 0 -0.49999999999999389 -0.39347632123290488 0 -0.5 -0.41252923302729261 0 -0.49999999999999389 -0.39347632123290488 0 -0.48367010456116077 -0.39735777334359212 0 -0.48367010456116077 -0.39735777334359212 0 -0.4707456239378921 -0.38566350184706849 0 -0.46699574828329599 -0.3992805313235433 0 -0.48102210750200741 -0.41393243071879382 0 -0.48367010456116077 -0.39735777334359212 0 -0.46699574828329599 -0.3992805313235433 0 -0.48680409162406041 -0.37573720864611132 0 -0.48367010456116077 -0.39735777334359212 0 -0.4707456239378921 -0.38566350184706849 0 -0.48680409162406041 -0.37573720864611132 0 -0.4707456239378921 -0.38566350184706849 0 -0.4632887861563576 -0.37131336399380382 0 -0.46699574828329599 -0.3992805313235433 0 -0.45117345206255421 -0.38694595552412098 0 -0.45296938906458539 -0.38462863192829222 0 -0.4707456239378921 -0.38566350184706849 0 -0.46699574828329599 -0.3992805313235433 0 -0.45296938906458539 -0.38462863192829222 0 -0.4707456239378921 -0.38566350184706849 0 -0.45296938906458539 -0.38462863192829222 0 -0.4632887861563576 -0.37131336399380382 0 -0.45296938906458539 -0.38462863192829222 0 -0.4632887861563576 -0.37131336399380382 0 -0.45296938906458539 -0.38462863192829222 0 -0.4632887861563576 -0.37131336399380382 0 -0.45393071014682351 -0.37393450826071412 0 -0.45117345206255421 -0.38694595552412098 0 -0.46052417483882913 -0.40768223289755412 0 -0.46699574828329599 -0.3992805313235433 0 -0.45117345206255421 -0.38694595552412098 0 -0.46052417483882913 -0.40768223289755412 0 -0.46699574828329599 -0.3992805313235433 0 -0.45296938906458539 -0.38462863192829222 0 -0.44322140923969122 -0.3972065918647254 0 -0.45117345206255421 -0.38694595552412098 0 -0.46052417483882913 -0.40768223289755412 0 -0.44322140923969122 -0.3972065918647254 0 -0.46052417483882913 -0.40768223289755412 0 -0.44322140923969122 -0.3972065918647254 0 -0.46052417483882913 -0.40768223289755412 0 -0.44668749594878249 -0.41183210695762429 0 -0.44322140923969122 -0.3972065918647254 0 -0.44058436686504832 -0.38695111725465081 0 -0.42998320178334498 -0.38919176276493422 0 -0.44322140923969122 -0.3972065918647254 0 -0.45117345206255421 -0.38694595552412098 0 -0.45117345206255421 -0.38694595552412098 0 -0.45296938906458539 -0.38462863192829222 0 -0.44759859952646641 -0.37901831874876279 0 -0.45117345206255421 -0.38694595552412098 0 -0.44759859952646641 -0.37901831874876279 0 -0.45117345206255421 -0.38694595552412098 0 -0.44058436686504832 -0.38695111725465081 0 -0.44759859952646641 -0.37901831874876279 0 -0.45117345206255421 -0.38694595552412098 0 -0.45296938906458539 -0.38462863192829222 0 -0.44322140923969122 -0.3972065918647254 0 -0.45117345206255421 -0.38694595552412098 0 -0.44058436686504832 -0.38695111725465081 0 -0.43829928845863131 -0.38136782023291782 0 -0.44759859952646641 -0.37901831874876279 0 -0.43305143215737668 -0.3741671062425001 0 -0.44058436686504832 -0.38695111725465081 0 -0.43829928845863131 -0.38136782023291782 0 -0.44759859952646641 -0.37901831874876279 0 -0.45296938906458539 -0.38462863192829222 0 -0.44759859952646641 -0.37901831874876279 0 -0.45393071014682351 -0.37393450826071412 0 -0.45296938906458539 -0.38462863192829222 0 -0.44759859952646641 -0.37901831874876279 0 -0.47056466239647921 -0.44429109177928727 0 -0.47149697766464538 -0.42787167879528321 0 -0.45944454976877941 -0.42990820002862329 0 -0.45944454976877941 -0.42990820002862329 0 -0.45551362604701823 -0.41863565835620031 0 -0.44508362298861781 -0.42431105558384219 0 -0.45944454976877941 -0.42990820002862329 0 -0.46582828669008169 -0.41944469631335762 0 -0.45551362604701823 -0.41863565835620031 0 -0.47149697766464538 -0.42787167879528321 0 -0.45944454976877941 -0.42990820002862329 0 -0.46582828669008169 -0.41944469631335762 0 -0.47778632077977401 -0.41813328150579909 0 -0.46582828669008169 -0.41944469631335762 0 -0.46052417483882913 -0.40768223289755412 0 -0.46582828669008169 -0.41944469631335762 0 -0.46052417483882913 -0.40768223289755412 0 -0.46052417483882913 -0.40768223289755412 0 -0.45551362604701823 -0.41863565835620031 0 -0.44668749594878249 -0.41183210695762429 0 -0.46582828669008169 -0.41944469631335762 0 -0.46052417483882913 -0.40768223289755412 0 -0.45551362604701823 -0.41863565835620031 0 -0.45551362604701823 -0.41863565835620031 0 -0.44668749594878249 -0.41183210695762429 0 -0.44508362298861781 -0.42431105558384219 0 -0.44668749594878249 -0.41183210695762429 0 -0.44508362298861781 -0.42431105558384219 0 -0.42635663522758249 -0.41896745469700042 0 -0.44322140923969122 -0.3972065918647254 0 -0.44668749594878249 -0.41183210695762429 0 -0.42635663522758249 -0.41896745469700042 0 -0.44641972991597212 -0.44351138480770158 0 -0.45944454976877941 -0.42990820002862329 0 -0.44508362298861781 -0.42431105558384219 0 -0.44641972991597212 -0.44351138480770158 0 -0.44508362298861781 -0.42431105558384219 0 -0.43468603808943879 -0.43263081411211501 0 -0.44508362298861781 -0.42431105558384219 0 -0.43468603808943879 -0.43263081411211501 0 -0.42635663522758249 -0.41896745469700042 0 -0.43468603808943879 -0.43263081411211501 0 -0.42635663522758249 -0.41896745469700042 0 -0.42227479743546492 -0.442731677836116 0 -0.44322140923969122 -0.3972065918647254 0 -0.42635663522758249 -0.41896745469700042 0 -0.42635663522758249 -0.41896745469700042 0 -0.42965242720967067 -0.4021075075563284 0 -0.41904846258806377 -0.40306422089865362 0 -0.41904846258806377 -0.40306422089865362 0 -0.39651669753125679 -0.42211824239579832 0 -0.41119244700740182 -0.42526126170771988 0 -0.41904846258806377 -0.40306422089865362 0 -0.39651669753125679 -0.42211824239579832 0 -0.42635663522758249 -0.41896745469700042 0 -0.41119244700740182 -0.42526126170771988 0 -0.41904846258806377 -0.40306422089865362 0 -0.42635663522758249 -0.41896745469700042 0 -0.42227479743546492 -0.442731677836116 0 -0.4094918612154736 -0.44072831752927522 0 -0.42635663522758249 -0.41896745469700042 0 -0.41119244700740182 -0.42526126170771988 0 -0.4094918612154736 -0.44072831752927522 0 -0.42635663522758249 -0.41896745469700042 0 -0.4094918612154736 -0.44072831752927522 0 -0.41119244700740182 -0.42526126170771988 0 -0.39812986495495778 -0.44195197086453031 0 -0.4094918612154736 -0.44072831752927522 0 -0.42343107035509481 -0.38002811772054618 0 -0.42998320178334498 -0.38919176276493422 0 -0.43305143215737668 -0.3741671062425001 0 -0.43829928845863131 -0.38136782023291782 0 -0.42998320178334498 -0.38919176276493422 0 -0.43305143215737668 -0.3741671062425001 0 -0.44058436686504832 -0.38695111725465081 0 -0.43829928845863131 -0.38136782023291782 0 -0.42998320178334498 -0.38919176276493422 0 -0.42343107035509481 -0.38002811772054618 0 -0.42998320178334498 -0.38919176276493422 0 -0.41568341748301613 -0.38835343425844249 0 -0.44322140923969122 -0.3972065918647254 0 -0.42635663522758249 -0.41896745469700042 0 -0.42965242720967067 -0.4021075075563284 0 -0.42998320178334498 -0.38919176276493422 0 -0.42965242720967067 -0.4021075075563284 0 -0.41904846258806377 -0.40306422089865362 0 -0.44322140923969122 -0.3972065918647254 0 -0.42998320178334498 -0.38919176276493422 0 -0.42965242720967067 -0.4021075075563284 0 -0.44322140923969122 -0.3972065918647254 0 -0.42998320178334498 -0.38919176276493422 0 -0.41904846258806377 -0.40306422089865362 0 -0.41568341748301613 -0.38835343425844249 0 -0.40276018983932882 -0.40067327022605298 0 -0.41568341748301613 -0.38835343425844249 0 -0.4010050093901763 -0.38388859578840112 0 -0.40276018983932882 -0.40067327022605298 0 -0.42998320178334498 -0.38919176276493422 0 -0.41904846258806377 -0.40306422089865362 0 -0.41568341748301613 -0.38835343425844249 0 -0.41568341748301613 -0.38835343425844249 0 -0.4010050093901763 -0.38388859578840112 0 -0.41318416639337341 -0.37493061293067931 0 -0.42343107035509481 -0.38002811772054618 0 -0.41568341748301613 -0.38835343425844249 0 -0.41318416639337341 -0.37493061293067931 0 -0.4010050093901763 -0.38388859578840112 0 -0.38322806499834072 -0.38652733492945779 0 -0.39073975386499571 -0.37208624023447312 0 -0.4010050093901763 -0.38388859578840112 0 -0.41318416639337341 -0.37493061293067931 0 -0.40281370060773097 -0.36744083321568111 0 -0.4010050093901763 -0.38388859578840112 0 -0.39313995762081821 -0.39643423080630508 0 -0.38322806499834072 -0.38652733492945779 0 -0.4010050093901763 -0.38388859578840112 0 -0.39313995762081821 -0.39643423080630508 0 -0.40276018983932882 -0.40067327022605298 0 -0.39313995762081821 -0.39643423080630508 0 -0.40276018983932882 -0.40067327022605298 0 -0.39083701595812859 -0.40900434127330271 0 -0.39313995762081821 -0.39643423080630508 0 -0.38242533056388689 -0.40208065529948261 0 -0.39083701595812859 -0.40900434127330271 0 -0.38242533056388689 -0.40208065529948261 0 -0.38322806499834072 -0.38652733492945779 0 -0.36874589044708661 -0.40055001458110517 0 -0.39313995762081821 -0.39643423080630508 0 -0.38242533056388689 -0.40208065529948261 0 -0.38322806499834072 -0.38652733492945779 0 -0.38322806499834072 -0.38652733492945779 0 -0.37760973804258668 -0.37169635799637762 0 -0.37058967977293178 -0.38091132916519849 0 -0.38322806499834072 -0.38652733492945779 0 -0.39073975386499571 -0.37208624023447312 0 -0.37760973804258668 -0.37169635799637762 0 -0.41119244700740182 -0.42526126170771988 0 -0.39651669753125679 -0.42211824239579832 0 -0.39812986495495778 -0.44195197086453031 0 -0.41904846258806377 -0.40306422089865362 0 -0.40276018983932882 -0.40067327022605298 0 -0.39651669753125679 -0.42211824239579832 0 -0.40276018983932882 -0.40067327022605298 0 -0.39651669753125679 -0.42211824239579832 0 -0.39083701595812859 -0.40900434127330271 0 -0.38242533056388689 -0.40208065529948261 0 -0.39083701595812859 -0.40900434127330271 0 -0.37775612760568761 -0.41806783914888168 0 -0.38242533056388689 -0.40208065529948261 0 -0.37775612760568761 -0.41806783914888168 0 -0.36874589044708661 -0.40055001458110517 0 -0.39651669753125679 -0.42211824239579832 0 -0.39083701595812859 -0.40900434127330271 0 -0.37775612760568761 -0.41806783914888168 0 -0.39651669753125679 -0.42211824239579832 0 -0.37775612760568761 -0.41806783914888168 0 -0.37398493247445053 -0.44117226389294378 0 -0.39651669753125679 -0.42211824239579832 0 -0.37398493247445053 -0.44117226389294378 0 -0.39651669753125679 -0.42211824239579832 0 -0.39812986495495778 -0.44195197086453031 0 -0.37398493247445053 -0.44117226389294378 0 -0.39812986495495778 -0.44195197086453031 0 -0.37398493247445053 -0.44117226389294378 0 -0.39812986495495778 -0.44195197086453031 0 -0.38531775446970451 -0.46446644042050228 0 -0.37398493247445053 -0.44117226389294378 0 -0.38531775446970451 -0.46446644042050228 0 -0.40899835016348901 -0.47530853053086541 0 -0.40943122842669988 -0.45673255795936918 0 -0.39812986495495778 -0.44195197086453031 0 -0.38531775446970451 -0.46446644042050228 0 -0.40943122842669988 -0.45673255795936918 0 -0.38531775446970451 -0.46446644042050228 0 -0.38156860982797569 -0.5 0 -0.40899835016348901 -0.47530853053086541 0 -0.38156860982797569 -0.5 0 -0.43243467811010322 -0.5 0 -0.40899835016348901 -0.47530853053086541 0 -0.43243467811010322 -0.5 0 -0.40899835016348901 -0.47530853053086541 0 -0.42961604146339721 -0.46377633293523041 0 -0.44641972991597212 -0.44351138480770158 0 -0.42227479743546492 -0.442731677836116 0 -0.44641972991597212 -0.44351138480770158 0 -0.42961604146339721 -0.46377633293523041 0 -0.42227479743546492 -0.442731677836116 0 -0.44641972991597212 -0.44351138480770158 0 -0.43468603808943879 -0.43263081411211501 0 -0.42227479743546492 -0.442731677836116 0 -0.39812986495495778 -0.44195197086453031 0 -0.42227479743546492 -0.442731677836116 0 -0.39812986495495778 -0.44195197086453031 0 -0.42227479743546492 -0.442731677836116 0 -0.40943122842669988 -0.45673255795936918 0 -0.39812986495495778 -0.44195197086453031 0 -0.42227479743546492 -0.442731677836116 0 -0.4094918612154736 -0.44072831752927522 0 -0.40899835016348901 -0.47530853053086541 0 -0.42961604146339721 -0.46377633293523041 0 -0.40943122842669988 -0.45673255795936918 0 -0.42961604146339721 -0.46377633293523041 0 -0.42227479743546492 -0.442731677836116 0 -0.40943122842669988 -0.45673255795936918 0 -0.44001528067271861 -0.26093459673770841 0 -0.46509762212744987 -0.25567100856591463 0 -0.4513048570032604 -0.2473010332454415 0 -0.44001528067271861 -0.26093459673770841 0 -0.46509762212744987 -0.25567100856591463 0 -0.44001528067271861 -0.26093459673770841 0 -0.44026778773535891 -0.24889723690979251 0 -0.4513048570032604 -0.2473010332454415 0 -0.44001528067271861 -0.26093459673770841 0 -0.44046814543254298 -0.27025831273944428 0 -0.45043185791691032 -0.2714457381126873 0 -0.44046814543254298 -0.27025831273944428 0 -0.45043185791691032 -0.2714457381126873 0 -0.43716535046968952 -0.27803488725250908 0 -0.45503704385663329 -0.27108609073911738 0 -0.44536470840730558 -0.28710271781619828 0 -0.43716535046968952 -0.27803488725250908 0 -0.45503704385663329 -0.27108609073911738 0 -0.43716535046968952 -0.27803488725250908 0 -0.45043185791691032 -0.2714457381126873 0 -0.45503704385663329 -0.27108609073911738 0 -0.43716535046968952 -0.27803488725250908 0 -0.44001528067271861 -0.26093459673770841 0 -0.45043185791691032 -0.2714457381126873 0 -0.45503704385663329 -0.27108609073911738 0 -0.45043185791691032 -0.2714457381126873 0 -0.45503704385663329 -0.27108609073911738 0 -0.45503704385663329 -0.27108609073911738 0 -0.47751852192831712 -0.26933037345684108 0 -0.46887271944370862 -0.28245463093074158 0 -0.45503704385663329 -0.27108609073911738 0 -0.47751852192831712 -0.26933037345684108 0 -0.45503704385663329 -0.27108609073911738 0 -0.46887271944370862 -0.28245463093074158 0 -0.45731892343062752 -0.28862522017565567 0 -0.45503704385663329 -0.27108609073911738 0 -0.47751852192831612 -0.26234493716972479 0 -0.44001528067271861 -0.26093459673770841 0 -0.45503704385663329 -0.27108609073911738 0 -0.46509762212744987 -0.25567100856591463 0 -0.45503704385663329 -0.27108609073911738 0 -0.46509762212744987 -0.25567100856591463 0 -0.47751852192831612 -0.26234493716972479 0 -0.46509762212744987 -0.25567100856591463 0 -0.4901799635821813 -0.25040742039412078 0 -0.46509762212744987 -0.25567100856591463 0 -0.47751852192831612 -0.26234493716972479 0 -0.4901799635821813 -0.25040742039412078 0 -0.47751852192831612 -0.26234493716972479 0 -0.49999999999999878 -0.25360378360033198 0 -0.47751852192831612 -0.26234493716972479 0 -0.49999999999999878 -0.25360378360033198 0 -0.4901799635821813 -0.25040742039412078 0 -0.47751852192831612 -0.26234493716972479 0 -0.49999999999999878 -0.25360378360033198 0 -0.50000000000000089 -0.26757465617456538 0 -0.47751852192831612 -0.26234493716972479 0 -0.50000000000000089 -0.26757465617456538 0 -0.47751852192831712 -0.26933037345684108 0 -0.50000000000000089 -0.26757465617456538 0 -0.47751852192831712 -0.26933037345684108 0 -0.50000000000000089 -0.26757465617456538 0 -0.47751852192831712 -0.26933037345684108 0 -0.48316669920486122 -0.28634034348290849 0 -0.47751852192831712 -0.26933037345684108 0 -0.48316669920486122 -0.28634034348290849 0 -0.46887271944370862 -0.28245463093074158 0 -0.45503704385663329 -0.27108609073911738 0 -0.47751852192831612 -0.26234493716972479 0 -0.47751852192831712 -0.26933037345684108 0 -0.48316669920486122 -0.28634034348290849 0 -0.48410587242105169 -0.30514062356135602 0 -0.46850308143608937 -0.2987025693789388 0 -0.48316669920486122 -0.28634034348290849 0 -0.46887271944370862 -0.28245463093074158 0 -0.46850308143608937 -0.2987025693789388 0 -0.48316669920486122 -0.28634034348290849 0 -0.5 -0.29483920739500818 0 -0.48410587242105169 -0.30514062356135602 0 -0.50000000000000089 -0.26757465617456538 0 -0.48316669920486122 -0.28634034348290849 0 -0.5 -0.29483920739500818 0 -0.5 -0.29483920739500818 0 -0.48410587242105169 -0.30514062356135602 0 -0.5 -0.32210375861545099 0 -0.48410587242105169 -0.30514062356135602 0 -0.46850308143608937 -0.2987025693789388 0 -0.46359486444373582 -0.31543997589187689 0 -0.46850308143608937 -0.2987025693789388 0 -0.45178080728915992 -0.30000421941208888 0 -0.46359486444373582 -0.31543997589187689 0 -0.46850308143608937 -0.2987025693789388 0 -0.45731892343062752 -0.28862522017565567 0 -0.45178080728915992 -0.30000421941208888 0 -0.46887271944370862 -0.28245463093074158 0 -0.46850308143608937 -0.2987025693789388 0 -0.45731892343062752 -0.28862522017565567 0 -0.45503704385663329 -0.27108609073911738 0 -0.45731892343062752 -0.28862522017565567 0 -0.44536470840730558 -0.28710271781619828 0 -0.45731892343062752 -0.28862522017565567 0 -0.44536470840730558 -0.28710271781619828 0 -0.45178080728915992 -0.30000421941208888 0 -0.44536470840730558 -0.28710271781619828 0 -0.43301686150169449 -0.28852410020761388 0 -0.43716535046968952 -0.27803488725250908 0 -0.44536470840730558 -0.28710271781619828 0 -0.4378692638960287 -0.29634178911020492 0 -0.45178080728915992 -0.30000421941208888 0 -0.44536470840730558 -0.28710271781619828 0 -0.4378692638960287 -0.29634178911020492 0 -0.43301686150169449 -0.28852410020761388 0 -0.45178080728915992 -0.30000421941208888 0 -0.44012435573578279 -0.31298615984718731 0 -0.46359486444373582 -0.31543997589187689 0 -0.4378692638960287 -0.29634178911020492 0 -0.45178080728915992 -0.30000421941208888 0 -0.44012435573578279 -0.31298615984718731 0 -0.44012435573578279 -0.31298615984718731 0 -0.4530064592074825 -0.33030342799797652 0 -0.44012435573578279 -0.31298615984718731 0 -0.4530064592074825 -0.33030342799797652 0 -0.46359486444373582 -0.31543997589187689 0 -0.4530064592074825 -0.33030342799797652 0 -0.43475811547963622 -0.32290022936595142 0 -0.44012435573578279 -0.31298615984718731 0 -0.4530064592074825 -0.33030342799797652 0 -0.43475811547963622 -0.32290022936595142 0 -0.43987746906356062 -0.33274498717380457 0 -0.4530064592074825 -0.33030342799797652 0 -0.43475811547963622 -0.32290022936595142 0 -0.43987746906356062 -0.33274498717380457 0 -0.44371021538307559 -0.34214225942037241 0 -0.4530064592074825 -0.33030342799797652 0 -0.4530064592074825 -0.33030342799797652 0 -0.46900798568822077 -0.33679511188552241 0 -0.46330732122780621 -0.34415076202864597 0 -0.44371021538307559 -0.34214225942037241 0 -0.4530064592074825 -0.33030342799797652 0 -0.46330732122780621 -0.34415076202864597 0 -0.4530064592074825 -0.33030342799797652 0 -0.46900798568822077 -0.33679511188552241 0 -0.4530064592074825 -0.33030342799797652 0 -0.46330732122780621 -0.34415076202864597 0 -0.4530064592074825 -0.33030342799797652 0 -0.46359486444373582 -0.31543997589187689 0 -0.46900798568822077 -0.33679511188552241 0 -0.46359486444373582 -0.31543997589187689 0 -0.48050952610403519 -0.32102294327928571 0 -0.46900798568822077 -0.33679511188552241 0 -0.48410587242105169 -0.30514062356135602 0 -0.46359486444373582 -0.31543997589187689 0 -0.48050952610403519 -0.32102294327928571 0 -0.48050952610403519 -0.32102294327928571 0 -0.48698088710958248 -0.32882702121383689 0 -0.48113961033634611 -0.33414085708524971 0 -0.48410587242105169 -0.30514062356135602 0 -0.48050952610403519 -0.32102294327928571 0 -0.5 -0.32210375861545099 0 -0.48050952610403519 -0.32102294327928571 0 -0.5 -0.32210375861545099 0 -0.48698088710958248 -0.32882702121383689 0 -0.5 -0.32210375861545099 0 -0.48844066618528648 -0.33885952791569351 0 -0.50000000000000133 -0.34936830983589401 0 -0.5 -0.32210375861545099 0 -0.48698088710958248 -0.32882702121383689 0 -0.48844066618528648 -0.33885952791569351 0 -0.48698088710958248 -0.32882702121383689 0 -0.48844066618528648 -0.33885952791569351 0 -0.48113961033634611 -0.33414085708524971 0 -0.48844066618528648 -0.33885952791569351 0 -0.48500951216895849 -0.34328679577306981 0 -0.48113961033634611 -0.33414085708524971 0 -0.48844066618528648 -0.33885952791569351 0 -0.48500951216895849 -0.34328679577306981 0 -0.48050952610403519 -0.32102294327928571 0 -0.46900798568822077 -0.33679511188552241 0 -0.48113961033634611 -0.33414085708524971 0 -0.48500951216895849 -0.34328679577306981 0 -0.46900798568822077 -0.33679511188552241 0 -0.48500951216895849 -0.34328679577306981 0 -0.46900798568822077 -0.33679511188552241 0 -0.48113961033634611 -0.33414085708524971 0 -0.48500951216895849 -0.34328679577306981 0 -0.46900798568822077 -0.33679511188552241 0 -0.47360818324812992 -0.35799809605931548 0 -0.48500951216895849 -0.34328679577306981 0 -0.47360818324812992 -0.35799809605931548 0 -0.4890908996370868 -0.36039531268514569 0 -0.48500951216895849 -0.34328679577306981 0 -0.47360818324812992 -0.35799809605931548 0 -0.48844066618528648 -0.33885952791569351 0 -0.48500951216895849 -0.34328679577306981 0 -0.50000000000000133 -0.34936830983589401 0 -0.48500951216895849 -0.34328679577306981 0 -0.50000000000000133 -0.34936830983589401 0 -0.4890908996370868 -0.36039531268514569 0 -0.48500951216895849 -0.34328679577306981 0 -0.50000000000000133 -0.34936830983589401 0 -0.50000000000000133 -0.34936830983589401 0 -0.5 -0.37142231553439942 0 -0.4890908996370868 -0.36039531268514569 0 -0.48680409162406041 -0.37573720864611132 0 -0.5 -0.37142231553439942 0 -0.4890908996370868 -0.36039531268514569 0 -0.48680409162406041 -0.37573720864611132 0 -0.47360818324812992 -0.35799809605931548 0 -0.48680409162406041 -0.37573720864611132 0 -0.47360818324812992 -0.35799809605931548 0 -0.4632887861563576 -0.37131336399380382 0 -0.48680409162406041 -0.37573720864611132 0 -0.47360818324812992 -0.35799809605931548 0 -0.4890908996370868 -0.36039531268514569 0 -0.4632887861563576 -0.37131336399380382 0 -0.45393071014682351 -0.37393450826071412 0 -0.45032302554610398 -0.36473823626675589 0 -0.4632887861563576 -0.37131336399380382 0 -0.4608544740592887 -0.35752954495523548 0 -0.45032302554610398 -0.36473823626675589 0 -0.47360818324812992 -0.35799809605931548 0 -0.4632887861563576 -0.37131336399380382 0 -0.47360818324812992 -0.35799809605931548 0 -0.4632887861563576 -0.37131336399380382 0 -0.4608544740592887 -0.35752954495523548 0 -0.47360818324812992 -0.35799809605931548 0 -0.46330732122780621 -0.34415076202864597 0 -0.4608544740592887 -0.35752954495523548 0 -0.46900798568822077 -0.33679511188552241 0 -0.47360818324812992 -0.35799809605931548 0 -0.46330732122780621 -0.34415076202864597 0 -0.47360818324812992 -0.35799809605931548 0 -0.46330732122780621 -0.34415076202864597 0 -0.46330732122780621 -0.34415076202864597 0 -0.4608544740592887 -0.35752954495523548 0 -0.45120237581430639 -0.35317739560016997 0 -0.4608544740592887 -0.35752954495523548 0 -0.45120237581430639 -0.35317739560016997 0 -0.45032302554610398 -0.36473823626675589 0 -0.45120237581430639 -0.35317739560016997 0 -0.43781684285525752 -0.35732617532984018 0 -0.45032302554610398 -0.36473823626675589 0 -0.44371021538307559 -0.34214225942037241 0 -0.46330732122780621 -0.34415076202864597 0 -0.45120237581430639 -0.35317739560016997 0 -0.44371021538307559 -0.34214225942037241 0 -0.45120237581430639 -0.35317739560016997 0 -0.43781684285525752 -0.35732617532984018 0 -0.44759859952646641 -0.37901831874876279 0 -0.42883914764267111 -0.35942224271609169 0 -0.44759859952646641 -0.37901831874876279 0 -0.43781684285525752 -0.35732617532984018 0 -0.42883914764267111 -0.35942224271609169 0 -0.44759859952646641 -0.37901831874876279 0 -0.43781684285525752 -0.35732617532984018 0 -0.44759859952646641 -0.37901831874876279 0 -0.43781684285525752 -0.35732617532984018 0 -0.45032302554610398 -0.36473823626675589 0 -0.44759859952646641 -0.37901831874876279 0 -0.45393071014682351 -0.37393450826071412 0 -0.45032302554610398 -0.36473823626675589 0 -0.44759859952646641 -0.37901831874876279 0 -0.42883914764267111 -0.35942224271609169 0 -0.43305143215737668 -0.3741671062425001 0 -0.42883914764267111 -0.35942224271609169 0 -0.42230525084936388 -0.3680617486079818 0 -0.41974780118676802 -0.35800390104129481 0 -0.42343107035509481 -0.38002811772054618 0 -0.42230525084936388 -0.3680617486079818 0 -0.43305143215737668 -0.3741671062425001 0 -0.42883914764267111 -0.35942224271609169 0 -0.42230525084936388 -0.3680617486079818 0 -0.43305143215737668 -0.3741671062425001 0 -0.43781684285525752 -0.35732617532984018 0 -0.42803508618404928 -0.33563403191091751 0 -0.43781684285525752 -0.35732617532984018 0 -0.42149119627327392 -0.34958266196610971 0 -0.42803508618404928 -0.33563403191091751 0 -0.44371021538307559 -0.34214225942037241 0 -0.43781684285525752 -0.35732617532984018 0 -0.42803508618404928 -0.33563403191091751 0 -0.43781684285525752 -0.35732617532984018 0 -0.42883914764267111 -0.35942224271609169 0 -0.42149119627327392 -0.34958266196610971 0 -0.42883914764267111 -0.35942224271609169 0 -0.41974780118676802 -0.35800390104129481 0 -0.42149119627327392 -0.34958266196610971 0 -0.41974780118676802 -0.35800390104129481 0 -0.40889506899598321 -0.35335800742073858 0 -0.41394743254925082 -0.36404217749800621 0 -0.41974780118676802 -0.35800390104129481 0 -0.42149119627327392 -0.34958266196610971 0 -0.40889506899598321 -0.35335800742073858 0 -0.42149119627327392 -0.34958266196610971 0 -0.40889506899598321 -0.35335800742073858 0 -0.41211462834054752 -0.34010177466738217 0 -0.40889506899598321 -0.35335800742073858 0 -0.39866001076229007 -0.34395989613897637 0 -0.41211462834054752 -0.34010177466738217 0 -0.40889506899598321 -0.35335800742073858 0 -0.41394743254925082 -0.36404217749800621 0 -0.40281370060773097 -0.36744083321568111 0 -0.42230525084936388 -0.3680617486079818 0 -0.41974780118676802 -0.35800390104129481 0 -0.41394743254925082 -0.36404217749800621 0 -0.42230525084936388 -0.3680617486079818 0 -0.41394743254925082 -0.36404217749800621 0 -0.41318416639337341 -0.37493061293067931 0 -0.42343107035509481 -0.38002811772054618 0 -0.42230525084936388 -0.3680617486079818 0 -0.41318416639337341 -0.37493061293067931 0 -0.41394743254925082 -0.36404217749800621 0 -0.41318416639337341 -0.37493061293067931 0 -0.40281370060773097 -0.36744083321568111 0 -0.4010050093901763 -0.38388859578840112 0 -0.40281370060773097 -0.36744083321568111 0 -0.39073975386499571 -0.37208624023447312 0 -0.40889506899598321 -0.35335800742073858 0 -0.40281370060773097 -0.36744083321568111 0 -0.39544015818806427 -0.35794939981423629 0 -0.40281370060773097 -0.36744083321568111 0 -0.39073975386499571 -0.37208624023447312 0 -0.39544015818806427 -0.35794939981423629 0 -0.39073975386499571 -0.37208624023447312 0 -0.38476471997221051 -0.36159383055531419 0 -0.37760973804258668 -0.37169635799637762 0 -0.39073975386499571 -0.37208624023447312 0 -0.38476471997221051 -0.36159383055531419 0 -0.39544015818806427 -0.35794939981423629 0 -0.38476471997221051 -0.36159383055531419 0 -0.37760973804258668 -0.37169635799637762 0 -0.37230719335545681 -0.35957563947386612 0 -0.37583852677134771 -0.34951965612553609 0 -0.38026228990118849 -0.35487658449352588 0 -0.38676769492517588 -0.34925759132023471 0 -0.37583852677134771 -0.34951965612553609 0 -0.3797483271868376 -0.34114489802327658 0 -0.36957932596601889 -0.34390221118418601 0 -0.37583852677134771 -0.34951965612553609 0 -0.38676769492517588 -0.34925759132023471 0 -0.3797483271868376 -0.34114489802327658 0 -0.37583852677134771 -0.34951965612553609 0 -0.38026228990118849 -0.35487658449352588 0 -0.37230719335545681 -0.35957563947386612 0 -0.38476471997221051 -0.36159383055531419 0 -0.38026228990118849 -0.35487658449352588 0 -0.37230719335545681 -0.35957563947386612 0 -0.38476471997221051 -0.36159383055531419 0 -0.38676769492517588 -0.34925759132023471 0 -0.39544015818806427 -0.35794939981423629 0 -0.38476471997221051 -0.36159383055531419 0 -0.38026228990118849 -0.35487658449352588 0 -0.38676769492517588 -0.34925759132023471 0 -0.38676769492517588 -0.34925759132023471 0 -0.39544015818806427 -0.35794939981423629 0 -0.39866001076229007 -0.34395989613897637 0 -0.40889506899598321 -0.35335800742073858 0 -0.39544015818806427 -0.35794939981423629 0 -0.39866001076229007 -0.34395989613897637 0 -0.39866001076229007 -0.34395989613897637 0 -0.4010748120205575 -0.33055216125512638 0 -0.41211462834054752 -0.34010177466738217 0 -0.4010748120205575 -0.33055216125512638 0 -0.38905890586361053 -0.33766358157731308 0 -0.38876852246673882 -0.32831332156648552 0 -0.39866001076229007 -0.34395989613897637 0 -0.4010748120205575 -0.33055216125512638 0 -0.38905890586361053 -0.33766358157731308 0 -0.38676769492517588 -0.34925759132023471 0 -0.39866001076229007 -0.34395989613897637 0 -0.38905890586361053 -0.33766358157731308 0 -0.38905890586361053 -0.33766358157731308 0 -0.38307960654632028 -0.33007157063792109 0 -0.3797483271868376 -0.34114489802327658 0 -0.38676769492517588 -0.34925759132023471 0 -0.38905890586361053 -0.33766358157731308 0 -0.3797483271868376 -0.34114489802327658 0 -0.38905890586361053 -0.33766358157731308 0 -0.38307960654632028 -0.33007157063792109 0 -0.38876852246673882 -0.32831332156648552 0 -0.38307960654632028 -0.33007157063792109 0 -0.3797483271868376 -0.34114489802327658 0 -0.37416590304855241 -0.33645477729446882 0 -0.38110697501775942 -0.31482095510805053 0 -0.37416590304855241 -0.33645477729446882 0 -0.38307960654632028 -0.33007157063792109 0 -0.38110697501775942 -0.31482095510805053 0 -0.37416590304855241 -0.33645477729446882 0 -0.38110697501775942 -0.31482095510805053 0 -0.37416590304855241 -0.33645477729446882 0 -0.37090307576328008 -0.32994515279791697 0 -0.38110697501775942 -0.31482095510805053 0 -0.37803733527379912 -0.31147507505467598 0 -0.37090307576328008 -0.32994515279791697 0 -0.38307960654632028 -0.33007157063792109 0 -0.38110697501775942 -0.31482095510805053 0 -0.38704447123413099 -0.32128382989355792 0 -0.38876852246673882 -0.32831332156648552 0 -0.38704447123413099 -0.32128382989355792 0 -0.39424100264548489 -0.31953299873526309 0 -0.38307960654632028 -0.33007157063792109 0 -0.38876852246673882 -0.32831332156648552 0 -0.38704447123413099 -0.32128382989355792 0 -0.38110697501775942 -0.31482095510805053 0 -0.38704447123413099 -0.32128382989355792 0 -0.39057681461880739 -0.31099199244281339 0 -0.38704447123413099 -0.32128382989355792 0 -0.39424100264548489 -0.31953299873526309 0 -0.39057681461880739 -0.31099199244281339 0 -0.4010748120205575 -0.33055216125512638 0 -0.40495620918006758 -0.31252783968320291 0 -0.4010748120205575 -0.33055216125512638 0 -0.39424100264548489 -0.31953299873526309 0 -0.40495620918006758 -0.31252783968320291 0 -0.39424100264548489 -0.31953299873526309 0 -0.39680002058442221 -0.31201222363361403 0 -0.39057681461880739 -0.31099199244281339 0 -0.4010748120205575 -0.33055216125512638 0 -0.38876852246673882 -0.32831332156648552 0 -0.39424100264548489 -0.31953299873526309 0 -0.39424100264548489 -0.31953299873526309 0 -0.40495620918006758 -0.31252783968320291 0 -0.39680002058442221 -0.31201222363361403 0 -0.4010748120205575 -0.33055216125512638 0 -0.40495620918006758 -0.31252783968320291 0 -0.41453159580713123 -0.3275238893124251 0 -0.40495620918006758 -0.31252783968320291 0 -0.41650977175178933 -0.31549703073392782 0 -0.41453159580713123 -0.3275238893124251 0 -0.41650977175178933 -0.31549703073392782 0 -0.41453159580713123 -0.3275238893124251 0 -0.4234586423056515 -0.32538879533080539 0 -0.4010748120205575 -0.33055216125512638 0 -0.41453159580713123 -0.3275238893124251 0 -0.41211462834054752 -0.34010177466738217 0 -0.42149119627327392 -0.34958266196610971 0 -0.41211462834054752 -0.34010177466738217 0 -0.42803508618404928 -0.33563403191091751 0 -0.41453159580713123 -0.3275238893124251 0 -0.41211462834054752 -0.34010177466738217 0 -0.42803508618404928 -0.33563403191091751 0 -0.43987746906356062 -0.33274498717380457 0 -0.44371021538307559 -0.34214225942037241 0 -0.42803508618404928 -0.33563403191091751 0 -0.41453159580713123 -0.3275238893124251 0 -0.42803508618404928 -0.33563403191091751 0 -0.4234586423056515 -0.32538879533080539 0 -0.43987746906356062 -0.33274498717380457 0 -0.42803508618404928 -0.33563403191091751 0 -0.43475811547963622 -0.32290022936595142 0 -0.41650977175178933 -0.31549703073392782 0 -0.43475811547963622 -0.32290022936595142 0 -0.42777700020861648 -0.31035108532378192 0 -0.41650977175178933 -0.31549703073392782 0 -0.43475811547963622 -0.32290022936595142 0 -0.41650977175178933 -0.31549703073392782 0 -0.43475811547963622 -0.32290022936595142 0 -0.4234586423056515 -0.32538879533080539 0 -0.44012435573578279 -0.31298615984718731 0 -0.43475811547963622 -0.32290022936595142 0 -0.42777700020861648 -0.31035108532378192 0 -0.42803508618404928 -0.33563403191091751 0 -0.43475811547963622 -0.32290022936595142 0 -0.4234586423056515 -0.32538879533080539 0 -0.4378692638960287 -0.29634178911020492 0 -0.44012435573578279 -0.31298615984718731 0 -0.42724225226408341 -0.29566889169639782 0 -0.44012435573578279 -0.31298615984718731 0 -0.42777700020861648 -0.31035108532378192 0 -0.42724225226408341 -0.29566889169639782 0 -0.44012435573578279 -0.31298615984718731 0 -0.42724225226408341 -0.29566889169639782 0 -0.42777700020861648 -0.31035108532378192 0 -0.42724225226408341 -0.29566889169639782 0 -0.41706456794882768 -0.30570967310971808 0 -0.4378692638960287 -0.29634178911020492 0 -0.42724225226408341 -0.29566889169639782 0 -0.43301686150169449 -0.28852410020761388 0 -0.41929365708274452 -0.28498368376589728 0 -0.43716535046968952 -0.27803488725250908 0 -0.4378692638960287 -0.29634178911020492 0 -0.43301686150169449 -0.28852410020761388 0 -0.42724225226408341 -0.29566889169639782 0 -0.41929365708274452 -0.28498368376589728 0 -0.43716535046968952 -0.27803488725250908 0 -0.43301686150169449 -0.28852410020761388 0 -0.42724225226408341 -0.29566889169639782 0 -0.41929365708274452 -0.28498368376589728 0 -0.42724225226408341 -0.29566889169639782 0 -0.41929365708274452 -0.28498368376589728 0 -0.42724225226408341 -0.29566889169639782 0 -0.40883760633958111 -0.29450351811128012 0 -0.42724225226408341 -0.29566889169639782 0 -0.41929365708274452 -0.28498368376589728 0 -0.40883760633958111 -0.29450351811128012 0 -0.41929365708274452 -0.28498368376589728 0 -0.4101194896545195 -0.28855074488642479 0 -0.41929365708274452 -0.28498368376589728 0 -0.41051070567004277 -0.28673402709689499 0 -0.41277473879621918 -0.27622037455410092 0 -0.41051070567004277 -0.28673402709689499 0 -0.41277473879621918 -0.27622037455410092 0 -0.41929365708274452 -0.28498368376589728 0 -0.41051070567004277 -0.28673402709689499 0 -0.4101194896545195 -0.28855074488642479 0 -0.41051070567004277 -0.28673402709689499 0 -0.4101194896545195 -0.28855074488642479 0 -0.41051070567004277 -0.28673402709689499 0 -0.40756189904314138 -0.28954517649054062 0 -0.40378776791343979 -0.28561452291400269 0 -0.41051070567004277 -0.28673402709689499 0 -0.4101194896545195 -0.28855074488642479 0 -0.40756189904314138 -0.28954517649054062 0 -0.4101194896545195 -0.28855074488642479 0 -0.40756189904314138 -0.28954517649054062 0 -0.41929365708274452 -0.28498368376589728 0 -0.4101194896545195 -0.28855074488642479 0 -0.40883760633958111 -0.29450351811128012 0 -0.4101194896545195 -0.28855074488642479 0 -0.40883760633958111 -0.29450351811128012 0 -0.4101194896545195 -0.28855074488642479 0 -0.40756189904314138 -0.28954517649054062 0 -0.40883760633958111 -0.29450351811128012 0 -0.42724225226408341 -0.29566889169639782 0 -0.40883760633958111 -0.29450351811128012 0 -0.41706456794882768 -0.30570967310971808 0 -0.40495620918006758 -0.31252783968320291 0 -0.40883760633958111 -0.29450351811128012 0 -0.40495620918006758 -0.31252783968320291 0 -0.40883760633958111 -0.29450351811128012 0 -0.41706456794882768 -0.30570967310971808 0 -0.41650977175178933 -0.31549703073392782 0 -0.42777700020861648 -0.31035108532378192 0 -0.41706456794882768 -0.30570967310971808 0 -0.40495620918006758 -0.31252783968320291 0 -0.41650977175178933 -0.31549703073392782 0 -0.41706456794882768 -0.30570967310971808 0 -0.39742605589332908 -0.30499606367317661 0 -0.39057681461880739 -0.31099199244281339 0 -0.38804804698696582 -0.29318713292163212 0 -0.40495620918006758 -0.31252783968320291 0 -0.40883760633958111 -0.29450351811128012 0 -0.39742605589332908 -0.30499606367317661 0 -0.40883760633958111 -0.29450351811128012 0 -0.39742605589332908 -0.30499606367317661 0 -0.38804804698696582 -0.29318713292163212 0 -0.40495620918006758 -0.31252783968320291 0 -0.39680002058442221 -0.31201222363361403 0 -0.39742605589332908 -0.30499606367317661 0 -0.39680002058442221 -0.31201222363361403 0 -0.39742605589332908 -0.30499606367317661 0 -0.39057681461880739 -0.31099199244281339 0 -0.38110697501775942 -0.31482095510805053 0 -0.39057681461880739 -0.31099199244281339 0 -0.38804804698696582 -0.29318713292163212 0 -0.38110697501775942 -0.31482095510805053 0 -0.38804804698696582 -0.29318713292163212 0 -0.37803733527379912 -0.31147507505467598 0 -0.38517159478431878 -0.29300499731143531 0 -0.37760613264264742 -0.30635091743336601 0 -0.37803733527379912 -0.31147507505467598 0 -0.38517159478431878 -0.29300499731143531 0 -0.37803733527379912 -0.31147507505467598 0 -0.38517159478431878 -0.29300499731143531 0 -0.38804804698696582 -0.29318713292163212 0 -0.37760613264264742 -0.30635091743336601 0 -0.37595077083013162 -0.2924211390447079 0 -0.37185221155369741 -0.30862366839549671 0 -0.38110697501775942 -0.31482095510805053 0 -0.37803733527379912 -0.31147507505467598 0 -0.38804804698696582 -0.29318713292163212 0 -0.37760613264264742 -0.30635091743336601 0 -0.38517159478431878 -0.29300499731143531 0 -0.37760613264264742 -0.30635091743336601 0 -0.37595077083013162 -0.2924211390447079 0 -0.38517159478431878 -0.29300499731143531 0 -0.37760613264264742 -0.30635091743336601 0 -0.37803733527379912 -0.31147507505467598 0 -0.37185221155369741 -0.30862366839549671 0 -0.37595077083013162 -0.2924211390447079 0 -0.38681630207590839 -0.27651902042644622 0 -0.37595077083013162 -0.2924211390447079 0 -0.38575281646102338 -0.29150025676492392 0 -0.38681630207590839 -0.27651902042644622 0 -0.37595077083013162 -0.2924211390447079 0 -0.38681630207590839 -0.27651902042644622 0 -0.37031320078646762 -0.27846848210196018 0 -0.37595077083013162 -0.2924211390447079 0 -0.38517159478431878 -0.29300499731143531 0 -0.37595077083013162 -0.2924211390447079 0 -0.38575281646102338 -0.29150025676492392 0 -0.38517159478431878 -0.29300499731143531 0 -0.38575281646102338 -0.29150025676492392 0 -0.38517159478431878 -0.29300499731143531 0 -0.38804804698696582 -0.29318713292163212 0 -0.38575281646102338 -0.29150025676492392 0 -0.38517159478431878 -0.29300499731143531 0 -0.38517159478431878 -0.29300499731143531 0 -0.38804804698696582 -0.29318713292163212 0 -0.38575281646102338 -0.29150025676492392 0 -0.39171732489135441 -0.27605857928655431 0 -0.38804804698696582 -0.29318713292163212 0 -0.39258547934107563 -0.27904493627431609 0 -0.38575281646102338 -0.29150025676492392 0 -0.39171732489135441 -0.27605857928655431 0 -0.38681630207590839 -0.27651902042644622 0 -0.38575281646102338 -0.29150025676492392 0 -0.39258547934107563 -0.27904493627431609 0 -0.38575281646102338 -0.29150025676492392 0 -0.39258547934107563 -0.27904493627431609 0 -0.39171732489135441 -0.27605857928655431 0 -0.38575281646102338 -0.29150025676492392 0 -0.38804804698696582 -0.29318713292163212 0 -0.39258547934107563 -0.27904493627431609 0 -0.38804804698696582 -0.29318713292163212 0 -0.39716676837128573 -0.28562550355181832 0 -0.39258547934107563 -0.27904493627431609 0 -0.40883760633958111 -0.29450351811128012 0 -0.38804804698696582 -0.29318713292163212 0 -0.40883760633958111 -0.29450351811128012 0 -0.38804804698696582 -0.29318713292163212 0 -0.40178332606280259 -0.28912619571996029 0 -0.38804804698696582 -0.29318713292163212 0 -0.39716676837128573 -0.28562550355181832 0 -0.40178332606280259 -0.28912619571996029 0 -0.40756189904314138 -0.28954517649054062 0 -0.40883760633958111 -0.29450351811128012 0 -0.40178332606280259 -0.28912619571996029 0 -0.41051070567004277 -0.28673402709689499 0 -0.40378776791343979 -0.28561452291400269 0 -0.40191614041992668 -0.27704171171079922 0 -0.39716676837128573 -0.28562550355181832 0 -0.40378776791343979 -0.28561452291400269 0 -0.40191614041992668 -0.27704171171079922 0 -0.39716676837128573 -0.28562550355181832 0 -0.40178332606280259 -0.28912619571996029 0 -0.40378776791343979 -0.28561452291400269 0 -0.40756189904314138 -0.28954517649054062 0 -0.40178332606280259 -0.28912619571996029 0 -0.40378776791343979 -0.28561452291400269 0 -0.39716676837128573 -0.28562550355181832 0 -0.39878436210857771 -0.26774493905385471 0 -0.39258547934107563 -0.27904493627431609 0 -0.39716676837128573 -0.28562550355181832 0 -0.39878436210857771 -0.26774493905385471 0 -0.39878436210857771 -0.26774493905385471 0 -0.39258547934107563 -0.27904493627431609 0 -0.3976818333216855 -0.26061690180818448 0 -0.39258547934107563 -0.27904493627431609 0 -0.39171732489135441 -0.27605857928655431 0 -0.3976818333216855 -0.26061690180818448 0 -0.39258547934107563 -0.27904493627431609 0 -0.3976818333216855 -0.26061690180818448 0 -0.39716676837128573 -0.28562550355181832 0 -0.40191614041992668 -0.27704171171079922 0 -0.39878436210857771 -0.26774493905385471 0 -0.38681630207590839 -0.27651902042644622 0 -0.3976818333216855 -0.26061690180818448 0 -0.39171732489135441 -0.27605857928655431 0 -0.38681630207590839 -0.27651902042644622 0 -0.3976818333216855 -0.26061690180818448 0 -0.40191614041992668 -0.27704171171079922 0 -0.40284754970616071 -0.27037014583580099 0 -0.39878436210857771 -0.26774493905385471 0 -0.40191614041992668 -0.27704171171079922 0 -0.40284754970616071 -0.27037014583580099 0 -0.40668925652127558 -0.26801088116308858 0 -0.40235693430293779 -0.26788688673875732 0 -0.40284754970616071 -0.27037014583580099 0 -0.40668925652127558 -0.26801088116308858 0 -0.40235693430293779 -0.26788688673875732 0 -0.40204644849744681 -0.26179845345157687 0 -0.40668925652127558 -0.26801088116308858 0 -0.40235693430293779 -0.26788688673875732 0 -0.39878436210857771 -0.26774493905385471 0 -0.40204644849744681 -0.26179845345157687 0 -0.40235693430293779 -0.26788688673875732 0 -0.40284754970616071 -0.27037014583580099 0 -0.39878436210857771 -0.26774493905385471 0 -0.39171732489135441 -0.27605857928655431 0 -0.3976818333216855 -0.26061690180818448 0 -0.39878436210857771 -0.26774493905385471 0 -0.39258547934107563 -0.27904493627431609 0 -0.38681630207590839 -0.27651902042644622 0 -0.37464078170421661 -0.25976692688389641 0 -0.37031320078646762 -0.27846848210196018 0 -0.38681630207590839 -0.27651902042644622 0 -0.38857739243166722 -0.25778465639468862 0 -0.37464078170421661 -0.25976692688389641 0 -0.38857739243166722 -0.25778465639468862 0 -0.37464078170421661 -0.25976692688389641 0 -0.38559113356297031 -0.23967775694793131 0 -0.38681630207590839 -0.27651902042644622 0 -0.38857739243166722 -0.25778465639468862 0 -0.3976818333216855 -0.26061690180818448 0 -0.38857739243166722 -0.25778465639468862 0 -0.39961768961399352 -0.25853349994839342 0 -0.38559113356297031 -0.23967775694793131 0 -0.39961768961399352 -0.25853349994839342 0 -0.39996363544382119 -0.25470948247077319 0 -0.38559113356297031 -0.23967775694793131 0 -0.38857739243166722 -0.25778465639468862 0 -0.3976818333216855 -0.26061690180818448 0 -0.39961768961399352 -0.25853349994839342 0 -0.39878436210857771 -0.26774493905385471 0 -0.3976818333216855 -0.26061690180818448 0 -0.39961768961399352 -0.25853349994839342 0 -0.39878436210857771 -0.26774493905385471 0 -0.40204644849744681 -0.26179845345157687 0 -0.39961768961399352 -0.25853349994839342 0 -0.40204644849744681 -0.26179845345157687 0 -0.40452832316658671 -0.25727422256761118 0 -0.40668925652127558 -0.26801088116308858 0 -0.40452832316658671 -0.25727422256761118 0 -0.40668925652127558 -0.26801088116308858 0 -0.39878436210857771 -0.26774493905385471 0 -0.39961768961399352 -0.25853349994839342 0 -0.39878436210857771 -0.26774493905385471 0 -0.40204644849744681 -0.26179845345157687 0 -0.40204644849744681 -0.26179845345157687 0 -0.39961768961399352 -0.25853349994839342 0 -0.40452832316658671 -0.25727422256761118 0 -0.40204644849744681 -0.26179845345157687 0 -0.39961768961399352 -0.25853349994839342 0 -0.3976818333216855 -0.26061690180818448 0 -0.39961768961399352 -0.25853349994839342 0 -0.40204644849744681 -0.26179845345157687 0 -0.40452832316658671 -0.25727422256761118 0 -0.40204644849744681 -0.26179845345157687 0 -0.40668925652127558 -0.26801088116308858 0 -0.39996363544382119 -0.25470948247077319 0 -0.40261408032847162 -0.2478476738974372 0 -0.39996363544382119 -0.25470948247077319 0 -0.40348301069881398 -0.25212665787165761 0 -0.40261408032847162 -0.2478476738974372 0 -0.39961768961399352 -0.25853349994839342 0 -0.40348301069881398 -0.25212665787165761 0 -0.39961768961399352 -0.25853349994839342 0 -0.39996363544382119 -0.25470948247077319 0 -0.40348301069881398 -0.25212665787165761 0 -0.39961768961399352 -0.25853349994839342 0 -0.39996363544382119 -0.25470948247077319 0 -0.39961768961399352 -0.25853349994839342 0 -0.40452832316658671 -0.25727422256761118 0 -0.40348301069881398 -0.25212665787165761 0 -0.40452832316658671 -0.25727422256761118 0 -0.40348301069881398 -0.25212665787165761 0 -0.41493293921798707 -0.26619818490950209 0 -0.42637934281863882 -0.25535599031330919 0 -0.41987657329935679 -0.24324107777651921 0 -0.40452832316658671 -0.25727422256761118 0 -0.41493293921798707 -0.26619818490950209 0 -0.41987657329935679 -0.24324107777651921 0 -0.41493293921798707 -0.26619818490950209 0 -0.41987657329935679 -0.24324107777651921 0 -0.40452832316658671 -0.25727422256761118 0 -0.40668925652127558 -0.26801088116308858 0 -0.41493293921798707 -0.26619818490950209 0 -0.40668925652127558 -0.26801088116308858 0 -0.41493293921798707 -0.26619818490950209 0 -0.41051070567004277 -0.28673402709689499 0 -0.40191614041992668 -0.27704171171079922 0 -0.40668925652127558 -0.26801088116308858 0 -0.41051070567004277 -0.28673402709689499 0 -0.40668925652127558 -0.26801088116308858 0 -0.41277473879621918 -0.27622037455410092 0 -0.41493293921798707 -0.26619818490950209 0 -0.41051070567004277 -0.28673402709689499 0 -0.40668925652127558 -0.26801088116308858 0 -0.41277473879621918 -0.27622037455410092 0 -0.40668925652127558 -0.26801088116308858 0 -0.41277473879621918 -0.27622037455410092 0 -0.41493293921798707 -0.26619818490950209 0 -0.40668925652127558 -0.26801088116308858 0 -0.41277473879621918 -0.27622037455410092 0 -0.41929365708274452 -0.28498368376589728 0 -0.41277473879621918 -0.27622037455410092 0 -0.42760078569381288 -0.27272142028210711 0 -0.41929365708274452 -0.28498368376589728 0 -0.41277473879621918 -0.27622037455410092 0 -0.41277473879621918 -0.27622037455410092 0 -0.41493293921798707 -0.26619818490950209 0 -0.42760078569381288 -0.27272142028210711 0 -0.44001528067271861 -0.26093459673770841 0 -0.41493293921798707 -0.26619818490950209 0 -0.42760078569381288 -0.27272142028210711 0 -0.41929365708274452 -0.28498368376589728 0 -0.42760078569381288 -0.27272142028210711 0 -0.43716535046968952 -0.27803488725250908 0 -0.44046814543254298 -0.27025831273944428 0 -0.42760078569381288 -0.27272142028210711 0 -0.43716535046968952 -0.27803488725250908 0 -0.44001528067271861 -0.26093459673770841 0 -0.44046814543254298 -0.27025831273944428 0 -0.42760078569381288 -0.27272142028210711 0 -0.44001528067271861 -0.26093459673770841 0 -0.41493293921798707 -0.26619818490950209 0 -0.44001528067271861 -0.26093459673770841 0 -0.41493293921798707 -0.26619818490950209 0 -0.42637934281863882 -0.25535599031330919 0 -0.44001528067271861 -0.26093459673770841 0 -0.43200390429832702 -0.24973052190352191 0 -0.44026778773535891 -0.24889723690979251 0 -0.44001528067271861 -0.26093459673770841 0 -0.42637934281863882 -0.25535599031330919 0 -0.43200390429832702 -0.24973052190352191 0 -0.32734502982298308 -0.25733808884262538 0 -0.3414906406701736 -0.27286730013413002 0 -0.31952161833319359 -0.28884807146056191 0 -0.32734502982298308 -0.25733808884262538 0 -0.31952161833319359 -0.28884807146056191 0 -0.30713332796643988 -0.26837759061310262 0 -0.32734502982298308 -0.25733808884262538 0 -0.30713332796643988 -0.26837759061310262 0 -0.31218681538876319 -0.24782465592597699 0 -0.32734502982298308 -0.25733808884262538 0 -0.3414906406701736 -0.27286730013413002 0 -0.35372207537346739 -0.2563736158957366 0 -0.35372207537346739 -0.2563736158957366 0 -0.37464078170421661 -0.25976692688389641 0 -0.3666882904242707 -0.24269493442354589 0 -0.35372207537346739 -0.2563736158957366 0 -0.37464078170421661 -0.25976692688389641 0 -0.35912828523956097 -0.27114211921909059 0 -0.37464078170421661 -0.25976692688389641 0 -0.37031320078646762 -0.27846848210196018 0 -0.35912828523956097 -0.27114211921909059 0 -0.37031320078646762 -0.27846848210196018 0 -0.35912828523956097 -0.27114211921909059 0 -0.34773619458166272 -0.29063460525263551 0 -0.3414906406701736 -0.27286730013413002 0 -0.35372207537346739 -0.2563736158957366 0 -0.35912828523956097 -0.27114211921909059 0 -0.3414906406701736 -0.27286730013413002 0 -0.35912828523956097 -0.27114211921909059 0 -0.34773619458166272 -0.29063460525263551 0 -0.37595077083013162 -0.2924211390447079 0 -0.37031320078646762 -0.27846848210196018 0 -0.34773619458166272 -0.29063460525263551 0 -0.37595077083013162 -0.2924211390447079 0 -0.34773619458166272 -0.29063460525263551 0 -0.37595077083013162 -0.2924211390447079 0 -0.36342179925245022 -0.31075776591424398 0 -0.37595077083013162 -0.2924211390447079 0 -0.37185221155369741 -0.30862366839549671 0 -0.36342179925245022 -0.31075776591424398 0 -0.37595077083013162 -0.2924211390447079 0 -0.34773619458166272 -0.29063460525263551 0 -0.36342179925245022 -0.31075776591424398 0 -0.37185221155369741 -0.30862366839549671 0 -0.36342179925245022 -0.31075776591424398 0 -0.37160694751191359 -0.31305021439746139 0 -0.37803733527379912 -0.31147507505467598 0 -0.37185221155369741 -0.30862366839549671 0 -0.37160694751191359 -0.31305021439746139 0 -0.34773619458166272 -0.29063460525263551 0 -0.36342179925245022 -0.31075776591424398 0 -0.34699944595480892 -0.31414781381165208 0 -0.34773619458166272 -0.29063460525263551 0 -0.33074081369303082 -0.30966459406908992 0 -0.34699944595480892 -0.31414781381165208 0 -0.3414906406701736 -0.27286730013413002 0 -0.34773619458166272 -0.29063460525263551 0 -0.31952161833319359 -0.28884807146056191 0 -0.34773619458166272 -0.29063460525263551 0 -0.33074081369303082 -0.30966459406908992 0 -0.31952161833319359 -0.28884807146056191 0 -0.34773619458166272 -0.29063460525263551 0 -0.31952161833319359 -0.28884807146056191 0 -0.33074081369303082 -0.30966459406908992 0 -0.31952161833319359 -0.28884807146056191 0 -0.3130011883014272 -0.30588417487193809 0 -0.33074081369303082 -0.30966459406908992 0 -0.3136246497797911 -0.32376340380503538 0 -0.33283582608411533 -0.32976489673124099 0 -0.33074081369303082 -0.30966459406908992 0 -0.3130011883014272 -0.30588417487193809 0 -0.3136246497797911 -0.32376340380503538 0 -0.3136246497797911 -0.32376340380503538 0 -0.33283582608411533 -0.32976489673124099 0 -0.31203724504510172 -0.3415552798812177 0 -0.33283582608411533 -0.32976489673124099 0 -0.33162465978990768 -0.34911636009975999 0 -0.31203724504510172 -0.3415552798812177 0 -0.33283582608411533 -0.32976489673124099 0 -0.3508928276747692 -0.32909439278378061 0 -0.34671105970744409 -0.34147211821315898 0 -0.33283582608411533 -0.32976489673124099 0 -0.34671105970744409 -0.34147211821315898 0 -0.33162465978990768 -0.34911636009975999 0 -0.33074081369303082 -0.30966459406908992 0 -0.33283582608411533 -0.32976489673124099 0 -0.34699944595480892 -0.31414781381165208 0 -0.33283582608411533 -0.32976489673124099 0 -0.34699944595480892 -0.31414781381165208 0 -0.3508928276747692 -0.32909439278378061 0 -0.36342179925245022 -0.31075776591424398 0 -0.34699944595480892 -0.31414781381165208 0 -0.3508928276747692 -0.32909439278378061 0 -0.36342179925245022 -0.31075776591424398 0 -0.3508928276747692 -0.32909439278378061 0 -0.37803733527379912 -0.31147507505467598 0 -0.37033707496510182 -0.31911364928933128 0 -0.37090307576328008 -0.32994515279791697 0 -0.36342179925245022 -0.31075776591424398 0 -0.36382932639295912 -0.32531865081684708 0 -0.3508928276747692 -0.32909439278378061 0 -0.36342179925245022 -0.31075776591424398 0 -0.36382932639295912 -0.32531865081684708 0 -0.37033707496510182 -0.31911364928933128 0 -0.37803733527379912 -0.31147507505467598 0 -0.37090307576328008 -0.32994515279791697 0 -0.36382932639295912 -0.32531865081684708 0 -0.37033707496510182 -0.31911364928933128 0 -0.37090307576328008 -0.32994515279791697 0 -0.36342179925245022 -0.31075776591424398 0 -0.37160694751191359 -0.31305021439746139 0 -0.37033707496510182 -0.31911364928933128 0 -0.37803733527379912 -0.31147507505467598 0 -0.37160694751191359 -0.31305021439746139 0 -0.37033707496510182 -0.31911364928933128 0 -0.37416590304855241 -0.33645477729446882 0 -0.36359185430919411 -0.33768229329896271 0 -0.36957932596601889 -0.34390221118418601 0 -0.3797483271868376 -0.34114489802327658 0 -0.37416590304855241 -0.33645477729446882 0 -0.36957932596601889 -0.34390221118418601 0 -0.37416590304855241 -0.33645477729446882 0 -0.37090307576328008 -0.32994515279791697 0 -0.36359185430919411 -0.33768229329896271 0 -0.36382932639295912 -0.32531865081684708 0 -0.36359185430919411 -0.33768229329896271 0 -0.3508928276747692 -0.32909439278378061 0 -0.36382932639295912 -0.32531865081684708 0 -0.37090307576328008 -0.32994515279791697 0 -0.36359185430919411 -0.33768229329896271 0 -0.36359185430919411 -0.33768229329896271 0 -0.35826845766692839 -0.3480641591375645 0 -0.36957932596601889 -0.34390221118418601 0 -0.36359185430919411 -0.33768229329896271 0 -0.34671105970744409 -0.34147211821315898 0 -0.35826845766692839 -0.3480641591375645 0 -0.36359185430919411 -0.33768229329896271 0 -0.3508928276747692 -0.32909439278378061 0 -0.34671105970744409 -0.34147211821315898 0 -0.34671105970744409 -0.34147211821315898 0 -0.34547544868665098 -0.35498949253506962 0 -0.35826845766692839 -0.3480641591375645 0 -0.34547544868665098 -0.35498949253506962 0 -0.35910538490208072 -0.35897272012865927 0 -0.35826845766692839 -0.3480641591375645 0 -0.35826845766692839 -0.3480641591375645 0 -0.36679305093891529 -0.35206475733824022 0 -0.36957932596601889 -0.34390221118418601 0 -0.35910538490208072 -0.35897272012865927 0 -0.36679305093891529 -0.35206475733824022 0 -0.37230719335545681 -0.35957563947386612 0 -0.35910538490208072 -0.35897272012865927 0 -0.35826845766692839 -0.3480641591375645 0 -0.36679305093891529 -0.35206475733824022 0 -0.37583852677134771 -0.34951965612553609 0 -0.36679305093891529 -0.35206475733824022 0 -0.37230719335545681 -0.35957563947386612 0 -0.37583852677134771 -0.34951965612553609 0 -0.36679305093891529 -0.35206475733824022 0 -0.36957932596601889 -0.34390221118418601 0 -0.37760973804258668 -0.37169635799637762 0 -0.36407140082698691 -0.3697438564926625 0 -0.37058967977293178 -0.38091132916519849 0 -0.37760973804258668 -0.37169635799637762 0 -0.37230719335545681 -0.35957563947386612 0 -0.36407140082698691 -0.3697438564926625 0 -0.35910538490208072 -0.35897272012865927 0 -0.37230719335545681 -0.35957563947386612 0 -0.36407140082698691 -0.3697438564926625 0 -0.36407140082698691 -0.3697438564926625 0 -0.35043747945895948 -0.36870385425521912 0 -0.35525551731638738 -0.38478190692715902 0 -0.35910538490208072 -0.35897272012865927 0 -0.36407140082698691 -0.3697438564926625 0 -0.35043747945895948 -0.36870385425521912 0 -0.34547544868665098 -0.35498949253506962 0 -0.35910538490208072 -0.35897272012865927 0 -0.35043747945895948 -0.36870385425521912 0 -0.33186349077084493 -0.36395804469210291 0 -0.32129901052953652 -0.37491874143421772 0 -0.33721418843594497 -0.37789871141967429 0 -0.34547544868665098 -0.35498949253506962 0 -0.35043747945895948 -0.36870385425521912 0 -0.33186349077084493 -0.36395804469210291 0 -0.35043747945895948 -0.36870385425521912 0 -0.33186349077084493 -0.36395804469210291 0 -0.33721418843594497 -0.37789871141967429 0 -0.34547544868665098 -0.35498949253506962 0 -0.33186349077084493 -0.36395804469210291 0 -0.33162465978990768 -0.34911636009975999 0 -0.34671105970744409 -0.34147211821315898 0 -0.34547544868665098 -0.35498949253506962 0 -0.33162465978990768 -0.34911636009975999 0 -0.33162465978990768 -0.34911636009975999 0 -0.31489903690809479 -0.35794270473948409 0 -0.31203724504510172 -0.3415552798812177 0 -0.33186349077084493 -0.36395804469210291 0 -0.33162465978990768 -0.34911636009975999 0 -0.31489903690809479 -0.35794270473948409 0 -0.33186349077084493 -0.36395804469210291 0 -0.31489903690809479 -0.35794270473948409 0 -0.32129901052953652 -0.37491874143421772 0 -0.31489903690809479 -0.35794270473948409 0 -0.32129901052953652 -0.37491874143421772 0 -0.30608451253809948 -0.37023699345799033 0 -0.31489903690809479 -0.35794270473948409 0 -0.30608451253809948 -0.37023699345799033 0 -0.29526362180597387 -0.35639192294650002 0 -0.30608451253809948 -0.37023699345799033 0 -0.29526362180597387 -0.35639192294650002 0 -0.29189141785069439 -0.37979208019310939 0 -0.31489903690809479 -0.35794270473948409 0 -0.29526362180597387 -0.35639192294650002 0 -0.31203724504510172 -0.3415552798812177 0 -0.29526362180597387 -0.35639192294650002 0 -0.29290964991434432 -0.33398815811951482 0 -0.31203724504510172 -0.3415552798812177 0 -0.29526362180597387 -0.35639192294650002 0 -0.27389572945285268 -0.34330825463594111 0 -0.29290964991434432 -0.33398815811951482 0 -0.29526362180597387 -0.35639192294650002 0 -0.27974383527474761 -0.36382022437515532 0 -0.27389572945285268 -0.34330825463594111 0 -0.29526362180597387 -0.35639192294650002 0 -0.27974383527474761 -0.36382022437515532 0 -0.29189141785069439 -0.37979208019310939 0 -0.27974383527474761 -0.36382022437515532 0 -0.29189141785069439 -0.37979208019310939 0 -0.27304820550859649 -0.37796382441000292 0 -0.27974383527474761 -0.36382022437515532 0 -0.26462020175562018 -0.36164503969022332 0 -0.27304820550859649 -0.37796382441000292 0 -0.26462020175562018 -0.36164503969022332 0 -0.25511983444113662 -0.37675237567067238 0 -0.24425933049131429 -0.36599364078503788 0 -0.26462020175562018 -0.36164503969022332 0 -0.27304820550859649 -0.37796382441000292 0 -0.25511983444113662 -0.37675237567067238 0 -0.26462020175562018 -0.36164503969022332 0 -0.25578547784624678 -0.34709391313460092 0 -0.27389572945285268 -0.34330825463594111 0 -0.26462020175562018 -0.36164503969022332 0 -0.25578547784624678 -0.34709391313460092 0 -0.24425933049131429 -0.36599364078503788 0 -0.27974383527474761 -0.36382022437515532 0 -0.26462020175562018 -0.36164503969022332 0 -0.27389572945285268 -0.34330825463594111 0 -0.27389572945285268 -0.34330825463594111 0 -0.27603394383331081 -0.31872721580253671 0 -0.29290964991434432 -0.33398815811951482 0 -0.27389572945285268 -0.34330825463594111 0 -0.25237312146500362 -0.32662110583532472 0 -0.27603394383331081 -0.31872721580253671 0 -0.25578547784624678 -0.34709391313460092 0 -0.27389572945285268 -0.34330825463594111 0 -0.25237312146500362 -0.32662110583532472 0 -0.25237312146500362 -0.32662110583532472 0 -0.27603394383331081 -0.31872721580253671 0 -0.2646459187387456 -0.30313866025966801 0 -0.27603394383331081 -0.31872721580253671 0 -0.29290964991434432 -0.33398815811951482 0 -0.29584666027105633 -0.31160677607727499 0 -0.3136246497797911 -0.32376340380503538 0 -0.29290964991434432 -0.33398815811951482 0 -0.31203724504510172 -0.3415552798812177 0 -0.3136246497797911 -0.32376340380503538 0 -0.29290964991434432 -0.33398815811951482 0 -0.29584666027105633 -0.31160677607727499 0 -0.3130011883014272 -0.30588417487193809 0 -0.3136246497797911 -0.32376340380503538 0 -0.29584666027105633 -0.31160677607727499 0 -0.3130011883014272 -0.30588417487193809 0 -0.30080164495141271 -0.29003114023561632 0 -0.29584666027105633 -0.31160677607727499 0 -0.31952161833319359 -0.28884807146056191 0 -0.30080164495141271 -0.29003114023561632 0 -0.30713332796643988 -0.26837759061310262 0 -0.31952161833319359 -0.28884807146056191 0 -0.3130011883014272 -0.30588417487193809 0 -0.30080164495141271 -0.29003114023561632 0 -0.30080164495141271 -0.29003114023561632 0 -0.28301890221132142 -0.29642420521321561 0 -0.28831278488021378 -0.27511335468790771 0 -0.30080164495141271 -0.29003114023561632 0 -0.28301890221132142 -0.29642420521321561 0 -0.29584666027105633 -0.31160677607727499 0 -0.27603394383331081 -0.31872721580253671 0 -0.28301890221132142 -0.29642420521321561 0 -0.29584666027105633 -0.31160677607727499 0 -0.27603394383331081 -0.31872721580253671 0 -0.28301890221132142 -0.29642420521321561 0 -0.2646459187387456 -0.30313866025966801 0 -0.2646459187387456 -0.30313866025966801 0 -0.25332565210567148 -0.28605568982608082 0 -0.2340529994654115 -0.30753348721577523 0 -0.25237312146500362 -0.32662110583532472 0 -0.2646459187387456 -0.30313866025966801 0 -0.2340529994654115 -0.30753348721577523 0 -0.2646459187387456 -0.30313866025966801 0 -0.25332565210567148 -0.28605568982608082 0 -0.27238031253637679 -0.28506196048465171 0 -0.28301890221132142 -0.29642420521321561 0 -0.27238031253637679 -0.28506196048465171 0 -0.28831278488021378 -0.27511335468790771 0 -0.28301890221132142 -0.29642420521321561 0 -0.2646459187387456 -0.30313866025966801 0 -0.27238031253637679 -0.28506196048465171 0 -0.25332565210567148 -0.28605568982608082 0 -0.27238031253637679 -0.28506196048465171 0 -0.27259830474593161 -0.2645778924363863 0 -0.27238031253637679 -0.28506196048465171 0 -0.27259830474593161 -0.2645778924363863 0 -0.28831278488021378 -0.27511335468790771 0 -0.25332565210567148 -0.28605568982608082 0 -0.25724015171871489 -0.26734815907475201 0 -0.2436707875108142 -0.26489452316303808 0 -0.25332565210567148 -0.28605568982608082 0 -0.27259830474593161 -0.2645778924363863 0 -0.25332565210567148 -0.28605568982608082 0 -0.25724015171871489 -0.26734815907475201 0 -0.27259830474593161 -0.2645778924363863 0 -0.25936586251244231 -0.25386453087350291 0 -0.2436707875108142 -0.26489452316303808 0 -0.25724015171871489 -0.26734815907475201 0 -0.25936586251244231 -0.25386453087350291 0 -0.2436707875108142 -0.26489452316303808 0 -0.25724015171871489 -0.26734815907475201 0 -0.25936586251244231 -0.25386453087350291 0 -0.27259830474593161 -0.2645778924363863 0 -0.27259830474593161 -0.2645778924363863 0 -0.29187095738619151 -0.243100095046692 0 -0.27713374283966941 -0.2462323623825366 0 -0.25936586251244231 -0.25386453087350291 0 -0.27075352409879228 -0.25254424850214879 0 -0.27259830474593161 -0.2645778924363863 0 -0.27075352409879228 -0.25254424850214879 0 -0.27259830474593161 -0.2645778924363863 0 -0.27713374283966941 -0.2462323623825366 0 -0.27259830474593161 -0.2645778924363863 0 -0.28918280414924702 -0.2600916170514419 0 -0.29187095738619151 -0.243100095046692 0 -0.28918280414924702 -0.2600916170514419 0 -0.29698929605210261 -0.25351053701342757 0 -0.29187095738619151 -0.243100095046692 0 -0.27259830474593161 -0.2645778924363863 0 -0.29187095738619151 -0.243100095046692 0 -0.29614267768179542 -0.26415620607279572 0 -0.28918280414924702 -0.2600916170514419 0 -0.29698929605210261 -0.25351053701342757 0 -0.27259830474593161 -0.2645778924363863 0 -0.28918280414924702 -0.2600916170514419 0 -0.28831278488021378 -0.27511335468790771 0 -0.29614267768179542 -0.26415620607279572 0 -0.28918280414924702 -0.2600916170514419 0 -0.28831278488021378 -0.27511335468790771 0 -0.29614267768179542 -0.26415620607279572 0 -0.28831278488021378 -0.27511335468790771 0 -0.30713332796643988 -0.26837759061310262 0 -0.30080164495141271 -0.29003114023561632 0 -0.28831278488021378 -0.27511335468790771 0 -0.30713332796643988 -0.26837759061310262 0 -0.30713332796643988 -0.26837759061310262 0 -0.29698929605210261 -0.25351053701342757 0 -0.31218681538876319 -0.24782465592597699 0 -0.29614267768179542 -0.26415620607279572 0 -0.30713332796643988 -0.26837759061310262 0 -0.29698929605210261 -0.25351053701342757 0 -0.33501975259937122 -0.46200410899777272 0 -0.31956177480629161 -0.45338327707673631 0 -0.34856539003723869 -0.45279076490602871 0 -0.33501975259937122 -0.46200410899777272 0 -0.33497532339180708 -0.47416079933088628 0 -0.3544801279331285 -0.45766653161191467 0 -0.33418852809761063 -0.44648909161546091 0 -0.34753729334045419 -0.44031819612400769 0 -0.34856539003723869 -0.45279076490602871 0 -0.32108965420645769 -0.43946412835507082 0 -0.34753729334045419 -0.44031819612400769 0 -0.31956177480629161 -0.45338327707673631 0 -0.34856539003723869 -0.45279076490602871 0 -0.33418852809761063 -0.44648909161546091 0 -0.32108965420645769 -0.43946412835507082 0 -0.34753729334045419 -0.44031819612400769 0 -0.33418852809761063 -0.44648909161546091 0 -0.31956177480629161 -0.45338327707673631 0 -0.34856539003723869 -0.45279076490602871 0 -0.32108965420645769 -0.43946412835507082 0 -0.31956177480629161 -0.45338327707673631 0 -0.30032469295689418 -0.43879357004789538 0 -0.33418852809761063 -0.44648909161546091 0 -0.32108965420645769 -0.43946412835507082 0 -0.31956177480629161 -0.45338327707673631 0 -0.32108965420645769 -0.43946412835507082 0 -0.31956177480629161 -0.45338327707673631 0 -0.33501975259937122 -0.46200410899777272 0 -0.31956177480629161 -0.45338327707673631 0 -0.31751614682838991 -0.47201917206329791 0 -0.31956177480629161 -0.45338327707673631 0 -0.31751614682838991 -0.47201917206329791 0 -0.30377708638553019 -0.46471741867065702 0 -0.31956177480629161 -0.45338327707673631 0 -0.31751614682838991 -0.47201917206329791 0 -0.31751614682838991 -0.47201917206329791 0 -0.31547051885048683 -0.49065506704985939 0 -0.33497532339180708 -0.47416079933088628 0 -0.31751614682838991 -0.47201917206329791 0 -0.31547051885048683 -0.49065506704985939 0 -0.31547051885048683 -0.49065506704985939 0 -0.33497532339180708 -0.47416079933088628 0 -0.31444474271748168 -0.50000000000000111 0 -0.31547051885048683 -0.49065506704985939 0 -0.33129959080980431 -0.48959371776467442 0 -0.31547051885048683 -0.49065506704985939 0 -0.33129959080980431 -0.48959371776467442 0 -0.33497532339180708 -0.47416079933088628 0 -0.31444474271748168 -0.50000000000000111 0 -0.31547051885048683 -0.49065506704985939 0 -0.33129959080980431 -0.48959371776467442 0 -0.34327436727690852 -0.5 0 -0.35635497414693817 -0.48106104199555239 0 -0.31444474271748168 -0.50000000000000111 0 -0.33129959080980431 -0.48959371776467442 0 -0.34327436727690852 -0.5 0 -0.33129959080980431 -0.48959371776467442 0 -0.33497532339180708 -0.47416079933088628 0 -0.35635497414693817 -0.48106104199555239 0 -0.33501975259937122 -0.46200410899777272 0 -0.31751614682838991 -0.47201917206329791 0 -0.33497532339180708 -0.47416079933088628 0 -0.33497532339180708 -0.47416079933088628 0 -0.35635497414693817 -0.48106104199555239 0 -0.3544801279331285 -0.45766653161191467 0 -0.38156860982797569 -0.5 0 -0.34327436727690852 -0.5 0 -0.35635497414693817 -0.48106104199555239 0 -0.38531775446970451 -0.46446644042050228 0 -0.38156860982797569 -0.5 0 -0.35635497414693817 -0.48106104199555239 0 -0.38531775446970451 -0.46446644042050228 0 -0.35635497414693817 -0.48106104199555239 0 -0.3544801279331285 -0.45766653161191467 0 -0.38531775446970451 -0.46446644042050228 0 -0.3544801279331285 -0.45766653161191467 0 -0.37398493247445053 -0.44117226389294378 0 -0.33501975259937122 -0.46200410899777272 0 -0.3544801279331285 -0.45766653161191467 0 -0.34856539003723869 -0.45279076490602871 0 -0.33497532339180708 -0.47416079933088628 0 -0.3544801279331285 -0.45766653161191467 0 -0.3544801279331285 -0.45766653161191467 0 -0.34753729334045419 -0.44031819612400769 0 -0.37398493247445053 -0.44117226389294378 0 -0.3544801279331285 -0.45766653161191467 0 -0.34753729334045419 -0.44031819612400769 0 -0.34856539003723869 -0.45279076490602871 0 -0.34753729334045419 -0.44031819612400769 0 -0.37398493247445053 -0.44117226389294378 0 -0.3544801279331285 -0.45766653161191467 0 -0.37398493247445053 -0.44117226389294378 0 -0.34753729334045419 -0.44031819612400769 0 -0.37398493247445053 -0.44117226389294378 0 -0.35804006327118998 -0.42319724156586752 0 -0.37775612760568761 -0.41806783914888168 0 -0.37398493247445053 -0.44117226389294378 0 -0.35804006327118998 -0.42319724156586752 0 -0.37775612760568761 -0.41806783914888168 0 -0.35804006327118998 -0.42319724156586752 0 -0.36874589044708661 -0.40055001458110517 0 -0.35804006327118998 -0.42319724156586752 0 -0.3509957149920474 -0.40370777676539338 0 -0.34342454040608811 -0.41715844708268263 0 -0.35804006327118998 -0.42319724156586752 0 -0.36874589044708661 -0.40055001458110517 0 -0.3509957149920474 -0.40370777676539338 0 -0.3509957149920474 -0.40370777676539338 0 -0.33796624650851331 -0.40476214137193423 0 -0.34342454040608811 -0.41715844708268263 0 -0.34753729334045419 -0.44031819612400769 0 -0.35804006327118998 -0.42319724156586752 0 -0.3370579437947841 -0.42888575309879368 0 -0.35804006327118998 -0.42319724156586752 0 -0.3370579437947841 -0.42888575309879368 0 -0.34342454040608811 -0.41715844708268263 0 -0.37058967977293178 -0.38091132916519849 0 -0.36874589044708661 -0.40055001458110517 0 -0.35525551731638738 -0.38478190692715902 0 -0.38322806499834072 -0.38652733492945779 0 -0.37058967977293178 -0.38091132916519849 0 -0.36874589044708661 -0.40055001458110517 0 -0.36407140082698691 -0.3697438564926625 0 -0.37058967977293178 -0.38091132916519849 0 -0.35525551731638738 -0.38478190692715902 0 -0.3509957149920474 -0.40370777676539338 0 -0.35525551731638738 -0.38478190692715902 0 -0.3425420320030193 -0.39179690906361248 0 -0.36874589044708661 -0.40055001458110517 0 -0.3509957149920474 -0.40370777676539338 0 -0.35525551731638738 -0.38478190692715902 0 -0.3509957149920474 -0.40370777676539338 0 -0.3425420320030193 -0.39179690906361248 0 -0.33796624650851331 -0.40476214137193423 0 -0.35043747945895948 -0.36870385425521912 0 -0.35525551731638738 -0.38478190692715902 0 -0.33721418843594497 -0.37789871141967429 0 -0.35525551731638738 -0.38478190692715902 0 -0.33721418843594497 -0.37789871141967429 0 -0.3425420320030193 -0.39179690906361248 0 -0.32129901052953652 -0.37491874143421772 0 -0.33721418843594497 -0.37789871141967429 0 -0.32810154285383858 -0.39030627225001208 0 -0.33721418843594497 -0.37789871141967429 0 -0.3425420320030193 -0.39179690906361248 0 -0.32810154285383858 -0.39030627225001208 0 -0.3425420320030193 -0.39179690906361248 0 -0.33796624650851331 -0.40476214137193423 0 -0.32810154285383858 -0.39030627225001208 0 -0.33796624650851331 -0.40476214137193423 0 -0.32483090680753129 -0.40538090728799803 0 -0.32810154285383858 -0.39030627225001208 0 -0.32483090680753129 -0.40538090728799803 0 -0.31018487072625078 -0.40697971207209588 0 -0.31081250413906908 -0.39019516516540198 0 -0.32483090680753129 -0.40538090728799803 0 -0.32810154285383858 -0.39030627225001208 0 -0.31081250413906908 -0.39019516516540198 0 -0.32129901052953652 -0.37491874143421772 0 -0.30608451253809948 -0.37023699345799033 0 -0.31081250413906908 -0.39019516516540198 0 -0.32129901052953652 -0.37491874143421772 0 -0.32810154285383858 -0.39030627225001208 0 -0.31081250413906908 -0.39019516516540198 0 -0.3370579437947841 -0.42888575309879368 0 -0.34342454040608811 -0.41715844708268263 0 -0.32296028050699432 -0.42242251782153439 0 -0.32108965420645769 -0.43946412835507082 0 -0.34753729334045419 -0.44031819612400769 0 -0.3370579437947841 -0.42888575309879368 0 -0.33796624650851331 -0.40476214137193423 0 -0.34342454040608811 -0.41715844708268263 0 -0.32296028050699432 -0.42242251782153439 0 -0.33796624650851331 -0.40476214137193423 0 -0.32483090680753129 -0.40538090728799803 0 -0.32296028050699432 -0.42242251782153439 0 -0.32483090680753129 -0.40538090728799803 0 -0.32296028050699432 -0.42242251782153439 0 -0.31018487072625078 -0.40697971207209588 0 -0.32483090680753129 -0.40538090728799803 0 -0.32296028050699432 -0.42242251782153439 0 -0.32108965420645769 -0.43946412835507082 0 -0.3370579437947841 -0.42888575309879368 0 -0.32296028050699432 -0.42242251782153439 0 -0.32108965420645769 -0.43946412835507082 0 -0.32296028050699432 -0.42242251782153439 0 -0.32296028050699432 -0.42242251782153439 0 -0.31217669501697182 -0.43029513960827231 0 -0.30433215239754091 -0.42050034220858862 0 -0.32108965420645769 -0.43946412835507082 0 -0.32296028050699432 -0.42242251782153439 0 -0.31217669501697182 -0.43029513960827231 0 -0.31217669501697182 -0.43029513960827231 0 -0.30433215239754091 -0.42050034220858862 0 -0.30032469295689418 -0.43879357004789538 0 -0.32108965420645769 -0.43946412835507082 0 -0.31217669501697182 -0.43029513960827231 0 -0.30032469295689418 -0.43879357004789538 0 -0.30433215239754091 -0.42050034220858862 0 -0.2894600544230676 -0.42381629154670708 0 -0.30032469295689418 -0.43879357004789538 0 -0.30433215239754091 -0.42050034220858862 0 -0.31018487072625078 -0.40697971207209588 0 -0.29440969367291803 -0.40510576966978851 0 -0.32296028050699432 -0.42242251782153439 0 -0.30433215239754091 -0.42050034220858862 0 -0.31018487072625078 -0.40697971207209588 0 -0.2894600544230676 -0.42381629154670708 0 -0.29440969367291803 -0.40510576966978851 0 -0.2722275186666745 -0.41755211020499999 0 -0.30433215239754091 -0.42050034220858862 0 -0.2894600544230676 -0.42381629154670708 0 -0.29440969367291803 -0.40510576966978851 0 -0.2894600544230676 -0.42381629154670708 0 -0.27955973170733078 -0.43812301174072021 0 -0.30032469295689418 -0.43879357004789538 0 -0.30608451253809948 -0.37023699345799033 0 -0.31081250413906908 -0.39019516516540198 0 -0.29189141785069439 -0.37979208019310939 0 -0.31081250413906908 -0.39019516516540198 0 -0.29440969367291803 -0.40510576966978851 0 -0.29189141785069439 -0.37979208019310939 0 -0.31018487072625078 -0.40697971207209588 0 -0.31081250413906908 -0.39019516516540198 0 -0.29440969367291803 -0.40510576966978851 0 -0.29440969367291803 -0.40510576966978851 0 -0.29189141785069439 -0.37979208019310939 0 -0.27451406343823093 -0.39678595641936548 0 -0.29189141785069439 -0.37979208019310939 0 -0.27304820550859649 -0.37796382441000292 0 -0.27451406343823093 -0.39678595641936548 0 -0.27304820550859649 -0.37796382441000292 0 -0.27451406343823093 -0.39678595641936548 0 -0.25752155815385591 -0.39190839524006499 0 -0.27451406343823093 -0.39678595641936548 0 -0.25752155815385591 -0.39190839524006499 0 -0.25798598677664653 -0.40839355879822758 0 -0.25752155815385591 -0.39190839524006499 0 -0.25798598677664653 -0.40839355879822758 0 -0.2398260539233123 -0.40635362640076939 0 -0.27304820550859649 -0.37796382441000292 0 -0.25752155815385591 -0.39190839524006499 0 -0.25511983444113662 -0.37675237567067238 0 -0.2894600544230676 -0.42381629154670708 0 -0.2722275186666745 -0.41755211020499999 0 -0.27955973170733078 -0.43812301174072021 0 -0.2722275186666745 -0.41755211020499999 0 -0.26180861918609832 -0.43679952642708508 0 -0.27955973170733078 -0.43812301174072021 0 -0.27451406343823093 -0.39678595641936548 0 -0.2722275186666745 -0.41755211020499999 0 -0.25798598677664653 -0.40839355879822758 0 -0.29440969367291803 -0.40510576966978851 0 -0.27451406343823093 -0.39678595641936548 0 -0.2722275186666745 -0.41755211020499999 0 -0.2722275186666745 -0.41755211020499999 0 -0.25798598677664653 -0.40839355879822758 0 -0.2508025864554484 -0.42342920517477511 0 -0.2508025864554484 -0.42342920517477511 0 -0.26180861918609832 -0.43679952642708508 0 -0.24798448244294169 -0.44044379775122972 0 -0.2722275186666745 -0.41755211020499999 0 -0.2508025864554484 -0.42342920517477511 0 -0.26180861918609832 -0.43679952642708508 0 -0.26180861918609832 -0.43679952642708508 0 -0.26337123673083301 -0.45453118837755502 0 -0.24798448244294169 -0.44044379775122972 0 -0.26337123673083301 -0.45453118837755502 0 -0.25803174336485502 -0.4770715662563158 0 -0.23527596769310349 -0.45510514402796509 0 -0.26337123673083301 -0.45453118837755502 0 -0.27839811666440972 -0.4694583511671977 0 -0.25803174336485502 -0.4770715662563158 0 -0.26337123673083301 -0.45453118837755502 0 -0.29146650576856231 -0.453957232727145 0 -0.26337123673083301 -0.45453118837755502 0 -0.29146650576856231 -0.453957232727145 0 -0.27839811666440972 -0.4694583511671977 0 -0.26180861918609832 -0.43679952642708508 0 -0.26337123673083301 -0.45453118837755502 0 -0.27955973170733078 -0.43812301174072021 0 -0.26337123673083301 -0.45453118837755502 0 -0.27955973170733078 -0.43812301174072021 0 -0.29146650576856231 -0.453957232727145 0 -0.27955973170733078 -0.43812301174072021 0 -0.30032469295689418 -0.43879357004789538 0 -0.27955973170733078 -0.43812301174072021 0 -0.29146650576856231 -0.453957232727145 0 -0.30032469295689418 -0.43879357004789538 0 -0.29250052947324939 -0.46646247834552079 0 -0.29146650576856231 -0.453957232727145 0 -0.27839811666440972 -0.4694583511671977 0 -0.29250052947324939 -0.46646247834552079 0 -0.29146650576856231 -0.453957232727145 0 -0.30377708638553019 -0.46471741867065702 0 -0.31956177480629161 -0.45338327707673631 0 -0.29146650576856231 -0.453957232727145 0 -0.31956177480629161 -0.45338327707673631 0 -0.29146650576856231 -0.453957232727145 0 -0.30377708638553019 -0.46471741867065702 0 -0.32108965420645769 -0.43946412835507082 0 -0.30032469295689418 -0.43879357004789538 0 -0.31956177480629161 -0.45338327707673631 0 -0.29146650576856231 -0.453957232727145 0 -0.30032469295689418 -0.43879357004789538 0 -0.30346507278541712 -0.48658088799541638 0 -0.30441994699425418 -0.50000000000000355 0 -0.28624687696675333 -0.48513795270600318 0 -0.31444474271748168 -0.50000000000000111 0 -0.31547051885048683 -0.49065506704985939 0 -0.30441994699425418 -0.50000000000000355 0 -0.31547051885048683 -0.49065506704985939 0 -0.30441994699425418 -0.50000000000000355 0 -0.31547051885048683 -0.49065506704985939 0 -0.30346507278541712 -0.48658088799541638 0 -0.30441994699425418 -0.50000000000000355 0 -0.31751614682838991 -0.47201917206329791 0 -0.31547051885048683 -0.49065506704985939 0 -0.30346507278541712 -0.48658088799541638 0 -0.31751614682838991 -0.47201917206329791 0 -0.30377708638553019 -0.46471741867065702 0 -0.2963604090744959 -0.47771691081708351 0 -0.31751614682838991 -0.47201917206329791 0 -0.30346507278541712 -0.48658088799541638 0 -0.2963604090744959 -0.47771691081708351 0 -0.29250052947324939 -0.46646247834552079 0 -0.30377708638553019 -0.46471741867065702 0 -0.2963604090744959 -0.47771691081708351 0 -0.2963604090744959 -0.47771691081708351 0 -0.28624687696675333 -0.48513795270600318 0 -0.27839811666440972 -0.4694583511671977 0 -0.30346507278541712 -0.48658088799541638 0 -0.2963604090744959 -0.47771691081708351 0 -0.28624687696675333 -0.48513795270600318 0 -0.29250052947324939 -0.46646247834552079 0 -0.2963604090744959 -0.47771691081708351 0 -0.27839811666440972 -0.4694583511671977 0 -0.30441994699425418 -0.50000000000000355 0 -0.28624687696675333 -0.48513795270600318 0 -0.27680597291708608 -0.5 0 -0.28624687696675333 -0.48513795270600318 0 -0.27680597291708608 -0.5 0 -0.25803174336485502 -0.4770715662563158 0 -0.28624687696675333 -0.48513795270600318 0 -0.27839811666440972 -0.4694583511671977 0 -0.25803174336485502 -0.4770715662563158 0 -0.27680597291708608 -0.5 0 -0.25803174336485502 -0.4770715662563158 0 -0.24919199883991799 -0.5 0 -0.25803174336485502 -0.4770715662563158 0 -0.2217958757835381 -0.47667432414997157 0 -0.23527596769310349 -0.45510514402796509 0 -0.25803174336485502 -0.4770715662563158 0 -0.24919199883991799 -0.5 0 -0.2217958757835381 -0.47667432414997157 0 -0.24919199883991799 -0.5 0 -0.2217958757835381 -0.47667432414997157 0 -0.2215780247627499 -0.5 0 -0.26337123673083301 -0.45453118837755502 0 -0.24798448244294169 -0.44044379775122972 0 -0.23527596769310349 -0.45510514402796509 0 -0.24798448244294169 -0.44044379775122972 0 -0.23527596769310349 -0.45510514402796509 0 -0.22866400214922519 -0.4323539247487681 0 -0.26337123673083301 -0.45453118837755502 0 -0.23527596769310349 -0.45510514402796509 0 -0.2217958757835381 -0.47667432414997157 0 -0.23527596769310349 -0.45510514402796509 0 -0.2071806986553742 -0.45567909967837522 0 -0.23527596769310349 -0.45510514402796509 0 -0.2071806986553742 -0.45567909967837522 0 -0.23527596769310349 -0.45510514402796509 0 -0.2071806986553742 -0.45567909967837522 0 -0.22866400214922519 -0.4323539247487681 0 -0.2217958757835381 -0.47667432414997157 0 -0.2071806986553742 -0.45567909967837522 0 -0.19047436391414771 -0.47259326036723098 0 -0.2071806986553742 -0.45567909967837522 0 -0.20803824342284341 -0.43491290331691052 0 -0.22866400214922519 -0.4323539247487681 0 -0.2071806986553742 -0.45567909967837522 0 -0.19047436391414771 -0.47259326036723098 0 -0.18445165908421471 -0.45548777022840259 0 -0.2071806986553742 -0.45567909967837522 0 -0.1895432369999315 -0.43829417898531481 0 -0.18445165908421471 -0.45548777022840259 0 -0.2071806986553742 -0.45567909967837522 0 -0.1895432369999315 -0.43829417898531481 0 -0.20803824342284341 -0.43491290331691052 0 -0.2217958757835381 -0.47667432414997157 0 -0.19047436391414771 -0.47259326036723098 0 -0.19396405068558181 -0.5 0 -0.2217958757835381 -0.47667432414997157 0 -0.2215780247627499 -0.5 0 -0.19396405068558181 -0.5 0 -0.19047436391414771 -0.47259326036723098 0 -0.19396405068558181 -0.5 0 -0.17189453770309801 -0.48162771672405308 0 -0.19396405068558181 -0.5 0 -0.1663500766084138 -0.5 0 -0.17189453770309801 -0.48162771672405308 0 -0.1663500766084138 -0.5 0 -0.17189453770309801 -0.48162771672405308 0 -0.1479647100671749 -0.47641061155007258 0 -0.17189453770309801 -0.48162771672405308 0 -0.16687691511988481 -0.46273722353172669 0 -0.1479647100671749 -0.47641061155007258 0 -0.19047436391414771 -0.47259326036723098 0 -0.17189453770309801 -0.48162771672405308 0 -0.16687691511988481 -0.46273722353172669 0 -0.18445165908421471 -0.45548777022840259 0 -0.16606072882958711 -0.4428519054091723 0 -0.16687691511988481 -0.46273722353172669 0 -0.19047436391414771 -0.47259326036723098 0 -0.18445165908421471 -0.45548777022840259 0 -0.16687691511988481 -0.46273722353172669 0 -0.1895432369999315 -0.43829417898531481 0 -0.18445165908421471 -0.45548777022840259 0 -0.16606072882958711 -0.4428519054091723 0 -0.16606072882958711 -0.4428519054091723 0 -0.16687691511988481 -0.46273722353172669 0 -0.1437850874923024 -0.44839060283528709 0 -0.16687691511988481 -0.46273722353172669 0 -0.1437850874923024 -0.44839060283528709 0 -0.1479647100671749 -0.47641061155007258 0 -0.16606072882958711 -0.4428519054091723 0 -0.1437850874923024 -0.44839060283528709 0 -0.152472989944333 -0.42542241685383181 0 -0.1437850874923024 -0.44839060283528709 0 -0.12439268143600681 -0.46086511978805039 0 -0.11837387461766651 -0.44141776123073412 0 -0.1437850874923024 -0.44839060283528709 0 -0.13343595687494991 -0.42821991995012809 0 -0.11837387461766651 -0.44141776123073412 0 -0.1437850874923024 -0.44839060283528709 0 -0.1479647100671749 -0.47641061155007258 0 -0.12439268143600681 -0.46086511978805039 0 -0.12533694304378151 -0.4830358022360639 0 -0.1479647100671749 -0.47641061155007258 0 -0.12439268143600681 -0.46086511978805039 0 -0.12533694304378151 -0.4830358022360639 0 -0.13873610253124569 -0.5 0 -0.11112212845407771 -0.5 0 -0.12533694304378151 -0.4830358022360639 0 -0.13873610253124569 -0.5 0 -0.1479647100671749 -0.47641061155007258 0 -0.1663500766084138 -0.5 0 -0.13873610253124569 -0.5 0 -0.1479647100671749 -0.47641061155007258 0 -0.14449046881012359 -0.39448671488794379 0 -0.1456258811997557 -0.39957134216378892 0 -0.15030894974189429 -0.39443397528276491 0 -0.14449046881012359 -0.39448671488794379 0 -0.15030894974189429 -0.39443397528276491 0 -0.14595075592392409 -0.38931430407632439 0 -0.14449046881012359 -0.39448671488794379 0 -0.14247072257491811 -0.39290658152745539 0 -0.14595075592392409 -0.38931430407632439 0 -0.14247072257491811 -0.39290658152745539 0 -0.14595075592392409 -0.38931430407632439 0 -0.13840176068124241 -0.39111161951255619 0 -0.14449046881012359 -0.39448671488794379 0 -0.14247072257491811 -0.39290658152745539 0 -0.1408631824486021 -0.39597142681439718 0 -0.14449046881012359 -0.39448671488794379 0 -0.1408631824486021 -0.39597142681439718 0 -0.1456258811997557 -0.39957134216378892 0 -0.1456258811997557 -0.39957134216378892 0 -0.14098794862316161 -0.4071319769120339 0 -0.14915729888056539 -0.40929764588402101 0 -0.1408631824486021 -0.39597142681439718 0 -0.1456258811997557 -0.39957134216378892 0 -0.13691520890928821 -0.40119687665027531 0 -0.1456258811997557 -0.39957134216378892 0 -0.13691520890928821 -0.40119687665027531 0 -0.14098794862316161 -0.4071319769120339 0 -0.1456258811997557 -0.39957134216378892 0 -0.14915729888056539 -0.40929764588402101 0 -0.1584965382753456 -0.40043295751470531 0 -0.1456258811997557 -0.39957134216378892 0 -0.15030894974189429 -0.39443397528276491 0 -0.1584965382753456 -0.40043295751470531 0 -0.15030894974189429 -0.39443397528276491 0 -0.1584965382753456 -0.40043295751470531 0 -0.1582963476658219 -0.38637498276351301 0 -0.15030894974189429 -0.39443397528276491 0 -0.14595075592392409 -0.38931430407632439 0 -0.1582963476658219 -0.38637498276351301 0 -0.14595075592392409 -0.38931430407632439 0 -0.1582963476658219 -0.38637498276351301 0 -0.14595075592392409 -0.38931430407632439 0 -0.15629197021005151 -0.37486427310554238 0 -0.14252599928057591 -0.37491964594710597 0 -0.14595075592392409 -0.38931430407632439 0 -0.13402295226462271 -0.38488320800885922 0 -0.14252599928057591 -0.37491964594710597 0 -0.14595075592392409 -0.38931430407632439 0 -0.13840176068124241 -0.39111161951255619 0 -0.13402295226462271 -0.38488320800885922 0 -0.12771196938011589 -0.37978297355390001 0 -0.11990308447387479 -0.39551590845810669 0 -0.14595075592392409 -0.38931430407632439 0 -0.13402295226462271 -0.38488320800885922 0 -0.13840176068124241 -0.39111161951255619 0 -0.13402295226462271 -0.38488320800885922 0 -0.13840176068124241 -0.39111161951255619 0 -0.11990308447387479 -0.39551590845810669 0 -0.13402295226462271 -0.38488320800885922 0 -0.12771196938011589 -0.37978297355390001 0 -0.14252599928057591 -0.37491964594710597 0 -0.13840176068124241 -0.39111161951255619 0 -0.12019543696794679 -0.40987823360929521 0 -0.11990308447387479 -0.39551590845810669 0 -0.13840176068124241 -0.39111161951255619 0 -0.13691520890928821 -0.40119687665027531 0 -0.12019543696794679 -0.40987823360929521 0 -0.13840176068124241 -0.39111161951255619 0 -0.11990308447387479 -0.39551590845810669 0 -0.13840176068124241 -0.39111161951255619 0 -0.12019543696794679 -0.40987823360929521 0 -0.1408631824486021 -0.39597142681439718 0 -0.13840176068124241 -0.39111161951255619 0 -0.13691520890928821 -0.40119687665027531 0 -0.14247072257491811 -0.39290658152745539 0 -0.1408631824486021 -0.39597142681439718 0 -0.13840176068124241 -0.39111161951255619 0 -0.13691520890928821 -0.40119687665027531 0 -0.13364732703576021 -0.40927142431620939 0 -0.14098794862316161 -0.4071319769120339 0 -0.1288505095290203 -0.4178170704989172 0 -0.13364732703576021 -0.40927142431620939 0 -0.12019543696794679 -0.40987823360929521 0 -0.13691520890928821 -0.40119687665027531 0 -0.13364732703576021 -0.40927142431620939 0 -0.12019543696794679 -0.40987823360929521 0 -0.1288505095290203 -0.4178170704989172 0 -0.13959402709043869 -0.41632259554587481 0 -0.13343595687494991 -0.42821991995012809 0 -0.1288505095290203 -0.4178170704989172 0 -0.13959402709043869 -0.41632259554587481 0 -0.13364732703576021 -0.40927142431620939 0 -0.13959402709043869 -0.41632259554587481 0 -0.13364732703576021 -0.40927142431620939 0 -0.14098794862316161 -0.4071319769120339 0 -0.1288505095290203 -0.4178170704989172 0 -0.13343595687494991 -0.42821991995012809 0 -0.1173797996760057 -0.42539317907307861 0 -0.13959402709043869 -0.41632259554587481 0 -0.13343595687494991 -0.42821991995012809 0 -0.152472989944333 -0.42542241685383181 0 -0.1437850874923024 -0.44839060283528709 0 -0.13343595687494991 -0.42821991995012809 0 -0.152472989944333 -0.42542241685383181 0 -0.13959402709043869 -0.41632259554587481 0 -0.152472989944333 -0.42542241685383181 0 -0.14915729888056539 -0.40929764588402101 0 -0.152472989944333 -0.42542241685383181 0 -0.14915729888056539 -0.40929764588402101 0 -0.1620534311524103 -0.41294811357220662 0 -0.13959402709043869 -0.41632259554587481 0 -0.14098794862316161 -0.4071319769120339 0 -0.14915729888056539 -0.40929764588402101 0 -0.1620534311524103 -0.41294811357220662 0 -0.17520258887991749 -0.40638967856095848 0 -0.1584965382753456 -0.40043295751470531 0 -0.14915729888056539 -0.40929764588402101 0 -0.1620534311524103 -0.41294811357220662 0 -0.1584965382753456 -0.40043295751470531 0 -0.152472989944333 -0.42542241685383181 0 -0.1620534311524103 -0.41294811357220662 0 -0.1735616207587248 -0.42369000064542472 0 -0.1620534311524103 -0.41294811357220662 0 -0.1735616207587248 -0.42369000064542472 0 -0.17520258887991749 -0.40638967856095848 0 -0.16606072882958711 -0.4428519054091723 0 -0.152472989944333 -0.42542241685383181 0 -0.1735616207587248 -0.42369000064542472 0 -0.1895432369999315 -0.43829417898531481 0 -0.16606072882958711 -0.4428519054091723 0 -0.1735616207587248 -0.42369000064542472 0 -0.1895432369999315 -0.43829417898531481 0 -0.1735616207587248 -0.42369000064542472 0 -0.19603674874616939 -0.4162337104910645 0 -0.1735616207587248 -0.42369000064542472 0 -0.17520258887991749 -0.40638967856095848 0 -0.19603674874616939 -0.4162337104910645 0 -0.17520258887991749 -0.40638967856095848 0 -0.1893644093217168 -0.391500247533625 0 -0.19603674874616939 -0.4162337104910645 0 -0.17520258887991749 -0.40638967856095848 0 -0.17054684086389499 -0.393050868954334 0 -0.1893644093217168 -0.391500247533625 0 -0.17520258887991749 -0.40638967856095848 0 -0.17054684086389499 -0.393050868954334 0 -0.1584965382753456 -0.40043295751470531 0 -0.17054684086389499 -0.393050868954334 0 -0.1584965382753456 -0.40043295751470531 0 -0.1582963476658219 -0.38637498276351301 0 -0.14595075592392409 -0.38931430407632439 0 -0.1582963476658219 -0.38637498276351301 0 -0.17137432017667339 -0.38055647839886853 0 -0.14595075592392409 -0.38931430407632439 0 -0.17137432017667339 -0.38055647839886853 0 -0.15629197021005151 -0.37486427310554238 0 -0.14595075592392409 -0.38931430407632439 0 -0.17137432017667339 -0.38055647839886853 0 -0.17054684086389499 -0.393050868954334 0 -0.1582963476658219 -0.38637498276351301 0 -0.17137432017667339 -0.38055647839886853 0 -0.17137432017667339 -0.38055647839886853 0 -0.19679788442942281 -0.37179865272141283 0 -0.17054684086389499 -0.393050868954334 0 -0.17137432017667339 -0.38055647839886853 0 -0.1893644093217168 -0.391500247533625 0 -0.17137432017667339 -0.38055647839886853 0 -0.1893644093217168 -0.391500247533625 0 -0.19679788442942281 -0.37179865272141283 0 -0.1893644093217168 -0.391500247533625 0 -0.212014668548098 -0.38853391591678432 0 -0.19679788442942281 -0.37179865272141283 0 -0.1893644093217168 -0.391500247533625 0 -0.2044465785325528 -0.40160706205743629 0 -0.19603674874616939 -0.4162337104910645 0 -0.1893644093217168 -0.391500247533625 0 -0.2044465785325528 -0.40160706205743629 0 -0.212014668548098 -0.38853391591678432 0 -0.2044465785325528 -0.40160706205743629 0 -0.212014668548098 -0.38853391591678432 0 -0.22037048751422669 -0.41016037428827151 0 -0.1895432369999315 -0.43829417898531481 0 -0.19603674874616939 -0.4162337104910645 0 -0.20803824342284341 -0.43491290331691052 0 -0.19603674874616939 -0.4162337104910645 0 -0.20803824342284341 -0.43491290331691052 0 -0.22037048751422669 -0.41016037428827151 0 -0.2044465785325528 -0.40160706205743629 0 -0.19603674874616939 -0.4162337104910645 0 -0.22037048751422669 -0.41016037428827151 0 -0.20803824342284341 -0.43491290331691052 0 -0.22866400214922519 -0.4323539247487681 0 -0.22037048751422669 -0.41016037428827151 0 -0.22866400214922519 -0.4323539247487681 0 -0.22037048751422669 -0.41016037428827151 0 -0.2398260539233123 -0.40635362640076939 0 -0.2508025864554484 -0.42342920517477511 0 -0.22866400214922519 -0.4323539247487681 0 -0.2398260539233123 -0.40635362640076939 0 -0.25798598677664653 -0.40839355879822758 0 -0.2508025864554484 -0.42342920517477511 0 -0.2398260539233123 -0.40635362640076939 0 -0.2508025864554484 -0.42342920517477511 0 -0.24798448244294169 -0.44044379775122972 0 -0.22866400214922519 -0.4323539247487681 0 -0.212014668548098 -0.38853391591678432 0 -0.23614987629629591 -0.38625097822803278 0 -0.2222214486821722 -0.36304082704395713 0 -0.22037048751422669 -0.41016037428827151 0 -0.2398260539233123 -0.40635362640076939 0 -0.23614987629629591 -0.38625097822803278 0 -0.212014668548098 -0.38853391591678432 0 -0.22037048751422669 -0.41016037428827151 0 -0.23614987629629591 -0.38625097822803278 0 -0.25752155815385591 -0.39190839524006499 0 -0.2398260539233123 -0.40635362640076939 0 -0.23614987629629591 -0.38625097822803278 0 -0.25752155815385591 -0.39190839524006499 0 -0.25511983444113662 -0.37675237567067238 0 -0.23614987629629591 -0.38625097822803278 0 -0.25511983444113662 -0.37675237567067238 0 -0.23614987629629591 -0.38625097822803278 0 -0.24425933049131429 -0.36599364078503788 0 -0.23614987629629591 -0.38625097822803278 0 -0.24425933049131429 -0.36599364078503788 0 -0.2222214486821722 -0.36304082704395713 0 -0.2222214486821722 -0.36304082704395713 0 -0.23966383531882179 -0.34287124723269241 0 -0.21942804704053129 -0.34330229699993869 0 -0.24425933049131429 -0.36599364078503788 0 -0.2222214486821722 -0.36304082704395713 0 -0.23966383531882179 -0.34287124723269241 0 -0.25578547784624678 -0.34709391313460092 0 -0.24425933049131429 -0.36599364078503788 0 -0.23966383531882179 -0.34287124723269241 0 -0.25578547784624678 -0.34709391313460092 0 -0.25237312146500362 -0.32662110583532472 0 -0.23966383531882179 -0.34287124723269241 0 -0.25237312146500362 -0.32662110583532472 0 -0.23966383531882179 -0.34287124723269241 0 -0.22207845948369079 -0.32576598210807028 0 -0.25237312146500362 -0.32662110583532472 0 -0.22207845948369079 -0.32576598210807028 0 -0.2340529994654115 -0.30753348721577523 0 -0.22207845948369079 -0.32576598210807028 0 -0.2340529994654115 -0.30753348721577523 0 -0.21812240418364459 -0.31034640980553319 0 -0.23966383531882179 -0.34287124723269241 0 -0.22207845948369079 -0.32576598210807028 0 -0.21942804704053129 -0.34330229699993869 0 -0.23966383531882179 -0.34287124723269241 0 -0.22207845948369079 -0.32576598210807028 0 -0.22207845948369079 -0.32576598210807028 0 -0.21942804704053129 -0.34330229699993869 0 -0.20517428557566961 -0.33031894067409029 0 -0.21942804704053129 -0.34330229699993869 0 -0.20517428557566961 -0.33031894067409029 0 -0.19813289604183409 -0.34962158558824469 0 -0.22207845948369079 -0.32576598210807028 0 -0.2058330686065063 -0.31969565122308652 0 -0.2044930836485597 -0.3086607169834481 0 -0.22207845948369079 -0.32576598210807028 0 -0.21812240418364459 -0.31034640980553319 0 -0.2044930836485597 -0.3086607169834481 0 -0.22207845948369079 -0.32576598210807028 0 -0.20517428557566961 -0.33031894067409029 0 -0.2058330686065063 -0.31969565122308652 0 -0.22207845948369079 -0.32576598210807028 0 -0.2044930836485597 -0.3086607169834481 0 -0.2058330686065063 -0.31969565122308652 0 -0.20024044037063299 -0.31400958458352679 0 -0.2044930836485597 -0.3086607169834481 0 -0.20517428557566961 -0.33031894067409029 0 -0.19607640433064119 -0.31891279924691829 0 -0.18407489548239159 -0.32563176934309629 0 -0.19607640433064119 -0.31891279924691829 0 -0.18397571869752349 -0.30989706921117388 0 -0.18407489548239159 -0.32563176934309629 0 -0.19607640433064119 -0.31891279924691829 0 -0.20024044037063299 -0.31400958458352679 0 -0.19455920489682471 -0.30876917088065442 0 -0.2058330686065063 -0.31969565122308652 0 -0.19607640433064119 -0.31891279924691829 0 -0.20024044037063299 -0.31400958458352679 0 -0.20517428557566961 -0.33031894067409029 0 -0.2058330686065063 -0.31969565122308652 0 -0.19607640433064119 -0.31891279924691829 0 -0.19607640433064119 -0.31891279924691829 0 -0.19455920489682471 -0.30876917088065442 0 -0.18397571869752349 -0.30989706921117388 0 -0.20517428557566961 -0.33031894067409029 0 -0.19813289604183409 -0.34962158558824469 0 -0.18407489548239159 -0.32563176934309629 0 -0.19813289604183409 -0.34962158558824469 0 -0.19679788442942281 -0.37179865272141283 0 -0.18159786452255661 -0.36328786657103379 0 -0.212014668548098 -0.38853391591678432 0 -0.2222214486821722 -0.36304082704395713 0 -0.19679788442942281 -0.37179865272141283 0 -0.2222214486821722 -0.36304082704395713 0 -0.19679788442942281 -0.37179865272141283 0 -0.2222214486821722 -0.36304082704395713 0 -0.19813289604183409 -0.34962158558824469 0 -0.19679788442942281 -0.37179865272141283 0 -0.2222214486821722 -0.36304082704395713 0 -0.21942804704053129 -0.34330229699993869 0 -0.19813289604183409 -0.34962158558824469 0 -0.2301036847276843 -0.25289206533091552 0 -0.23034009880109721 -0.27519825841223838 0 -0.21369570571370511 -0.26757834123152902 0 -0.2301036847276843 -0.25289206533091552 0 -0.21369570571370511 -0.26757834123152902 0 -0.2301036847276843 -0.25289206533091552 0 -0.2436707875108142 -0.26489452316303808 0 -0.23034009880109721 -0.27519825841223838 0 -0.2301036847276843 -0.25289206533091552 0 -0.2436707875108142 -0.26489452316303808 0 -0.24264519135628629 -0.24509367478286839 0 -0.25936586251244231 -0.25386453087350291 0 -0.2436707875108142 -0.26489452316303808 0 -0.24264519135628629 -0.24509367478286839 0 -0.25332565210567148 -0.28605568982608082 0 -0.2436707875108142 -0.26489452316303808 0 -0.23034009880109721 -0.27519825841223838 0 -0.23034009880109721 -0.27519825841223838 0 -0.2198860844363808 -0.28636995498242612 0 -0.21369570571370511 -0.26757834123152902 0 -0.23034009880109721 -0.27519825841223838 0 -0.2198860844363808 -0.28636995498242612 0 -0.23186694904312671 -0.29104905523309538 0 -0.2198860844363808 -0.28636995498242612 0 -0.23186694904312671 -0.29104905523309538 0 -0.2217299104070726 -0.30008788572895639 0 -0.25332565210567148 -0.28605568982608082 0 -0.2340529994654115 -0.30753348721577523 0 -0.25332565210567148 -0.28605568982608082 0 -0.23034009880109721 -0.27519825841223838 0 -0.23186694904312671 -0.29104905523309538 0 -0.25332565210567148 -0.28605568982608082 0 -0.23186694904312671 -0.29104905523309538 0 -0.2340529994654115 -0.30753348721577523 0 -0.23186694904312671 -0.29104905523309538 0 -0.2340529994654115 -0.30753348721577523 0 -0.2217299104070726 -0.30008788572895639 0 -0.2340529994654115 -0.30753348721577523 0 -0.2217299104070726 -0.30008788572895639 0 -0.21812240418364459 -0.31034640980553319 0 -0.2217299104070726 -0.30008788572895639 0 -0.21812240418364459 -0.31034640980553319 0 -0.20800053411050751 -0.30442375149574408 0 -0.2217299104070726 -0.30008788572895639 0 -0.20800053411050751 -0.30442375149574408 0 -0.21385433109524071 -0.29480126400646622 0 -0.20800053411050751 -0.30442375149574408 0 -0.2044930836485597 -0.3086607169834481 0 -0.19917226306805541 -0.29672613436753997 0 -0.21812240418364459 -0.31034640980553319 0 -0.20800053411050751 -0.30442375149574408 0 -0.2044930836485597 -0.3086607169834481 0 -0.20024044037063299 -0.31400958458352679 0 -0.2044930836485597 -0.3086607169834481 0 -0.19455920489682471 -0.30876917088065442 0 -0.2044930836485597 -0.3086607169834481 0 -0.19455920489682471 -0.30876917088065442 0 -0.18690770781342869 -0.29155545185882592 0 -0.2044930836485597 -0.3086607169834481 0 -0.18690770781342869 -0.29155545185882592 0 -0.19455920489682471 -0.30876917088065442 0 -0.18690770781342869 -0.29155545185882592 0 -0.18397571869752349 -0.30989706921117388 0 -0.2044930836485597 -0.3086607169834481 0 -0.19917226306805541 -0.29672613436753997 0 -0.18690770781342869 -0.29155545185882592 0 -0.20800053411050751 -0.30442375149574408 0 -0.19917226306805541 -0.29672613436753997 0 -0.1972877266997255 -0.28226461713214201 0 -0.20800053411050751 -0.30442375149574408 0 -0.1972877266997255 -0.28226461713214201 0 -0.19917226306805541 -0.29672613436753997 0 -0.1972877266997255 -0.28226461713214201 0 -0.18690770781342869 -0.29155545185882592 0 -0.1972877266997255 -0.28226461713214201 0 -0.18709712217457619 -0.28272767149176531 0 -0.18690770781342869 -0.29155545185882592 0 -0.1972877266997255 -0.28226461713214201 0 -0.18690770781342869 -0.29155545185882592 0 -0.20800053411050751 -0.30442375149574408 0 -0.1972877266997255 -0.28226461713214201 0 -0.2091894247013662 -0.28744069378368348 0 -0.20800053411050751 -0.30442375149574408 0 -0.2091894247013662 -0.28744069378368348 0 -0.21385433109524071 -0.29480126400646622 0 -0.2198860844363808 -0.28636995498242612 0 -0.2217299104070726 -0.30008788572895639 0 -0.21385433109524071 -0.29480126400646622 0 -0.2198860844363808 -0.28636995498242612 0 -0.2091894247013662 -0.28744069378368348 0 -0.21385433109524071 -0.29480126400646622 0 -0.2198860844363808 -0.28636995498242612 0 -0.2091894247013662 -0.28744069378368348 0 -0.21369570571370511 -0.26757834123152902 0 -0.1972877266997255 -0.28226461713214201 0 -0.21369570571370511 -0.26757834123152902 0 -0.21369570571370511 -0.26757834123152902 0 -0.1965521693435329 -0.27405691879760219 0 -0.2009193506261201 -0.26648292983687172 0 -0.1972877266997255 -0.28226461713214201 0 -0.2091894247013662 -0.28744069378368348 0 -0.21369570571370511 -0.26757834123152902 0 -0.1972877266997255 -0.28226461713214201 0 -0.21369570571370511 -0.26757834123152902 0 -0.1965521693435329 -0.27405691879760219 0 -0.1972877266997255 -0.28226461713214201 0 -0.18802962743791141 -0.26311450478272952 0 -0.18572259184670251 -0.2755342013873181 0 -0.1972877266997255 -0.28226461713214201 0 -0.1965521693435329 -0.27405691879760219 0 -0.18802962743791141 -0.26311450478272952 0 -0.1972877266997255 -0.28226461713214201 0 -0.18802962743791141 -0.26311450478272952 0 -0.1972877266997255 -0.28226461713214201 0 -0.18572259184670251 -0.2755342013873181 0 -0.18709712217457619 -0.28272767149176531 0 -0.1965521693435329 -0.27405691879760219 0 -0.18766184875981529 -0.25901065561545938 0 -0.1965521693435329 -0.27405691879760219 0 -0.2009193506261201 -0.26648292983687172 0 -0.1949454598959087 -0.2618778105822368 0 -0.2009193506261201 -0.26648292983687172 0 -0.20280255682932599 -0.2611826906608003 0 -0.1949454598959087 -0.2618778105822368 0 -0.20280255682932599 -0.2611826906608003 0 -0.1949454598959087 -0.2618778105822368 0 -0.19813911327843581 -0.25427749259247479 0 -0.1965521693435329 -0.27405691879760219 0 -0.18802962743791141 -0.26311450478272952 0 -0.18766184875981529 -0.25901065561545938 0 -0.1965521693435329 -0.27405691879760219 0 -0.1949454598959087 -0.2618778105822368 0 -0.18766184875981529 -0.25901065561545938 0 -0.1949454598959087 -0.2618778105822368 0 -0.18766184875981529 -0.25901065561545938 0 -0.19813911327843581 -0.25427749259247479 0 -0.18766184875981529 -0.25901065561545938 0 -0.19813911327843581 -0.25427749259247479 0 -0.1928789223339735 -0.2457784416041302 0 -0.20280255682932599 -0.2611826906608003 0 -0.19813911327843581 -0.25427749259247479 0 -0.21214605112684379 -0.25359047249918482 0 -0.19813911327843581 -0.25427749259247479 0 -0.21214605112684379 -0.25359047249918482 0 -0.20541533083038721 -0.24271412210804791 0 -0.2301036847276843 -0.25289206533091552 0 -0.21369570571370511 -0.26757834123152902 0 -0.21214605112684379 -0.25359047249918482 0 -0.21369570571370511 -0.26757834123152902 0 -0.20280255682932599 -0.2611826906608003 0 -0.21214605112684379 -0.25359047249918482 0 -0.21369570571370511 -0.26757834123152902 0 -0.2009193506261201 -0.26648292983687172 0 -0.20280255682932599 -0.2611826906608003 0 -0.16371695415659321 -0.2550265601545576 0 -0.1569880361288114 -0.25010918782341363 0 -0.15224573417267731 -0.25640557201087449 0 -0.16371695415659321 -0.2550265601545576 0 -0.1569880361288114 -0.25010918782341363 0 -0.16493804024861189 -0.24524969490322959 0 -0.16371695415659321 -0.2550265601545576 0 -0.16066453004546499 -0.26357825034197813 0 -0.15224573417267731 -0.25640557201087449 0 -0.16066453004546499 -0.26357825034197813 0 -0.17030434582750101 -0.26192193980114331 0 -0.16769296791843541 -0.27081866547922068 0 -0.16371695415659321 -0.2550265601545576 0 -0.16066453004546499 -0.26357825034197813 0 -0.17030434582750101 -0.26192193980114331 0 -0.16371695415659321 -0.2550265601545576 0 -0.17030434582750101 -0.26192193980114331 0 -0.1710440576846288 -0.252798823118286 0 -0.16371695415659321 -0.2550265601545576 0 -0.1710440576846288 -0.252798823118286 0 -0.16493804024861189 -0.24524969490322959 0 -0.18802962743791141 -0.26311450478272952 0 -0.17748942001434059 -0.25783152829918271 0 -0.17877152817609759 -0.24396439243331669 0 -0.17030434582750101 -0.26192193980114331 0 -0.1710440576846288 -0.252798823118286 0 -0.17748942001434059 -0.25783152829918271 0 -0.18802962743791141 -0.26311450478272952 0 -0.17877152817609759 -0.24396439243331669 0 -0.1710440576846288 -0.252798823118286 0 -0.17748942001434059 -0.25783152829918271 0 -0.17877152817609759 -0.24396439243331669 0 -0.18802962743791141 -0.26311450478272952 0 -0.18766184875981529 -0.25901065561545938 0 -0.17877152817609759 -0.24396439243331669 0 -0.18766184875981529 -0.25901065561545938 0 -0.17877152817609759 -0.24396439243331669 0 -0.18802962743791141 -0.26311450478272952 0 -0.17748942001434059 -0.25783152829918271 0 -0.17750743240034841 -0.26843954682154508 0 -0.17030434582750101 -0.26192193980114331 0 -0.17748942001434059 -0.25783152829918271 0 -0.17750743240034841 -0.26843954682154508 0 -0.17750743240034841 -0.26843954682154508 0 -0.1753224248657046 -0.28028646686683661 0 -0.16769296791843541 -0.27081866547922068 0 -0.18802962743791141 -0.26311450478272952 0 -0.17750743240034841 -0.26843954682154508 0 -0.18572259184670251 -0.2755342013873181 0 -0.18572259184670251 -0.2755342013873181 0 -0.1753224248657046 -0.28028646686683661 0 -0.18709712217457619 -0.28272767149176531 0 -0.17750743240034841 -0.26843954682154508 0 -0.18572259184670251 -0.2755342013873181 0 -0.1753224248657046 -0.28028646686683661 0 -0.1753224248657046 -0.28028646686683661 0 -0.16421447852021631 -0.27890697235699202 0 -0.16769296791843541 -0.27081866547922068 0 -0.17030434582750101 -0.26192193980114331 0 -0.17750743240034841 -0.26843954682154508 0 -0.16769296791843541 -0.27081866547922068 0 -0.16066453004546499 -0.26357825034197813 0 -0.16769296791843541 -0.27081866547922068 0 -0.15814459585137741 -0.27177881668682968 0 -0.16066453004546499 -0.26357825034197813 0 -0.15814459585137741 -0.27177881668682968 0 -0.15264004476924389 -0.26439480283571298 0 -0.16421447852021631 -0.27890697235699202 0 -0.16769296791843541 -0.27081866547922068 0 -0.15814459585137741 -0.27177881668682968 0 -0.16421447852021631 -0.27890697235699202 0 -0.15814459585137741 -0.27177881668682968 0 -0.1588341327585325 -0.27970137737287232 0 -0.15814459585137741 -0.27177881668682968 0 -0.1588341327585325 -0.27970137737287232 0 -0.1518782803085974 -0.2724417652409945 0 -0.15633391673862279 -0.28765063603351432 0 -0.16911897477805399 -0.29245388857735333 0 -0.17075517666275369 -0.30601308425644969 0 -0.15633391673862279 -0.28765063603351432 0 -0.17075517666275369 -0.30601308425644969 0 -0.1529245391476636 -0.29534462532904732 0 -0.15633391673862279 -0.28765063603351432 0 -0.17075517666275369 -0.30601308425644969 0 -0.15633391673862279 -0.28765063603351432 0 -0.16911897477805399 -0.29245388857735333 0 -0.16419398071995969 -0.28572419230903229 0 -0.1588341327585325 -0.27970137737287232 0 -0.15633391673862279 -0.28765063603351432 0 -0.16419398071995969 -0.28572419230903229 0 -0.16421447852021631 -0.27890697235699202 0 -0.1588341327585325 -0.27970137737287232 0 -0.16419398071995969 -0.28572419230903229 0 -0.1753224248657046 -0.28028646686683661 0 -0.16911897477805399 -0.29245388857735333 0 -0.16419398071995969 -0.28572419230903229 0 -0.1753224248657046 -0.28028646686683661 0 -0.16421447852021631 -0.27890697235699202 0 -0.16419398071995969 -0.28572419230903229 0 -0.16911897477805399 -0.29245388857735333 0 -0.18690770781342869 -0.29155545185882592 0 -0.17075517666275369 -0.30601308425644969 0 -0.1753224248657046 -0.28028646686683661 0 -0.16911897477805399 -0.29245388857735333 0 -0.18690770781342869 -0.29155545185882592 0 -0.1753224248657046 -0.28028646686683661 0 -0.18709712217457619 -0.28272767149176531 0 -0.18690770781342869 -0.29155545185882592 0 -0.1753224248657046 -0.28028646686683661 0 -0.18690770781342869 -0.29155545185882592 0 -0.18690770781342869 -0.29155545185882592 0 -0.18397571869752349 -0.30989706921117388 0 -0.17075517666275369 -0.30601308425644969 0 -0.18690770781342869 -0.29155545185882592 0 -0.17075517666275369 -0.30601308425644969 0 -0.1529245391476636 -0.29534462532904732 0 -0.16338565092858881 -0.32202918127937108 0 -0.17075517666275369 -0.30601308425644969 0 -0.1529245391476636 -0.29534462532904732 0 -0.16338565092858881 -0.32202918127937108 0 -0.148954723732422 -0.31246659182542602 0 -0.13945613576142779 -0.30085220311508593 0 -0.1529245391476636 -0.29534462532904732 0 -0.148954723732422 -0.31246659182542602 0 -0.1529245391476636 -0.29534462532904732 0 -0.16338565092858881 -0.32202918127937108 0 -0.148954723732422 -0.31246659182542602 0 -0.13945613576142779 -0.30085220311508593 0 -0.13929065359666859 -0.31681455392253638 0 -0.12640637382325889 -0.31147832837109007 0 -0.13945613576142779 -0.30085220311508593 0 -0.13929065359666859 -0.31681455392253638 0 -0.12640637382325889 -0.31147832837109007 0 -0.13945613576142779 -0.30085220311508593 0 -0.11602046319131511 -0.2984075710798082 0 -0.13945613576142779 -0.30085220311508593 0 -0.13230768283760619 -0.28697864375600979 0 -0.14159898657701511 -0.29108417476265269 0 -0.13945613576142779 -0.30085220311508593 0 -0.13230768283760619 -0.28697864375600979 0 -0.11602046319131511 -0.2984075710798082 0 -0.13230768283760619 -0.28697864375600979 0 -0.14054868494499159 -0.28327526983456791 0 -0.13344878879593461 -0.27430883594640681 0 -0.13230768283760619 -0.28697864375600979 0 -0.14054868494499159 -0.28327526983456791 0 -0.14159898657701511 -0.29108417476265269 0 -0.1529245391476636 -0.29534462532904732 0 -0.14246342736673839 -0.26866006937872322 0 -0.15633391673862279 -0.28765063603351432 0 -0.1529245391476636 -0.29534462532904732 0 -0.14246342736673839 -0.26866006937872322 0 -0.14054868494499159 -0.28327526983456791 0 -0.1529245391476636 -0.29534462532904732 0 -0.14246342736673839 -0.26866006937872322 0 -0.13945613576142779 -0.30085220311508593 0 -0.14159898657701511 -0.29108417476265269 0 -0.1529245391476636 -0.29534462532904732 0 -0.14054868494499159 -0.28327526983456791 0 -0.14159898657701511 -0.29108417476265269 0 -0.1529245391476636 -0.29534462532904732 0 -0.15633391673862279 -0.28765063603351432 0 -0.1518782803085974 -0.2724417652409945 0 -0.14246342736673839 -0.26866006937872322 0 -0.15633391673862279 -0.28765063603351432 0 -0.14246342736673839 -0.26866006937872322 0 -0.1588341327585325 -0.27970137737287232 0 -0.15633391673862279 -0.28765063603351432 0 -0.1518782803085974 -0.2724417652409945 0 -0.15814459585137741 -0.27177881668682968 0 -0.1518782803085974 -0.2724417652409945 0 -0.15264004476924389 -0.26439480283571298 0 -0.1518782803085974 -0.2724417652409945 0 -0.1454831879039768 -0.26124882050539588 0 -0.15264004476924389 -0.26439480283571298 0 -0.1518782803085974 -0.2724417652409945 0 -0.14246342736673839 -0.26866006937872322 0 -0.1454831879039768 -0.26124882050539588 0 -0.14054868494499159 -0.28327526983456791 0 -0.14246342736673839 -0.26866006937872322 0 -0.13344878879593461 -0.27430883594640681 0 -0.13230768283760619 -0.28697864375600979 0 -0.13344878879593461 -0.27430883594640681 0 -0.1209370948648774 -0.27652459037072719 0 -0.13344878879593461 -0.27430883594640681 0 -0.12538925998469919 -0.2683061254247282 0 -0.1209370948648774 -0.27652459037072719 0 -0.13344878879593461 -0.27430883594640681 0 -0.12538925998469919 -0.2683061254247282 0 -0.13596145816143121 -0.26432847201280107 0 -0.14246342736673839 -0.26866006937872322 0 -0.13344878879593461 -0.27430883594640681 0 -0.13596145816143121 -0.26432847201280107 0 -0.14246342736673839 -0.26866006937872322 0 -0.13391280599054789 -0.2468488566413706 0 -0.14246342736673839 -0.26866006937872322 0 -0.12764737227819381 -0.2483748960026205 0 -0.14246342736673839 -0.26866006937872322 0 -0.13391280599054789 -0.2468488566413706 0 -0.12764737227819381 -0.2483748960026205 0 -0.14246342736673839 -0.26866006937872322 0 -0.1454831879039768 -0.26124882050539588 0 -0.13391280599054789 -0.2468488566413706 0 -0.14246342736673839 -0.26866006937872322 0 -0.13596145816143121 -0.26432847201280107 0 -0.12764737227819381 -0.2483748960026205 0 -0.13596145816143121 -0.26432847201280107 0 -0.12207913521289521 -0.25348051790843218 0 -0.12764737227819381 -0.2483748960026205 0 -0.14408301200767651 -0.25339504127440221 0 -0.1454831879039768 -0.26124882050539588 0 -0.13391280599054789 -0.2468488566413706 0 -0.14408301200767651 -0.25339504127440221 0 -0.1454831879039768 -0.26124882050539588 0 -0.15224573417267731 -0.25640557201087449 0 -0.14408301200767651 -0.25339504127440221 0 -0.15224573417267731 -0.25640557201087449 0 -0.1488761499473211 -0.2492618143620256 0 -0.1454831879039768 -0.26124882050539588 0 -0.15264004476924389 -0.26439480283571298 0 -0.15224573417267731 -0.25640557201087449 0 -0.16066453004546499 -0.26357825034197813 0 -0.15264004476924389 -0.26439480283571298 0 -0.15224573417267731 -0.25640557201087449 0 -0.1569880361288114 -0.25010918782341363 0 -0.15224573417267731 -0.25640557201087449 0 -0.1488761499473211 -0.2492618143620256 0 -0.16783745925533861 -0.36574887891694802 0 -0.17384676270951399 -0.34871373722969501 0 -0.1558309775043106 -0.36089481663702427 0 -0.17384676270951399 -0.34871373722969501 0 -0.1553606086559346 -0.34057887101574608 0 -0.1558309775043106 -0.36089481663702427 0 -0.15629197021005151 -0.37486427310554238 0 -0.16783745925533861 -0.36574887891694802 0 -0.1558309775043106 -0.36089481663702427 0 -0.17137432017667339 -0.38055647839886853 0 -0.15629197021005151 -0.37486427310554238 0 -0.16783745925533861 -0.36574887891694802 0 -0.17137432017667339 -0.38055647839886853 0 -0.16783745925533861 -0.36574887891694802 0 -0.18159786452255661 -0.36328786657103379 0 -0.17137432017667339 -0.38055647839886853 0 -0.19679788442942281 -0.37179865272141283 0 -0.18159786452255661 -0.36328786657103379 0 -0.19813289604183409 -0.34962158558824469 0 -0.18159786452255661 -0.36328786657103379 0 -0.17384676270951399 -0.34871373722969501 0 -0.16783745925533861 -0.36574887891694802 0 -0.18159786452255661 -0.36328786657103379 0 -0.17384676270951399 -0.34871373722969501 0 -0.19813289604183409 -0.34962158558824469 0 -0.17384676270951399 -0.34871373722969501 0 -0.18407489548239159 -0.32563176934309629 0 -0.17384676270951399 -0.34871373722969501 0 -0.18407489548239159 -0.32563176934309629 0 -0.16338565092858881 -0.32202918127937108 0 -0.18397571869752349 -0.30989706921117388 0 -0.17075517666275369 -0.30601308425644969 0 -0.18407489548239159 -0.32563176934309629 0 -0.17075517666275369 -0.30601308425644969 0 -0.18407489548239159 -0.32563176934309629 0 -0.16338565092858881 -0.32202918127937108 0 -0.17075517666275369 -0.30601308425644969 0 -0.18407489548239159 -0.32563176934309629 0 -0.17384676270951399 -0.34871373722969501 0 -0.16338565092858881 -0.32202918127937108 0 -0.17384676270951399 -0.34871373722969501 0 -0.16338565092858881 -0.32202918127937108 0 -0.1553606086559346 -0.34057887101574608 0 -0.1553606086559346 -0.34057887101574608 0 -0.14932855802253231 -0.32587235760265248 0 -0.13887499078859039 -0.33463251421330997 0 -0.16338565092858881 -0.32202918127937108 0 -0.1553606086559346 -0.34057887101574608 0 -0.14932855802253231 -0.32587235760265248 0 -0.1553606086559346 -0.34057887101574608 0 -0.13887499078859039 -0.33463251421330997 0 -0.13955855626761091 -0.35395135270505929 0 -0.14932855802253231 -0.32587235760265248 0 -0.13929065359666859 -0.31681455392253638 0 -0.13887499078859039 -0.33463251421330997 0 -0.148954723732422 -0.31246659182542602 0 -0.16338565092858881 -0.32202918127937108 0 -0.14932855802253231 -0.32587235760265248 0 -0.148954723732422 -0.31246659182542602 0 -0.14932855802253231 -0.32587235760265248 0 -0.13929065359666859 -0.31681455392253638 0 -0.13929065359666859 -0.31681455392253638 0 -0.1265515821887456 -0.32574818494832319 0 -0.13887499078859039 -0.33463251421330997 0 -0.12640637382325889 -0.31147832837109007 0 -0.13929065359666859 -0.31681455392253638 0 -0.1265515821887456 -0.32574818494832319 0 -0.1265515821887456 -0.32574818494832319 0 -0.13887499078859039 -0.33463251421330997 0 -0.1207251973046671 -0.34514242460963529 0 -0.13955855626761091 -0.35395135270505929 0 -0.12558564722702789 -0.36617684126490613 0 -0.1207251973046671 -0.34514242460963529 0 -0.13887499078859039 -0.33463251421330997 0 -0.13955855626761091 -0.35395135270505929 0 -0.1207251973046671 -0.34514242460963529 0 -0.1553606086559346 -0.34057887101574608 0 -0.13955855626761091 -0.35395135270505929 0 -0.1558309775043106 -0.36089481663702427 0 -0.13955855626761091 -0.35395135270505929 0 -0.1558309775043106 -0.36089481663702427 0 -0.14252599928057591 -0.37491964594710597 0 -0.15629197021005151 -0.37486427310554238 0 -0.1558309775043106 -0.36089481663702427 0 -0.14252599928057591 -0.37491964594710597 0 -0.12771196938011589 -0.37978297355390001 0 -0.14252599928057591 -0.37491964594710597 0 -0.12558564722702789 -0.36617684126490613 0 -0.13955855626761091 -0.35395135270505929 0 -0.14252599928057591 -0.37491964594710597 0 -0.12558564722702789 -0.36617684126490613 0 -0.12771196938011589 -0.37978297355390001 0 -0.12558564722702789 -0.36617684126490613 0 -0.1110436426264407 -0.37785582455419431 0 -0.12558564722702789 -0.36617684126490613 0 -0.1097668850378011 -0.36236560930004957 0 -0.1110436426264407 -0.37785582455419431 0 -0.099796067850610973 -0.34874269664456647 0 -0.091683870180258892 -0.37391025942694572 0 -0.1097668850378011 -0.36236560930004957 0 -0.099796067850610973 -0.34874269664456647 0 -0.091683870180258892 -0.37391025942694572 0 -0.1097668850378011 -0.36236560930004957 0 -0.091683870180258892 -0.37391025942694572 0 -0.1110436426264407 -0.37785582455419431 0 -0.1097668850378011 -0.36236560930004957 0 -0.099796067850610973 -0.34874269664456647 0 -0.1207251973046671 -0.34514242460963529 0 -0.12558564722702789 -0.36617684126490613 0 -0.1097668850378011 -0.36236560930004957 0 -0.1207251973046671 -0.34514242460963529 0 -0.099796067850610973 -0.34874269664456647 0 -0.1207251973046671 -0.34514242460963529 0 -0.1079082655209631 -0.32357513386218728 0 -0.1265515821887456 -0.32574818494832319 0 -0.1207251973046671 -0.34514242460963529 0 -0.1079082655209631 -0.32357513386218728 0 -0.12640637382325889 -0.31147832837109007 0 -0.1265515821887456 -0.32574818494832319 0 -0.1079082655209631 -0.32357513386218728 0 -0.099796067850610973 -0.34874269664456647 0 -0.1079082655209631 -0.32357513386218728 0 -0.099796067850610973 -0.34874269664456647 0 -0.1079082655209631 -0.32357513386218728 0 -0.082804530435965445 -0.33364935335156959 0 -0.1079082655209631 -0.32357513386218728 0 -0.082804530435965445 -0.33364935335156959 0 -0.077712805655610839 -0.31217060602839419 0 -0.082804530435965445 -0.33364935335156959 0 -0.077712805655610839 -0.31217060602839419 0 -0.054351227428981519 -0.33385420690820661 0 -0.082804530435965445 -0.33364935335156959 0 -0.074254285723660815 -0.34990412331449372 0 -0.054351227428981519 -0.33385420690820661 0 -0.0748794831214427 -0.36778061788374439 0 -0.057525302024476817 -0.36836901825095281 0 -0.0722412717614421 -0.38564608381083931 0 -0.074254285723660815 -0.34990412331449372 0 -0.0748794831214427 -0.36778061788374439 0 -0.057525302024476817 -0.36836901825095281 0 -0.099796067850610973 -0.34874269664456647 0 -0.0748794831214427 -0.36778061788374439 0 -0.091683870180258892 -0.37391025942694572 0 -0.099796067850610973 -0.34874269664456647 0 -0.082804530435965445 -0.33364935335156959 0 -0.074254285723660815 -0.34990412331449372 0 -0.099796067850610973 -0.34874269664456647 0 -0.074254285723660815 -0.34990412331449372 0 -0.0748794831214427 -0.36778061788374439 0 -0.1112096981165536 -0.25806260336897779 0 -0.086457938071675899 -0.25179673472515451 0 -0.1112096981165536 -0.25806260336897779 0 -0.10571374847947219 -0.2717625189390091 0 -0.086457938071675899 -0.25179673472515451 0 -0.12207913521289521 -0.25348051790843218 0 -0.1112096981165536 -0.25806260336897779 0 -0.1134980122954021 -0.24315610024932949 0 -0.12538925998469919 -0.2683061254247282 0 -0.13596145816143121 -0.26432847201280107 0 -0.1112096981165536 -0.25806260336897779 0 -0.13596145816143121 -0.26432847201280107 0 -0.1112096981165536 -0.25806260336897779 0 -0.13596145816143121 -0.26432847201280107 0 -0.12207913521289521 -0.25348051790843218 0 -0.1112096981165536 -0.25806260336897779 0 -0.12538925998469919 -0.2683061254247282 0 -0.1112096981165536 -0.25806260336897779 0 -0.1209370948648774 -0.27652459037072719 0 -0.1112096981165536 -0.25806260336897779 0 -0.1209370948648774 -0.27652459037072719 0 -0.10571374847947219 -0.2717625189390091 0 -0.10571374847947219 -0.2717625189390091 0 -0.092551496058423222 -0.28045253649709401 0 -0.086457938071675899 -0.25179673472515451 0 -0.11602046319131511 -0.2984075710798082 0 -0.09494959255894328 -0.30105355525753752 0 -0.092551496058423222 -0.28045253649709401 0 -0.10571374847947219 -0.2717625189390091 0 -0.11602046319131511 -0.2984075710798082 0 -0.092551496058423222 -0.28045253649709401 0 -0.1209370948648774 -0.27652459037072719 0 -0.10571374847947219 -0.2717625189390091 0 -0.11602046319131511 -0.2984075710798082 0 -0.13230768283760619 -0.28697864375600979 0 -0.1209370948648774 -0.27652459037072719 0 -0.11602046319131511 -0.2984075710798082 0 -0.12640637382325889 -0.31147832837109007 0 -0.1079082655209631 -0.32357513386218728 0 -0.11602046319131511 -0.2984075710798082 0 -0.1079082655209631 -0.32357513386218728 0 -0.11602046319131511 -0.2984075710798082 0 -0.1079082655209631 -0.32357513386218728 0 -0.11602046319131511 -0.2984075710798082 0 -0.09494959255894328 -0.30105355525753752 0 -0.09494959255894328 -0.30105355525753752 0 -0.077712805655610839 -0.31217060602839419 0 -0.08055493236840415 -0.29066192882020359 0 -0.1079082655209631 -0.32357513386218728 0 -0.09494959255894328 -0.30105355525753752 0 -0.077712805655610839 -0.31217060602839419 0 -0.077712805655610839 -0.31217060602839419 0 -0.063578702454025388 -0.29015470168713448 0 -0.053370301383142478 -0.31028013098575952 0 -0.077712805655610839 -0.31217060602839419 0 -0.063578702454025388 -0.29015470168713448 0 -0.08055493236840415 -0.29066192882020359 0 -0.063578702454025388 -0.29015470168713448 0 -0.08055493236840415 -0.29066192882020359 0 -0.073339863304827446 -0.27021855273053508 0 -0.09494959255894328 -0.30105355525753752 0 -0.08055493236840415 -0.29066192882020359 0 -0.092551496058423222 -0.28045253649709401 0 -0.092551496058423222 -0.28045253649709401 0 -0.073339863304827446 -0.27021855273053508 0 -0.086457938071675899 -0.25179673472515451 0 -0.08055493236840415 -0.29066192882020359 0 -0.092551496058423222 -0.28045253649709401 0 -0.073339863304827446 -0.27021855273053508 0 -0.063578702454025388 -0.29015470168713448 0 -0.073339863304827446 -0.27021855273053508 0 -0.05343136389180967 -0.26453009749404821 0 -0.073339863304827446 -0.27021855273053508 0 -0.05343136389180967 -0.26453009749404821 0 -0.061706178026798217 -0.24553086608133121 0 -0.073339863304827446 -0.27021855273053508 0 -0.086457938071675899 -0.25179673472515451 0 -0.061706178026798217 -0.24553086608133121 0 -0.031999930283234043 -0.26522523513204949 0 -0.05343136389180967 -0.26453009749404821 0 -0.036954417981920527 -0.2392649974375079 0 -0.063578702454025388 -0.29015470168713448 0 -0.05343136389180967 -0.26453009749404821 0 -0.042879734102962488 -0.28724379368503949 0 -0.031999930283234043 -0.26522523513204949 0 -0.05343136389180967 -0.26453009749404821 0 -0.042879734102962488 -0.28724379368503949 0 -0.031999930283234043 -0.26522523513204949 0 -0.042879734102962488 -0.28724379368503949 0 -0.02189632314108142 -0.28761925286459139 0 -0.042879734102962488 -0.28724379368503949 0 -0.031243214506653849 -0.30746889286840878 0 -0.02189632314108142 -0.28761925286459139 0 -0.063578702454025388 -0.29015470168713448 0 -0.042879734102962488 -0.28724379368503949 0 -0.053370301383142478 -0.31028013098575952 0 -0.042879734102962488 -0.28724379368503949 0 -0.053370301383142478 -0.31028013098575952 0 -0.031243214506653849 -0.30746889286840878 0 -0.031243214506653849 -0.30746889286840878 0 -0.0061618268048884896 -0.30723877497148222 0 -0.02189632314108142 -0.28761925286459139 0 -0.0061618268048884896 -0.30723877497148222 0 -0.0044487735413143732 -0.29125309173092712 0 0.0099365822910048255 -0.29898262374433909 0 -0.0061618268048884896 -0.30723877497148222 0 -0.0044487735413143732 -0.29125309173092712 0 -0.02189632314108142 -0.28761925286459139 0 -0.031999930283234043 -0.26522523513204949 0 -0.02189632314108142 -0.28761925286459139 0 -0.0083257157391786862 -0.2621261102623057 0 -0.0044487735413143732 -0.29125309173092712 0 -0.0083257157391786862 -0.2621261102623057 0 -0.0044487735413143732 -0.29125309173092712 0 -0.02189632314108142 -0.28761925286459139 0 -0.0083257157391786862 -0.2621261102623057 0 -0.0044487735413143732 -0.29125309173092712 0 -0.0083257157391786862 -0.2621261102623057 0 0.01246822017416711 -0.268216647768732 0 -0.031999930283234043 -0.26522523513204949 0 -0.0083257157391786862 -0.2621261102623057 0 -0.02237068048534405 -0.2499038679063868 0 -0.031999930283234043 -0.26522523513204949 0 -0.02237068048534405 -0.2499038679063868 0 -0.036954417981920527 -0.2392649974375079 0 -0.047779719409083578 -0.35192693909009343 0 -0.032883097536107048 -0.3397655648689229 0 -0.029538693044950819 -0.36438666356502719 0 -0.057525302024476817 -0.36836901825095281 0 -0.047779719409083578 -0.35192693909009343 0 -0.029538693044950819 -0.36438666356502719 0 -0.057525302024476817 -0.36836901825095281 0 -0.029538693044950819 -0.36438666356502719 0 -0.049062222780187702 -0.38881495899232682 0 -0.074254285723660815 -0.34990412331449372 0 -0.047779719409083578 -0.35192693909009343 0 -0.054351227428981519 -0.33385420690820661 0 -0.074254285723660815 -0.34990412331449372 0 -0.057525302024476817 -0.36836901825095281 0 -0.047779719409083578 -0.35192693909009343 0 -0.077712805655610839 -0.31217060602839419 0 -0.053370301383142478 -0.31028013098575952 0 -0.054351227428981519 -0.33385420690820661 0 -0.053370301383142478 -0.31028013098575952 0 -0.054351227428981519 -0.33385420690820661 0 -0.040050179506571172 -0.32385576361027429 0 -0.053370301383142478 -0.31028013098575952 0 -0.031243214506653849 -0.30746889286840878 0 -0.040050179506571172 -0.32385576361027429 0 -0.047779719409083578 -0.35192693909009343 0 -0.054351227428981519 -0.33385420690820661 0 -0.032883097536107048 -0.3397655648689229 0 -0.054351227428981519 -0.33385420690820661 0 -0.032883097536107048 -0.3397655648689229 0 -0.054351227428981519 -0.33385420690820661 0 -0.040050179506571172 -0.32385576361027429 0 -0.032883097536107048 -0.3397655648689229 0 -0.040050179506571172 -0.32385576361027429 0 -0.032883097536107048 -0.3397655648689229 0 -0.016100865768419421 -0.32750862552944288 0 -0.032883097536107048 -0.3397655648689229 0 -0.016100865768419421 -0.32750862552944288 0 -0.01141496764323254 -0.34567692282963919 0 -0.032883097536107048 -0.3397655648689229 0 -0.01141496764323254 -0.34567692282963919 0 -0.031243214506653849 -0.30746889286840878 0 -0.0061618268048884896 -0.30723877497148222 0 -0.016100865768419421 -0.32750862552944288 0 -0.031243214506653849 -0.30746889286840878 0 -0.040050179506571172 -0.32385576361027429 0 -0.016100865768419421 -0.32750862552944288 0 -0.0061618268048884896 -0.30723877497148222 0 -0.016100865768419421 -0.32750862552944288 0 0.0041244426393669828 -0.32530704085658613 0 -0.016100865768419421 -0.32750862552944288 0 0.00051641852415745609 -0.34180500859184709 0 0.0041244426393669828 -0.32530704085658613 0 -0.016100865768419421 -0.32750862552944288 0 -0.01141496764323254 -0.34567692282963919 0 0.00051641852415745609 -0.34180500859184709 0 -0.01141496764323254 -0.34567692282963919 0 -0.0041560947851077452 -0.36099627080717273 0 0.01005316224964173 -0.35158828079035609 0 -0.01141496764323254 -0.34567692282963919 0 0.01005316224964173 -0.35158828079035609 0 -0.01141496764323254 -0.34567692282963919 0 0.01005316224964173 -0.35158828079035609 0 0.00051641852415745609 -0.34180500859184709 0 -0.01141496764323254 -0.34567692282963919 0 -0.029538693044950819 -0.36438666356502719 0 -0.0041560947851077452 -0.36099627080717273 0 -0.032883097536107048 -0.3397655648689229 0 -0.01141496764323254 -0.34567692282963919 0 -0.029538693044950819 -0.36438666356502719 0 -0.029538693044950819 -0.36438666356502719 0 -0.0041560947851077452 -0.36099627080717273 0 -0.0089935967596312845 -0.37600889422938621 0 -0.0089935967596312845 -0.37600889422938621 0 -0.0026714207763636031 -0.39921203780759179 0 -0.025925725027241869 -0.38847522703443588 0 -0.025925725027241869 -0.38847522703443588 0 -0.042606212189603948 -0.41018744079131592 0 -0.02214096596021373 -0.40848321264658749 0 -0.0026714207763636031 -0.39921203780759179 0 -0.025925725027241869 -0.38847522703443588 0 -0.02214096596021373 -0.40848321264658749 0 -0.029538693044950819 -0.36438666356502719 0 -0.0089935967596312845 -0.37600889422938621 0 -0.025925725027241869 -0.38847522703443588 0 -0.029538693044950819 -0.36438666356502719 0 -0.025925725027241869 -0.38847522703443588 0 -0.049062222780187702 -0.38881495899232682 0 -0.025925725027241869 -0.38847522703443588 0 -0.049062222780187702 -0.38881495899232682 0 -0.042606212189603948 -0.41018744079131592 0 -0.049062222780187702 -0.38881495899232682 0 -0.042606212189603948 -0.41018744079131592 0 -0.067807741573776115 -0.40791911722167101 0 -0.057525302024476817 -0.36836901825095281 0 -0.049062222780187702 -0.38881495899232682 0 -0.0722412717614421 -0.38564608381083931 0 -0.042606212189603948 -0.41018744079131592 0 -0.04434025081335221 -0.4370464858116665 0 -0.06692893112006551 -0.43049454790296088 0 -0.042606212189603948 -0.41018744079131592 0 -0.067807741573776115 -0.40791911722167101 0 -0.06692893112006551 -0.43049454790296088 0 -0.042606212189603948 -0.41018744079131592 0 -0.04434025081335221 -0.4370464858116665 0 -0.028049948736153029 -0.42432367398492349 0 -0.028049948736153029 -0.42432367398492349 0 -0.010333105857996371 -0.4232681593450357 0 -0.02082920885959889 -0.44263307133001212 0 -0.04434025081335221 -0.4370464858116665 0 -0.028049948736153029 -0.42432367398492349 0 -0.02082920885959889 -0.44263307133001212 0 -0.028049948736153029 -0.42432367398492349 0 -0.02214096596021373 -0.40848321264658749 0 -0.010333105857996371 -0.4232681593450357 0 -0.042606212189603948 -0.41018744079131592 0 -0.028049948736153029 -0.42432367398492349 0 -0.02214096596021373 -0.40848321264658749 0 -0.0026714207763636031 -0.39921203780759179 0 -0.02214096596021373 -0.40848321264658749 0 -0.010333105857996371 -0.4232681593450357 0 -0.0026714207763636031 -0.39921203780759179 0 -0.010333105857996371 -0.4232681593450357 0 0.01187466835926587 -0.42381695181355522 0 -0.010333105857996371 -0.4232681593450357 0 -0.02082920885959889 -0.44263307133001212 0 0.0083772917317496299 -0.44625754927048522 0 -0.0122552006841631 -0.46413549044436769 0 -0.02082920885959889 -0.44263307133001212 0 0.0083772917317496299 -0.44625754927048522 0 -0.0122552006841631 -0.46413549044436769 0 -0.02082920885959889 -0.44263307133001212 0 -0.036445905471100597 -0.4613147992787856 0 -0.005278184763499616 -0.5 0 -0.002184083443599689 -0.482152927360879 0 -0.023137829182981181 -0.48082912511973958 0 -0.0122552006841631 -0.46413549044436769 0 -0.002184083443599689 -0.482152927360879 0 0.01439422031291368 -0.47189510310866878 0 -0.0122552006841631 -0.46413549044436769 0 -0.002184083443599689 -0.482152927360879 0 -0.023137829182981181 -0.48082912511973958 0 -0.0122552006841631 -0.46413549044436769 0 -0.023137829182981181 -0.48082912511973958 0 -0.036445905471100597 -0.4613147992787856 0 -0.005278184763499616 -0.5 0 -0.023137829182981181 -0.48082912511973958 0 -0.028280206222573039 -0.49999999999999389 0 -0.023137829182981181 -0.48082912511973958 0 -0.028280206222573039 -0.49999999999999389 0 -0.046663252371645383 -0.48197564672185172 0 -0.028280206222573039 -0.49999999999999389 0 -0.046663252371645383 -0.48197564672185172 0 -0.055894180299741469 -0.5 0 -0.028280206222573039 -0.49999999999999389 0 -0.046663252371645383 -0.48197564672185172 0 -0.023137829182981181 -0.48082912511973958 0 -0.046663252371645383 -0.48197564672185172 0 -0.036445905471100597 -0.4613147992787856 0 -0.046663252371645383 -0.48197564672185172 0 -0.065046298520720747 -0.46395129344371261 0 -0.066090029468723513 -0.48340241033990999 0 -0.046663252371645383 -0.48197564672185172 0 -0.065046298520720747 -0.46395129344371261 0 -0.046663252371645383 -0.48197564672185172 0 -0.036445905471100597 -0.4613147992787856 0 -0.065046298520720747 -0.46395129344371261 0 -0.046663252371645383 -0.48197564672185172 0 -0.055894180299741469 -0.5 0 -0.066090029468723513 -0.48340241033990999 0 -0.04434025081335221 -0.4370464858116665 0 -0.065046298520720747 -0.46395129344371261 0 -0.06692893112006551 -0.43049454790296088 0 -0.04434025081335221 -0.4370464858116665 0 -0.02082920885959889 -0.44263307133001212 0 -0.036445905471100597 -0.4613147992787856 0 -0.04434025081335221 -0.4370464858116665 0 -0.036445905471100597 -0.4613147992787856 0 -0.065046298520720747 -0.46395129344371261 0 -0.065046298520720747 -0.46395129344371261 0 -0.08342934466979611 -0.44592694016557338 0 -0.06692893112006551 -0.43049454790296088 0 -0.065046298520720747 -0.46395129344371261 0 -0.08342934466979611 -0.44592694016557338 0 -0.065046298520720747 -0.46395129344371261 0 -0.08342934466979611 -0.44592694016557338 0 -0.083008682681380813 -0.4718546809511534 0 -0.08342934466979611 -0.44592694016557338 0 -0.083008682681380813 -0.4718546809511534 0 -0.102382140663034 -0.45447012054495911 0 -0.055894180299741469 -0.5 0 -0.066090029468723513 -0.48340241033990999 0 -0.083508154376909616 -0.5 0 -0.066090029468723513 -0.48340241033990999 0 -0.083008682681380813 -0.4718546809511534 0 -0.083508154376909616 -0.5 0 -0.065046298520720747 -0.46395129344371261 0 -0.066090029468723513 -0.48340241033990999 0 -0.083008682681380813 -0.4718546809511534 0 -0.083008682681380813 -0.4718546809511534 0 -0.083508154376909616 -0.5 0 -0.1044690927304027 -0.47790327984219649 0 -0.083508154376909616 -0.5 0 -0.1044690927304027 -0.47790327984219649 0 -0.11112212845407771 -0.5 0 -0.12533694304378151 -0.4830358022360639 0 -0.1044690927304027 -0.47790327984219649 0 -0.12439268143600681 -0.46086511978805039 0 -0.12533694304378151 -0.4830358022360639 0 -0.1044690927304027 -0.47790327984219649 0 -0.11112212845407771 -0.5 0 -0.08342934466979611 -0.44592694016557338 0 -0.102382140663034 -0.45447012054495911 0 -0.1018123908188714 -0.42790258688743432 0 -0.102382140663034 -0.45447012054495911 0 -0.11837387461766651 -0.44141776123073412 0 -0.1018123908188714 -0.42790258688743432 0 -0.083008682681380813 -0.4718546809511534 0 -0.1044690927304027 -0.47790327984219649 0 -0.102382140663034 -0.45447012054495911 0 -0.1044690927304027 -0.47790327984219649 0 -0.102382140663034 -0.45447012054495911 0 -0.12439268143600681 -0.46086511978805039 0 -0.102382140663034 -0.45447012054495911 0 -0.12439268143600681 -0.46086511978805039 0 -0.11837387461766651 -0.44141776123073412 0 -0.13343595687494991 -0.42821991995012809 0 -0.11837387461766651 -0.44141776123073412 0 -0.1173797996760057 -0.42539317907307861 0 -0.11837387461766651 -0.44141776123073412 0 -0.1173797996760057 -0.42539317907307861 0 -0.1018123908188714 -0.42790258688743432 0 -0.1018123908188714 -0.42790258688743432 0 -0.12019543696794679 -0.40987823360929521 0 -0.093855413023825524 -0.40171751283988888 0 -0.1018123908188714 -0.42790258688743432 0 -0.12019543696794679 -0.40987823360929521 0 -0.1173797996760057 -0.42539317907307861 0 -0.1018123908188714 -0.42790258688743432 0 -0.12019543696794679 -0.40987823360929521 0 -0.1288505095290203 -0.4178170704989172 0 -0.1173797996760057 -0.42539317907307861 0 -0.12019543696794679 -0.40987823360929521 0 -0.12019543696794679 -0.40987823360929521 0 -0.11990308447387479 -0.39551590845810669 0 -0.093855413023825524 -0.40171751283988888 0 -0.12771196938011589 -0.37978297355390001 0 -0.11990308447387479 -0.39551590845810669 0 -0.1110436426264407 -0.37785582455419431 0 -0.091683870180258892 -0.37391025942694572 0 -0.1110436426264407 -0.37785582455419431 0 -0.093855413023825524 -0.40171751283988888 0 -0.11990308447387479 -0.39551590845810669 0 -0.093855413023825524 -0.40171751283988888 0 -0.11990308447387479 -0.39551590845810669 0 -0.1110436426264407 -0.37785582455419431 0 -0.093855413023825524 -0.40171751283988888 0 -0.093855413023825524 -0.40171751283988888 0 -0.067807741573776115 -0.40791911722167101 0 -0.091683870180258892 -0.37391025942694572 0 -0.093855413023825524 -0.40171751283988888 0 -0.0722412717614421 -0.38564608381083931 0 -0.0748794831214427 -0.36778061788374439 0 -0.091683870180258892 -0.37391025942694572 0 -0.0722412717614421 -0.38564608381083931 0 -0.049062222780187702 -0.38881495899232682 0 -0.0722412717614421 -0.38564608381083931 0 -0.067807741573776115 -0.40791911722167101 0 -0.093855413023825524 -0.40171751283988888 0 -0.0722412717614421 -0.38564608381083931 0 -0.067807741573776115 -0.40791911722167101 0 -0.067807741573776115 -0.40791911722167101 0 -0.06692893112006551 -0.43049454790296088 0 -0.083344269821933728 -0.42091688910610842 0 -0.08342934466979611 -0.44592694016557338 0 -0.06692893112006551 -0.43049454790296088 0 -0.083344269821933728 -0.42091688910610842 0 -0.08342934466979611 -0.44592694016557338 0 -0.1018123908188714 -0.42790258688743432 0 -0.08342934466979611 -0.44592694016557338 0 -0.1018123908188714 -0.42790258688743432 0 -0.083344269821933728 -0.42091688910610842 0 -0.1018123908188714 -0.42790258688743432 0 -0.093855413023825524 -0.40171751283988888 0 -0.083344269821933728 -0.42091688910610842 0 -0.093855413023825524 -0.40171751283988888 0 -0.067807741573776115 -0.40791911722167101 0 -0.083344269821933728 -0.42091688910610842 0 -0.083048737289509428 -0.081960076543217394 0 -0.096079149130827407 -0.10401316271597261 0 -0.09340507890942204 -0.084838097980616506 0 -0.083048737289509428 -0.081960076543217394 0 -0.096079149130827407 -0.10401316271597261 0 -0.09340507890942204 -0.084838097980616506 0 -0.083048737289509428 -0.081960076543217394 0 -0.090731008688014314 -0.06566303324526078 0 -0.09340507890942204 -0.084838097980616506 0 -0.090731008688014314 -0.06566303324526078 0 -0.083048737289509428 -0.081960076543217394 0 -0.090731008688014314 -0.06566303324526078 0 -0.070018325448193322 -0.059906990370461113 0 -0.067825029711753415 -0.077057104044398431 0 -0.070018325448193322 -0.059906990370461113 0 -0.058490831722844437 -0.071073149573176286 0 -0.083048737289509428 -0.081960076543217394 0 -0.067825029711753415 -0.077057104044398431 0 -0.070018325448193322 -0.059906990370461113 0 -0.083048737289509428 -0.081960076543217394 0 -0.070018325448193322 -0.059906990370461113 0 -0.083048737289509428 -0.081960076543217394 0 -0.069512886304096744 -0.090627143473091767 0 -0.081058229670113655 -0.098399120709919921 0 -0.067825029711753415 -0.077057104044398431 0 -0.069512886304096744 -0.090627143473091767 0 -0.057714502684033379 -0.082560371225186849 0 -0.083048737289509428 -0.081960076543217394 0 -0.067825029711753415 -0.077057104044398431 0 -0.069512886304096744 -0.090627143473091767 0 -0.069512886304096744 -0.090627143473091767 0 -0.071556040997130255 -0.1058063990739051 0 -0.053487802777020012 -0.099934955199867254 0 -0.069512886304096744 -0.090627143473091767 0 -0.071556040997130255 -0.1058063990739051 0 -0.081058229670113655 -0.098399120709919921 0 -0.071556040997130255 -0.1058063990739051 0 -0.076792741149876581 -0.1241030352519044 0 -0.061289913139850417 -0.11647505994636299 0 -0.071556040997130255 -0.1058063990739051 0 -0.076792741149876581 -0.1241030352519044 0 -0.083711827225320667 -0.11057618845787689 0 -0.076792741149876581 -0.1241030352519044 0 -0.061289913139850417 -0.11647505994636299 0 -0.059710516993951253 -0.1307296799516961 0 -0.076792741149876581 -0.1241030352519044 0 -0.083711827225320667 -0.11057618845787689 0 -0.099249821059541388 -0.1267492296303315 0 -0.083711827225320667 -0.11057618845787689 0 -0.096079149130827407 -0.10401316271597261 0 -0.099249821059541388 -0.1267492296303315 0 -0.083048737289509428 -0.081960076543217394 0 -0.081058229670113655 -0.098399120709919921 0 -0.096079149130827407 -0.10401316271597261 0 -0.071556040997130255 -0.1058063990739051 0 -0.083711827225320667 -0.11057618845787689 0 -0.081058229670113655 -0.098399120709919921 0 -0.083711827225320667 -0.11057618845787689 0 -0.081058229670113655 -0.098399120709919921 0 -0.096079149130827407 -0.10401316271597261 0 -0.09340507890942204 -0.084838097980616506 0 -0.096079149130827407 -0.10401316271597261 0 -0.1038572231554039 -0.100258517488408 0 -0.09340507890942204 -0.084838097980616506 0 -0.096079149130827407 -0.10401316271597261 0 -0.1038572231554039 -0.100258517488408 0 -0.11455738505766611 -0.1111484777451065 0 -0.10953650111102139 -0.12678881604838091 0 -0.096079149130827407 -0.10401316271597261 0 -0.1038572231554039 -0.100258517488408 0 -0.10953650111102139 -0.12678881604838091 0 -0.1038572231554039 -0.100258517488408 0 -0.10953650111102139 -0.12678881604838091 0 -0.096079149130827407 -0.10401316271597261 0 -0.10953650111102139 -0.12678881604838091 0 -0.096079149130827407 -0.10401316271597261 0 -0.099249821059541388 -0.1267492296303315 0 -0.10953650111102139 -0.12678881604838091 0 -0.096079149130827407 -0.10401316271597261 0 -0.099249821059541388 -0.1267492296303315 0 -0.11455738505766611 -0.1111484777451065 0 -0.10953650111102139 -0.12678881604838091 0 -0.12605830095842091 -0.11913635133996001 0 -0.11455738505766611 -0.1111484777451065 0 -0.1187775150058204 -0.098410226103676057 0 -0.12605830095842091 -0.11913635133996001 0 -0.1038572231554039 -0.100258517488408 0 -0.1187775150058204 -0.098410226103676057 0 -0.11284237178072221 -0.091687495595511592 0 -0.1038572231554039 -0.100258517488408 0 -0.11455738505766611 -0.1111484777451065 0 -0.1187775150058204 -0.098410226103676057 0 -0.1187775150058204 -0.098410226103676057 0 -0.1211565685004375 -0.084411195090615385 0 -0.11284237178072221 -0.091687495595511592 0 -0.1187775150058204 -0.098410226103676057 0 -0.1211565685004375 -0.084411195090615385 0 -0.13436759489225519 -0.097584778697595645 0 -0.1211565685004375 -0.084411195090615385 0 -0.10757818046122709 -0.083670043699346941 0 -0.1125428964744834 -0.07175717884600652 0 -0.1211565685004375 -0.084411195090615385 0 -0.11284237178072221 -0.091687495595511592 0 -0.10757818046122709 -0.083670043699346941 0 -0.1038572231554039 -0.100258517488408 0 -0.10757818046122709 -0.083670043699346941 0 -0.098177945199783984 -0.073728218928435674 0 -0.1038572231554039 -0.100258517488408 0 -0.11284237178072221 -0.091687495595511592 0 -0.10757818046122709 -0.083670043699346941 0 -0.1038572231554039 -0.100258517488408 0 -0.098177945199783984 -0.073728218928435674 0 -0.09340507890942204 -0.084838097980616506 0 -0.1038572231554039 -0.100258517488408 0 -0.098177945199783984 -0.073728218928435674 0 -0.09340507890942204 -0.084838097980616506 0 -0.090731008688014314 -0.06566303324526078 0 -0.098177945199783984 -0.073728218928435674 0 -0.10757818046122709 -0.083670043699346941 0 -0.098177945199783984 -0.073728218928435674 0 -0.1125428964744834 -0.07175717884600652 0 -0.098177945199783984 -0.073728218928435674 0 -0.1125428964744834 -0.07175717884600652 0 -0.1062903409771217 -0.059422209417059488 0 -0.1125428964744834 -0.07175717884600652 0 -0.1189263693984047 -0.05847919227893298 0 -0.1062903409771217 -0.059422209417059488 0 -0.1211565685004375 -0.084411195090615385 0 -0.1125428964744834 -0.07175717884600652 0 -0.1259576726888757 -0.070235636645109553 0 -0.1125428964744834 -0.07175717884600652 0 -0.1189263693984047 -0.05847919227893298 0 -0.1259576726888757 -0.070235636645109553 0 -0.1189263693984047 -0.05847919227893298 0 -0.1107129410026642 -0.045545422239167917 0 -0.1305043618508652 -0.041942640875583491 0 -0.1189263693984047 -0.05847919227893298 0 -0.1107129410026642 -0.045545422239167917 0 -0.1062903409771217 -0.059422209417059488 0 -0.1100225409418058 -0.029403648338301031 0 -0.1305043618508652 -0.041942640875583491 0 -0.1107129410026642 -0.045545422239167917 0 -0.1100225409418058 -0.029403648338301031 0 -0.1305043618508652 -0.041942640875583491 0 -0.1107129410026642 -0.045545422239167917 0 -0.1100225409418058 -0.029403648338301031 0 -0.09292744924669176 -0.032342032864533521 0 -0.1107129410026642 -0.045545422239167917 0 -0.092498667244164057 -0.047197920368463452 0 -0.09292744924669176 -0.032342032864533521 0 -0.090731008688014314 -0.06566303324526078 0 -0.098177945199783984 -0.073728218928435674 0 -0.092498667244164057 -0.047197920368463452 0 -0.098177945199783984 -0.073728218928435674 0 -0.1062903409771217 -0.059422209417059488 0 -0.092498667244164057 -0.047197920368463452 0 -0.1107129410026642 -0.045545422239167917 0 -0.1062903409771217 -0.059422209417059488 0 -0.092498667244164057 -0.047197920368463452 0 -0.098177945199783984 -0.073728218928435674 0 -0.092498667244164057 -0.047197920368463452 0 -0.1244855757975081 -0.02076724201731384 0 -0.1040507658014978 -0.001579024494705228 0 -0.1298498211362587 -0.0047987804970502437 0 -0.1244855757975081 -0.02076724201731384 0 -0.1100225409418058 -0.029403648338301031 0 -0.1040507658014978 -0.001579024494705228 0 -0.1244855757975081 -0.02076724201731384 0 -0.1100225409418058 -0.029403648338301031 0 -0.1305043618508652 -0.041942640875583491 0 -0.1100225409418058 -0.029403648338301031 0 -0.1040507658014978 -0.001579024494705228 0 -0.089540720032746143 -0.016864655801019101 0 -0.1100225409418058 -0.029403648338301031 0 -0.089540720032746143 -0.016864655801019101 0 -0.1100225409418058 -0.029403648338301031 0 -0.089540720032746143 -0.016864655801019101 0 -0.09292744924669176 -0.032342032864533521 0 -0.1040507658014978 -0.001579024494705228 0 -0.089540720032746143 -0.016864655801019101 0 -0.1040507658014978 -0.001579024494705228 0 -0.089061345199120012 -0.0040227381768694406 0 -0.089540720032746143 -0.016864655801019101 0 -0.089061345199120012 -0.0040227381768694406 0 -0.078469922509408804 -0.010087101786497559 0 -0.081319832673894893 0.00074414630355820071 0 -0.078469922509408804 -0.010087101786497559 0 -0.075263378336287004 -0.0024030342461067019 0 -0.081319832673894893 0.00074414630355820071 0 -0.078469922509408804 -0.010087101786497559 0 -0.079337025247578102 -0.01853936066609696 0 -0.089540720032746143 -0.016864655801019101 0 -0.078469922509408804 -0.010087101786497559 0 -0.089540720032746143 -0.016864655801019101 0 -0.089061345199120012 -0.0040227381768694406 0 -0.078469922509408804 -0.010087101786497559 0 -0.089540720032746143 -0.016864655801019101 0 -0.079337025247578102 -0.01853936066609696 0 -0.085835854726886263 -0.02076755218105425 0 -0.081697261554856529 -0.02839073132341613 0 -0.079337025247578102 -0.01853936066609696 0 -0.085835854726886263 -0.02076755218105425 0 -0.089540720032746143 -0.016864655801019101 0 -0.085835854726886263 -0.02076755218105425 0 -0.089540720032746143 -0.016864655801019101 0 -0.09292744924669176 -0.032342032864533521 0 -0.085835854726886263 -0.02076755218105425 0 -0.089540720032746143 -0.016864655801019101 0 -0.085835854726886263 -0.02076755218105425 0 -0.081697261554856529 -0.02839073132341613 0 -0.09292744924669176 -0.032342032864533521 0 -0.081697261554856529 -0.02839073132341613 0 -0.070950276217956965 -0.023446388492751109 0 -0.07300742653097668 -0.032624727203292618 0 -0.079337025247578102 -0.01853936066609696 0 -0.081697261554856529 -0.02839073132341613 0 -0.070950276217956965 -0.023446388492751109 0 -0.070950276217956965 -0.023446388492751109 0 -0.063017084163830062 -0.01801209835031338 0 -0.062367780100612363 -0.031354542885471542 0 -0.063017084163830062 -0.01801209835031338 0 -0.062367780100612363 -0.031354542885471542 0 -0.070950276217956965 -0.023446388492751109 0 -0.07300742653097668 -0.032624727203292618 0 -0.062367780100612363 -0.031354542885471542 0 -0.070950276217956965 -0.023446388492751109 0 -0.063017084163830062 -0.01801209835031338 0 -0.072774963302833631 -0.011466019898683989 0 -0.079337025247578102 -0.01853936066609696 0 -0.070950276217956965 -0.023446388492751109 0 -0.072774963302833631 -0.011466019898683989 0 -0.063017084163830062 -0.01801209835031338 0 -0.072774963302833631 -0.011466019898683989 0 -0.069612093341940837 0.0036918641496617691 0 -0.063017084163830062 -0.01801209835031338 0 -0.064084866240260011 0.0039295834247232327 0 -0.069612093341940837 0.0036918641496617691 0 -0.063017084163830062 -0.01801209835031338 0 -0.069612093341940837 0.0036918641496617691 0 -0.063017084163830062 -0.01801209835031338 0 -0.064084866240260011 0.0039295834247232327 0 -0.078469922509408804 -0.010087101786497559 0 -0.072774963302833631 -0.011466019898683989 0 -0.075263378336287004 -0.0024030342461067019 0 -0.078469922509408804 -0.010087101786497559 0 -0.079337025247578102 -0.01853936066609696 0 -0.072774963302833631 -0.011466019898683989 0 -0.072774963302833631 -0.011466019898683989 0 -0.075263378336287004 -0.0024030342461067019 0 -0.069612093341940837 0.0036918641496617691 0 -0.090731008688014314 -0.06566303324526078 0 -0.08006159325872346 -0.050333014011102691 0 -0.070018325448193322 -0.059906990370461113 0 -0.090731008688014314 -0.06566303324526078 0 -0.08006159325872346 -0.050333014011102691 0 -0.092498667244164057 -0.047197920368463452 0 -0.092498667244164057 -0.047197920368463452 0 -0.09292744924669176 -0.032342032864533521 0 -0.080184159223719076 -0.038224299800313333 0 -0.081697261554856529 -0.02839073132341613 0 -0.09292744924669176 -0.032342032864533521 0 -0.080184159223719076 -0.038224299800313333 0 -0.081697261554856529 -0.02839073132341613 0 -0.080184159223719076 -0.038224299800313333 0 -0.07300742653097668 -0.032624727203292618 0 -0.08006159325872346 -0.050333014011102691 0 -0.092498667244164057 -0.047197920368463452 0 -0.080184159223719076 -0.038224299800313333 0 -0.069837655557738465 -0.041707673514510997 0 -0.070018325448193322 -0.059906990370461113 0 -0.056987913606880228 -0.037853904197703028 0 -0.08006159325872346 -0.050333014011102691 0 -0.080184159223719076 -0.038224299800313333 0 -0.069837655557738465 -0.041707673514510997 0 -0.080184159223719076 -0.038224299800313333 0 -0.07300742653097668 -0.032624727203292618 0 -0.069837655557738465 -0.041707673514510997 0 -0.07300742653097668 -0.032624727203292618 0 -0.069837655557738465 -0.041707673514510997 0 -0.062367780100612363 -0.031354542885471542 0 -0.069837655557738465 -0.041707673514510997 0 -0.056987913606880228 -0.037853904197703028 0 -0.062367780100612363 -0.031354542885471542 0 -0.070018325448193322 -0.059906990370461113 0 -0.056987913606880228 -0.037853904197703028 0 -0.08006159325872346 -0.050333014011102691 0 -0.069837655557738465 -0.041707673514510997 0 -0.070018325448193322 -0.059906990370461113 0 -0.049685136964323577 -0.061887106595950099 0 -0.056987913606880228 -0.037853904197703028 0 -0.040592639605567117 -0.049000975381818572 0 -0.070018325448193322 -0.059906990370461113 0 -0.049685136964323577 -0.061887106595950099 0 -0.056987913606880228 -0.037853904197703028 0 -0.049685136964323577 -0.061887106595950099 0 -0.056987913606880228 -0.037853904197703028 0 -0.056987913606880228 -0.037853904197703028 0 -0.044158482421055863 -0.036006964953670492 0 -0.040592639605567117 -0.049000975381818572 0 -0.056987913606880228 -0.037853904197703028 0 -0.044158482421055863 -0.036006964953670492 0 -0.048730199443613738 -0.023878284374621309 0 -0.044158482421055863 -0.036006964953670492 0 -0.033256038643786859 -0.040718009853948717 0 -0.040592639605567117 -0.049000975381818572 0 -0.044158482421055863 -0.036006964953670492 0 -0.033256038643786859 -0.040718009853948717 0 -0.034577562556033357 -0.028670546221697488 0 -0.033256038643786859 -0.040718009853948717 0 -0.040592639605567117 -0.049000975381818572 0 -0.025415471850703909 -0.04921139371832417 0 -0.049685136964323577 -0.061887106595950099 0 -0.040592639605567117 -0.049000975381818572 0 -0.02692192340388606 -0.064719687188134908 0 -0.063017084163830062 -0.01801209835031338 0 -0.052414124554305178 -0.0078839664005409798 0 -0.064084866240260011 0.0039295834247232327 0 -0.052414124554305178 -0.0078839664005409798 0 -0.041802564582363387 -0.0019099270240208279 0 -0.051286038802638267 0.005178949650765036 0 -0.063017084163830062 -0.01801209835031338 0 -0.056987913606880228 -0.037853904197703028 0 -0.048730199443613738 -0.023878284374621309 0 -0.063017084163830062 -0.01801209835031338 0 -0.052414124554305178 -0.0078839664005409798 0 -0.048730199443613738 -0.023878284374621309 0 -0.063017084163830062 -0.01801209835031338 0 -0.056987913606880228 -0.037853904197703028 0 -0.062367780100612363 -0.031354542885471542 0 -0.063017084163830062 -0.01801209835031338 0 -0.056987913606880228 -0.037853904197703028 0 -0.056987913606880228 -0.037853904197703028 0 -0.048730199443613738 -0.023878284374621309 0 -0.044158482421055863 -0.036006964953670492 0 -0.048730199443613738 -0.023878284374621309 0 -0.034577562556033357 -0.028670546221697488 0 -0.034577562556033357 -0.028670546221697488 0 -0.0373609106372342 -0.014389116969202 0 -0.022590044307054979 -0.020818430314662888 0 -0.048730199443613738 -0.023878284374621309 0 -0.034577562556033357 -0.028670546221697488 0 -0.0373609106372342 -0.014389116969202 0 -0.0373609106372342 -0.014389116969202 0 -0.041802564582363387 -0.0019099270240208279 0 -0.025442898259657121 -0.0016679544926971959 0 -0.052414124554305178 -0.0078839664005409798 0 -0.048730199443613738 -0.023878284374621309 0 -0.0373609106372342 -0.014389116969202 0 -0.052414124554305178 -0.0078839664005409798 0 -0.0373609106372342 -0.014389116969202 0 -0.041802564582363387 -0.0019099270240208279 0 -0.025442898259657121 -0.0016679544926971959 0 -0.022590044307054979 -0.020818430314662888 0 -0.0035238433934066051 -0.01234887374579445 0 -0.0373609106372342 -0.014389116969202 0 -0.025442898259657121 -0.0016679544926971959 0 -0.022590044307054979 -0.020818430314662888 0 -0.034577562556033357 -0.028670546221697488 0 -0.022590044307054979 -0.020818430314662888 0 -0.02155620688036651 -0.036861654948534883 0 -0.022590044307054979 -0.020818430314662888 0 -0.0067730253783062884 -0.031087426280697081 0 -0.02155620688036651 -0.036861654948534883 0 -0.022590044307054979 -0.020818430314662888 0 -0.0067730253783062884 -0.031087426280697081 0 -0.0035238433934066051 -0.01234887374579445 0 -0.025442898259657121 -0.0016679544926971959 0 -0.0035238433934066051 -0.01234887374579445 0 -0.0072106955429384594 0.01297181303916195 0 -0.040592639605567117 -0.049000975381818572 0 -0.025415471850703909 -0.04921139371832417 0 -0.02692192340388606 -0.064719687188134908 0 -0.025415471850703909 -0.04921139371832417 0 -0.0095948799578919886 -0.049687688989959719 0 -0.02692192340388606 -0.064719687188134908 0 -0.033256038643786859 -0.040718009853948717 0 -0.025415471850703909 -0.04921139371832417 0 -0.02155620688036651 -0.036861654948534883 0 -0.025415471850703909 -0.04921139371832417 0 -0.02155620688036651 -0.036861654948534883 0 -0.0095948799578919886 -0.049687688989959719 0 -0.033256038643786859 -0.040718009853948717 0 -0.034577562556033357 -0.028670546221697488 0 -0.02155620688036651 -0.036861654948534883 0 -0.0067730253783062884 -0.031087426280697081 0 -0.02155620688036651 -0.036861654948534883 0 -0.0095948799578919886 -0.049687688989959719 0 -0.0067730253783062884 -0.031087426280697081 0 -0.0095948799578919886 -0.049687688989959719 0 0.0098120049658047201 -0.043693513696029779 0 -0.0095948799578919886 -0.049687688989959719 0 -0.01482219568011961 -0.074493761557038449 0 0.00095295619353100007 -0.071802971974695054 0 -0.020583160732037951 -0.090697459656192608 0 0.0012160388576872539 -0.09547461031818763 0 -0.01482219568011961 -0.074493761557038449 0 -0.020583160732037951 -0.090697459656192608 0 0.0012160388576872539 -0.09547461031818763 0 -0.01482219568011961 -0.074493761557038449 0 0.0012160388576872539 -0.09547461031818763 0 0.00095295619353100007 -0.071802971974695054 0 -0.020583160732037951 -0.090697459656192608 0 -0.029465245241801389 -0.079102513941051861 0 -0.042382360321762742 -0.085920308994195935 0 -0.01482219568011961 -0.074493761557038449 0 -0.020583160732037951 -0.090697459656192608 0 -0.029465245241801389 -0.079102513941051861 0 -0.0095948799578919886 -0.049687688989959719 0 -0.01482219568011961 -0.074493761557038449 0 -0.02692192340388606 -0.064719687188134908 0 -0.01482219568011961 -0.074493761557038449 0 -0.029465245241801389 -0.079102513941051861 0 -0.02692192340388606 -0.064719687188134908 0 -0.049685136964323577 -0.061887106595950099 0 -0.042382360321762742 -0.085920308994195935 0 -0.049685136964323577 -0.061887106595950099 0 -0.029465245241801389 -0.079102513941051861 0 -0.042382360321762742 -0.085920308994195935 0 -0.049685136964323577 -0.061887106595950099 0 -0.029465245241801389 -0.079102513941051861 0 -0.02692192340388606 -0.064719687188134908 0 -0.020583160732037951 -0.090697459656192608 0 -0.042382360321762742 -0.085920308994195935 0 -0.069512886304096744 -0.090627143473091767 0 -0.057714502684033379 -0.082560371225186849 0 -0.053487802777020012 -0.099934955199867254 0 -0.042382360321762742 -0.085920308994195935 0 -0.057714502684033379 -0.082560371225186849 0 -0.058490831722844437 -0.071073149573176286 0 -0.042382360321762742 -0.085920308994195935 0 -0.057714502684033379 -0.082560371225186849 0 -0.053487802777020012 -0.099934955199867254 0 -0.042382360321762742 -0.085920308994195935 0 -0.057714502684033379 -0.082560371225186849 0 -0.070018325448193322 -0.059906990370461113 0 -0.049685136964323577 -0.061887106595950099 0 -0.058490831722844437 -0.071073149573176286 0 -0.067825029711753415 -0.077057104044398431 0 -0.057714502684033379 -0.082560371225186849 0 -0.058490831722844437 -0.071073149573176286 0 -0.049685136964323577 -0.061887106595950099 0 -0.042382360321762742 -0.085920308994195935 0 -0.058490831722844437 -0.071073149573176286 0 -0.061289913139850417 -0.11647505994636299 0 -0.04490246378127398 -0.1218012302544421 0 -0.059710516993951253 -0.1307296799516961 0 -0.061289913139850417 -0.11647505994636299 0 -0.053487802777020012 -0.099934955199867254 0 -0.04490246378127398 -0.1218012302544421 0 -0.071556040997130255 -0.1058063990739051 0 -0.061289913139850417 -0.11647505994636299 0 -0.053487802777020012 -0.099934955199867254 0 -0.020583160732037951 -0.090697459656192608 0 -0.042382360321762742 -0.085920308994195935 0 -0.036091776150415728 -0.1066224186153565 0 -0.042382360321762742 -0.085920308994195935 0 -0.036091776150415728 -0.1066224186153565 0 -0.042382360321762742 -0.085920308994195935 0 -0.053487802777020012 -0.099934955199867254 0 -0.036091776150415728 -0.1066224186153565 0 -0.036091776150415728 -0.1066224186153565 0 -0.029801191979069521 -0.12732452823651741 0 -0.053487802777020012 -0.099934955199867254 0 -0.036091776150415728 -0.1066224186153565 0 -0.04490246378127398 -0.1218012302544421 0 -0.036091776150415728 -0.1066224186153565 0 -0.04490246378127398 -0.1218012302544421 0 -0.029801191979069521 -0.12732452823651741 0 -0.036091776150415728 -0.1066224186153565 0 -0.013182697469403801 -0.1139452890994259 0 -0.029801191979069521 -0.12732452823651741 0 -0.020583160732037951 -0.090697459656192608 0 -0.036091776150415728 -0.1066224186153565 0 -0.013182697469403801 -0.1139452890994259 0 -0.020583160732037951 -0.090697459656192608 0 -0.013182697469403801 -0.1139452890994259 0 0.0012160388576872539 -0.09547461031818763 0 -0.013182697469403801 -0.1139452890994259 0 -0.0014395948375110241 -0.12830226696244521 0 0.01207517237429338 -0.1161255586153422 0 -0.013182697469403801 -0.1139452890994259 0 -0.01503798760183158 -0.1353920039524974 0 -0.0014395948375110241 -0.12830226696244521 0 -0.01503798760183158 -0.1353920039524974 0 -0.0014395948375110241 -0.12830226696244521 0 0.001143458992811707 -0.14684704123411249 0 -0.029801191979069521 -0.12732452823651741 0 -0.023510607807723301 -0.14802663785767819 0 -0.013182697469403801 -0.1139452890994259 0 -0.01503798760183158 -0.1353920039524974 0 -0.029801191979069521 -0.12732452823651741 0 -0.01503798760183158 -0.1353920039524974 0 -0.029801191979069521 -0.12732452823651741 0 -0.023510607807723301 -0.14802663785767819 0 -0.01503798760183158 -0.1353920039524974 0 -0.023510607807723301 -0.14802663785767819 0 -0.01101349439203028 -0.1571762201173765 0 -0.01503798760183158 -0.1353920039524974 0 -0.01101349439203028 -0.1571762201173765 0 0.001143458992811707 -0.14684704123411249 0 -0.01101349439203028 -0.1571762201173765 0 -0.0072757933531289107 -0.17681850822391179 0 -0.02063494463363133 -0.1696484142834373 0 -0.01101349439203028 -0.1571762201173765 0 0.0039479792452843804 -0.16693724185506159 0 0.001143458992811707 -0.14684704123411249 0 -0.01101349439203028 -0.1571762201173765 0 -0.0072757933531289107 -0.17681850822391179 0 0.0039479792452843804 -0.16693724185506159 0 -0.0072757933531289107 -0.17681850822391179 0 -0.017824182401435209 -0.19076531912018629 0 0.0050847774300980461 -0.18785515819526849 0 -0.0072757933531289107 -0.17681850822391179 0 -0.02063494463363133 -0.1696484142834373 0 -0.017824182401435209 -0.19076531912018629 0 -0.02063494463363133 -0.1696484142834373 0 -0.017824182401435209 -0.19076531912018629 0 -0.02063494463363133 -0.1696484142834373 0 -0.03457349979426786 -0.16428116194872031 0 -0.031306077009945317 -0.18339018228947671 0 -0.02063494463363133 -0.1696484142834373 0 -0.031306077009945317 -0.18339018228947671 0 -0.017824182401435209 -0.19076531912018629 0 -0.023510607807723301 -0.14802663785767819 0 -0.01101349439203028 -0.1571762201173765 0 -0.02063494463363133 -0.1696484142834373 0 -0.023510607807723301 -0.14802663785767819 0 -0.02063494463363133 -0.1696484142834373 0 -0.03457349979426786 -0.16428116194872031 0 -0.03457349979426786 -0.16428116194872031 0 -0.045469050969902482 -0.17677082243118469 0 -0.048057868797283083 -0.15785757181693619 0 -0.03457349979426786 -0.16428116194872031 0 -0.045469050969902482 -0.17677082243118469 0 -0.031306077009945317 -0.18339018228947671 0 -0.045469050969902482 -0.17677082243118469 0 -0.031306077009945317 -0.18339018228947671 0 -0.041041357391611862 -0.19592765444825769 0 -0.045469050969902482 -0.17677082243118469 0 -0.06193921186782303 -0.18000591111701289 0 -0.058956604780545457 -0.16607916344769569 0 -0.045469050969902482 -0.17677082243118469 0 -0.06193921186782303 -0.18000591111701289 0 -0.055464132416898591 -0.19110336484334969 0 -0.06193921186782303 -0.18000591111701289 0 -0.055464132416898591 -0.19110336484334969 0 -0.065155630109859239 -0.18802505096297151 0 -0.048057868797283083 -0.15785757181693619 0 -0.058956604780545457 -0.16607916344769569 0 -0.059245428226382263 -0.1481809372847683 0 -0.045469050969902482 -0.17677082243118469 0 -0.048057868797283083 -0.15785757181693619 0 -0.058956604780545457 -0.16607916344769569 0 -0.048057868797283083 -0.15785757181693619 0 -0.059245428226382263 -0.1481809372847683 0 -0.042930679191683092 -0.14236984642012729 0 -0.059245428226382263 -0.1481809372847683 0 -0.059710516993951253 -0.1307296799516961 0 -0.042930679191683092 -0.14236984642012729 0 -0.04490246378127398 -0.1218012302544421 0 -0.059710516993951253 -0.1307296799516961 0 -0.042930679191683092 -0.14236984642012729 0 -0.04490246378127398 -0.1218012302544421 0 -0.029801191979069521 -0.12732452823651741 0 -0.042930679191683092 -0.14236984642012729 0 -0.029801191979069521 -0.12732452823651741 0 -0.023510607807723301 -0.14802663785767819 0 -0.042930679191683092 -0.14236984642012729 0 -0.023510607807723301 -0.14802663785767819 0 -0.03457349979426786 -0.16428116194872031 0 -0.042930679191683092 -0.14236984642012729 0 -0.03457349979426786 -0.16428116194872031 0 -0.048057868797283083 -0.15785757181693619 0 -0.042930679191683092 -0.14236984642012729 0 -0.02237068048534405 -0.2499038679063868 0 -0.012202657937042959 -0.2329991287936842 0 -0.036954417981920527 -0.2392649974375079 0 -0.012202657937042959 -0.2329991287936842 0 -0.036954417981920527 -0.2392649974375079 0 -0.0083257157391786862 -0.2621261102623057 0 -0.012202657937042959 -0.2329991287936842 0 -0.0083257157391786862 -0.2621261102623057 0 -0.012202657937042959 -0.2329991287936842 0 0.00037212691417675119 -0.246244438005357 0 -0.012202657937042959 -0.2329991287936842 0 0.00037212691417675119 -0.246244438005357 0 0.0084724627208160215 -0.23960413516279949 0 -0.0083257157391786862 -0.2621261102623057 0 -0.02237068048534405 -0.2499038679063868 0 -0.012202657937042959 -0.2329991287936842 0 -0.012202657937042959 -0.2329991287936842 0 -0.0150134201692391 -0.21188222395693529 0 -0.002999387731968305 -0.21991941538551041 0 -0.012202657937042959 -0.2329991287936842 0 -0.0150134201692391 -0.21188222395693529 0 -0.002999387731968305 -0.21991941538551041 0 -0.012202657937042959 -0.2329991287936842 0 0.01130321508704612 -0.22704865446538219 0 -0.012202657937042959 -0.2329991287936842 0 0.01130321508704612 -0.22704865446538219 0 -0.012202657937042959 -0.2329991287936842 0 -0.0150134201692391 -0.21188222395693529 0 -0.037499277439372633 -0.21626705380012401 0 -0.012202657937042959 -0.2329991287936842 0 -0.037499277439372633 -0.21626705380012401 0 -0.036954417981920527 -0.2392649974375079 0 -0.0150134201692391 -0.21188222395693529 0 -0.028293426868823222 -0.20294772150507401 0 -0.037499277439372633 -0.21626705380012401 0 -0.0150134201692391 -0.21188222395693529 0 -0.017824182401435209 -0.19076531912018629 0 0.0039153120913630653 -0.2077476543260402 0 -0.002999387731968305 -0.21991941538551041 0 -0.0150134201692391 -0.21188222395693529 0 0.0039153120913630653 -0.2077476543260402 0 -0.017824182401435209 -0.19076531912018629 0 0.0050847774300980461 -0.18785515819526849 0 0.0039153120913630653 -0.2077476543260402 0 -0.031306077009945317 -0.18339018228947671 0 -0.017824182401435209 -0.19076531912018629 0 -0.028293426868823222 -0.20294772150507401 0 -0.0150134201692391 -0.21188222395693529 0 -0.017824182401435209 -0.19076531912018629 0 -0.0150134201692391 -0.21188222395693529 0 -0.017824182401435209 -0.19076531912018629 0 -0.028293426868823222 -0.20294772150507401 0 -0.031306077009945317 -0.18339018228947671 0 -0.028293426868823222 -0.20294772150507401 0 -0.041041357391611862 -0.19592765444825769 0 -0.045469050969902482 -0.17677082243118469 0 -0.041041357391611862 -0.19592765444825769 0 -0.055464132416898591 -0.19110336484334969 0 -0.055464132416898591 -0.19110336484334969 0 -0.051425870379059137 -0.20328566501879661 0 -0.067583188303349112 -0.19732892197799759 0 -0.041041357391611862 -0.19592765444825769 0 -0.055464132416898591 -0.19110336484334969 0 -0.051425870379059137 -0.20328566501879661 0 -0.051425870379059137 -0.20328566501879661 0 -0.060373053162848703 -0.2139447561515691 0 -0.067583188303349112 -0.19732892197799759 0 -0.051425870379059137 -0.20328566501879661 0 -0.060373053162848703 -0.2139447561515691 0 -0.037499277439372633 -0.21626705380012401 0 -0.041041357391611862 -0.19592765444825769 0 -0.051425870379059137 -0.20328566501879661 0 -0.037499277439372633 -0.21626705380012401 0 -0.028293426868823222 -0.20294772150507401 0 -0.041041357391611862 -0.19592765444825769 0 -0.037499277439372633 -0.21626705380012401 0 -0.037499277439372633 -0.21626705380012401 0 -0.054841807922122343 -0.22926745267689921 0 -0.036954417981920527 -0.2392649974375079 0 -0.060373053162848703 -0.2139447561515691 0 -0.054841807922122343 -0.22926745267689921 0 -0.071960280249461051 -0.2255906865337915 0 -0.060373053162848703 -0.2139447561515691 0 -0.037499277439372633 -0.21626705380012401 0 -0.054841807922122343 -0.22926745267689921 0 -0.05343136389180967 -0.26453009749404821 0 -0.061706178026798217 -0.24553086608133121 0 -0.036954417981920527 -0.2392649974375079 0 -0.054841807922122343 -0.22926745267689921 0 -0.061706178026798217 -0.24553086608133121 0 -0.036954417981920527 -0.2392649974375079 0 -0.061706178026798217 -0.24553086608133121 0 -0.036954417981920527 -0.2392649974375079 0 -0.086457938071675899 -0.25179673472515451 0 -0.082176977867134404 -0.23616748733314211 0 -0.099700364155785703 -0.23680613809733239 0 -0.086457938071675899 -0.25179673472515451 0 -0.061706178026798217 -0.24553086608133121 0 -0.061706178026798217 -0.24553086608133121 0 -0.082176977867134404 -0.23616748733314211 0 -0.071960280249461051 -0.2255906865337915 0 -0.086457938071675899 -0.25179673472515451 0 -0.061706178026798217 -0.24553086608133121 0 -0.082176977867134404 -0.23616748733314211 0 -0.054841807922122343 -0.22926745267689921 0 -0.061706178026798217 -0.24553086608133121 0 -0.071960280249461051 -0.2255906865337915 0 -0.071960280249461051 -0.2255906865337915 0 -0.091060128831951109 -0.22111301122810109 0 -0.078623333914972227 -0.20993644766250999 0 -0.082176977867134404 -0.23616748733314211 0 -0.091060128831951109 -0.22111301122810109 0 -0.099700364155785703 -0.23680613809733239 0 -0.082176977867134404 -0.23616748733314211 0 -0.071960280249461051 -0.2255906865337915 0 -0.091060128831951109 -0.22111301122810109 0 -0.091060128831951109 -0.22111301122810109 0 -0.090508642184204263 -0.21005372785502041 0 -0.078623333914972227 -0.20993644766250999 0 -0.090508642184204263 -0.21005372785502041 0 -0.078623333914972227 -0.20993644766250999 0 -0.085036525517163675 -0.19459077208094941 0 -0.060373053162848703 -0.2139447561515691 0 -0.071960280249461051 -0.2255906865337915 0 -0.078623333914972227 -0.20993644766250999 0 -0.060373053162848703 -0.2139447561515691 0 -0.078623333914972227 -0.20993644766250999 0 -0.067583188303349112 -0.19732892197799759 0 -0.067583188303349112 -0.19732892197799759 0 -0.085036525517163675 -0.19459077208094941 0 -0.075635987851366257 -0.18366200591352569 0 -0.078623333914972227 -0.20993644766250999 0 -0.067583188303349112 -0.19732892197799759 0 -0.085036525517163675 -0.19459077208094941 0 -0.067583188303349112 -0.19732892197799759 0 -0.065155630109859239 -0.18802505096297151 0 -0.075635987851366257 -0.18366200591352569 0 -0.055464132416898591 -0.19110336484334969 0 -0.067583188303349112 -0.19732892197799759 0 -0.065155630109859239 -0.18802505096297151 0 -0.090508642184204263 -0.21005372785502041 0 -0.085036525517163675 -0.19459077208094941 0 -0.097022402433435212 -0.20097817655457539 0 -0.085036525517163675 -0.19459077208094941 0 -0.098553033072192167 -0.1896302953644364 0 -0.097022402433435212 -0.20097817655457539 0 -0.085036525517163675 -0.19459077208094941 0 -0.098553033072192167 -0.1896302953644364 0 -0.088654770103250347 -0.18399860352761621 0 -0.098553033072192167 -0.1896302953644364 0 -0.097022402433435212 -0.20097817655457539 0 -0.1066564070413232 -0.19855556956910811 0 -0.098553033072192167 -0.1896302953644364 0 -0.1066564070413232 -0.19855556956910811 0 -0.1109696898564996 -0.18832478396392099 0 -0.1168115632381658 -0.20322643116666581 0 -0.1218312388982781 -0.18733608766675891 0 -0.1347816378269705 -0.1907446729557489 0 -0.1109696898564996 -0.18832478396392099 0 -0.1168115632381658 -0.20322643116666581 0 -0.1218312388982781 -0.18733608766675891 0 -0.1066564070413232 -0.19855556956910811 0 -0.1109696898564996 -0.18832478396392099 0 -0.1168115632381658 -0.20322643116666581 0 -0.1109696898564996 -0.18832478396392099 0 -0.1168115632381658 -0.20322643116666581 0 -0.1168115632381658 -0.20322643116666581 0 -0.12536218461435761 -0.2250376439040179 0 -0.12854176561437861 -0.2086872276290844 0 -0.1168115632381658 -0.20322643116666581 0 -0.12536218461435761 -0.2250376439040179 0 -0.1168115632381658 -0.20322643116666581 0 -0.1039358460350583 -0.21216972119738331 0 -0.1168115632381658 -0.20322643116666581 0 -0.112245593326827 -0.21841194799549199 0 -0.12536218461435761 -0.2250376439040179 0 -0.1168115632381658 -0.20322643116666581 0 -0.112245593326827 -0.21841194799549199 0 -0.1039358460350583 -0.21216972119738331 0 -0.112245593326827 -0.21841194799549199 0 -0.1039358460350583 -0.21216972119738331 0 -0.1028947794457344 -0.22345673389121709 0 -0.097022402433435212 -0.20097817655457539 0 -0.1066564070413232 -0.19855556956910811 0 -0.1039358460350583 -0.21216972119738331 0 -0.1066564070413232 -0.19855556956910811 0 -0.1168115632381658 -0.20322643116666581 0 -0.1039358460350583 -0.21216972119738331 0 -0.090508642184204263 -0.21005372785502041 0 -0.097022402433435212 -0.20097817655457539 0 -0.1039358460350583 -0.21216972119738331 0 -0.091060128831951109 -0.22111301122810109 0 -0.090508642184204263 -0.21005372785502041 0 -0.1039358460350583 -0.21216972119738331 0 -0.091060128831951109 -0.22111301122810109 0 -0.1039358460350583 -0.21216972119738331 0 -0.091060128831951109 -0.22111301122810109 0 -0.1028947794457344 -0.22345673389121709 0 -0.099700364155785703 -0.23680613809733239 0 -0.091060128831951109 -0.22111301122810109 0 -0.1039358460350583 -0.21216972119738331 0 -0.1028947794457344 -0.22345673389121709 0 -0.1028947794457344 -0.22345673389121709 0 -0.1128313171896492 -0.228089722626518 0 -0.099700364155785703 -0.23680613809733239 0 -0.112245593326827 -0.21841194799549199 0 -0.1028947794457344 -0.22345673389121709 0 -0.1128313171896492 -0.228089722626518 0 -0.112245593326827 -0.21841194799549199 0 -0.1128313171896492 -0.228089722626518 0 -0.12536218461435761 -0.2250376439040179 0 -0.1128313171896492 -0.228089722626518 0 -0.12764737227819381 -0.2483748960026205 0 -0.12536218461435761 -0.2250376439040179 0 -0.1128313171896492 -0.228089722626518 0 -0.1134980122954021 -0.24315610024932949 0 -0.12764737227819381 -0.2483748960026205 0 -0.1128313171896492 -0.228089722626518 0 -0.12764737227819381 -0.2483748960026205 0 -0.12207913521289521 -0.25348051790843218 0 -0.1134980122954021 -0.24315610024932949 0 -0.12764737227819381 -0.2483748960026205 0 -0.1112096981165536 -0.25806260336897779 0 -0.1134980122954021 -0.24315610024932949 0 -0.099700364155785703 -0.23680613809733239 0 -0.1112096981165536 -0.25806260336897779 0 -0.086457938071675899 -0.25179673472515451 0 -0.099700364155785703 -0.23680613809733239 0 -0.1128313171896492 -0.228089722626518 0 -0.1134980122954021 -0.24315610024932949 0 -0.099700364155785703 -0.23680613809733239 0 -0.086687547821857752 -0.1440286720929119 0 -0.084822767440498437 -0.16016089575621401 0 -0.094453705703389457 -0.15629413470984391 0 -0.086687547821857752 -0.1440286720929119 0 -0.073229059869918775 -0.15427215133736619 0 -0.084822767440498437 -0.16016089575621401 0 -0.076792741149876581 -0.1241030352519044 0 -0.086687547821857752 -0.1440286720929119 0 -0.099249821059541388 -0.1267492296303315 0 -0.076792741149876581 -0.1241030352519044 0 -0.086687547821857752 -0.1440286720929119 0 -0.071133058812397315 -0.14026289518372939 0 -0.059245428226382263 -0.1481809372847683 0 -0.059710516993951253 -0.1307296799516961 0 -0.071133058812397315 -0.14026289518372939 0 -0.076792741149876581 -0.1241030352519044 0 -0.059710516993951253 -0.1307296799516961 0 -0.071133058812397315 -0.14026289518372939 0 -0.058956604780545457 -0.16607916344769569 0 -0.059245428226382263 -0.1481809372847683 0 -0.073229059869918775 -0.15427215133736619 0 -0.059245428226382263 -0.1481809372847683 0 -0.071133058812397315 -0.14026289518372939 0 -0.073229059869918775 -0.15427215133736619 0 -0.086687547821857752 -0.1440286720929119 0 -0.071133058812397315 -0.14026289518372939 0 -0.073229059869918775 -0.15427215133736619 0 -0.058956604780545457 -0.16607916344769569 0 -0.073229059869918775 -0.15427215133736619 0 -0.073516145055664922 -0.1697111886049974 0 -0.073229059869918775 -0.15427215133736619 0 -0.073516145055664922 -0.1697111886049974 0 -0.084822767440498437 -0.16016089575621401 0 -0.06193921186782303 -0.18000591111701289 0 -0.065155630109859239 -0.18802505096297151 0 -0.075635987851366257 -0.18366200591352569 0 -0.06193921186782303 -0.18000591111701289 0 -0.058956604780545457 -0.16607916344769569 0 -0.073516145055664922 -0.1697111886049974 0 -0.06193921186782303 -0.18000591111701289 0 -0.073516145055664922 -0.1697111886049974 0 -0.075635987851366257 -0.18366200591352569 0 -0.085036525517163675 -0.19459077208094941 0 -0.075635987851366257 -0.18366200591352569 0 -0.088654770103250347 -0.18399860352761621 0 -0.075635987851366257 -0.18366200591352569 0 -0.087318887708234691 -0.17300814124244199 0 -0.088654770103250347 -0.18399860352761621 0 -0.073516145055664922 -0.1697111886049974 0 -0.075635987851366257 -0.18366200591352569 0 -0.087318887708234691 -0.17300814124244199 0 -0.087318887708234691 -0.17300814124244199 0 -0.097015022693138886 -0.17131453463953319 0 -0.096729416367294846 -0.17910180303672721 0 -0.087318887708234691 -0.17300814124244199 0 -0.088654770103250347 -0.18399860352761621 0 -0.096729416367294846 -0.17910180303672721 0 -0.073516145055664922 -0.1697111886049974 0 -0.087318887708234691 -0.17300814124244199 0 -0.084822767440498437 -0.16016089575621401 0 -0.087318887708234691 -0.17300814124244199 0 -0.092990622623931138 -0.16490914321485339 0 -0.097015022693138886 -0.17131453463953319 0 -0.087318887708234691 -0.17300814124244199 0 -0.084822767440498437 -0.16016089575621401 0 -0.092990622623931138 -0.16490914321485339 0 -0.084822767440498437 -0.16016089575621401 0 -0.092990622623931138 -0.16490914321485339 0 -0.094453705703389457 -0.15629413470984391 0 -0.1051278164748338 -0.17342313676117599 0 -0.102420492988253 -0.14948529654469059 0 -0.094453705703389457 -0.15629413470984391 0 -0.10134272957439421 -0.16376800972623409 0 -0.102420492988253 -0.14948529654469059 0 -0.092990622623931138 -0.16490914321485339 0 -0.094453705703389457 -0.15629413470984391 0 -0.10134272957439421 -0.16376800972623409 0 -0.1051278164748338 -0.17342313676117599 0 -0.11167008597077401 -0.15645464372068679 0 -0.1051278164748338 -0.17342313676117599 0 -0.11167008597077401 -0.15645464372068679 0 -0.102420492988253 -0.14948529654469059 0 -0.10134272957439421 -0.16376800972623409 0 -0.1051278164748338 -0.17342313676117599 0 -0.102420492988253 -0.14948529654469059 0 -0.10134272957439421 -0.16376800972623409 0 -0.097015022693138886 -0.17131453463953319 0 -0.1051278164748338 -0.17342313676117599 0 -0.092990622623931138 -0.16490914321485339 0 -0.10134272957439421 -0.16376800972623409 0 -0.097015022693138886 -0.17131453463953319 0 -0.10134272957439421 -0.16376800972623409 0 -0.1051278164748338 -0.17342313676117599 0 -0.098553033072192167 -0.1896302953644364 0 -0.088654770103250347 -0.18399860352761621 0 -0.096729416367294846 -0.17910180303672721 0 -0.098553033072192167 -0.1896302953644364 0 -0.096729416367294846 -0.17910180303672721 0 -0.10294606308218281 -0.18249780657571379 0 -0.1014689421950887 -0.17839407254972481 0 -0.096729416367294846 -0.17910180303672721 0 -0.10294606308218281 -0.18249780657571379 0 -0.097015022693138886 -0.17131453463953319 0 -0.1009894759824731 -0.17556860370288629 0 -0.1051278164748338 -0.17342313676117599 0 -0.1014689421950887 -0.17839407254972481 0 -0.096729416367294846 -0.17910180303672721 0 -0.1009894759824731 -0.17556860370288629 0 -0.097015022693138886 -0.17131453463953319 0 -0.096729416367294846 -0.17910180303672721 0 -0.1009894759824731 -0.17556860370288629 0 -0.1109696898564996 -0.18832478396392099 0 -0.1043932838839806 -0.1753282724581493 0 -0.1058129893354154 -0.17517089875021991 0 -0.1051278164748338 -0.17342313676117599 0 -0.1058129893354154 -0.17517089875021991 0 -0.1134915303580218 -0.1712342540678421 0 -0.1009894759824731 -0.17556860370288629 0 -0.1043932838839806 -0.1753282724581493 0 -0.1051278164748338 -0.17342313676117599 0 -0.1043932838839806 -0.1753282724581493 0 -0.1051278164748338 -0.17342313676117599 0 -0.1043932838839806 -0.1753282724581493 0 -0.1051278164748338 -0.17342313676117599 0 -0.1058129893354154 -0.17517089875021991 0 -0.1051278164748338 -0.17342313676117599 0 -0.1058129893354154 -0.17517089875021991 0 -0.1014689421950887 -0.17839407254972481 0 -0.1043932838839806 -0.1753282724581493 0 -0.10294606308218281 -0.18249780657571379 0 -0.1014689421950887 -0.17839407254972481 0 -0.1009894759824731 -0.17556860370288629 0 -0.1043932838839806 -0.1753282724581493 0 -0.1109696898564996 -0.18832478396392099 0 -0.1043932838839806 -0.1753282724581493 0 -0.10294606308218281 -0.18249780657571379 0 -0.1109696898564996 -0.18832478396392099 0 -0.1058129893354154 -0.17517089875021991 0 -0.098553033072192167 -0.1896302953644364 0 -0.1109696898564996 -0.18832478396392099 0 -0.10294606308218281 -0.18249780657571379 0 -0.1109696898564996 -0.18832478396392099 0 -0.11504882238396751 -0.17975008550002791 0 -0.1218312388982781 -0.18733608766675891 0 -0.1109696898564996 -0.18832478396392099 0 -0.1058129893354154 -0.17517089875021991 0 -0.11504882238396751 -0.17975008550002791 0 -0.11504882238396751 -0.17975008550002791 0 -0.1229589819622499 -0.17675484335994221 0 -0.1134915303580218 -0.1712342540678421 0 -0.1058129893354154 -0.17517089875021991 0 -0.11504882238396751 -0.17975008550002791 0 -0.1134915303580218 -0.1712342540678421 0 -0.1229589819622499 -0.17675484335994221 0 -0.1218312388982781 -0.18733608766675891 0 -0.129750296340437 -0.1830539987604374 0 -0.11504882238396751 -0.17975008550002791 0 -0.1229589819622499 -0.17675484335994221 0 -0.1218312388982781 -0.18733608766675891 0 -0.1051278164748338 -0.17342313676117599 0 -0.11167008597077401 -0.15645464372068679 0 -0.1134915303580218 -0.1712342540678421 0 -0.11167008597077401 -0.15645464372068679 0 -0.1228347060966737 -0.16740332776153369 0 -0.12858916684941801 -0.15903415752081171 0 -0.11167008597077401 -0.15645464372068679 0 -0.1134915303580218 -0.1712342540678421 0 -0.1228347060966737 -0.16740332776153369 0 -0.1229589819622499 -0.17675484335994221 0 -0.1134915303580218 -0.1712342540678421 0 -0.1228347060966737 -0.16740332776153369 0 -0.11167008597077401 -0.15645464372068679 0 -0.1177490070245866 -0.1406879239823243 0 -0.11080261096354101 -0.14633740891723729 0 -0.11167008597077401 -0.15645464372068679 0 -0.1177490070245866 -0.1406879239823243 0 -0.11167008597077401 -0.15645464372068679 0 -0.1177490070245866 -0.1406879239823243 0 -0.12858916684941801 -0.15903415752081171 0 -0.1177490070245866 -0.1406879239823243 0 -0.12858916684941801 -0.15903415752081171 0 -0.1177490070245866 -0.1406879239823243 0 -0.11080261096354101 -0.14633740891723729 0 -0.1118168572565626 -0.13744131973581539 0 -0.11167008597077401 -0.15645464372068679 0 -0.11080261096354101 -0.14633740891723729 0 -0.102420492988253 -0.14948529654469059 0 -0.086687547821857752 -0.1440286720929119 0 -0.094453705703389457 -0.15629413470984391 0 -0.102420492988253 -0.14948529654469059 0 -0.11080261096354101 -0.14633740891723729 0 -0.102420492988253 -0.14948529654469059 0 -0.1118168572565626 -0.13744131973581539 0 -0.086687547821857752 -0.1440286720929119 0 -0.102420492988253 -0.14948529654469059 0 -0.099249821059541388 -0.1267492296303315 0 -0.102420492988253 -0.14948529654469059 0 -0.099249821059541388 -0.1267492296303315 0 -0.102420492988253 -0.14948529654469059 0 -0.099249821059541388 -0.1267492296303315 0 -0.1118168572565626 -0.13744131973581539 0 -0.099249821059541388 -0.1267492296303315 0 -0.10953650111102139 -0.12678881604838091 0 -0.1118168572565626 -0.13744131973581539 0 -0.1177490070245866 -0.1406879239823243 0 -0.10953650111102139 -0.12678881604838091 0 -0.12605830095842091 -0.11913635133996001 0 -0.10953650111102139 -0.12678881604838091 0 -0.1118168572565626 -0.13744131973581539 0 -0.1177490070245866 -0.1406879239823243 0 -0.12605830095842091 -0.11913635133996001 0 -0.1177490070245866 -0.1406879239823243 0 -0.10953650111102139 -0.12678881604838091 0 -0.1177490070245866 -0.1406879239823243 0 -0.10953650111102139 -0.12678881604838091 0 -0.1118168572565626 -0.13744131973581539 0 -0.1177490070245866 -0.1406879239823243 0 -0.13598350848766261 -0.1386633749110476 0 -0.12605830095842091 -0.11913635133996001 0 -0.13598350848766261 -0.1386633749110476 0 -0.12605830095842091 -0.11913635133996001 0 -0.14185773010941599 -0.1238877597869591 0 -0.13598350848766261 -0.1386633749110476 0 -0.15462145509800751 -0.13369590753772059 0 -0.14185773010941599 -0.1238877597869591 0 -0.15462145509800751 -0.13369590753772059 0 -0.14702539088612621 -0.1555381492985099 0 -0.15462145509800751 -0.13369590753772059 0 -0.14702539088612621 -0.1555381492985099 0 -0.16524198385203701 -0.14963136327141149 0 -0.13598350848766261 -0.1386633749110476 0 -0.15462145509800751 -0.13369590753772059 0 -0.14702539088612621 -0.1555381492985099 0 -0.13598350848766261 -0.1386633749110476 0 -0.14702539088612621 -0.1555381492985099 0 -0.12858916684941801 -0.15903415752081171 0 -0.1177490070245866 -0.1406879239823243 0 -0.13598350848766261 -0.1386633749110476 0 -0.12858916684941801 -0.15903415752081171 0 -0.14702539088612621 -0.1555381492985099 0 -0.12858916684941801 -0.15903415752081171 0 -0.13942932667424771 -0.17738039105930009 0 -0.1228347060966737 -0.16740332776153369 0 -0.12858916684941801 -0.15903415752081171 0 -0.13942932667424771 -0.17738039105930009 0 -0.12858916684941801 -0.15903415752081171 0 -0.13942932667424771 -0.17738039105930009 0 -0.1229589819622499 -0.17675484335994221 0 -0.129750296340437 -0.1830539987604374 0 -0.13942932667424771 -0.17738039105930009 0 -0.1229589819622499 -0.17675484335994221 0 -0.1228347060966737 -0.16740332776153369 0 -0.13942932667424771 -0.17738039105930009 0 -0.1218312388982781 -0.18733608766675891 0 -0.129750296340437 -0.1830539987604374 0 -0.1347816378269705 -0.1907446729557489 0 -0.129750296340437 -0.1830539987604374 0 -0.13942932667424771 -0.17738039105930009 0 -0.1347816378269705 -0.1907446729557489 0 -0.13942932667424771 -0.17738039105930009 0 -0.14367565586580811 -0.18456701453058549 0 -0.1347816378269705 -0.1907446729557489 0 -0.13942932667424771 -0.17738039105930009 0 -0.1347816378269705 -0.1907446729557489 0 -0.13942932667424771 -0.17738039105930009 0 -0.14367565586580811 -0.18456701453058549 0 -0.16320121670498369 -0.17100483769472061 0 -0.14367565586580811 -0.18456701453058549 0 -0.16320121670498369 -0.17100483769472061 0 -0.1609814743475837 -0.1883469995729353 0 -0.14367565586580811 -0.18456701453058549 0 -0.16320121670498369 -0.17100483769472061 0 -0.13942932667424771 -0.17738039105930009 0 -0.14367565586580811 -0.18456701453058549 0 -0.14702539088612621 -0.1555381492985099 0 -0.13942932667424771 -0.17738039105930009 0 -0.14702539088612621 -0.1555381492985099 0 -0.13942932667424771 -0.17738039105930009 0 -0.16320121670498369 -0.17100483769472061 0 -0.16320121670498369 -0.17100483769472061 0 -0.18272677754415759 -0.15744266085885339 0 -0.16524198385203701 -0.14963136327141149 0 -0.14702539088612621 -0.1555381492985099 0 -0.16320121670498369 -0.17100483769472061 0 -0.16524198385203701 -0.14963136327141149 0 -0.16320121670498369 -0.17100483769472061 0 -0.17763114631423921 -0.1827493034224362 0 -0.1609814743475837 -0.1883469995729353 0 -0.17763114631423921 -0.1827493034224362 0 -0.18272677754415759 -0.15744266085885339 0 -0.1955153455472714 -0.1781162946901888 0 -0.16320121670498369 -0.17100483769472061 0 -0.18272677754415759 -0.15744266085885339 0 -0.16320121670498369 -0.17100483769472061 0 -0.17763114631423921 -0.1827493034224362 0 -0.18272677754415759 -0.15744266085885339 0 -0.18272677754415759 -0.15744266085885339 0 -0.18223492884661099 -0.12786707489995899 0 -0.16524198385203701 -0.14963136327141149 0 -0.15462145509800751 -0.13369590753772059 0 -0.18223492884661099 -0.12786707489995899 0 -0.16524198385203701 -0.14963136327141149 0 -0.15473135585277459 -0.24295912242137649 0 -0.1488761499473211 -0.2492618143620256 0 -0.14642390202381109 -0.24247329499037651 0 -0.1569880361288114 -0.25010918782341363 0 -0.15473135585277459 -0.24295912242137649 0 -0.1488761499473211 -0.2492618143620256 0 -0.15473135585277459 -0.24295912242137649 0 -0.15047134347768329 -0.23616743747096891 0 -0.15908083488895181 -0.23623508580069311 0 -0.15473135585277459 -0.24295912242137649 0 -0.15047134347768329 -0.23616743747096891 0 -0.14642390202381109 -0.24247329499037651 0 -0.15047134347768329 -0.23616743747096891 0 -0.1439086124468249 -0.23592521712295611 0 -0.14642390202381109 -0.24247329499037651 0 -0.1439086124468249 -0.23592521712295611 0 -0.1407140369241672 -0.24160435669013841 0 -0.14642390202381109 -0.24247329499037651 0 -0.1407140369241672 -0.24160435669013841 0 -0.14642390202381109 -0.24247329499037651 0 -0.1423681664515466 -0.2468941579071823 0 -0.14408301200767651 -0.25339504127440221 0 -0.1488761499473211 -0.2492618143620256 0 -0.1423681664515466 -0.2468941579071823 0 -0.1488761499473211 -0.2492618143620256 0 -0.14642390202381109 -0.24247329499037651 0 -0.1423681664515466 -0.2468941579071823 0 -0.13391280599054789 -0.2468488566413706 0 -0.12536218461435761 -0.2250376439040179 0 -0.13391280599054789 -0.2468488566413706 0 -0.13695669770810551 -0.2358802567888065 0 -0.12536218461435761 -0.2250376439040179 0 -0.13391280599054789 -0.2468488566413706 0 -0.12764737227819381 -0.2483748960026205 0 -0.12536218461435761 -0.2250376439040179 0 -0.1407140369241672 -0.24160435669013841 0 -0.1423681664515466 -0.2468941579071823 0 -0.13391280599054789 -0.2468488566413706 0 -0.14408301200767651 -0.25339504127440221 0 -0.1423681664515466 -0.2468941579071823 0 -0.13391280599054789 -0.2468488566413706 0 -0.1407140369241672 -0.24160435669013841 0 -0.13391280599054789 -0.2468488566413706 0 -0.13695669770810551 -0.2358802567888065 0 -0.1439086124468249 -0.23592521712295611 0 -0.1407140369241672 -0.24160435669013841 0 -0.13695669770810551 -0.2358802567888065 0 -0.13695669770810551 -0.2358802567888065 0 -0.13948584310745221 -0.227113642808392 0 -0.12536218461435761 -0.2250376439040179 0 -0.1439086124468249 -0.23592521712295611 0 -0.13695669770810551 -0.2358802567888065 0 -0.13948584310745221 -0.227113642808392 0 -0.13948584310745221 -0.227113642808392 0 -0.12536218461435761 -0.2250376439040179 0 -0.13668080232961771 -0.21728337989288049 0 -0.13948584310745221 -0.227113642808392 0 -0.14768877186645729 -0.21915134139595599 0 -0.13668080232961771 -0.21728337989288049 0 -0.13948584310745221 -0.227113642808392 0 -0.14768877186645729 -0.21915134139595599 0 -0.14631798967935011 -0.22940401774573521 0 -0.1439086124468249 -0.23592521712295611 0 -0.13948584310745221 -0.227113642808392 0 -0.14631798967935011 -0.22940401774573521 0 -0.15047134347768329 -0.23616743747096891 0 -0.1439086124468249 -0.23592521712295611 0 -0.14631798967935011 -0.22940401774573521 0 -0.15047134347768329 -0.23616743747096891 0 -0.15227094567118599 -0.23011004637437071 0 -0.15908083488895181 -0.23623508580069311 0 -0.15047134347768329 -0.23616743747096891 0 -0.14631798967935011 -0.22940401774573521 0 -0.15227094567118599 -0.23011004637437071 0 -0.14768877186645729 -0.21915134139595599 0 -0.14631798967935011 -0.22940401774573521 0 -0.15227094567118599 -0.23011004637437071 0 -0.14768877186645729 -0.21915134139595599 0 -0.15227094567118599 -0.23011004637437071 0 -0.15644998308463251 -0.22581216227144321 0 -0.14768877186645729 -0.21915134139595599 0 -0.13668080232961771 -0.21728337989288049 0 -0.1414070087842024 -0.20310507028430169 0 -0.14768877186645729 -0.21915134139595599 0 -0.15537427996923781 -0.2043661404981626 0 -0.15644998308463251 -0.22581216227144321 0 -0.14768877186645729 -0.21915134139595599 0 -0.15537427996923781 -0.2043661404981626 0 -0.1414070087842024 -0.20310507028430169 0 -0.12536218461435761 -0.2250376439040179 0 -0.13668080232961771 -0.21728337989288049 0 -0.12854176561437861 -0.2086872276290844 0 -0.13668080232961771 -0.21728337989288049 0 -0.12854176561437861 -0.2086872276290844 0 -0.1414070087842024 -0.20310507028430169 0 -0.12854176561437861 -0.2086872276290844 0 -0.1347816378269705 -0.1907446729557489 0 -0.1414070087842024 -0.20310507028430169 0 -0.1168115632381658 -0.20322643116666581 0 -0.12854176561437861 -0.2086872276290844 0 -0.1347816378269705 -0.1907446729557489 0 -0.1168115632381658 -0.20322643116666581 0 -0.1347816378269705 -0.1907446729557489 0 -0.14367565586580811 -0.18456701453058549 0 -0.1347816378269705 -0.1907446729557489 0 -0.1414070087842024 -0.20310507028430169 0 -0.12854176561437861 -0.2086872276290844 0 -0.1347816378269705 -0.1907446729557489 0 -0.14367565586580811 -0.18456701453058549 0 -0.1347816378269705 -0.1907446729557489 0 -0.14367565586580811 -0.18456701453058549 0 -0.15537427996923781 -0.2043661404981626 0 -0.1609814743475837 -0.1883469995729353 0 -0.14367565586580811 -0.18456701453058549 0 -0.15537427996923781 -0.2043661404981626 0 -0.1414070087842024 -0.20310507028430169 0 -0.14367565586580811 -0.18456701453058549 0 -0.15537427996923781 -0.2043661404981626 0 -0.17763114631423921 -0.1827493034224362 0 -0.1609814743475837 -0.1883469995729353 0 -0.1716608548144746 -0.2043574789321155 0 -0.15537427996923781 -0.2043661404981626 0 -0.1609814743475837 -0.1883469995729353 0 -0.1716608548144746 -0.2043574789321155 0 -0.17763114631423921 -0.1827493034224362 0 -0.1716608548144746 -0.2043574789321155 0 -0.19189357629641279 -0.1989130412984077 0 -0.18427933767745219 -0.21187317089349059 0 -0.1716608548144746 -0.2043574789321155 0 -0.19189357629641279 -0.1989130412984077 0 -0.18427933767745219 -0.21187317089349059 0 -0.17668869167734211 -0.218185733588525 0 -0.1870619136162289 -0.22186807307615589 0 -0.17668869167734211 -0.218185733588525 0 -0.1686715448554934 -0.21484609722379239 0 -0.17277392443132111 -0.22263752052277769 0 -0.18427933767745219 -0.21187317089349059 0 -0.17668869167734211 -0.218185733588525 0 -0.1716608548144746 -0.2043574789321155 0 -0.17668869167734211 -0.218185733588525 0 -0.1686715448554934 -0.21484609722379239 0 -0.1716608548144746 -0.2043574789321155 0 -0.15537427996923781 -0.2043661404981626 0 -0.1686715448554934 -0.21484609722379239 0 -0.16707290407266781 -0.22416526646573959 0 -0.15537427996923781 -0.2043661404981626 0 -0.15644998308463251 -0.22581216227144321 0 -0.16707290407266781 -0.22416526646573959 0 -0.15537427996923781 -0.2043661404981626 0 -0.1686715448554934 -0.21484609722379239 0 -0.1716608548144746 -0.2043574789321155 0 -0.15537427996923781 -0.2043661404981626 0 -0.16707290407266781 -0.22416526646573959 0 -0.15644998308463251 -0.22581216227144321 0 -0.16176365679895499 -0.23010061945147739 0 -0.16707290407266781 -0.22416526646573959 0 -0.15227094567118599 -0.23011004637437071 0 -0.15644998308463251 -0.22581216227144321 0 -0.16176365679895499 -0.23010061945147739 0 -0.15227094567118599 -0.23011004637437071 0 -0.16176365679895499 -0.23010061945147739 0 -0.15908083488895181 -0.23623508580069311 0 -0.16176365679895499 -0.23010061945147739 0 -0.1663253928370568 -0.23594301181089131 0 -0.15908083488895181 -0.23623508580069311 0 -0.16176365679895499 -0.23010061945147739 0 -0.16707290407266781 -0.22416526646573959 0 -0.1663253928370568 -0.23594301181089131 0 -0.17134449953070191 -0.2286017970495898 0 -0.16707290407266781 -0.22416526646573959 0 -0.17277392443132111 -0.22263752052277769 0 -0.1686715448554934 -0.21484609722379239 0 -0.16707290407266781 -0.22416526646573959 0 -0.17277392443132111 -0.22263752052277769 0 -0.17134449953070191 -0.2286017970495898 0 -0.18009198202040039 -0.2273887082862418 0 -0.17877152817609759 -0.24396439243331669 0 -0.17134449953070191 -0.2286017970495898 0 -0.17277392443132111 -0.22263752052277769 0 -0.18009198202040039 -0.2273887082862418 0 -0.17668869167734211 -0.218185733588525 0 -0.17277392443132111 -0.22263752052277769 0 -0.18009198202040039 -0.2273887082862418 0 -0.16707290407266781 -0.22416526646573959 0 -0.17877152817609759 -0.24396439243331669 0 -0.17134449953070191 -0.2286017970495898 0 -0.16707290407266781 -0.22416526646573959 0 -0.17877152817609759 -0.24396439243331669 0 -0.17668869167734211 -0.218185733588525 0 -0.1870619136162289 -0.22186807307615589 0 -0.18009198202040039 -0.2273887082862418 0 -0.1870619136162289 -0.22186807307615589 0 -0.18009198202040039 -0.2273887082862418 0 -0.19038880122942131 -0.23203678471978489 0 -0.18009198202040039 -0.2273887082862418 0 -0.17877152817609759 -0.24396439243331669 0 -0.19038880122942131 -0.23203678471978489 0 -0.17134449953070191 -0.2286017970495898 0 -0.17877152817609759 -0.24396439243331669 0 -0.17877152817609759 -0.24396439243331669 0 -0.1928789223339735 -0.2457784416041302 0 -0.19038880122942131 -0.23203678471978489 0 -0.18766184875981529 -0.25901065561545938 0 -0.17877152817609759 -0.24396439243331669 0 -0.1928789223339735 -0.2457784416041302 0 -0.1710440576846288 -0.252798823118286 0 -0.17877152817609759 -0.24396439243331669 0 -0.16493804024861189 -0.24524969490322959 0 -0.16707290407266781 -0.22416526646573959 0 -0.17877152817609759 -0.24396439243331669 0 -0.1663253928370568 -0.23594301181089131 0 -0.17877152817609759 -0.24396439243331669 0 -0.16493804024861189 -0.24524969490322959 0 -0.1663253928370568 -0.23594301181089131 0 -0.16493804024861189 -0.24524969490322959 0 -0.1663253928370568 -0.23594301181089131 0 -0.15908083488895181 -0.23623508580069311 0 -0.15473135585277459 -0.24295912242137649 0 -0.16493804024861189 -0.24524969490322959 0 -0.15908083488895181 -0.23623508580069311 0 -0.1569880361288114 -0.25010918782341363 0 -0.15473135585277459 -0.24295912242137649 0 -0.16493804024861189 -0.24524969490322959 0 -0.21214605112684379 -0.25359047249918482 0 -0.20541533083038721 -0.24271412210804791 0 -0.2221259506427786 -0.23891973522316601 0 -0.19813911327843581 -0.25427749259247479 0 -0.20541533083038721 -0.24271412210804791 0 -0.1928789223339735 -0.2457784416041302 0 -0.20541533083038721 -0.24271412210804791 0 -0.1928789223339735 -0.2457784416041302 0 -0.19038880122942131 -0.23203678471978489 0 -0.1870619136162289 -0.22186807307615589 0 -0.19038880122942131 -0.23203678471978489 0 -0.2038607554765284 -0.21985596789273729 0 -0.20541533083038721 -0.24271412210804791 0 -0.19038880122942131 -0.23203678471978489 0 -0.2038607554765284 -0.21985596789273729 0 -0.20541533083038721 -0.24271412210804791 0 -0.2038607554765284 -0.21985596789273729 0 -0.2221259506427786 -0.23891973522316601 0 -0.2038607554765284 -0.21985596789273729 0 -0.20774012474984799 -0.19806309887243259 0 -0.2232670608365793 -0.20567737503608369 0 -0.2038607554765284 -0.21985596789273729 0 -0.20774012474984799 -0.19806309887243259 0 -0.2038607554765284 -0.21985596789273729 0 -0.19189357629641279 -0.1989130412984077 0 -0.20774012474984799 -0.19806309887243259 0 -0.18427933767745219 -0.21187317089349059 0 -0.2038607554765284 -0.21985596789273729 0 -0.19189357629641279 -0.1989130412984077 0 -0.18427933767745219 -0.21187317089349059 0 -0.1870619136162289 -0.22186807307615589 0 -0.2038607554765284 -0.21985596789273729 0 -0.19189357629641279 -0.1989130412984077 0 -0.20774012474984799 -0.19806309887243259 0 -0.1955153455472714 -0.1781162946901888 0 -0.20774012474984799 -0.19806309887243259 0 -0.2232670608365793 -0.20567737503608369 0 -0.22345380511262031 -0.18678511055277899 0 -0.2038607554765284 -0.21985596789273729 0 -0.2232670608365793 -0.20567737503608369 0 -0.23571802125808261 -0.22345712088530209 0 -0.24591924692317799 -0.1950643362415414 0 -0.2232670608365793 -0.20567737503608369 0 -0.22345380511262031 -0.18678511055277899 0 -0.24591924692317799 -0.1950643362415414 0 -0.23571802125808261 -0.22345712088530209 0 -0.26049009221862651 -0.2189494374127573 0 -0.24591924692317799 -0.1950643362415414 0 -0.2232670608365793 -0.20567737503608369 0 -0.23571802125808261 -0.22345712088530209 0 -0.2038607554765284 -0.21985596789273729 0 -0.23571802125808261 -0.22345712088530209 0 -0.2221259506427786 -0.23891973522316601 0 -0.23571802125808261 -0.22345712088530209 0 -0.24264519135628629 -0.24509367478286839 0 -0.25879492157463541 -0.236370500924767 0 -0.2301036847276843 -0.25289206533091552 0 -0.21214605112684379 -0.25359047249918482 0 -0.2221259506427786 -0.23891973522316601 0 -0.23571802125808261 -0.22345712088530209 0 -0.24264519135628629 -0.24509367478286839 0 -0.2221259506427786 -0.23891973522316601 0 -0.2301036847276843 -0.25289206533091552 0 -0.24264519135628629 -0.24509367478286839 0 -0.2221259506427786 -0.23891973522316601 0 -0.21549886329648399 -0.15447736083182259 0 -0.20225233838333201 -0.1438804840229867 0 -0.19955362885620229 -0.16083176470814869 0 -0.21677755633227769 -0.1472941338991115 0 -0.208547865095882 -0.13950770071326249 0 -0.20225233838333201 -0.1438804840229867 0 -0.208547865095882 -0.13950770071326249 0 -0.20225233838333201 -0.1438804840229867 0 -0.21549886329648399 -0.15447736083182259 0 -0.20225233838333201 -0.1438804840229867 0 -0.21549886329648399 -0.15447736083182259 0 -0.21677755633227769 -0.1472941338991115 0 -0.20225233838333201 -0.1438804840229867 0 -0.21549886329648399 -0.15447736083182259 0 -0.21677755633227769 -0.1472941338991115 0 -0.21677755633227769 -0.1472941338991115 0 -0.20398958176765389 -0.12633158436559219 0 -0.21956129114008241 -0.13165613612687169 0 -0.21677755633227769 -0.1472941338991115 0 -0.21956129114008241 -0.13165613612687169 0 -0.21677755633227769 -0.1472941338991115 0 -0.20398958176765389 -0.12633158436559219 0 -0.208547865095882 -0.13950770071326249 0 -0.21677755633227769 -0.1472941338991115 0 -0.20398958176765389 -0.12633158436559219 0 -0.20398958176765389 -0.12633158436559219 0 -0.208547865095882 -0.13950770071326249 0 -0.20225233838333201 -0.1438804840229867 0 -0.18223492884661099 -0.12786707489995899 0 -0.20225233838333201 -0.1438804840229867 0 -0.18223492884661099 -0.12786707489995899 0 -0.20398958176765389 -0.12633158436559219 0 -0.20225233838333201 -0.1438804840229867 0 -0.18272677754415759 -0.15744266085885339 0 -0.20225233838333201 -0.1438804840229867 0 -0.18272677754415759 -0.15744266085885339 0 -0.18223492884661099 -0.12786707489995899 0 -0.20225233838333201 -0.1438804840229867 0 -0.18272677754415759 -0.15744266085885339 0 -0.20225233838333201 -0.1438804840229867 0 -0.19955362885620229 -0.16083176470814869 0 -0.18272677754415759 -0.15744266085885339 0 -0.19955362885620229 -0.16083176470814869 0 -0.1955153455472714 -0.1781162946901888 0 -0.19955362885620229 -0.16083176470814869 0 -0.1955153455472714 -0.1781162946901888 0 -0.21161949402316749 -0.1762702298521279 0 -0.17763114631423921 -0.1827493034224362 0 -0.19189357629641279 -0.1989130412984077 0 -0.1955153455472714 -0.1781162946901888 0 -0.20774012474984799 -0.19806309887243259 0 -0.21161949402316749 -0.1762702298521279 0 -0.22345380511262031 -0.18678511055277899 0 -0.20774012474984799 -0.19806309887243259 0 -0.1955153455472714 -0.1781162946901888 0 -0.21161949402316749 -0.1762702298521279 0 -0.20774012474984799 -0.19806309887243259 0 -0.21161949402316749 -0.1762702298521279 0 -0.21549886329648399 -0.15447736083182259 0 -0.21161949402316749 -0.1762702298521279 0 -0.21549886329648399 -0.15447736083182259 0 -0.19955362885620229 -0.16083176470814869 0 -0.21161949402316749 -0.1762702298521279 0 -0.21549886329648399 -0.15447736083182259 0 -0.21161949402316749 -0.1762702298521279 0 -0.22152148302509081 -0.1702678846913912 0 -0.21549886329648399 -0.15447736083182259 0 -0.2260109051586186 -0.16242980148698311 0 -0.21677755633227769 -0.1472941338991115 0 -0.2260109051586186 -0.16242980148698311 0 -0.22619513121283721 -0.15923735489689611 0 -0.21549886329648399 -0.15447736083182259 0 -0.2260109051586186 -0.16242980148698311 0 -0.22152148302509081 -0.1702678846913912 0 -0.2260109051586186 -0.16242980148698311 0 -0.22152148302509081 -0.1702678846913912 0 -0.23134840162772949 -0.1711792350703254 0 -0.2260109051586186 -0.16242980148698311 0 -0.22619513121283721 -0.15923735489689611 0 -0.23134840162772949 -0.1711792350703254 0 -0.2260109051586186 -0.16242980148698311 0 -0.23134840162772949 -0.1711792350703254 0 -0.21161949402316749 -0.1762702298521279 0 -0.22152148302509081 -0.1702678846913912 0 -0.22345380511262031 -0.18678511055277899 0 -0.24591924692317799 -0.1950643362415414 0 -0.23134840162772949 -0.1711792350703254 0 -0.22345380511262031 -0.18678511055277899 0 -0.22152148302509081 -0.1702678846913912 0 -0.23134840162772949 -0.1711792350703254 0 -0.22345380511262031 -0.18678511055277899 0 -0.24591924692317799 -0.1950643362415414 0 -0.23134840162772949 -0.1711792350703254 0 -0.249279965601751 -0.17205688110792611 0 -0.24591924692317799 -0.1950643362415414 0 -0.23134840162772949 -0.1711792350703254 0 -0.22619513121283721 -0.15923735489689611 0 -0.23134840162772949 -0.1711792350703254 0 -0.249279965601751 -0.17205688110792611 0 -0.22619513121283721 -0.15923735489689611 0 -0.249279965601751 -0.17205688110792611 0 -0.22619513121283721 -0.15923735489689611 0 -0.249279965601751 -0.17205688110792611 0 -0.24285109092751589 -0.15553125449134239 0 -0.2492153271516403 -0.14332917956342009 0 -0.24285109092751589 -0.15553125449134239 0 -0.23177600993894151 -0.1442617453549416 0 -0.21677755633227769 -0.1472941338991115 0 -0.23177600993894151 -0.1442617453549416 0 -0.21956129114008241 -0.13165613612687169 0 -0.22619513121283721 -0.15923735489689611 0 -0.24285109092751589 -0.15553125449134239 0 -0.23177600993894151 -0.1442617453549416 0 -0.21549886329648399 -0.15447736083182259 0 -0.21677755633227769 -0.1472941338991115 0 -0.2260109051586186 -0.16242980148698311 0 -0.21677755633227769 -0.1472941338991115 0 -0.22619513121283721 -0.15923735489689611 0 -0.23177600993894151 -0.1442617453549416 0 -0.21677755633227769 -0.1472941338991115 0 -0.2260109051586186 -0.16242980148698311 0 -0.23177600993894151 -0.1442617453549416 0 -0.21956129114008241 -0.13165613612687169 0 -0.23693147751787069 -0.12629501962530651 0 -0.2492153271516403 -0.14332917956342009 0 -0.23177600993894151 -0.1442617453549416 0 -0.23693147751787069 -0.12629501962530651 0 -0.2492153271516403 -0.14332917956342009 0 -0.23693147751787069 -0.12629501962530651 0 -0.25585894098765122 -0.13162616055214019 0 -0.23059205492835089 -0.1032164329932222 0 -0.25224752054654348 -0.1164739320692829 0 -0.23693147751787069 -0.12629501962530651 0 -0.23059205492835089 -0.1032164329932222 0 -0.25224752054654348 -0.1164739320692829 0 -0.23693147751787069 -0.12629501962530651 0 -0.25224752054654348 -0.1164739320692829 0 -0.25585894098765122 -0.13162616055214019 0 -0.23059205492835089 -0.1032164329932222 0 -0.25224752054654348 -0.1164739320692829 0 -0.25803097993513069 -0.1017160321710695 0 -0.23059205492835089 -0.1032164329932222 0 -0.24880416418309401 -0.081451628240925764 0 -0.25803097993513069 -0.1017160321710695 0 -0.23059205492835089 -0.1032164329932222 0 -0.20893658931015821 -0.089958933917161574 0 -0.21682216427369391 -0.1142346500036797 0 -0.23059205492835089 -0.1032164329932222 0 -0.20893658931015821 -0.089958933917161574 0 -0.21956129114008241 -0.13165613612687169 0 -0.23693147751787069 -0.12629501962530651 0 -0.21682216427369391 -0.1142346500036797 0 -0.23693147751787069 -0.12629501962530651 0 -0.23059205492835089 -0.1032164329932222 0 -0.21682216427369391 -0.1142346500036797 0 -0.23637329341123189 -0.063217187724785615 0 -0.24880416418309401 -0.081451628240925764 0 -0.22800684613260311 -0.079113015043978926 0 -0.23637329341123189 -0.063217187724785615 0 -0.24880416418309401 -0.081451628240925764 0 -0.25669607954882168 -0.054449065458595687 0 -0.23059205492835089 -0.1032164329932222 0 -0.24880416418309401 -0.081451628240925764 0 -0.22800684613260311 -0.079113015043978926 0 -0.23059205492835089 -0.1032164329932222 0 -0.22800684613260311 -0.079113015043978926 0 -0.20893658931015821 -0.089958933917161574 0 -0.23637329341123189 -0.063217187724785615 0 -0.22800684613260311 -0.079113015043978926 0 -0.21567838174669079 -0.063595341668907152 0 -0.21567838174669079 -0.063595341668907152 0 -0.20893658931015821 -0.089958933917161574 0 -0.198877827233335 -0.066189574781380198 0 -0.22800684613260311 -0.079113015043978926 0 -0.21567838174669079 -0.063595341668907152 0 -0.20893658931015821 -0.089958933917161574 0 -0.20893658931015821 -0.089958933917161574 0 -0.19166648615701551 -0.090703583573245525 0 -0.18728112369196559 -0.07670143484110091 0 -0.20893658931015821 -0.089958933917161574 0 -0.18728112369196559 -0.07670143484110091 0 -0.20893658931015821 -0.089958933917161574 0 -0.198877827233335 -0.066189574781380198 0 -0.18728112369196559 -0.07670143484110091 0 -0.198877827233335 -0.066189574781380198 0 -0.18409396797697339 -0.063364365251673188 0 -0.18728112369196559 -0.07670143484110091 0 -0.20398958176765389 -0.12633158436559219 0 -0.21682216427369391 -0.1142346500036797 0 -0.19120160720302681 -0.10536903483207501 0 -0.20398958176765389 -0.12633158436559219 0 -0.21956129114008241 -0.13165613612687169 0 -0.21682216427369391 -0.1142346500036797 0 -0.20893658931015821 -0.089958933917161574 0 -0.21682216427369391 -0.1142346500036797 0 -0.19120160720302681 -0.10536903483207501 0 -0.20893658931015821 -0.089958933917161574 0 -0.19166648615701551 -0.090703583573245525 0 -0.19120160720302681 -0.10536903483207501 0 -0.20398958176765389 -0.12633158436559219 0 -0.19120160720302681 -0.10536903483207501 0 -0.18223492884661099 -0.12786707489995899 0 -0.20398958176765389 -0.12633158436559219 0 -0.19120160720302681 -0.10536903483207501 0 -0.18223492884661099 -0.12786707489995899 0 -0.16221751930988981 -0.11185366577693159 0 -0.1752526236474016 -0.10209932733157 0 -0.18223492884661099 -0.12786707489995899 0 -0.16221751930988981 -0.11185366577693159 0 -0.18223492884661099 -0.12786707489995899 0 -0.19120160720302681 -0.10536903483207501 0 -0.1752526236474016 -0.10209932733157 0 -0.15462145509800751 -0.13369590753772059 0 -0.16221751930988981 -0.11185366577693159 0 -0.15462145509800751 -0.13369590753772059 0 -0.18223492884661099 -0.12786707489995899 0 -0.16221751930988981 -0.11185366577693159 0 -0.15462145509800751 -0.13369590753772059 0 -0.16221751930988981 -0.11185366577693159 0 -0.1524683930998196 -0.1146182729259053 0 -0.16221751930988981 -0.11185366577693159 0 -0.1710828594391543 -0.086361661365992895 0 -0.16221751930988981 -0.11185366577693159 0 -0.1752526236474016 -0.10209932733157 0 -0.1710828594391543 -0.086361661365992895 0 -0.16221751930988981 -0.11185366577693159 0 -0.15918458311062031 -0.092379899583640984 0 -0.15246250675655709 -0.1040499084161105 0 -0.16221751930988981 -0.11185366577693159 0 -0.1710828594391543 -0.086361661365992895 0 -0.15918458311062031 -0.092379899583640984 0 -0.16221751930988981 -0.11185366577693159 0 -0.15246250675655709 -0.1040499084161105 0 -0.19120160720302681 -0.10536903483207501 0 -0.1784136326383996 -0.084406485298557724 0 -0.19120160720302681 -0.10536903483207501 0 -0.1752526236474016 -0.10209932733157 0 -0.1784136326383996 -0.084406485298557724 0 -0.19166648615701551 -0.090703583573245525 0 -0.19120160720302681 -0.10536903483207501 0 -0.1784136326383996 -0.084406485298557724 0 -0.1752526236474016 -0.10209932733157 0 -0.1784136326383996 -0.084406485298557724 0 -0.1710828594391543 -0.086361661365992895 0 -0.19166648615701551 -0.090703583573245525 0 -0.1784136326383996 -0.084406485298557724 0 -0.18728112369196559 -0.07670143484110091 0 -0.1784136326383996 -0.084406485298557724 0 -0.16562565807377261 -0.06344393576504033 0 -0.18409396797697339 -0.063364365251673188 0 -0.18728112369196559 -0.07670143484110091 0 -0.16562565807377261 -0.06344393576504033 0 -0.18728112369196559 -0.07670143484110091 0 -0.16562565807377261 -0.06344393576504033 0 -0.1784136326383996 -0.084406485298557724 0 -0.18728112369196559 -0.07670143484110091 0 -0.16562565807377261 -0.06344393576504033 0 -0.16562565807377261 -0.06344393576504033 0 -0.16556403574103559 -0.078566010555113766 0 -0.15244894962232741 -0.079709374782697032 0 -0.16562565807377261 -0.06344393576504033 0 -0.15244894962232741 -0.079709374782697032 0 -0.15243539248809571 -0.055368841149283671 0 -0.1784136326383996 -0.084406485298557724 0 -0.16562565807377261 -0.06344393576504033 0 -0.16556403574103559 -0.078566010555113766 0 -0.1710828594391543 -0.086361661365992895 0 -0.16207010697828431 -0.084254236571861166 0 -0.15918458311062031 -0.092379899583640984 0 -0.1710828594391543 -0.086361661365992895 0 -0.16556403574103559 -0.078566010555113766 0 -0.16207010697828431 -0.084254236571861166 0 -0.1784136326383996 -0.084406485298557724 0 -0.1710828594391543 -0.086361661365992895 0 -0.16556403574103559 -0.078566010555113766 0 -0.16556403574103559 -0.078566010555113766 0 -0.16207010697828431 -0.084254236571861166 0 -0.15244894962232741 -0.079709374782697032 0 -0.16207010697828431 -0.084254236571861166 0 -0.15918458311062031 -0.092379899583640984 0 -0.15244894962232741 -0.079709374782697032 0 -0.15244894962232741 -0.079709374782697032 0 -0.14465370663254171 -0.085604614001895882 0 -0.15246250675655709 -0.1040499084161105 0 -0.15244894962232741 -0.079709374782697032 0 -0.15246250675655709 -0.1040499084161105 0 -0.15918458311062031 -0.092379899583640984 0 -0.15244894962232741 -0.079709374782697032 0 -0.15246250675655709 -0.1040499084161105 0 -0.15244894962232741 -0.079709374782697032 0 -0.14465370663254171 -0.085604614001895882 0 -0.1426768888260895 -0.076033206055231298 0 -0.1426768888260895 -0.076033206055231298 0 -0.1509861827599239 -0.054481633412867062 0 -0.1426768888260895 -0.076033206055231298 0 -0.1344856402449634 -0.060497410954761653 0 -0.1509861827599239 -0.054481633412867062 0 -0.15244894962232741 -0.079709374782697032 0 -0.15243539248809571 -0.055368841149283671 0 -0.15244894962232741 -0.079709374782697032 0 -0.1426768888260895 -0.076033206055231298 0 -0.15243539248809571 -0.055368841149283671 0 -0.1211565685004375 -0.084411195090615385 0 -0.1426768888260895 -0.076033206055231298 0 -0.1259576726888757 -0.070235636645109553 0 -0.1426768888260895 -0.076033206055231298 0 -0.1259576726888757 -0.070235636645109553 0 -0.1344856402449634 -0.060497410954761653 0 -0.1189263693984047 -0.05847919227893298 0 -0.1259576726888757 -0.070235636645109553 0 -0.1344856402449634 -0.060497410954761653 0 -0.1211565685004375 -0.084411195090615385 0 -0.1426768888260895 -0.076033206055231298 0 -0.13436759489225519 -0.097584778697595645 0 -0.14465370663254171 -0.085604614001895882 0 -0.1426768888260895 -0.076033206055231298 0 -0.13436759489225519 -0.097584778697595645 0 -0.1426768888260895 -0.076033206055231298 0 -0.13436759489225519 -0.097584778697595645 0 -0.14465370663254171 -0.085604614001895882 0 -0.1404112890359267 -0.094409246399521085 0 -0.13436759489225519 -0.097584778697595645 0 -0.13436759489225519 -0.097584778697595645 0 -0.12605830095842091 -0.11913635133996001 0 -0.14107423484429751 -0.10915686154489231 0 -0.13436759489225519 -0.097584778697595645 0 -0.12605830095842091 -0.11913635133996001 0 -0.1187775150058204 -0.098410226103676057 0 -0.13436759489225519 -0.097584778697595645 0 -0.12605830095842091 -0.11913635133996001 0 -0.1404112890359267 -0.094409246399521085 0 -0.13436759489225519 -0.097584778697595645 0 -0.14107423484429751 -0.10915686154489231 0 -0.12605830095842091 -0.11913635133996001 0 -0.14185773010941599 -0.1238877597869591 0 -0.14107423484429751 -0.10915686154489231 0 -0.14185773010941599 -0.1238877597869591 0 -0.1524683930998196 -0.1146182729259053 0 -0.14107423484429751 -0.10915686154489231 0 -0.15462145509800751 -0.13369590753772059 0 -0.14185773010941599 -0.1238877597869591 0 -0.1524683930998196 -0.1146182729259053 0 -0.16221751930988981 -0.11185366577693159 0 -0.1524683930998196 -0.1146182729259053 0 -0.15246250675655709 -0.1040499084161105 0 -0.1524683930998196 -0.1146182729259053 0 -0.15246250675655709 -0.1040499084161105 0 -0.14107423484429751 -0.10915686154489231 0 -0.14465370663254171 -0.085604614001895882 0 -0.1404112890359267 -0.094409246399521085 0 -0.15246250675655709 -0.1040499084161105 0 -0.1524683930998196 -0.1146182729259053 0 -0.15246250675655709 -0.1040499084161105 0 -0.1404112890359267 -0.094409246399521085 0 -0.15246250675655709 -0.1040499084161105 0 -0.1404112890359267 -0.094409246399521085 0 -0.15246250675655709 -0.1040499084161105 0 -0.14107423484429751 -0.10915686154489231 0 -0.14113883070225999 -0.02330416780570517 0 -0.15241514953685351 -0.0190245645933096 0 -0.1524278402682647 -0.041809555114358091 0 -0.14113883070225999 -0.02330416780570517 0 -0.15241514953685351 -0.0190245645933096 0 -0.14250829846110319 -0.0070950774140885733 0 -0.15241514953685351 -0.0190245645933096 0 -0.1524278402682647 -0.041809555114358091 0 -0.1638809469248407 -0.021036860749959339 0 -0.15241514953685351 -0.0190245645933096 0 -0.1524278402682647 -0.041809555114358091 0 -0.15241514953685351 -0.0190245645933096 0 -0.14250829846110319 -0.0070950774140885733 0 -0.15240245880543771 0.0037604259277388701 0 -0.15241514953685351 -0.0190245645933096 0 -0.16032483662290051 -0.0076276602793064292 0 -0.15240245880543771 0.0037604259277388701 0 -0.15241514953685351 -0.0190245645933096 0 -0.15240245880543771 0.0037604259277388701 0 -0.14250829846110319 -0.0070950774140885733 0 -0.1298498211362587 -0.0047987804970502437 0 -0.13853001708391749 0.010606183027952611 0 -0.14113883070225999 -0.02330416780570517 0 -0.14250829846110319 -0.0070950774140885733 0 -0.1298498211362587 -0.0047987804970502437 0 -0.14113883070225999 -0.02330416780570517 0 -0.1298498211362587 -0.0047987804970502437 0 -0.1244855757975081 -0.02076724201731384 0 -0.14113883070225999 -0.02330416780570517 0 -0.1305043618508652 -0.041942640875583491 0 -0.1244855757975081 -0.02076724201731384 0 -0.14113883070225999 -0.02330416780570517 0 -0.1298498211362587 -0.0047987804970502437 0 -0.1189263693984047 -0.05847919227893298 0 -0.1305043618508652 -0.041942640875583491 0 -0.1344856402449634 -0.060497410954761653 0 -0.1305043618508652 -0.041942640875583491 0 -0.1344856402449634 -0.060497410954761653 0 -0.1509861827599239 -0.054481633412867062 0 -0.1305043618508652 -0.041942640875583491 0 -0.1509861827599239 -0.054481633412867062 0 -0.1426768888260895 -0.076033206055231298 0 -0.1509861827599239 -0.054481633412867062 0 -0.15243539248809571 -0.055368841149283671 0 -0.1305043618508652 -0.041942640875583491 0 -0.15243280851338811 -0.050729562507655132 0 -0.1509861827599239 -0.054481633412867062 0 -0.15243280851338811 -0.050729562507655132 0 -0.1545381836092927 -0.045268912700308903 0 -0.15243280851338811 -0.050729562507655132 0 -0.15243539248809571 -0.055368841149283671 0 -0.15243280851338811 -0.050729562507655132 0 -0.1509861827599239 -0.054481633412867062 0 -0.15243539248809571 -0.055368841149283671 0 -0.15243280851338811 -0.050729562507655132 0 -0.1509861827599239 -0.054481633412867062 0 -0.1509861827599239 -0.054481633412867062 0 -0.15243539248809571 -0.055368841149283671 0 -0.1305043618508652 -0.041942640875583491 0 -0.15243280851338811 -0.050729562507655132 0 -0.1524278402682647 -0.041809555114358091 0 -0.14113883070225999 -0.02330416780570517 0 -0.1524278402682647 -0.041809555114358091 0 -0.14113883070225999 -0.02330416780570517 0 -0.1305043618508652 -0.041942640875583491 0 -0.1524278402682647 -0.041809555114358091 0 -0.15243280851338811 -0.050729562507655132 0 -0.1545381836092927 -0.045268912700308903 0 -0.1524278402682647 -0.041809555114358091 0 -0.15243280851338811 -0.050729562507655132 0 -0.1524278402682647 -0.041809555114358091 0 -0.1545381836092927 -0.045268912700308903 0 -0.1524278402682647 -0.041809555114358091 0 -0.1545381836092927 -0.045268912700308903 0 -0.17143842853211241 -0.030686830056398572 0 -0.1638809469248407 -0.021036860749959339 0 -0.1545381836092927 -0.045268912700308903 0 -0.1638809469248407 -0.021036860749959339 0 -0.1545381836092927 -0.045268912700308903 0 -0.16718468593898089 -0.050652015415698012 0 -0.17280842003463559 -0.041230579521333702 0 -0.1545381836092927 -0.045268912700308903 0 -0.1524278402682647 -0.041809555114358091 0 -0.1638809469248407 -0.021036860749959339 0 -0.1545381836092927 -0.045268912700308903 0 -0.17280842003463559 -0.041230579521333702 0 -0.17143842853211241 -0.030686830056398572 0 -0.16562565807377261 -0.06344393576504033 0 -0.1545381836092927 -0.045268912700308903 0 -0.16562565807377261 -0.06344393576504033 0 -0.15243280851338811 -0.050729562507655132 0 -0.1545381836092927 -0.045268912700308903 0 -0.16562565807377261 -0.06344393576504033 0 -0.1545381836092927 -0.045268912700308903 0 -0.16718468593898089 -0.050652015415698012 0 -0.16562565807377261 -0.06344393576504033 0 -0.15243539248809571 -0.055368841149283671 0 -0.16562565807377261 -0.06344393576504033 0 -0.15243280851338811 -0.050729562507655132 0 -0.15243539248809571 -0.055368841149283671 0 -0.16562565807377261 -0.06344393576504033 0 -0.16718468593898089 -0.050652015415698012 0 -0.17784223408399821 -0.052134451699021929 0 -0.18409396797697339 -0.063364365251673188 0 -0.16562565807377261 -0.06344393576504033 0 -0.17784223408399821 -0.052134451699021929 0 -0.16718468593898089 -0.050652015415698012 0 -0.17784223408399821 -0.052134451699021929 0 -0.17280842003463559 -0.041230579521333702 0 -0.17784223408399821 -0.052134451699021929 0 -0.18639655822519141 -0.039473766024826162 0 -0.19094411425443539 -0.054642048215560103 0 -0.18409396797697339 -0.063364365251673188 0 -0.17784223408399821 -0.052134451699021929 0 -0.19094411425443539 -0.054642048215560103 0 -0.17280842003463559 -0.041230579521333702 0 -0.18639655822519141 -0.039473766024826162 0 -0.17143842853211241 -0.030686830056398572 0 -0.17784223408399821 -0.052134451699021929 0 -0.17280842003463559 -0.041230579521333702 0 -0.18639655822519141 -0.039473766024826162 0 -0.18639655822519141 -0.039473766024826162 0 -0.17594091190321479 -0.01866016914843753 0 -0.17143842853211241 -0.030686830056398572 0 -0.17594091190321479 -0.01866016914843753 0 -0.17143842853211241 -0.030686830056398572 0 -0.1638809469248407 -0.021036860749959339 0 -0.15241514953685351 -0.0190245645933096 0 -0.1638809469248407 -0.021036860749959339 0 -0.16032483662290051 -0.0076276602793064292 0 -0.1638809469248407 -0.021036860749959339 0 -0.16032483662290051 -0.0076276602793064292 0 -0.17322371024038649 0.00319519120039094 0 -0.16032483662290051 -0.0076276602793064292 0 -0.15240245880543771 0.0037604259277388701 0 -0.17322371024038649 0.00319519120039094 0 -0.17594091190321479 -0.01866016914843753 0 -0.1638809469248407 -0.021036860749959339 0 -0.17322371024038649 0.00319519120039094 0 -0.1638809469248407 -0.021036860749959339 0 -0.17322371024038649 0.00319519120039094 0 -0.17594091190321479 -0.01866016914843753 0 -0.1885831841696638 -0.0071662509829557818 0 -0.17322371024038649 0.00319519120039094 0 -0.1885831841696638 -0.0071662509829557818 0 -0.2028593011184171 -0.03058980125182359 0 -0.2046107688949933 -0.0027033495577167368 0 -0.18639655822519141 -0.039473766024826162 0 -0.17594091190321479 -0.01866016914843753 0 -0.2028593011184171 -0.03058980125182359 0 -0.17594091190321479 -0.01866016914843753 0 -0.2028593011184171 -0.03058980125182359 0 -0.17594091190321479 -0.01866016914843753 0 -0.1885831841696638 -0.0071662509829557818 0 -0.2028593011184171 -0.03058980125182359 0 -0.2028593011184171 -0.03058980125182359 0 -0.2046107688949933 -0.0027033495577167368 0 -0.22651915844182299 -0.02005490708027519 0 -0.198877827233335 -0.066189574781380198 0 -0.19094411425443539 -0.054642048215560103 0 -0.20408897881861479 -0.049501660882951132 0 -0.18639655822519141 -0.039473766024826162 0 -0.19094411425443539 -0.054642048215560103 0 -0.20408897881861479 -0.049501660882951132 0 -0.198877827233335 -0.066189574781380198 0 -0.18409396797697339 -0.063364365251673188 0 -0.19094411425443539 -0.054642048215560103 0 -0.18639655822519141 -0.039473766024826162 0 -0.2028593011184171 -0.03058980125182359 0 -0.20408897881861479 -0.049501660882951132 0 -0.2028593011184171 -0.03058980125182359 0 -0.20408897881861479 -0.049501660882951132 0 -0.22977769033361939 -0.042519433355209642 0 -0.2028593011184171 -0.03058980125182359 0 -0.22977769033361939 -0.042519433355209642 0 -0.21567838174669079 -0.063595341668907152 0 -0.20408897881861479 -0.049501660882951132 0 -0.22977769033361939 -0.042519433355209642 0 -0.21567838174669079 -0.063595341668907152 0 -0.198877827233335 -0.066189574781380198 0 -0.20408897881861479 -0.049501660882951132 0 -0.23637329341123189 -0.063217187724785615 0 -0.21567838174669079 -0.063595341668907152 0 -0.22977769033361939 -0.042519433355209642 0 -0.22977769033361939 -0.042519433355209642 0 -0.24905493162796749 -0.035356229713687057 0 -0.22651915844182299 -0.02005490708027519 0 -0.22977769033361939 -0.042519433355209642 0 -0.24905493162796749 -0.035356229713687057 0 -0.25669607954882168 -0.054449065458595687 0 -0.23637329341123189 -0.063217187724785615 0 -0.22977769033361939 -0.042519433355209642 0 -0.25669607954882168 -0.054449065458595687 0 -0.22977769033361939 -0.042519433355209642 0 -0.25669607954882168 -0.054449065458595687 0 -0.2046107688949933 -0.0027033495577167368 0 -0.22651915844182299 -0.02005490708027519 0 -0.22548312679664009 0.0042601541570101709 0 -0.22651915844182299 -0.02005490708027519 0 -0.24732913187930061 -0.01342078276022432 0 -0.22548312679664009 0.0042601541570101709 0 -0.2028593011184171 -0.03058980125182359 0 -0.22977769033361939 -0.042519433355209642 0 -0.22651915844182299 -0.02005490708027519 0 -0.24905493162796749 -0.035356229713687057 0 -0.22651915844182299 -0.02005490708027519 0 -0.24732913187930061 -0.01342078276022432 0 -0.24732913187930061 -0.01342078276022432 0 -0.22548312679664009 0.0042601541570101709 0 -0.24732913187930061 -0.01342078276022432 0 -0.22548312679664009 0.0042601541570101709 0 -0.2457000676155878 0.0036029929913239788 0 -0.24732913187930061 -0.01342078276022432 0 -0.26050176464085911 -0.0039751709235620811 0 -0.2457000676155878 0.0036029929913239788 0 -0.24732913187930061 -0.01342078276022432 0 -0.26917513696196121 -0.031101719677458759 0 -0.24732913187930061 -0.01342078276022432 0 -0.26050176464085911 -0.0039751709235620811 0 -0.26917513696196121 -0.031101719677458759 0 -0.24905493162796749 -0.035356229713687057 0 -0.24732913187930061 -0.01342078276022432 0 -0.26917513696196121 -0.031101719677458759 0 -0.26917513696196121 -0.031101719677458759 0 -0.27952179029809099 -0.0066640366484581092 0 -0.28816895269041148 -0.024305005481903431 0 -0.26050176464085911 -0.0039751709235620811 0 -0.26917513696196121 -0.031101719677458759 0 -0.27952179029809099 -0.0066640366484581092 0 -0.27952179029809099 -0.0066640366484581092 0 -0.30141929731477463 -0.015889702288931041 0 -0.29450529376719742 0.00055483878714147092 0 -0.27952179029809099 -0.0066640366484581092 0 -0.28816895269041148 -0.024305005481903431 0 -0.30141929731477463 -0.015889702288931041 0 -0.26917513696196121 -0.031101719677458759 0 -0.28816895269041148 -0.024305005481903431 0 -0.29013653059012823 -0.034494807560000083 0 -0.28816895269041148 -0.024305005481903431 0 -0.29845918136183269 -0.02943579402471274 0 -0.29013653059012823 -0.034494807560000083 0 -0.28816895269041148 -0.024305005481903431 0 -0.30141929731477463 -0.015889702288931041 0 -0.29845918136183269 -0.02943579402471274 0 -0.30141929731477463 -0.015889702288931041 0 -0.30928907377766518 -0.028750876234934639 0 -0.32249360035660579 -0.0244281693644046 0 -0.30141929731477463 -0.015889702288931041 0 -0.29845918136183269 -0.02943579402471274 0 -0.30928907377766518 -0.028750876234934639 0 -0.30141929731477463 -0.015889702288931041 0 -0.31085632474231928 -0.0041302086698588453 0 -0.29450529376719742 0.00055483878714147092 0 -0.30141929731477463 -0.015889702288931041 0 -0.31085632474231928 -0.0041302086698588453 0 -0.32249360035660579 -0.0244281693644046 0 -0.29102114204461949 -0.048782656594695807 0 -0.29583329155953131 -0.065099686799503204 0 -0.30681664275130899 -0.065419967769224263 0 -0.29102114204461949 -0.048782656594695807 0 -0.30681664275130899 -0.065419967769224263 0 -0.31380723044395081 -0.066758580820578145 0 -0.30978607285351673 -0.049632821111994969 0 -0.29102114204461949 -0.048782656594695807 0 -0.31380723044395081 -0.066758580820578145 0 -0.29102114204461949 -0.048782656594695807 0 -0.31380723044395081 -0.066758580820578145 0 -0.30978607285351673 -0.049632821111994969 0 -0.30385823989181399 -0.038848862021232333 0 -0.29102114204461949 -0.048782656594695807 0 -0.30978607285351673 -0.049632821111994969 0 -0.30385823989181399 -0.038848862021232333 0 -0.31816280433600019 -0.04064371885850146 0 -0.30385823989181399 -0.038848862021232333 0 -0.31669533773899999 -0.028915067447757941 0 -0.30928907377766518 -0.028750876234934639 0 -0.30385823989181399 -0.038848862021232333 0 -0.31669533773899999 -0.028915067447757941 0 -0.29845918136183269 -0.02943579402471274 0 -0.30385823989181399 -0.038848862021232333 0 -0.29013653059012823 -0.034494807560000083 0 -0.29845918136183269 -0.02943579402471274 0 -0.30928907377766518 -0.028750876234934639 0 -0.30385823989181399 -0.038848862021232333 0 -0.30385823989181399 -0.038848862021232333 0 -0.29102114204461949 -0.048782656594695807 0 -0.30385823989181399 -0.038848862021232333 0 -0.29013653059012823 -0.034494807560000083 0 -0.29102114204461949 -0.048782656594695807 0 -0.26917513696196121 -0.031101719677458759 0 -0.29013653059012823 -0.034494807560000083 0 -0.29102114204461949 -0.048782656594695807 0 -0.29102114204461949 -0.048782656594695807 0 -0.26991265311386131 -0.065117142417816617 0 -0.28580932881799459 -0.071555156703756825 0 -0.29102114204461949 -0.048782656594695807 0 -0.29583329155953131 -0.065099686799503204 0 -0.28580932881799459 -0.071555156703756825 0 -0.29102114204461949 -0.048782656594695807 0 -0.26991265311386131 -0.065117142417816617 0 -0.27250197044774488 -0.048513846876518191 0 -0.25669607954882168 -0.054449065458595687 0 -0.26991265311386131 -0.065117142417816617 0 -0.29102114204461949 -0.048782656594695807 0 -0.27250197044774488 -0.048513846876518191 0 -0.26991265311386131 -0.065117142417816617 0 -0.26917513696196121 -0.031101719677458759 0 -0.29102114204461949 -0.048782656594695807 0 -0.27250197044774488 -0.048513846876518191 0 -0.26917513696196121 -0.031101719677458759 0 -0.29102114204461949 -0.048782656594695807 0 -0.26917513696196121 -0.031101719677458759 0 -0.27250197044774488 -0.048513846876518191 0 -0.25669607954882168 -0.054449065458595687 0 -0.24905493162796749 -0.035356229713687057 0 -0.26917513696196121 -0.031101719677458759 0 -0.25669607954882168 -0.054449065458595687 0 -0.24880416418309401 -0.081451628240925764 0 -0.25669607954882168 -0.054449065458595687 0 -0.26991265311386131 -0.065117142417816617 0 -0.24880416418309401 -0.081451628240925764 0 -0.26991265311386131 -0.065117142417816617 0 -0.24880416418309401 -0.081451628240925764 0 -0.27141555715133242 -0.088865419741183949 0 -0.25803097993513069 -0.1017160321710695 0 -0.24880416418309401 -0.081451628240925764 0 -0.27141555715133242 -0.088865419741183949 0 -0.26991265311386131 -0.065117142417816617 0 -0.27141555715133242 -0.088865419741183949 0 -0.27627823871654361 -0.1038759094532225 0 -0.28770915622573578 -0.088319317960147747 0 -0.27141555715133242 -0.088865419741183949 0 -0.26991265311386131 -0.065117142417816617 0 -0.28580932881799459 -0.071555156703756825 0 -0.25224752054654348 -0.1164739320692829 0 -0.2739029861647363 -0.12973143114534361 0 -0.25224752054654348 -0.1164739320692829 0 -0.26884834408491998 -0.1164128705285797 0 -0.2739029861647363 -0.12973143114534361 0 -0.25224752054654348 -0.1164739320692829 0 -0.25803097993513069 -0.1017160321710695 0 -0.26884834408491998 -0.1164128705285797 0 -0.25803097993513069 -0.1017160321710695 0 -0.27627823871654361 -0.1038759094532225 0 -0.26884834408491998 -0.1164128705285797 0 -0.27141555715133242 -0.088865419741183949 0 -0.25803097993513069 -0.1017160321710695 0 -0.27627823871654361 -0.1038759094532225 0 -0.27627823871654361 -0.1038759094532225 0 -0.26884834408491998 -0.1164128705285797 0 -0.27944694452312357 -0.123906503785777 0 -0.26884834408491998 -0.1164128705285797 0 -0.27944694452312357 -0.123906503785777 0 -0.2739029861647363 -0.12973143114534361 0 -0.27944694452312357 -0.123906503785777 0 -0.29083756818915629 -0.10496165317272051 0 -0.30127523396857431 -0.1192755980066211 0 -0.27627823871654361 -0.1038759094532225 0 -0.27944694452312357 -0.123906503785777 0 -0.29083756818915629 -0.10496165317272051 0 -0.27944694452312357 -0.123906503785777 0 -0.29083756818915629 -0.10496165317272051 0 -0.27627823871654361 -0.1038759094532225 0 -0.29083756818915629 -0.10496165317272051 0 -0.28770915622573578 -0.088319317960147747 0 -0.29083756818915629 -0.10496165317272051 0 -0.30222819185518901 -0.08601680255966411 0 -0.29083756818915629 -0.10496165317272051 0 -0.30595155166434379 -0.10132718260532469 0 -0.30127523396857431 -0.1192755980066211 0 -0.29083756818915629 -0.10496165317272051 0 -0.30595155166434379 -0.10132718260532469 0 -0.30222819185518901 -0.08601680255966411 0 -0.30595155166434379 -0.10132718260532469 0 -0.30127523396857431 -0.1192755980066211 0 -0.31962554193196929 -0.1093737301319498 0 -0.30127523396857431 -0.1192755980066211 0 -0.31962554193196929 -0.1093737301319498 0 -0.3141146275408101 -0.13154814069060569 0 -0.29583329155953131 -0.065099686799503204 0 -0.28580932881799459 -0.071555156703756825 0 -0.29968605262419967 -0.074640966130338562 0 -0.29083756818915629 -0.10496165317272051 0 -0.28770915622573578 -0.088319317960147747 0 -0.30222819185518901 -0.08601680255966411 0 -0.28580932881799459 -0.071555156703756825 0 -0.28770915622573578 -0.088319317960147747 0 -0.29968605262419967 -0.074640966130338562 0 -0.27141555715133242 -0.088865419741183949 0 -0.28580932881799459 -0.071555156703756825 0 -0.28770915622573578 -0.088319317960147747 0 -0.28770915622573578 -0.088319317960147747 0 -0.30222819185518901 -0.08601680255966411 0 -0.29968605262419967 -0.074640966130338562 0 -0.30222819185518901 -0.08601680255966411 0 -0.31380723044395081 -0.066758580820578145 0 -0.31542141688703118 -0.087135707752243552 0 -0.30595155166434379 -0.10132718260532469 0 -0.30222819185518901 -0.08601680255966411 0 -0.31542141688703118 -0.087135707752243552 0 -0.30222819185518901 -0.08601680255966411 0 -0.29968605262419967 -0.074640966130338562 0 -0.31380723044395081 -0.066758580820578145 0 -0.30222819185518901 -0.08601680255966411 0 -0.31380723044395081 -0.066758580820578145 0 -0.29583329155953131 -0.065099686799503204 0 -0.29968605262419967 -0.074640966130338562 0 -0.30681664275130899 -0.065419967769224263 0 -0.29968605262419967 -0.074640966130338562 0 -0.30681664275130899 -0.065419967769224263 0 -0.31380723044395081 -0.066758580820578145 0 -0.30681664275130899 -0.065419967769224263 0 -0.31380723044395081 -0.066758580820578145 0 -0.31380723044395081 -0.066758580820578145 0 -0.33232279974124229 -0.082209912587175249 0 -0.31380723044395081 -0.066758580820578145 0 -0.34103192533327292 -0.071971780840416083 0 -0.31542141688703118 -0.087135707752243552 0 -0.33232279974124229 -0.082209912587175249 0 -0.31962554193196929 -0.1093737301319498 0 -0.31380723044395081 -0.066758580820578145 0 -0.31542141688703118 -0.087135707752243552 0 -0.33232279974124229 -0.082209912587175249 0 -0.33232279974124229 -0.082209912587175249 0 -0.34103192533327292 -0.071971780840416083 0 -0.35102678396124121 -0.097347873227733403 0 -0.33232279974124229 -0.082209912587175249 0 -0.35102678396124121 -0.097347873227733403 0 -0.31380723044395081 -0.066758580820578145 0 -0.34103192533327292 -0.071971780840416083 0 -0.33611116833836008 -0.057295815615716353 0 -0.31380723044395081 -0.066758580820578145 0 -0.33232279974124229 -0.082209912587175249 0 -0.34103192533327292 -0.071971780840416083 0 -0.33232279974124229 -0.082209912587175249 0 -0.31962554193196929 -0.1093737301319498 0 -0.33942752047245062 -0.11407003606899251 0 -0.33232279974124229 -0.082209912587175249 0 -0.33942752047245062 -0.11407003606899251 0 -0.35102678396124121 -0.097347873227733403 0 -0.31962554193196929 -0.1093737301319498 0 -0.3141146275408101 -0.13154814069060569 0 -0.33520748377907228 -0.13397895200830279 0 -0.30595155166434379 -0.10132718260532469 0 -0.31542141688703118 -0.087135707752243552 0 -0.31962554193196929 -0.1093737301319498 0 -0.31962554193196929 -0.1093737301319498 0 -0.33942752047245062 -0.11407003606899251 0 -0.33520748377907228 -0.13397895200830279 0 -0.33942752047245062 -0.11407003606899251 0 -0.36973076818124029 -0.1124858338682917 0 -0.35793937060865533 -0.13200890184198849 0 -0.33942752047245062 -0.11407003606899251 0 -0.35102678396124121 -0.097347873227733403 0 -0.36973076818124029 -0.1124858338682917 0 -0.35102678396124121 -0.097347873227733403 0 -0.36973076818124029 -0.1124858338682917 0 -0.37834568631192078 -0.1024043876845491 0 -0.35102678396124121 -0.097347873227733403 0 -0.36973076818124029 -0.1124858338682917 0 -0.34103192533327292 -0.071971780840416083 0 -0.36825662022259531 -0.077184980860251953 0 -0.34103192533327292 -0.071971780840416083 0 -0.36825662022259531 -0.077184980860251953 0 -0.3588279659564077 -0.053616390304932003 0 -0.34103192533327292 -0.071971780840416083 0 -0.35102678396124121 -0.097347873227733403 0 -0.36825662022259531 -0.077184980860251953 0 -0.35102678396124121 -0.097347873227733403 0 -0.36825662022259531 -0.077184980860251953 0 -0.37834568631192078 -0.1024043876845491 0 -0.36825662022259531 -0.077184980860251953 0 -0.37834568631192078 -0.1024043876845491 0 -0.36825662022259531 -0.077184980860251953 0 -0.3698205527051911 -0.059165967113634678 0 -0.3588279659564077 -0.053616390304932003 0 -0.37342739660137841 -0.070939897778190097 0 -0.36825662022259531 -0.077184980860251953 0 -0.3698205527051911 -0.059165967113634678 0 -0.36825662022259531 -0.077184980860251953 0 -0.3588279659564077 -0.053616390304932003 0 -0.37342739660137841 -0.070939897778190097 0 -0.3698205527051911 -0.059165967113634678 0 -0.38041201024248078 -0.063987927829928501 0 -0.3698205527051911 -0.059165967113634678 0 -0.37035385128727932 -0.044447779252691541 0 -0.38272471965899701 -0.052268278007174873 0 -0.3698205527051911 -0.059165967113634678 0 -0.3588279659564077 -0.053616390304932003 0 -0.37035385128727932 -0.044447779252691541 0 -0.34103192533327292 -0.071971780840416083 0 -0.3588279659564077 -0.053616390304932003 0 -0.33611116833836008 -0.057295815615716353 0 -0.3588279659564077 -0.053616390304932003 0 -0.34611413771504951 -0.047087672159558183 0 -0.33611116833836008 -0.057295815615716353 0 -0.3588279659564077 -0.053616390304932003 0 -0.34611413771504951 -0.047087672159558183 0 -0.35472788080770001 -0.029758219866553332 0 -0.34611413771504951 -0.047087672159558183 0 -0.35472788080770001 -0.029758219866553332 0 -0.33268327792350111 -0.042201201609942687 0 -0.37035385128727932 -0.044447779252691541 0 -0.35472788080770001 -0.029758219866553332 0 -0.38428195977192442 -0.030413411214629201 0 -0.3588279659564077 -0.053616390304932003 0 -0.37035385128727932 -0.044447779252691541 0 -0.35472788080770001 -0.029758219866553332 0 -0.36696491814530302 -0.017983970735923401 0 -0.35472788080770001 -0.029758219866553332 0 -0.38428195977192442 -0.030413411214629201 0 -0.35472788080770001 -0.029758219866553332 0 -0.38428195977192442 -0.030413411214629201 0 -0.36696491814530302 -0.017983970735923401 0 -0.37751697238409859 -0.0046786268195284399 0 -0.36230189261625839 0.0063768772540551636 0 -0.36696491814530302 -0.017983970735923401 0 -0.34239774648643212 -0.0090256460551746617 0 -0.36230189261625839 0.0063768772540551636 0 -0.34239774648643212 -0.0090256460551746617 0 -0.36230189261625839 0.0063768772540551636 0 -0.36696491814530302 -0.017983970735923401 0 -0.35472788080770001 -0.029758219866553332 0 -0.34239774648643212 -0.0090256460551746617 0 -0.35472788080770001 -0.029758219866553332 0 -0.34239774648643212 -0.0090256460551746617 0 -0.32517380184347577 -0.02910302851847869 0 -0.34239774648643212 -0.0090256460551746617 0 -0.32249360035660579 -0.0244281693644046 0 -0.32517380184347577 -0.02910302851847869 0 -0.35472788080770001 -0.029758219866553332 0 -0.32517380184347577 -0.02910302851847869 0 -0.34239774648643212 -0.0090256460551746617 0 -0.32249360035660579 -0.0244281693644046 0 -0.34239774648643212 -0.0090256460551746617 0 -0.3284259764527393 -0.0037316893772865898 0 -0.32249360035660579 -0.0244281693644046 0 -0.34018868727428719 -0.0027930782522934202 0 -0.34239774648643212 -0.0090256460551746617 0 -0.3284259764527393 -0.0037316893772865898 0 -0.34018868727428719 -0.0027930782522934202 0 -0.34239774648643212 -0.0090256460551746617 0 -0.34752128710213742 0.0048699476174654194 0 -0.31085632474231928 -0.0041302086698588453 0 -0.3284259764527393 -0.0037316893772865898 0 -0.3181990247722235 0.0075291515236812091 0 -0.31085632474231928 -0.0041302086698588453 0 -0.32249360035660579 -0.0244281693644046 0 -0.31085632474231928 -0.0041302086698588453 0 -0.3284259764527393 -0.0037316893772865898 0 -0.32249360035660579 -0.0244281693644046 0 -0.32517380184347577 -0.02910302851847869 0 -0.31669533773899999 -0.028915067447757941 0 -0.32249360035660579 -0.0244281693644046 0 -0.32517380184347577 -0.02910302851847869 0 -0.31669533773899999 -0.028915067447757941 0 -0.32249360035660579 -0.0244281693644046 0 -0.32517380184347577 -0.02910302851847869 0 -0.30928907377766518 -0.028750876234934639 0 -0.32249360035660579 -0.0244281693644046 0 -0.31669533773899999 -0.028915067447757941 0 -0.32249360035660579 -0.0244281693644046 0 -0.31669533773899999 -0.028915067447757941 0 -0.30928907377766518 -0.028750876234934639 0 -0.31669533773899999 -0.028915067447757941 0 -0.32517380184347577 -0.02910302851847869 0 -0.31669533773899999 -0.028915067447757941 0 -0.31816280433600019 -0.04064371885850146 0 -0.30385823989181399 -0.038848862021232333 0 -0.31669533773899999 -0.028915067447757941 0 -0.31816280433600019 -0.04064371885850146 0 -0.32517380184347577 -0.02910302851847869 0 -0.31816280433600019 -0.04064371885850146 0 -0.33268327792350111 -0.042201201609942687 0 -0.31816280433600019 -0.04064371885850146 0 -0.32078009576469418 -0.055161332441602637 0 -0.33268327792350111 -0.042201201609942687 0 -0.30978607285351673 -0.049632821111994969 0 -0.31816280433600019 -0.04064371885850146 0 -0.32078009576469418 -0.055161332441602637 0 -0.31380723044395081 -0.066758580820578145 0 -0.32078009576469418 -0.055161332441602637 0 -0.33611116833836008 -0.057295815615716353 0 -0.30978607285351673 -0.049632821111994969 0 -0.31380723044395081 -0.066758580820578145 0 -0.32078009576469418 -0.055161332441602637 0 -0.31380723044395081 -0.066758580820578145 0 -0.32078009576469418 -0.055161332441602637 0 -0.32078009576469418 -0.055161332441602637 0 -0.33611116833836008 -0.057295815615716353 0 -0.33268327792350111 -0.042201201609942687 0 -0.34611413771504951 -0.047087672159558183 0 -0.33611116833836008 -0.057295815615716353 0 -0.33268327792350111 -0.042201201609942687 0 -0.35472788080770001 -0.029758219866553332 0 -0.32517380184347577 -0.02910302851847869 0 -0.33268327792350111 -0.042201201609942687 0 -0.32517380184347577 -0.02910302851847869 0 -0.33268327792350111 -0.042201201609942687 0 -0.29698929605210261 -0.25351053701342757 0 -0.30406645303927732 -0.2375664173352128 0 -0.29698929605210261 -0.25351053701342757 0 -0.30406645303927732 -0.2375664173352128 0 -0.31218681538876319 -0.24782465592597699 0 -0.29698929605210261 -0.25351053701342757 0 -0.30406645303927732 -0.2375664173352128 0 -0.29187095738619151 -0.243100095046692 0 -0.30406645303927732 -0.2375664173352128 0 -0.31218681538876319 -0.24782465592597699 0 -0.31377702349238029 -0.2333009399896615 0 -0.31114361002645169 -0.2216222976569979 0 -0.29443941767381482 -0.22921596799907301 0 -0.31381789783355901 -0.2155973974141781 0 -0.29443941767381482 -0.22921596799907301 0 -0.29790505419080238 -0.21355083565471589 0 -0.31381789783355901 -0.2155973974141781 0 -0.29443941767381482 -0.22921596799907301 0 -0.31381789783355901 -0.2155973974141781 0 -0.31114361002645169 -0.2216222976569979 0 -0.29443941767381482 -0.22921596799907301 0 -0.29187095738619151 -0.243100095046692 0 -0.31114361002645169 -0.2216222976569979 0 -0.29187095738619151 -0.243100095046692 0 -0.30406645303927732 -0.2375664173352128 0 -0.31114361002645169 -0.2216222976569979 0 -0.30406645303927732 -0.2375664173352128 0 -0.31114361002645169 -0.2216222976569979 0 -0.31377702349238029 -0.2333009399896615 0 -0.30406645303927732 -0.2375664173352128 0 -0.31114361002645169 -0.2216222976569979 0 -0.29187095738619151 -0.243100095046692 0 -0.29443941767381482 -0.22921596799907301 0 -0.27903154620635362 -0.2234972633720507 0 -0.29790505419080238 -0.21355083565471589 0 -0.29443941767381482 -0.22921596799907301 0 -0.27506093751407451 -0.2428345385839735 0 -0.27903154620635362 -0.2234972633720507 0 -0.29187095738619151 -0.243100095046692 0 -0.27506093751407451 -0.2428345385839735 0 -0.27713374283966941 -0.2462323623825366 0 -0.29443941767381482 -0.22921596799907301 0 -0.29187095738619151 -0.243100095046692 0 -0.27506093751407451 -0.2428345385839735 0 -0.29443941767381482 -0.22921596799907301 0 -0.27506093751407451 -0.2428345385839735 0 -0.25936586251244231 -0.25386453087350291 0 -0.27075352409879228 -0.25254424850214879 0 -0.27506093751407451 -0.2428345385839735 0 -0.25936586251244231 -0.25386453087350291 0 -0.27506093751407451 -0.2428345385839735 0 -0.27075352409879228 -0.25254424850214879 0 -0.27506093751407451 -0.2428345385839735 0 -0.27713374283966941 -0.2462323623825366 0 -0.27506093751407451 -0.2428345385839735 0 -0.27713374283966941 -0.2462323623825366 0 -0.25936586251244231 -0.25386453087350291 0 -0.24264519135628629 -0.24509367478286839 0 -0.25879492157463541 -0.236370500924767 0 -0.25936586251244231 -0.25386453087350291 0 -0.27506093751407451 -0.2428345385839735 0 -0.25879492157463541 -0.236370500924767 0 -0.27506093751407451 -0.2428345385839735 0 -0.25879492157463541 -0.236370500924767 0 -0.26049009221862651 -0.2189494374127573 0 -0.23571802125808261 -0.22345712088530209 0 -0.25879492157463541 -0.236370500924767 0 -0.26049009221862651 -0.2189494374127573 0 -0.27506093751407451 -0.2428345385839735 0 -0.26049009221862651 -0.2189494374127573 0 -0.27506093751407451 -0.2428345385839735 0 -0.26049009221862651 -0.2189494374127573 0 -0.27903154620635362 -0.2234972633720507 0 -0.26049009221862651 -0.2189494374127573 0 -0.27903154620635362 -0.2234972633720507 0 -0.27577558311741729 -0.2052292913882687 0 -0.24591924692317799 -0.1950643362415414 0 -0.26049009221862651 -0.2189494374127573 0 -0.27577558311741729 -0.2052292913882687 0 -0.24591924692317799 -0.1950643362415414 0 -0.26049009221862651 -0.2189494374127573 0 -0.24591924692317799 -0.1950643362415414 0 -0.27577558311741729 -0.2052292913882687 0 -0.27236479999066471 -0.18487640731895599 0 -0.27577558311741729 -0.2052292913882687 0 -0.29544963437957839 -0.19769593352998599 0 -0.27236479999066471 -0.18487640731895599 0 -0.29544963437957839 -0.19769593352998599 0 -0.27236479999066471 -0.18487640731895599 0 -0.27903154620635362 -0.2234972633720507 0 -0.27577558311741729 -0.2052292913882687 0 -0.29790505419080238 -0.21355083565471589 0 -0.27577558311741729 -0.2052292913882687 0 -0.29544963437957839 -0.19769593352998599 0 -0.29790505419080238 -0.21355083565471589 0 -0.29544963437957839 -0.19769593352998599 0 -0.29790505419080238 -0.21355083565471589 0 -0.30835093400721197 -0.20142660362790391 0 -0.29790505419080238 -0.21355083565471589 0 -0.30835093400721197 -0.20142660362790391 0 -0.31381789783355901 -0.2155973974141781 0 -0.31114361002645169 -0.2216222976569979 0 -0.31381789783355901 -0.2155973974141781 0 -0.29544963437957839 -0.19769593352998599 0 -0.30835093400721197 -0.20142660362790391 0 -0.31105896970283642 -0.18655632546018991 0 -0.29544963437957839 -0.19769593352998599 0 -0.31105896970283642 -0.18655632546018991 0 -0.30675720826207792 -0.17027705461774331 0 -0.28826688167630549 -0.17075003193863311 0 -0.27505520243767051 -0.15855191655552409 0 -0.295558451782929 -0.1429889302214043 0 -0.30675720826207792 -0.17027705461774331 0 -0.28826688167630549 -0.17075003193863311 0 -0.295558451782929 -0.1429889302214043 0 -0.29544963437957839 -0.19769593352998599 0 -0.28826688167630549 -0.17075003193863311 0 -0.27236479999066471 -0.18487640731895599 0 -0.29544963437957839 -0.19769593352998599 0 -0.30675720826207792 -0.17027705461774331 0 -0.28826688167630549 -0.17075003193863311 0 -0.249279965601751 -0.17205688110792611 0 -0.27236479999066471 -0.18487640731895599 0 -0.25897103461228549 -0.1594717573388329 0 -0.249279965601751 -0.17205688110792611 0 -0.27236479999066471 -0.18487640731895599 0 -0.24591924692317799 -0.1950643362415414 0 -0.249279965601751 -0.17205688110792611 0 -0.27236479999066471 -0.18487640731895599 0 -0.249279965601751 -0.17205688110792611 0 -0.24285109092751589 -0.15553125449134239 0 -0.25897103461228549 -0.1594717573388329 0 -0.28826688167630549 -0.17075003193863311 0 -0.27236479999066471 -0.18487640731895599 0 -0.27505520243767051 -0.15855191655552409 0 -0.27236479999066471 -0.18487640731895599 0 -0.25897103461228549 -0.1594717573388329 0 -0.27505520243767051 -0.15855191655552409 0 -0.27505520243767051 -0.15855191655552409 0 -0.26789665487617281 -0.14416645492856009 0 -0.295558451782929 -0.1429889302214043 0 -0.25897103461228549 -0.1594717573388329 0 -0.27505520243767051 -0.15855191655552409 0 -0.26789665487617281 -0.14416645492856009 0 -0.2492153271516403 -0.14332917956342009 0 -0.24285109092751589 -0.15553125449134239 0 -0.25897103461228549 -0.1594717573388329 0 -0.2492153271516403 -0.14332917956342009 0 -0.25897103461228549 -0.1594717573388329 0 -0.26789665487617281 -0.14416645492856009 0 -0.25224752054654348 -0.1164739320692829 0 -0.25585894098765122 -0.13162616055214019 0 -0.2739029861647363 -0.12973143114534361 0 -0.2492153271516403 -0.14332917956342009 0 -0.26789665487617281 -0.14416645492856009 0 -0.25585894098765122 -0.13162616055214019 0 -0.26789665487617281 -0.14416645492856009 0 -0.2739029861647363 -0.12973143114534361 0 -0.295558451782929 -0.1429889302214043 0 -0.26789665487617281 -0.14416645492856009 0 -0.25585894098765122 -0.13162616055214019 0 -0.2739029861647363 -0.12973143114534361 0 -0.2739029861647363 -0.12973143114534361 0 -0.295558451782929 -0.1429889302214043 0 -0.27944694452312357 -0.123906503785777 0 -0.2739029861647363 -0.12973143114534361 0 -0.295558451782929 -0.1429889302214043 0 -0.27944694452312357 -0.123906503785777 0 -0.30127523396857431 -0.1192755980066211 0 -0.295558451782929 -0.1429889302214043 0 -0.295558451782929 -0.1429889302214043 0 -0.3141146275408101 -0.13154814069060569 0 -0.3189064262415055 -0.15212349308475029 0 -0.30675720826207792 -0.17027705461774331 0 -0.295558451782929 -0.1429889302214043 0 -0.3189064262415055 -0.15212349308475029 0 -0.30127523396857431 -0.1192755980066211 0 -0.295558451782929 -0.1429889302214043 0 -0.3141146275408101 -0.13154814069060569 0 -0.3141146275408101 -0.13154814069060569 0 -0.3189064262415055 -0.15212349308475029 0 -0.33520748377907228 -0.13397895200830279 0 -0.33626553933730619 -0.15459809176209349 0 -0.33520748377907228 -0.13397895200830279 0 -0.35339104065629018 -0.15083250407088519 0 -0.3189064262415055 -0.15212349308475029 0 -0.33626553933730619 -0.15459809176209349 0 -0.33520748377907228 -0.13397895200830279 0 -0.33942752047245062 -0.11407003606899251 0 -0.33520748377907228 -0.13397895200830279 0 -0.35793937060865533 -0.13200890184198849 0 -0.33520748377907228 -0.13397895200830279 0 -0.35793937060865533 -0.13200890184198849 0 -0.35339104065629018 -0.15083250407088519 0 -0.36973076818124029 -0.1124858338682917 0 -0.35793937060865533 -0.13200890184198849 0 -0.37923656375002079 -0.13272680551713081 0 -0.35793937060865533 -0.13200890184198849 0 -0.36997189758475169 -0.14817265470490171 0 -0.37923656375002079 -0.13272680551713081 0 -0.36997189758475169 -0.14817265470490171 0 -0.35339104065629018 -0.15083250407088519 0 -0.3715745975335083 -0.16768605613346749 0 -0.35793937060865533 -0.13200890184198849 0 -0.36997189758475169 -0.14817265470490171 0 -0.35339104065629018 -0.15083250407088519 0 -0.33520748377907228 -0.13397895200830279 0 -0.35339104065629018 -0.15083250407088519 0 -0.35339104065629018 -0.15083250407088519 0 -0.34987948900835508 -0.1689257541356137 0 -0.3715745975335083 -0.16768605613346749 0 -0.33626553933730619 -0.15459809176209349 0 -0.35339104065629018 -0.15083250407088519 0 -0.34987948900835508 -0.1689257541356137 0 -0.35339104065629018 -0.15083250407088519 0 -0.3715745975335083 -0.16768605613346749 0 -0.3715745975335083 -0.16768605613346749 0 -0.35933280834857362 -0.18279811440286739 0 -0.37130911439967962 -0.18845074251514171 0 -0.34987948900835508 -0.1689257541356137 0 -0.3715745975335083 -0.16768605613346749 0 -0.35933280834857362 -0.18279811440286739 0 -0.34987948900835508 -0.1689257541356137 0 -0.35933280834857362 -0.18279811440286739 0 -0.34644589639014178 -0.1870552508147191 0 -0.34987948900835508 -0.1689257541356137 0 -0.34644589639014178 -0.1870552508147191 0 -0.33322833002500901 -0.17186765474672061 0 -0.33322833002500901 -0.17186765474672061 0 -0.32352311392928401 -0.1937325260804493 0 -0.33322833002500901 -0.17186765474672061 0 -0.32352311392928401 -0.1937325260804493 0 -0.33480952557634591 -0.18815882929909669 0 -0.34644589639014178 -0.1870552508147191 0 -0.33322833002500901 -0.17186765474672061 0 -0.33480952557634591 -0.18815882929909669 0 -0.33626553933730619 -0.15459809176209349 0 -0.34987948900835508 -0.1689257541356137 0 -0.33322833002500901 -0.17186765474672061 0 -0.3189064262415055 -0.15212349308475029 0 -0.33626553933730619 -0.15459809176209349 0 -0.33322833002500901 -0.17186765474672061 0 -0.30675720826207792 -0.17027705461774331 0 -0.3189064262415055 -0.15212349308475029 0 -0.33322833002500901 -0.17186765474672061 0 -0.31105896970283642 -0.18655632546018991 0 -0.30675720826207792 -0.17027705461774331 0 -0.33322833002500901 -0.17186765474672061 0 -0.31105896970283642 -0.18655632546018991 0 -0.33322833002500901 -0.17186765474672061 0 -0.32352311392928401 -0.1937325260804493 0 -0.32352311392928401 -0.1937325260804493 0 -0.31988471281661429 -0.21133383559760849 0 -0.33604076196094879 -0.19997988555449789 0 -0.30835093400721197 -0.20142660362790391 0 -0.31105896970283642 -0.18655632546018991 0 -0.32352311392928401 -0.1937325260804493 0 -0.32352311392928401 -0.1937325260804493 0 -0.31381789783355901 -0.2155973974141781 0 -0.32352311392928401 -0.1937325260804493 0 -0.31381789783355901 -0.2155973974141781 0 -0.31988471281661429 -0.21133383559760849 0 -0.31988471281661429 -0.21133383559760849 0 -0.33604076196094879 -0.19997988555449789 0 -0.30835093400721197 -0.20142660362790391 0 -0.32352311392928401 -0.1937325260804493 0 -0.31381789783355901 -0.2155973974141781 0 -0.31114361002645169 -0.2216222976569979 0 -0.31988471281661429 -0.21133383559760849 0 -0.31969190384631868 -0.22007540174956311 0 -0.31114361002645169 -0.2216222976569979 0 -0.31988471281661429 -0.21133383559760849 0 -0.31114361002645169 -0.2216222976569979 0 -0.31381789783355901 -0.2155973974141781 0 -0.31988471281661429 -0.21133383559760849 0 -0.31381789783355901 -0.2155973974141781 0 -0.31988471281661429 -0.21133383559760849 0 -0.32491431170949481 -0.2173497525956242 0 -0.33415920049878428 -0.21413347628486309 0 -0.32520209798986288 -0.224349760791828 0 -0.31988471281661429 -0.21133383559760849 0 -0.32491431170949481 -0.2173497525956242 0 -0.31969190384631868 -0.22007540174956311 0 -0.31988471281661429 -0.21133383559760849 0 -0.32491431170949481 -0.2173497525956242 0 -0.33415920049878428 -0.21413347628486309 0 -0.31988471281661429 -0.21133383559760849 0 -0.33415920049878428 -0.21413347628486309 0 -0.33604076196094879 -0.19997988555449789 0 -0.33415920049878428 -0.21413347628486309 0 -0.33604076196094879 -0.19997988555449789 0 -0.34925180353719221 -0.2105440079489638 0 -0.32352311392928401 -0.1937325260804493 0 -0.33604076196094879 -0.19997988555449789 0 -0.33480952557634591 -0.18815882929909669 0 -0.34644589639014178 -0.1870552508147191 0 -0.33604076196094879 -0.19997988555449789 0 -0.33480952557634591 -0.18815882929909669 0 -0.35933280834857362 -0.18279811440286739 0 -0.34644589639014178 -0.1870552508147191 0 -0.35937750089257942 -0.20443906264953771 0 -0.34644589639014178 -0.1870552508147191 0 -0.35937750089257942 -0.20443906264953771 0 -0.34925180353719221 -0.2105440079489638 0 -0.34644589639014178 -0.1870552508147191 0 -0.33604076196094879 -0.19997988555449789 0 -0.34925180353719221 -0.2105440079489638 0 -0.34644589639014178 -0.1870552508147191 0 -0.35937750089257942 -0.20443906264953771 0 -0.35933280834857362 -0.18279811440286739 0 -0.37130911439967962 -0.18845074251514171 0 -0.35937750089257942 -0.20443906264953771 0 -0.37130911439967962 -0.18845074251514171 0 -0.35937750089257942 -0.20443906264953771 0 -0.37747979786106789 -0.20321211702346051 0 -0.35937750089257942 -0.20443906264953771 0 -0.37230910539501749 -0.22182287448435589 0 -0.37747979786106789 -0.20321211702346051 0 -0.35937750089257942 -0.20443906264953771 0 -0.37230910539501749 -0.22182287448435589 0 -0.35937750089257942 -0.20443906264953771 0 -0.34925180353719221 -0.2105440079489638 0 -0.37230910539501749 -0.22182287448435589 0 -0.34925180353719221 -0.2105440079489638 0 -0.37230910539501749 -0.22182287448435589 0 -0.34717835608568193 -0.23583349790580921 0 -0.37230910539501749 -0.22182287448435589 0 -0.34717835608568193 -0.23583349790580921 0 -0.37230910539501749 -0.22182287448435589 0 -0.3666882904242707 -0.24269493442354589 0 -0.34717835608568193 -0.23583349790580921 0 -0.37230910539501749 -0.22182287448435589 0 -0.3666882904242707 -0.24269493442354589 0 -0.38559113356297031 -0.23967775694793131 0 -0.35372207537346739 -0.2563736158957366 0 -0.3666882904242707 -0.24269493442354589 0 -0.34717835608568193 -0.23583349790580921 0 -0.32734502982298308 -0.25733808884262538 0 -0.34717835608568193 -0.23583349790580921 0 -0.32357446024879838 -0.2377169225043301 0 -0.32734502982298308 -0.25733808884262538 0 -0.35372207537346739 -0.2563736158957366 0 -0.34717835608568193 -0.23583349790580921 0 -0.33415920049878428 -0.21413347628486309 0 -0.34717835608568193 -0.23583349790580921 0 -0.32520209798986288 -0.224349760791828 0 -0.34717835608568193 -0.23583349790580921 0 -0.32520209798986288 -0.224349760791828 0 -0.32357446024879838 -0.2377169225043301 0 -0.33415920049878428 -0.21413347628486309 0 -0.34925180353719221 -0.2105440079489638 0 -0.34717835608568193 -0.23583349790580921 0 -0.32520209798986288 -0.224349760791828 0 -0.31727722115921131 -0.226304735170343 0 -0.32357446024879838 -0.2377169225043301 0 -0.32520209798986288 -0.224349760791828 0 -0.31727722115921131 -0.226304735170343 0 -0.31969190384631868 -0.22007540174956311 0 -0.32491431170949481 -0.2173497525956242 0 -0.32520209798986288 -0.224349760791828 0 -0.31969190384631868 -0.22007540174956311 0 -0.31114361002645169 -0.2216222976569979 0 -0.31727722115921131 -0.226304735170343 0 -0.31969190384631868 -0.22007540174956311 0 -0.31114361002645169 -0.2216222976569979 0 -0.31727722115921131 -0.226304735170343 0 -0.31377702349238029 -0.2333009399896615 0 -0.31727722115921131 -0.226304735170343 0 -0.31377702349238029 -0.2333009399896615 0 -0.32357446024879838 -0.2377169225043301 0 -0.31218681538876319 -0.24782465592597699 0 -0.31377702349238029 -0.2333009399896615 0 -0.32357446024879838 -0.2377169225043301 0 -0.32734502982298308 -0.25733808884262538 0 -0.31218681538876319 -0.24782465592597699 0 -0.32357446024879838 -0.2377169225043301 0 -0.42637934281863882 -0.25535599031330919 0 -0.43200390429832702 -0.24973052190352191 0 -0.41987657329935679 -0.24324107777651921 0 -0.43200390429832702 -0.24973052190352191 0 -0.43348053696556188 -0.2402237077802796 0 -0.41987657329935679 -0.24324107777651921 0 -0.43200390429832702 -0.24973052190352191 0 -0.43348053696556188 -0.2402237077802796 0 -0.44026778773535891 -0.24889723690979251 0 -0.43348053696556188 -0.2402237077802796 0 -0.42521540830138521 -0.21956355545381739 0 -0.43955085849523129 -0.23069031106960991 0 -0.42521540830138521 -0.21956355545381739 0 -0.41987657329935679 -0.24324107777651921 0 -0.43348053696556188 -0.2402237077802796 0 -0.42521540830138521 -0.21956355545381739 0 -0.41987657329935679 -0.24324107777651921 0 -0.43348053696556188 -0.2402237077802796 0 -0.42521540830138521 -0.21956355545381739 0 -0.42600098544939757 -0.21813152004971581 0 -0.43955085849523129 -0.23069031106960991 0 -0.42600098544939757 -0.21813152004971581 0 -0.44075400798860331 -0.21600337947795131 0 -0.43955085849523129 -0.23069031106960991 0 -0.42521540830138521 -0.21956355545381739 0 -0.42600098544939757 -0.21813152004971581 0 -0.43955085849523129 -0.23069031106960991 0 -0.42521540830138521 -0.21956355545381739 0 -0.41938303725511039 -0.2301954352753153 0 -0.42521540830138521 -0.21956355545381739 0 -0.42600098544939757 -0.21813152004971581 0 -0.42521540830138521 -0.21956355545381739 0 -0.41938303725511039 -0.2301954352753153 0 -0.41987657329935679 -0.24324107777651921 0 -0.40992290061177222 -0.22892567103997469 0 -0.41723172089507171 -0.2100036681825117 0 -0.42521540830138521 -0.21956355545381739 0 -0.40992290061177222 -0.22892567103997469 0 -0.42384198194041861 -0.2161304331178466 0 -0.42521540830138521 -0.21956355545381739 0 -0.41938303725511039 -0.2301954352753153 0 -0.40992290061177222 -0.22892567103997469 0 -0.40992290061177222 -0.22892567103997469 0 -0.4028878022396305 -0.22238631516994201 0 -0.40858598030325188 -0.2133801320718107 0 -0.40452832316658671 -0.25727422256761118 0 -0.40348301069881398 -0.25212665787165761 0 -0.41467426527365853 -0.23877909660557459 0 -0.40452832316658671 -0.25727422256761118 0 -0.41467426527365853 -0.23877909660557459 0 -0.41938303725511039 -0.2301954352753153 0 -0.40992290061177222 -0.22892567103997469 0 -0.40261408032847162 -0.2478476738974372 0 -0.40348301069881398 -0.25212665787165761 0 -0.41938303725511039 -0.2301954352753153 0 -0.40261408032847162 -0.2478476738974372 0 -0.40348301069881398 -0.25212665787165761 0 -0.41938303725511039 -0.2301954352753153 0 -0.41467426527365853 -0.23877909660557459 0 -0.40992290061177222 -0.22892567103997469 0 -0.40261408032847162 -0.2478476738974372 0 -0.40348301069881398 -0.25212665787165761 0 -0.41938303725511039 -0.2301954352753153 0 -0.40452832316658671 -0.25727422256761118 0 -0.41467426527365853 -0.23877909660557459 0 -0.41987657329935679 -0.24324107777651921 0 -0.41938303725511039 -0.2301954352753153 0 -0.41467426527365853 -0.23877909660557459 0 -0.41938303725511039 -0.2301954352753153 0 -0.41467426527365853 -0.23877909660557459 0 -0.41987657329935679 -0.24324107777651921 0 -0.40992290061177222 -0.22892567103997469 0 -0.40261408032847162 -0.2478476738974372 0 -0.40120993926240289 -0.2409330840473296 0 -0.40120993926240289 -0.2409330840473296 0 -0.38559113356297031 -0.23967775694793131 0 -0.39799732513495711 -0.2251128010467224 0 -0.39996363544382119 -0.25470948247077319 0 -0.40261408032847162 -0.2478476738974372 0 -0.40120993926240289 -0.2409330840473296 0 -0.39996363544382119 -0.25470948247077319 0 -0.40120993926240289 -0.2409330840473296 0 -0.40348301069881398 -0.25212665787165761 0 -0.40261408032847162 -0.2478476738974372 0 -0.39961768961399352 -0.25853349994839342 0 -0.38559113356297031 -0.23967775694793131 0 -0.40261408032847162 -0.2478476738974372 0 -0.40120993926240289 -0.2409330840473296 0 -0.39996363544382119 -0.25470948247077319 0 -0.40120993926240289 -0.2409330840473296 0 -0.38559113356297031 -0.23967775694793131 0 -0.37464078170421661 -0.25976692688389641 0 -0.3666882904242707 -0.24269493442354589 0 -0.38559113356297031 -0.23967775694793131 0 -0.37230910539501749 -0.22182287448435589 0 -0.38559113356297031 -0.23967775694793131 0 -0.37230910539501749 -0.22182287448435589 0 -0.38559113356297031 -0.23967775694793131 0 -0.39799732513495711 -0.2251128010467224 0 -0.40120993926240289 -0.2409330840473296 0 -0.39799732513495711 -0.2251128010467224 0 -0.4028878022396305 -0.22238631516994201 0 -0.39799732513495711 -0.2251128010467224 0 -0.4028878022396305 -0.22238631516994201 0 -0.39478471100751111 -0.20929251804611521 0 -0.40120993926240289 -0.2409330840473296 0 -0.4028878022396305 -0.22238631516994201 0 -0.40120993926240289 -0.2409330840473296 0 -0.39799732513495711 -0.2251128010467224 0 -0.40992290061177222 -0.22892567103997469 0 -0.40120993926240289 -0.2409330840473296 0 -0.4028878022396305 -0.22238631516994201 0 -0.4028878022396305 -0.22238631516994201 0 -0.40456566521685788 -0.20383954629255449 0 -0.39478471100751111 -0.20929251804611521 0 -0.4028878022396305 -0.22238631516994201 0 -0.40456566521685788 -0.20383954629255449 0 -0.39799732513495711 -0.2251128010467224 0 -0.39478471100751111 -0.20929251804611521 0 -0.4028878022396305 -0.22238631516994201 0 -0.40456566521685788 -0.20383954629255449 0 -0.40858598030325188 -0.2133801320718107 0 -0.40456566521685788 -0.20383954629255449 0 -0.39478471100751111 -0.20929251804611521 0 -0.40503103996312562 -0.19869538495311351 0 -0.40456566521685788 -0.20383954629255449 0 -0.39478471100751111 -0.20929251804611521 0 -0.37230910539501749 -0.22182287448435589 0 -0.39799732513495711 -0.2251128010467224 0 -0.39478471100751111 -0.20929251804611521 0 -0.37230910539501749 -0.22182287448435589 0 -0.39478471100751111 -0.20929251804611521 0 -0.37747979786106789 -0.20321211702346051 0 -0.37230910539501749 -0.22182287448435589 0 -0.39478471100751111 -0.20929251804611521 0 -0.39478471100751111 -0.20929251804611521 0 -0.37747979786106789 -0.20321211702346051 0 -0.3897581544107257 -0.18453960819605039 0 -0.37130911439967962 -0.18845074251514171 0 -0.37747979786106789 -0.20321211702346051 0 -0.3897581544107257 -0.18453960819605039 0 -0.39478471100751111 -0.20929251804611521 0 -0.3897581544107257 -0.18453960819605039 0 -0.40503103996312562 -0.19869538495311351 0 -0.4056895242209943 -0.19141662887714439 0 -0.3897581544107257 -0.18453960819605039 0 -0.39478471100751111 -0.20929251804611521 0 -0.40503103996312562 -0.19869538495311351 0 -0.3897581544107257 -0.18453960819605039 0 -0.40503103996312562 -0.19869538495311351 0 -0.3897581544107257 -0.18453960819605039 0 -0.40456566521685788 -0.20383954629255449 0 -0.40503103996312562 -0.19869538495311351 0 -0.40832181255292699 -0.20174545967407029 0 -0.40456566521685788 -0.20383954629255449 0 -0.40503103996312562 -0.19869538495311351 0 -0.40503103996312562 -0.19869538495311351 0 -0.4056895242209943 -0.19141662887714439 0 -0.4056895242209943 -0.19141662887714439 0 -0.41630642188151851 -0.19729396668062901 0 -0.40701586538809292 -0.17407057595670189 0 -0.41630642188151851 -0.19729396668062901 0 -0.40832181255292699 -0.20174545967407029 0 -0.41932164259318472 -0.20483104465388779 0 -0.41630642188151851 -0.19729396668062901 0 -0.41932164259318472 -0.20483104465388779 0 -0.40503103996312562 -0.19869538495311351 0 -0.4056895242209943 -0.19141662887714439 0 -0.41630642188151851 -0.19729396668062901 0 -0.41630642188151851 -0.19729396668062901 0 -0.40832181255292699 -0.20174545967407029 0 -0.40503103996312562 -0.19869538495311351 0 -0.41630642188151851 -0.19729396668062901 0 -0.40832181255292699 -0.20174545967407029 0 -0.40503103996312562 -0.19869538495311351 0 -0.40832181255292699 -0.20174545967407029 0 -0.40456566521685788 -0.20383954629255449 0 -0.40832181255292699 -0.20174545967407029 0 -0.40832181255292699 -0.20174545967407029 0 -0.40858598030325188 -0.2133801320718107 0 -0.41723172089507171 -0.2100036681825117 0 -0.40456566521685788 -0.20383954629255449 0 -0.40832181255292699 -0.20174545967407029 0 -0.40858598030325188 -0.2133801320718107 0 -0.40832181255292699 -0.20174545967407029 0 -0.41723172089507171 -0.2100036681825117 0 -0.40992290061177222 -0.22892567103997469 0 -0.40858598030325188 -0.2133801320718107 0 -0.41723172089507171 -0.2100036681825117 0 -0.40992290061177222 -0.22892567103997469 0 -0.41723172089507171 -0.2100036681825117 0 -0.42384198194041861 -0.2161304331178466 0 -0.41723172089507171 -0.2100036681825117 0 -0.42384198194041861 -0.2161304331178466 0 -0.40832181255292699 -0.20174545967407029 0 -0.41723172089507171 -0.2100036681825117 0 -0.41932164259318472 -0.20483104465388779 0 -0.41723172089507171 -0.2100036681825117 0 -0.41932164259318472 -0.20483104465388779 0 -0.42384198194041861 -0.2161304331178466 0 -0.41932164259318472 -0.20483104465388779 0 -0.42384198194041861 -0.2161304331178466 0 -0.41723172089507171 -0.2100036681825117 0 -0.41932164259318472 -0.20483104465388779 0 -0.42600098544939757 -0.21813152004971581 0 -0.43637018564021718 -0.1992294149883069 0 -0.44075400798860331 -0.21600337947795131 0 -0.42600098544939757 -0.21813152004971581 0 -0.43637018564021718 -0.1992294149883069 0 -0.42384198194041861 -0.2161304331178466 0 -0.42600098544939757 -0.21813152004971581 0 -0.43160795501967841 -0.18876322149945959 0 -0.42600098544939757 -0.21813152004971581 0 -0.43160795501967841 -0.18876322149945959 0 -0.41932164259318472 -0.20483104465388779 0 -0.42384198194041861 -0.2161304331178466 0 -0.43160795501967841 -0.18876322149945959 0 -0.42384198194041861 -0.2161304331178466 0 -0.42600098544939757 -0.21813152004971581 0 -0.42521540830138521 -0.21956355545381739 0 -0.42384198194041861 -0.2161304331178466 0 -0.42600098544939757 -0.21813152004971581 0 -0.42600098544939757 -0.21813152004971581 0 -0.43637018564021718 -0.1992294149883069 0 -0.43160795501967841 -0.18876322149945959 0 -0.41630642188151851 -0.19729396668062901 0 -0.41932164259318472 -0.20483104465388779 0 -0.43160795501967841 -0.18876322149945959 0 -0.41630642188151851 -0.19729396668062901 0 -0.43160795501967841 -0.18876322149945959 0 -0.42363194785892921 -0.18465545804334621 0 -0.41630642188151851 -0.19729396668062901 0 -0.43160795501967841 -0.18876322149945959 0 -0.4268706848126938 -0.17566837120264611 0 -0.42363194785892921 -0.18465545804334621 0 -0.42099181597566221 -0.17046556793430381 0 -0.4268706848126938 -0.17566837120264611 0 -0.42363194785892921 -0.18465545804334621 0 -0.43439503506614963 -0.17582065856660209 0 -0.42363194785892921 -0.18465545804334621 0 -0.43439503506614963 -0.17582065856660209 0 -0.43160795501967841 -0.18876322149945959 0 -0.42363194785892921 -0.18465545804334621 0 -0.43439503506614963 -0.17582065856660209 0 -0.43160795501967841 -0.18876322149945959 0 -0.43439503506614963 -0.17582065856660209 0 -0.43160795501967841 -0.18876322149945959 0 -0.43439503506614963 -0.17582065856660209 0 -0.44097483015047778 -0.17695745665753729 0 -0.4268706848126938 -0.17566837120264611 0 -0.43439503506614963 -0.17582065856660209 0 -0.42781785052486371 -0.16838382740762739 0 -0.42781785052486371 -0.16838382740762739 0 -0.42099181597566221 -0.17046556793430381 0 -0.42041963718817271 -0.1535105746356038 0 -0.43439503506614963 -0.17582065856660209 0 -0.43641207958163591 -0.1664539646989853 0 -0.43641207958163591 -0.1664539646989853 0 -0.42041963718817271 -0.1535105746356038 0 -0.4378435287271395 -0.15980664193031929 0 -0.43439503506614963 -0.17582065856660209 0 -0.43641207958163591 -0.1664539646989853 0 -0.42781785052486371 -0.16838382740762739 0 -0.43439503506614963 -0.17582065856660209 0 -0.43641207958163591 -0.1664539646989853 0 -0.44114222373708839 -0.17028227930869611 0 -0.43641207958163591 -0.1664539646989853 0 -0.42781785052486371 -0.16838382740762739 0 -0.42041963718817271 -0.1535105746356038 0 -0.43641207958163591 -0.1664539646989853 0 -0.42041963718817271 -0.1535105746356038 0 -0.43641207958163591 -0.1664539646989853 0 -0.4378435287271395 -0.15980664193031929 0 -0.4268706848126938 -0.17566837120264611 0 -0.42781785052486371 -0.16838382740762739 0 -0.42099181597566221 -0.17046556793430381 0 -0.42099181597566221 -0.17046556793430381 0 -0.40701586538809292 -0.17407057595670189 0 -0.42041963718817271 -0.1535105746356038 0 -0.40701586538809292 -0.17407057595670189 0 -0.3977253088946674 -0.15084718523277479 0 -0.42041963718817271 -0.1535105746356038 0 -0.41630642188151851 -0.19729396668062901 0 -0.40701586538809292 -0.17407057595670189 0 -0.42363194785892921 -0.18465545804334621 0 -0.42099181597566221 -0.17046556793430381 0 -0.40701586538809292 -0.17407057595670189 0 -0.41630642188151851 -0.19729396668062901 0 -0.42363194785892921 -0.18465545804334621 0 -0.40701586538809292 -0.17407057595670189 0 -0.4056895242209943 -0.19141662887714439 0 -0.40701586538809292 -0.17407057595670189 0 -0.40018691070556128 -0.18227214454028531 0 -0.4056895242209943 -0.19141662887714439 0 -0.40018691070556128 -0.18227214454028531 0 -0.3897581544107257 -0.18453960819605039 0 -0.40701586538809292 -0.17407057595670189 0 -0.40018691070556128 -0.18227214454028531 0 -0.3946672099407843 -0.16989891467517129 0 -0.40018691070556128 -0.18227214454028531 0 -0.3897581544107257 -0.18453960819605039 0 -0.3946672099407843 -0.16989891467517129 0 -0.3715745975335083 -0.16768605613346749 0 -0.3897581544107257 -0.18453960819605039 0 -0.3715745975335083 -0.16768605613346749 0 -0.37130911439967962 -0.18845074251514171 0 -0.3897581544107257 -0.18453960819605039 0 -0.3715745975335083 -0.16768605613346749 0 -0.3897581544107257 -0.18453960819605039 0 -0.38449735908037291 -0.15863320685659071 0 -0.36997189758475169 -0.14817265470490171 0 -0.3715745975335083 -0.16768605613346749 0 -0.38449735908037291 -0.15863320685659071 0 -0.3897581544107257 -0.18453960819605039 0 -0.38449735908037291 -0.15863320685659071 0 -0.3946672099407843 -0.16989891467517129 0 -0.3897581544107257 -0.18453960819605039 0 -0.38449735908037291 -0.15863320685659071 0 -0.40701586538809292 -0.17407057595670189 0 -0.3977253088946674 -0.15084718523277479 0 -0.38449735908037291 -0.15863320685659071 0 -0.3946672099407843 -0.16989891467517129 0 -0.3977253088946674 -0.15084718523277479 0 -0.40701586538809292 -0.17407057595670189 0 -0.3946672099407843 -0.16989891467517129 0 -0.3977253088946674 -0.15084718523277479 0 -0.36997189758475169 -0.14817265470490171 0 -0.38449735908037291 -0.15863320685659071 0 -0.37923656375002079 -0.13272680551713081 0 -0.38449735908037291 -0.15863320685659071 0 -0.37923656375002079 -0.13272680551713081 0 -0.38449735908037291 -0.15863320685659071 0 -0.3977253088946674 -0.15084718523277479 0 -0.37923656375002079 -0.13272680551713081 0 -0.3977253088946674 -0.15084718523277479 0 -0.3884347524012402 -0.12762379450884859 0 -0.37923656375002079 -0.13272680551713081 0 -0.3884347524012402 -0.12762379450884859 0 -0.4044271947947059 -0.14056718457222689 0 -0.3977253088946674 -0.15084718523277479 0 -0.3884347524012402 -0.12762379450884859 0 -0.4044271947947059 -0.14056718457222689 0 -0.3977253088946674 -0.15084718523277479 0 -0.3884347524012402 -0.12762379450884859 0 -0.3884347524012402 -0.12762379450884859 0 -0.4044271947947059 -0.14056718457222689 0 -0.41029376708833259 -0.1221378759268817 0 -0.4044271947947059 -0.14056718457222689 0 -0.42712897589655069 -0.12983323646229991 0 -0.41029376708833259 -0.1221378759268817 0 -0.4044271947947059 -0.14056718457222689 0 -0.42041963718817271 -0.1535105746356038 0 -0.42712897589655069 -0.12983323646229991 0 -0.4044271947947059 -0.14056718457222689 0 -0.42041963718817271 -0.1535105746356038 0 -0.3977253088946674 -0.15084718523277479 0 -0.4044271947947059 -0.14056718457222689 0 -0.42041963718817271 -0.1535105746356038 0 -0.42041963718817271 -0.1535105746356038 0 -0.43362012067877059 -0.14673344219328679 0 -0.4378435287271395 -0.15980664193031929 0 -0.42041963718817271 -0.1535105746356038 0 -0.43362012067877059 -0.14673344219328679 0 -0.42712897589655069 -0.12983323646229991 0 -0.43362012067877059 -0.14673344219328679 0 -0.42712897589655069 -0.12983323646229991 0 -0.44476853271751032 -0.13504891494004179 0 -0.44476853271751032 -0.13504891494004179 0 -0.45918842007314459 -0.13944002372729641 0 -0.44943369479056111 -0.1142357695948024 0 -0.42712897589655069 -0.12983323646229991 0 -0.44476853271751032 -0.13504891494004179 0 -0.44943369479056111 -0.1142357695948024 0 -0.44476853271751032 -0.13504891494004179 0 -0.45244717484601921 -0.143658490780391 0 -0.45918842007314459 -0.13944002372729641 0 -0.43362012067877059 -0.14673344219328679 0 -0.44476853271751032 -0.13504891494004179 0 -0.4463949150974828 -0.14740039233361171 0 -0.43362012067877059 -0.14673344219328679 0 -0.44319535742975069 -0.1542487991977273 0 -0.4463949150974828 -0.14740039233361171 0 -0.43362012067877059 -0.14673344219328679 0 -0.44319535742975069 -0.1542487991977273 0 -0.4378435287271395 -0.15980664193031929 0 -0.44319535742975069 -0.1542487991977273 0 -0.44994940128517208 -0.1544922874303587 0 -0.44691387421324302 -0.1577066137518284 0 -0.44319535742975069 -0.1542487991977273 0 -0.44994940128517208 -0.1544922874303587 0 -0.4463949150974828 -0.14740039233361171 0 -0.44994940128517208 -0.1544922874303587 0 -0.4463949150974828 -0.14740039233361171 0 -0.453728561046573 -0.14965019636190199 0 -0.44994940128517208 -0.1544922874303587 0 -0.45441610398277282 -0.15428652628809589 0 -0.44960868078479821 -0.15942749016628169 0 -0.44994940128517208 -0.1544922874303587 0 -0.45441610398277282 -0.15428652628809589 0 -0.453728561046573 -0.14965019636190199 0 -0.44476853271751032 -0.13504891494004179 0 -0.4463949150974828 -0.14740039233361171 0 -0.45244717484601921 -0.143658490780391 0 -0.4463949150974828 -0.14740039233361171 0 -0.45244717484601921 -0.143658490780391 0 -0.453728561046573 -0.14965019636190199 0 -0.4590447775400246 -0.15558710217917629 0 -0.47694733134296102 -0.1408919250496567 0 -0.4590447775400246 -0.15558710217917629 0 -0.46650480316900139 -0.1475792875605075 0 -0.47694733134296102 -0.1408919250496567 0 -0.45244717484601921 -0.143658490780391 0 -0.45815544529538499 -0.14675292653910291 0 -0.45918842007314459 -0.13944002372729641 0 -0.46047132984041822 -0.15529522996064521 0 -0.47694733134296102 -0.1408919250496567 0 -0.46449860470712429 -0.16081217984702451 0 -0.46047132984041822 -0.15529522996064521 0 -0.4590447775400246 -0.15558710217917629 0 -0.47694733134296102 -0.1408919250496567 0 -0.45244717484601921 -0.143658490780391 0 -0.45815544529538499 -0.14675292653910291 0 -0.453728561046573 -0.14965019636190199 0 -0.45815544529538499 -0.14675292653910291 0 -0.46092870976196437 -0.149303874727435 0 -0.46226367508470839 -0.14531735637316609 0 -0.45815544529538499 -0.14675292653910291 0 -0.46226367508470839 -0.14531735637316609 0 -0.45918842007314459 -0.13944002372729641 0 -0.45441610398277282 -0.15428652628809589 0 -0.45755656768602471 -0.15108302040427751 0 -0.4590447775400246 -0.15558710217917629 0 -0.45441610398277282 -0.15428652628809589 0 -0.453728561046573 -0.14965019636190199 0 -0.45755656768602471 -0.15108302040427751 0 -0.45815544529538499 -0.14675292653910291 0 -0.453728561046573 -0.14965019636190199 0 -0.45755656768602471 -0.15108302040427751 0 -0.45815544529538499 -0.14675292653910291 0 -0.46092870976196437 -0.149303874727435 0 -0.45755656768602471 -0.15108302040427751 0 -0.46092870976196437 -0.149303874727435 0 -0.45755656768602471 -0.15108302040427751 0 -0.4590447775400246 -0.15558710217917629 0 -0.46092870976196437 -0.149303874727435 0 -0.4590447775400246 -0.15558710217917629 0 -0.46650480316900139 -0.1475792875605075 0 -0.4665409971240469 -0.1435106693114889 0 -0.46865990878498498 -0.1394251306446494 0 -0.45918842007314459 -0.13944002372729641 0 -0.46226367508470839 -0.14531735637316609 0 -0.4665409971240469 -0.1435106693114889 0 -0.45918842007314459 -0.13944002372729641 0 -0.46092870976196437 -0.149303874727435 0 -0.46226367508470839 -0.14531735637316609 0 -0.46650480316900139 -0.1475792875605075 0 -0.46226367508470839 -0.14531735637316609 0 -0.46650480316900139 -0.1475792875605075 0 -0.4665409971240469 -0.1435106693114889 0 -0.46650480316900139 -0.1475792875605075 0 -0.4665409971240469 -0.1435106693114889 0 -0.47059045749875478 -0.14390669346769211 0 -0.4665409971240469 -0.1435106693114889 0 -0.46865990878498498 -0.1394251306446494 0 -0.47059045749875478 -0.14390669346769211 0 -0.45918842007314459 -0.13944002372729641 0 -0.47172020233939621 -0.12925654647540541 0 -0.44943369479056111 -0.1142357695948024 0 -0.46865990878498498 -0.1394251306446494 0 -0.45918842007314459 -0.13944002372729641 0 -0.47172020233939621 -0.12925654647540541 0 -0.47172020233939621 -0.12925654647540541 0 -0.4784855679684511 -0.13381630297413399 0 -0.4792039799729344 -0.1274177729921214 0 -0.47172020233939621 -0.12925654647540541 0 -0.4784855679684511 -0.13381630297413399 0 -0.46865990878498498 -0.1394251306446494 0 -0.47172020233939621 -0.12925654647540541 0 -0.4752594668895827 -0.1410117202413636 0 -0.47172020233939621 -0.12925654647540541 0 -0.4752594668895827 -0.1410117202413636 0 -0.47172020233939621 -0.12925654647540541 0 -0.4784855679684511 -0.13381630297413399 0 -0.4752594668895827 -0.1410117202413636 0 -0.4784855679684511 -0.13381630297413399 0 -0.48466758534099907 -0.12866385836306421 0 -0.47694733134296102 -0.1408919250496567 0 -0.4784855679684511 -0.13381630297413399 0 -0.47694733134296102 -0.1408919250496567 0 -0.4752594668895827 -0.1410117202413636 0 -0.47172020233939621 -0.12925654647540541 0 -0.4792039799729344 -0.1274177729921214 0 -0.4803186413132261 -0.1193362116539982 0 -0.4792039799729344 -0.1274177729921214 0 -0.48466758534099907 -0.12866385836306421 0 -0.4803186413132261 -0.1193362116539982 0 -0.4784855679684511 -0.13381630297413399 0 -0.4792039799729344 -0.1274177729921214 0 -0.48466758534099907 -0.12866385836306421 0 -0.49484988514589728 -0.1261967479201371 0 -0.47694733134296102 -0.1408919250496567 0 -0.49484988514589728 -0.1261967479201371 0 -0.48487166658177461 -0.14433074676653621 0 -0.47694733134296102 -0.1408919250496567 0 -0.48466758534099907 -0.12866385836306421 0 -0.49484988514589728 -0.1261967479201371 0 -0.47694733134296102 -0.1408919250496567 0 -0.49484988514589728 -0.1261967479201371 0 -0.48487166658177461 -0.14433074676653621 0 -0.50000000000000056 -0.12115909540310101 0 -0.48466758534099907 -0.12866385836306421 0 -0.49484988514589728 -0.1261967479201371 0 -0.49007317972658149 -0.1210370944868128 0 -0.5 -0.15063402863505429 0 -0.48487166658177461 -0.14433074676653621 0 -0.50000000000000056 -0.12115909540310101 0 -0.48487166658177461 -0.14433074676653621 0 -0.50000000000000056 -0.12115909540310101 0 -0.5 -0.15063402863505429 0 -0.49999999999999889 -0.15564997786541351 0 -0.484871666581775 -0.15906821338251359 0 -0.5 -0.15063402863505429 0 -0.484871666581775 -0.15906821338251359 0 -0.5 -0.15063402863505429 0 -0.48487166658177461 -0.14433074676653621 0 -0.484871666581775 -0.15906821338251359 0 -0.48487166658177461 -0.14433074676653621 0 -0.46974333316354933 -0.16750239812997181 0 -0.48487166658177461 -0.14433074676653621 0 -0.47694733134296102 -0.1408919250496567 0 -0.46974333316354933 -0.16750239812997181 0 -0.46650480316900139 -0.1475792875605075 0 -0.47694733134296102 -0.1408919250496567 0 -0.47059045749875478 -0.14390669346769211 0 -0.47694733134296102 -0.1408919250496567 0 -0.4752594668895827 -0.1410117202413636 0 -0.47059045749875478 -0.14390669346769211 0 -0.46865990878498498 -0.1394251306446494 0 -0.4752594668895827 -0.1410117202413636 0 -0.47059045749875478 -0.14390669346769211 0 -0.48487166658177461 -0.14433074676653621 0 -0.46974333316354933 -0.16750239812997181 0 -0.484871666581775 -0.15906821338251359 0 -0.47694733134296102 -0.1408919250496567 0 -0.46974333316354933 -0.16750239812997181 0 -0.46449860470712429 -0.16081217984702451 0 -0.46974333316354933 -0.16750239812997181 0 -0.48105873489817291 -0.17145422517483189 0 -0.484871666581775 -0.15906821338251359 0 -0.46974333316354933 -0.16750239812997181 0 -0.484871666581775 -0.15906821338251359 0 -0.49999999999999889 -0.15564997786541351 0 -0.48105873489817291 -0.17145422517483189 0 -0.5 -0.17640614443145131 0 -0.49999999999999889 -0.15564997786541351 0 -0.48105873489817291 -0.17145422517483189 0 -0.49999999999999889 -0.15564997786541351 0 -0.48105873489817291 -0.17145422517483189 0 -0.484871666581775 -0.15906821338251359 0 -0.48105873489817291 -0.17145422517483189 0 -0.48684702918582012 -0.1870213500993553 0 -0.5 -0.17640614443145131 0 -0.48684702918582012 -0.1870213500993553 0 -0.5 -0.17640614443145131 0 -0.5 -0.19716231099748921 0 -0.46974333316354933 -0.16750239812997181 0 -0.48105873489817291 -0.17145422517483189 0 -0.46211746979634027 -0.1872584724842426 0 -0.48105873489817291 -0.17145422517483189 0 -0.48684702918582012 -0.1870213500993553 0 -0.46211746979634027 -0.1872584724842426 0 -0.48105873489817291 -0.17145422517483189 0 -0.46211746979634027 -0.1872584724842426 0 -0.46974333316354933 -0.16750239812997181 0 -0.4507742005994968 -0.17807786365687969 0 -0.46974333316354933 -0.16750239812997181 0 -0.46211746979634027 -0.1872584724842426 0 -0.45866779346513242 -0.18446649704680129 0 -0.46974333316354933 -0.16750239812997181 0 -0.45866779346513242 -0.18446649704680129 0 -0.4507742005994968 -0.17807786365687969 0 -0.46974333316354933 -0.16750239812997181 0 -0.45866779346513242 -0.18446649704680129 0 -0.46211746979634027 -0.1872584724842426 0 -0.45866779346513242 -0.18446649704680129 0 -0.45866779346513242 -0.18446649704680129 0 -0.45310153886191967 -0.1833470355339081 0 -0.4507742005994968 -0.17807786365687969 0 -0.45866779346513242 -0.18446649704680129 0 -0.4507742005994968 -0.17807786365687969 0 -0.46211746979634027 -0.1872584724842426 0 -0.45866779346513242 -0.18446649704680129 0 -0.45107420926335751 -0.18876031165701851 0 -0.45866779346513242 -0.18446649704680129 0 -0.45310153886191967 -0.1833470355339081 0 -0.45107420926335751 -0.18876031165701851 0 -0.46047132984041822 -0.15529522996064521 0 -0.45728101997818288 -0.1673433202116823 0 -0.44883454932563172 -0.1765080182006887 0 -0.46047132984041822 -0.15529522996064521 0 -0.44883454932563172 -0.1765080182006887 0 -0.46974333316354933 -0.16750239812997181 0 -0.46449860470712429 -0.16081217984702451 0 -0.45728101997818288 -0.1673433202116823 0 -0.46047132984041822 -0.15529522996064521 0 -0.45237322011078968 -0.16441815741230281 0 -0.44883454932563172 -0.1765080182006887 0 -0.46974333316354933 -0.16750239812997181 0 -0.45728101997818288 -0.1673433202116823 0 -0.4507742005994968 -0.17807786365687969 0 -0.45441610398277282 -0.15428652628809589 0 -0.4590447775400246 -0.15558710217917629 0 -0.44960868078479821 -0.15942749016628169 0 -0.46047132984041822 -0.15529522996064521 0 -0.4590447775400246 -0.15558710217917629 0 -0.45237322011078968 -0.16441815741230281 0 -0.46047132984041822 -0.15529522996064521 0 -0.46449860470712429 -0.16081217984702451 0 -0.45728101997818288 -0.1673433202116823 0 -0.4590447775400246 -0.15558710217917629 0 -0.44114222373708839 -0.17028227930869611 0 -0.4590447775400246 -0.15558710217917629 0 -0.44960868078479821 -0.15942749016628169 0 -0.44114222373708839 -0.17028227930869611 0 -0.45237322011078968 -0.16441815741230281 0 -0.44114222373708839 -0.17028227930869611 0 -0.44883454932563172 -0.1765080182006887 0 -0.4590447775400246 -0.15558710217917629 0 -0.45237322011078968 -0.16441815741230281 0 -0.44114222373708839 -0.17028227930869611 0 -0.44960868078479821 -0.15942749016628169 0 -0.44691387421324302 -0.1577066137518284 0 -0.44297167462406811 -0.1625019221001725 0 -0.44994940128517208 -0.1544922874303587 0 -0.44960868078479821 -0.15942749016628169 0 -0.44691387421324302 -0.1577066137518284 0 -0.44319535742975069 -0.1542487991977273 0 -0.44691387421324302 -0.1577066137518284 0 -0.44330432530452413 -0.15860475765696111 0 -0.44319535742975069 -0.1542487991977273 0 -0.44330432530452413 -0.15860475765696111 0 -0.4378435287271395 -0.15980664193031929 0 -0.44691387421324302 -0.1577066137518284 0 -0.44330432530452413 -0.15860475765696111 0 -0.44297167462406811 -0.1625019221001725 0 -0.43641207958163591 -0.1664539646989853 0 -0.44297167462406811 -0.1625019221001725 0 -0.4378435287271395 -0.15980664193031929 0 -0.44330432530452413 -0.15860475765696111 0 -0.44297167462406811 -0.1625019221001725 0 -0.4378435287271395 -0.15980664193031929 0 -0.44960868078479821 -0.15942749016628169 0 -0.44297167462406811 -0.1625019221001725 0 -0.44114222373708839 -0.17028227930869611 0 -0.43641207958163591 -0.1664539646989853 0 -0.44297167462406811 -0.1625019221001725 0 -0.44114222373708839 -0.17028227930869611 0 -0.43641207958163591 -0.1664539646989853 0 -0.44114222373708839 -0.17028227930869611 0 -0.43439503506614963 -0.17582065856660209 0 -0.44114222373708839 -0.17028227930869611 0 -0.44097483015047778 -0.17695745665753729 0 -0.43439503506614963 -0.17582065856660209 0 -0.44114222373708839 -0.17028227930869611 0 -0.44114222373708839 -0.17028227930869611 0 -0.44097483015047778 -0.17695745665753729 0 -0.44883454932563172 -0.1765080182006887 0 -0.44114222373708839 -0.17028227930869611 0 -0.44883454932563172 -0.1765080182006887 0 -0.43160795501967841 -0.18876322149945959 0 -0.44673938583103801 -0.1803273099268986 0 -0.43160795501967841 -0.18876322149945959 0 -0.44097483015047778 -0.17695745665753729 0 -0.44673938583103801 -0.1803273099268986 0 -0.44673938583103801 -0.1803273099268986 0 -0.45310153886191967 -0.1833470355339081 0 -0.45107420926335751 -0.18876031165701851 0 -0.44673938583103801 -0.1803273099268986 0 -0.45310153886191967 -0.1833470355339081 0 -0.4507742005994968 -0.17807786365687969 0 -0.45728101997818288 -0.1673433202116823 0 -0.4507742005994968 -0.17807786365687969 0 -0.44883454932563172 -0.1765080182006887 0 -0.44097483015047778 -0.17695745665753729 0 -0.44673938583103801 -0.1803273099268986 0 -0.44883454932563172 -0.1765080182006887 0 -0.4507742005994968 -0.17807786365687969 0 -0.44883454932563172 -0.1765080182006887 0 -0.44673938583103801 -0.1803273099268986 0 -0.4507742005994968 -0.17807786365687969 0 -0.44673938583103801 -0.1803273099268986 0 -0.4507742005994968 -0.17807786365687969 0 -0.44883454932563172 -0.1765080182006887 0 -0.44673938583103801 -0.1803273099268986 0 -0.44883454932563172 -0.1765080182006887 0 -0.43637018564021718 -0.1992294149883069 0 -0.44673938583103801 -0.1803273099268986 0 -0.45107420926335751 -0.18876031165701851 0 -0.43637018564021718 -0.1992294149883069 0 -0.44673938583103801 -0.1803273099268986 0 -0.43637018564021718 -0.1992294149883069 0 -0.43160795501967841 -0.18876322149945959 0 -0.44673938583103801 -0.1803273099268986 0 -0.43637018564021718 -0.1992294149883069 0 -0.45016159975997061 -0.19723423312317259 0 -0.45011088397195109 -0.20828551061060921 0 -0.43637018564021718 -0.1992294149883069 0 -0.45016159975997061 -0.19723423312317259 0 -0.45107420926335751 -0.18876031165701851 0 -0.43637018564021718 -0.1992294149883069 0 -0.44075400798860331 -0.21600337947795131 0 -0.45011088397195109 -0.20828551061060921 0 -0.44075400798860331 -0.21600337947795131 0 -0.45011088397195109 -0.20828551061060921 0 -0.45212763569974029 -0.22262726492961951 0 -0.45011088397195109 -0.20828551061060921 0 -0.46034216587551691 -0.21417724378374459 0 -0.46278504471783483 -0.2038981918530535 0 -0.45016159975997061 -0.19723423312317259 0 -0.45011088397195109 -0.20828551061060921 0 -0.46278504471783483 -0.2038981918530535 0 -0.45011088397195109 -0.20828551061060921 0 -0.46034216587551691 -0.21417724378374459 0 -0.45212763569974029 -0.22262726492961951 0 -0.46034216587551691 -0.21417724378374459 0 -0.46278504471783483 -0.2038981918530535 0 -0.47145990738502758 -0.2148390200124573 0 -0.46211746979634027 -0.1872584724842426 0 -0.45016159975997061 -0.19723423312317259 0 -0.46278504471783483 -0.2038981918530535 0 -0.46211746979634027 -0.1872584724842426 0 -0.46278504471783483 -0.2038981918530535 0 -0.48105873489817808 -0.2025884750238815 0 -0.46211746979634027 -0.1872584724842426 0 -0.45016159975997061 -0.19723423312317259 0 -0.45107420926335751 -0.18876031165701851 0 -0.46211746979634027 -0.1872584724842426 0 -0.45016159975997061 -0.19723423312317259 0 -0.46211746979634027 -0.1872584724842426 0 -0.48105873489817808 -0.2025884750238815 0 -0.48684702918582012 -0.1870213500993553 0 -0.46211746979634027 -0.1872584724842426 0 -0.48105873489817808 -0.2025884750238815 0 -0.48684702918582012 -0.1870213500993553 0 -0.48105873489817808 -0.2025884750238815 0 -0.5 -0.19716231099748921 0 -0.48105873489817808 -0.2025884750238815 0 -0.5 -0.19716231099748921 0 -0.50000000000001044 -0.217918477563527 0 -0.48105873489817808 -0.2025884750238815 0 -0.50000000000001044 -0.217918477563527 0 -0.48325280337497728 -0.22579701480016981 0 -0.48105873489817808 -0.2025884750238815 0 -0.50000000000001044 -0.217918477563527 0 -0.46278504471783483 -0.2038981918530535 0 -0.48105873489817808 -0.2025884750238815 0 -0.47145990738502758 -0.2148390200124573 0 -0.48105873489817808 -0.2025884750238815 0 -0.47145990738502758 -0.2148390200124573 0 -0.48325280337497728 -0.22579701480016981 0 -0.47145990738502758 -0.2148390200124573 0 -0.48325280337497728 -0.22579701480016981 0 -0.46629061653727327 -0.2285215517145511 0 -0.48325280337497728 -0.22579701480016981 0 -0.47562417973589211 -0.24187454730280239 0 -0.46629061653727327 -0.2285215517145511 0 -0.48325280337497728 -0.22579701480016981 0 -0.5 -0.23576113058192949 0 -0.48706048314026668 -0.2387484744665688 0 -0.50000000000001044 -0.217918477563527 0 -0.48325280337497728 -0.22579701480016981 0 -0.5 -0.23576113058192949 0 -0.49999999999999878 -0.25360378360033198 0 -0.4901799635821813 -0.25040742039412078 0 -0.5 -0.23576113058192949 0 -0.4901799635821813 -0.25040742039412078 0 -0.5 -0.23576113058192949 0 -0.48706048314026668 -0.2387484744665688 0 -0.46509762212744987 -0.25567100856591463 0 -0.4901799635821813 -0.25040742039412078 0 -0.47562417973589211 -0.24187454730280239 0 -0.4901799635821813 -0.25040742039412078 0 -0.48706048314026668 -0.2387484744665688 0 -0.47562417973589211 -0.24187454730280239 0 -0.48325280337497728 -0.22579701480016981 0 -0.48706048314026668 -0.2387484744665688 0 -0.47562417973589211 -0.24187454730280239 0 -0.46509762212744987 -0.25567100856591463 0 -0.47562417973589211 -0.24187454730280239 0 -0.46309397598947849 -0.243029876235998 0 -0.46509762212744987 -0.25567100856591463 0 -0.46309397598947849 -0.243029876235998 0 -0.4513048570032604 -0.2473010332454415 0 -0.46309397598947849 -0.243029876235998 0 -0.46629061653727327 -0.2285215517145511 0 -0.4525488394553393 -0.23528469713171449 0 -0.46309397598947849 -0.243029876235998 0 -0.4513048570032604 -0.2473010332454415 0 -0.4525488394553393 -0.23528469713171449 0 -0.47562417973589211 -0.24187454730280239 0 -0.46309397598947849 -0.243029876235998 0 -0.46629061653727327 -0.2285215517145511 0 -0.46034216587551691 -0.21417724378374459 0 -0.47145990738502758 -0.2148390200124573 0 -0.46629061653727327 -0.2285215517145511 0 -0.46034216587551691 -0.21417724378374459 0 -0.46629061653727327 -0.2285215517145511 0 -0.45212763569974029 -0.22262726492961951 0 -0.46629061653727327 -0.2285215517145511 0 -0.45212763569974029 -0.22262726492961951 0 -0.4525488394553393 -0.23528469713171449 0 -0.45212763569974029 -0.22262726492961951 0 -0.43955085849523129 -0.23069031106960991 0 -0.4525488394553393 -0.23528469713171449 0 -0.44075400798860331 -0.21600337947795131 0 -0.45212763569974029 -0.22262726492961951 0 -0.43955085849523129 -0.23069031106960991 0 -0.43348053696556188 -0.2402237077802796 0 -0.43955085849523129 -0.23069031106960991 0 -0.44343057593095042 -0.24047939722736761 0 -0.43955085849523129 -0.23069031106960991 0 -0.44343057593095042 -0.24047939722736761 0 -0.4525488394553393 -0.23528469713171449 0 -0.44343057593095042 -0.24047939722736761 0 -0.44026778773535891 -0.24889723690979251 0 -0.4513048570032604 -0.2473010332454415 0 -0.43348053696556188 -0.2402237077802796 0 -0.44343057593095042 -0.24047939722736761 0 -0.44026778773535891 -0.24889723690979251 0 -0.44343057593095042 -0.24047939722736761 0 -0.4513048570032604 -0.2473010332454415 0 -0.4525488394553393 -0.23528469713171449 0 -0.4131941012217013 -0.04358399944985953 0 -0.4138360387361486 -0.031068602562706781 0 -0.39748084028398728 -0.041765491456544908 0 -0.42163969092184922 -0.036738852725326718 0 -0.4131941012217013 -0.04358399944985953 0 -0.42484256446097401 -0.047055157772918403 0 -0.42163969092184922 -0.036738852725326718 0 -0.4131941012217013 -0.04358399944985953 0 -0.4138360387361486 -0.031068602562706781 0 -0.42163969092184922 -0.036738852725326718 0 -0.4138360387361486 -0.031068602562706781 0 -0.4131941012217013 -0.04358399944985953 0 -0.41725023671981409 -0.055771770414390409 0 -0.40436451420026948 -0.052882404020678939 0 -0.41725023671981409 -0.055771770414390409 0 -0.40436451420026948 -0.052882404020678939 0 -0.41128217625090091 -0.065092292033433599 0 -0.4131941012217013 -0.04358399944985953 0 -0.41725023671981409 -0.055771770414390409 0 -0.42484256446097401 -0.047055157772918403 0 -0.42484256446097401 -0.047055157772918403 0 -0.4286379859299021 -0.057921780543448972 0 -0.43436019032094819 -0.049238388270281722 0 -0.41725023671981409 -0.055771770414390409 0 -0.42484256446097401 -0.047055157772918403 0 -0.4286379859299021 -0.057921780543448972 0 -0.41725023671981409 -0.055771770414390409 0 -0.4286379859299021 -0.057921780543448972 0 -0.42288770937777381 -0.069646208416036373 0 -0.4286379859299021 -0.057921780543448972 0 -0.43436019032094819 -0.049238388270281722 0 -0.43790415233093438 -0.05843541613368658 0 -0.4286379859299021 -0.057921780543448972 0 -0.4345830623689681 -0.067383742253380327 0 -0.43790415233093438 -0.05843541613368658 0 -0.43436019032094819 -0.049238388270281722 0 -0.44018630018045801 -0.049994813723569509 0 -0.43790415233093438 -0.05843541613368658 0 -0.42163969092184922 -0.036738852725326718 0 -0.43198431557160738 -0.031470935992871242 0 -0.4138360387361486 -0.031068602562706781 0 -0.43436019032094819 -0.049238388270281722 0 -0.43045126067147788 -0.040946218502095913 0 -0.43942954208201068 -0.040227757749081459 0 -0.43198431557160738 -0.031470935992871242 0 -0.4138360387361486 -0.031068602562706781 0 -0.42484256446097401 -0.047055157772918403 0 -0.43436019032094819 -0.049238388270281722 0 -0.43045126067147788 -0.040946218502095913 0 -0.42163969092184922 -0.036738852725326718 0 -0.42484256446097401 -0.047055157772918403 0 -0.43045126067147788 -0.040946218502095913 0 -0.42163969092184922 -0.036738852725326718 0 -0.43045126067147788 -0.040946218502095913 0 -0.43198431557160738 -0.031470935992871242 0 -0.43045126067147788 -0.040946218502095913 0 -0.43198431557160738 -0.031470935992871242 0 -0.43942954208201068 -0.040227757749081459 0 -0.43198431557160738 -0.031470935992871242 0 -0.43132928284250999 -0.01521363629067863 0 -0.44744445785473641 -0.01297087107594741 0 -0.43198431557160738 -0.031470935992871242 0 -0.43132928284250999 -0.01521363629067863 0 -0.4138360387361486 -0.031068602562706781 0 -0.43132928284250999 -0.01521363629067863 0 -0.41874418772717381 -0.0049013018109871388 0 -0.44475632330240727 0.0059315272711417139 0 -0.43132928284250999 -0.01521363629067863 0 -0.41874418772717381 -0.0049013018109871388 0 -0.4138360387361486 -0.031068602562706781 0 -0.41874418772717381 -0.0049013018109871388 0 -0.4138360387361486 -0.031068602562706781 0 -0.39273205215193863 -0.015734130893112371 0 -0.4138360387361486 -0.031068602562706781 0 -0.39273205215193863 -0.015734130893112371 0 -0.4138360387361486 -0.031068602562706781 0 -0.39273205215193863 -0.015734130893112371 0 -0.38428195977192442 -0.030413411214629201 0 -0.4138360387361486 -0.031068602562706781 0 -0.38428195977192442 -0.030413411214629201 0 -0.41874418772717381 -0.0049013018109871388 0 -0.39273205215193863 -0.015734130893112371 0 -0.39707022305495038 0.0062338432535876736 0 -0.41874418772717381 -0.0049013018109871388 0 -0.39273205215193863 -0.015734130893112371 0 -0.39273205215193863 -0.015734130893112371 0 -0.37751697238409859 -0.0046786268195284399 0 -0.39707022305495038 0.0062338432535876736 0 -0.36696491814530302 -0.017983970735923401 0 -0.37751697238409859 -0.0046786268195284399 0 -0.3838859479950153 -0.019418116550401869 0 -0.39273205215193863 -0.015734130893112371 0 -0.37751697238409859 -0.0046786268195284399 0 -0.39273205215193863 -0.015734130893112371 0 -0.37751697238409859 -0.0046786268195284399 0 -0.3838859479950153 -0.019418116550401869 0 -0.36696491814530302 -0.017983970735923401 0 -0.38428195977192442 -0.030413411214629201 0 -0.3838859479950153 -0.019418116550401869 0 -0.39273205215193863 -0.015734130893112371 0 -0.38428195977192442 -0.030413411214629201 0 -0.3838859479950153 -0.019418116550401869 0 -0.39273205215193863 -0.015734130893112371 0 -0.3838859479950153 -0.019418116550401869 0 -0.37035385128727932 -0.044447779252691541 0 -0.38428195977192442 -0.030413411214629201 0 -0.38272471965899701 -0.052268278007174873 0 -0.38428195977192442 -0.030413411214629201 0 -0.39748084028398728 -0.041765491456544908 0 -0.38272471965899701 -0.052268278007174873 0 -0.4131941012217013 -0.04358399944985953 0 -0.39748084028398728 -0.041765491456544908 0 -0.40436451420026948 -0.052882404020678939 0 -0.4138360387361486 -0.031068602562706781 0 -0.38428195977192442 -0.030413411214629201 0 -0.39748084028398728 -0.041765491456544908 0 -0.40436451420026948 -0.052882404020678939 0 -0.39751496748541643 -0.062290076284234511 0 -0.39414239314423349 -0.054861004494720582 0 -0.40436451420026948 -0.052882404020678939 0 -0.39751496748541643 -0.062290076284234511 0 -0.41128217625090091 -0.065092292033433599 0 -0.39748084028398728 -0.041765491456544908 0 -0.40436451420026948 -0.052882404020678939 0 -0.39414239314423349 -0.054861004494720582 0 -0.39748084028398728 -0.041765491456544908 0 -0.39414239314423349 -0.054861004494720582 0 -0.38272471965899701 -0.052268278007174873 0 -0.39751496748541643 -0.062290076284234511 0 -0.39414239314423349 -0.054861004494720582 0 -0.38862692409249727 -0.065098772704969651 0 -0.39414239314423349 -0.054861004494720582 0 -0.38272471965899701 -0.052268278007174873 0 -0.38862692409249727 -0.065098772704969651 0 -0.38272471965899701 -0.052268278007174873 0 -0.38041201024248078 -0.063987927829928501 0 -0.38862692409249727 -0.065098772704969651 0 -0.3698205527051911 -0.059165967113634678 0 -0.38272471965899701 -0.052268278007174873 0 -0.38041201024248078 -0.063987927829928501 0 -0.37342739660137841 -0.070939897778190097 0 -0.38746045815433999 -0.072466723545673198 0 -0.39065931941037862 -0.074622708779952834 0 -0.37342739660137841 -0.070939897778190097 0 -0.38041201024248078 -0.063987927829928501 0 -0.38746045815433999 -0.072466723545673198 0 -0.37342739660137841 -0.070939897778190097 0 -0.36825662022259531 -0.077184980860251953 0 -0.38655864995774381 -0.080689598346923963 0 -0.37342739660137841 -0.070939897778190097 0 -0.38655864995774381 -0.080689598346923963 0 -0.39065931941037862 -0.074622708779952834 0 -0.37342739660137841 -0.070939897778190097 0 -0.39065931941037862 -0.074622708779952834 0 -0.38041201024248078 -0.063987927829928501 0 -0.38862692409249727 -0.065098772704969651 0 -0.38746045815433999 -0.072466723545673198 0 -0.38862692409249727 -0.065098772704969651 0 -0.38746045815433999 -0.072466723545673198 0 -0.39065931941037862 -0.074622708779952834 0 -0.38746045815433999 -0.072466723545673198 0 -0.39065931941037862 -0.074622708779952834 0 -0.36825662022259531 -0.077184980860251953 0 -0.38655864995774381 -0.080689598346923963 0 -0.37834568631192078 -0.1024043876845491 0 -0.38655864995774381 -0.080689598346923963 0 -0.37834568631192078 -0.1024043876845491 0 -0.39315571805248029 -0.0942278633863739 0 -0.36825662022259531 -0.077184980860251953 0 -0.38655864995774381 -0.080689598346923963 0 -0.40486067969289252 -0.084194215833594238 0 -0.39065931941037862 -0.074622708779952834 0 -0.41367770434611539 -0.079542203964775834 0 -0.40486067969289252 -0.084194215833594238 0 -0.39065931941037862 -0.074622708779952834 0 -0.38655864995774381 -0.080689598346923963 0 -0.40486067969289252 -0.084194215833594238 0 -0.39065931941037862 -0.074622708779952834 0 -0.38655864995774381 -0.080689598346923963 0 -0.40486067969289252 -0.084194215833594238 0 -0.39315571805248029 -0.0942278633863739 0 -0.38655864995774381 -0.080689598346923963 0 -0.40486067969289252 -0.084194215833594238 0 -0.39751496748541643 -0.062290076284234511 0 -0.39065931941037862 -0.074622708779952834 0 -0.41128217625090091 -0.065092292033433599 0 -0.39065931941037862 -0.074622708779952834 0 -0.41367770434611539 -0.079542203964775834 0 -0.39065931941037862 -0.074622708779952834 0 -0.41128217625090091 -0.065092292033433599 0 -0.41367770434611539 -0.079542203964775834 0 -0.39751496748541643 -0.062290076284234511 0 -0.38862692409249727 -0.065098772704969651 0 -0.39065931941037862 -0.074622708779952834 0 -0.36973076818124029 -0.1124858338682917 0 -0.3884347524012402 -0.12762379450884859 0 -0.37923656375002079 -0.13272680551713081 0 -0.36973076818124029 -0.1124858338682917 0 -0.3884347524012402 -0.12762379450884859 0 -0.37834568631192078 -0.1024043876845491 0 -0.3884347524012402 -0.12762379450884859 0 -0.37834568631192078 -0.1024043876845491 0 -0.36973076818124029 -0.1124858338682917 0 -0.3884347524012402 -0.12762379450884859 0 -0.3884347524012402 -0.12762379450884859 0 -0.37834568631192078 -0.1024043876845491 0 -0.4012679621954271 -0.10710337350507849 0 -0.37834568631192078 -0.1024043876845491 0 -0.39315571805248029 -0.0942278633863739 0 -0.4012679621954271 -0.10710337350507849 0 -0.40486067969289252 -0.084194215833594238 0 -0.39315571805248029 -0.0942278633863739 0 -0.4012679621954271 -0.10710337350507849 0 -0.3884347524012402 -0.12762379450884859 0 -0.4012679621954271 -0.10710337350507849 0 -0.41029376708833259 -0.1221378759268817 0 -0.42712897589655069 -0.12983323646229991 0 -0.41029376708833259 -0.1221378759268817 0 -0.42714718724172662 -0.099214992714198647 0 -0.4012679621954271 -0.10710337350507849 0 -0.41029376708833259 -0.1221378759268817 0 -0.42714718724172662 -0.099214992714198647 0 -0.40486067969289252 -0.084194215833594238 0 -0.4012679621954271 -0.10710337350507849 0 -0.42714718724172662 -0.099214992714198647 0 -0.42712897589655069 -0.12983323646229991 0 -0.42714718724172662 -0.099214992714198647 0 -0.44943369479056111 -0.1142357695948024 0 -0.41128217625090091 -0.065092292033433599 0 -0.41367770434611539 -0.079542203964775834 0 -0.42288770937777381 -0.069646208416036373 0 -0.41725023671981409 -0.055771770414390409 0 -0.41128217625090091 -0.065092292033433599 0 -0.42288770937777381 -0.069646208416036373 0 -0.40486067969289252 -0.084194215833594238 0 -0.42714718724172662 -0.099214992714198647 0 -0.42738376560763103 -0.088507114560829117 0 -0.40486067969289252 -0.084194215833594238 0 -0.42714718724172662 -0.099214992714198647 0 -0.40486067969289252 -0.084194215833594238 0 -0.41367770434611539 -0.079542203964775834 0 -0.42738376560763103 -0.088507114560829117 0 -0.40486067969289252 -0.084194215833594238 0 -0.42738376560763103 -0.088507114560829117 0 -0.42714718724172662 -0.099214992714198647 0 -0.42738376560763103 -0.088507114560829117 0 -0.4499068515223692 -0.092820013288064718 0 -0.41367770434611539 -0.079542203964775834 0 -0.43669608928185211 -0.084461699149599376 0 -0.42738376560763103 -0.088507114560829117 0 -0.41367770434611539 -0.079542203964775834 0 -0.43669608928185211 -0.084461699149599376 0 -0.41367770434611539 -0.079542203964775834 0 -0.43669608928185211 -0.084461699149599376 0 -0.42288770937777381 -0.069646208416036373 0 -0.43669608928185211 -0.084461699149599376 0 -0.42288770937777381 -0.069646208416036373 0 -0.4345830623689681 -0.067383742253380327 0 -0.4286379859299021 -0.057921780543448972 0 -0.42288770937777381 -0.069646208416036373 0 -0.4345830623689681 -0.067383742253380327 0 -0.43669608928185211 -0.084461699149599376 0 -0.44489447480533451 -0.066551810541070178 0 -0.45504853508594162 -0.073883928024958717 0 -0.43669608928185211 -0.084461699149599376 0 -0.4345830623689681 -0.067383742253380327 0 -0.44489447480533451 -0.066551810541070178 0 -0.4345830623689681 -0.067383742253380327 0 -0.44489447480533451 -0.066551810541070178 0 -0.43790415233093438 -0.05843541613368658 0 -0.44489447480533451 -0.066551810541070178 0 -0.45504853508594162 -0.073883928024958717 0 -0.45038259595429642 -0.058386661715493192 0 -0.45504853508594162 -0.073883928024958717 0 -0.45038259595429642 -0.058386661715493192 0 -0.42738376560763103 -0.088507114560829117 0 -0.4499068515223692 -0.092820013288064718 0 -0.43669608928185211 -0.084461699149599376 0 -0.45971447421758849 -0.089381194334423736 0 -0.43669608928185211 -0.084461699149599376 0 -0.42738376560763103 -0.088507114560829117 0 -0.4499068515223692 -0.092820013288064718 0 -0.43669608928185211 -0.084461699149599376 0 -0.4499068515223692 -0.092820013288064718 0 -0.45971447421758849 -0.089381194334423736 0 -0.43669608928185211 -0.084461699149599376 0 -0.45971447421758849 -0.089381194334423736 0 -0.45504853508594162 -0.073883928024958717 0 -0.45971447421758849 -0.089381194334423736 0 -0.45504853508594162 -0.073883928024958717 0 -0.45971447421758849 -0.089381194334423736 0 -0.46403674145514079 -0.076181546582631821 0 -0.45504853508594162 -0.073883928024958717 0 -0.45971447421758849 -0.089381194334423736 0 -0.46403674145514079 -0.076181546582631821 0 -0.47610345921849079 -0.076935609790049209 0 -0.46403674145514079 -0.076181546582631821 0 -0.46528049729854237 -0.064525454181096453 0 -0.45504853508594162 -0.073883928024958717 0 -0.46403674145514079 -0.076181546582631821 0 -0.46528049729854237 -0.064525454181096453 0 -0.47610345921849079 -0.076935609790049209 0 -0.46528049729854237 -0.064525454181096453 0 -0.45504853508594162 -0.073883928024958717 0 -0.45719350770974182 -0.061780314514431722 0 -0.45504853508594162 -0.073883928024958717 0 -0.45719350770974182 -0.061780314514431722 0 -0.45038259595429642 -0.058386661715493192 0 -0.42714718724172662 -0.099214992714198647 0 -0.4499068515223692 -0.092820013288064718 0 -0.44943369479056111 -0.1142357695948024 0 -0.42714718724172662 -0.099214992714198647 0 -0.44943369479056111 -0.1142357695948024 0 -0.4499068515223692 -0.092820013288064718 0 -0.45971447421758849 -0.089381194334423736 0 -0.46571733827849199 -0.1093188704049146 0 -0.4499068515223692 -0.092820013288064718 0 -0.44943369479056111 -0.1142357695948024 0 -0.46571733827849199 -0.1093188704049146 0 -0.45971447421758849 -0.089381194334423736 0 -0.46571733827849199 -0.1093188704049146 0 -0.47985723710879719 -0.093686110831778857 0 -0.45971447421758849 -0.089381194334423736 0 -0.46571733827849199 -0.1093188704049146 0 -0.47172020233939621 -0.12925654647540541 0 -0.44943369479056111 -0.1142357695948024 0 -0.46571733827849199 -0.1093188704049146 0 -0.47172020233939621 -0.12925654647540541 0 -0.46571733827849199 -0.1093188704049146 0 -0.47172020233939621 -0.12925654647540541 0 -0.44943369479056111 -0.1142357695948024 0 -0.47172020233939621 -0.12925654647540541 0 -0.46571733827849199 -0.1093188704049146 0 -0.4803186413132261 -0.1193362116539982 0 -0.46571733827849199 -0.1093188704049146 0 -0.4803186413132261 -0.1193362116539982 0 -0.47877641825019451 -0.1082870618684012 0 -0.4803186413132261 -0.1193362116539982 0 -0.47877641825019451 -0.1082870618684012 0 -0.49052978683278431 -0.109829559093763 0 -0.47877641825019451 -0.1082870618684012 0 -0.49052978683278431 -0.109829559093763 0 -0.47985723710879719 -0.093686110831778857 0 -0.46571733827849199 -0.1093188704049146 0 -0.47877641825019451 -0.1082870618684012 0 -0.47985723710879719 -0.093686110831778857 0 -0.50000000000000544 -0.097991027329135894 0 -0.47985723710879719 -0.093686110831778857 0 -0.50000000000000544 -0.097991027329135894 0 -0.49052978683278431 -0.109829559093763 0 -0.47985723710879719 -0.093686110831778857 0 -0.50000000000000544 -0.097991027329135894 0 -0.49052978683278431 -0.109829559093763 0 -0.50000000000000056 -0.12115909540310101 0 -0.4803186413132261 -0.1193362116539982 0 -0.49052978683278431 -0.109829559093763 0 -0.49007317972658149 -0.1210370944868128 0 -0.49484988514589728 -0.1261967479201371 0 -0.50000000000000056 -0.12115909540310101 0 -0.49007317972658149 -0.1210370944868128 0 -0.49052978683278431 -0.109829559093763 0 -0.50000000000000056 -0.12115909540310101 0 -0.49007317972658149 -0.1210370944868128 0 -0.48466758534099907 -0.12866385836306421 0 -0.4803186413132261 -0.1193362116539982 0 -0.49007317972658149 -0.1210370944868128 0 -0.47610345921849079 -0.076935609790049209 0 -0.48799840306357178 -0.083065819825645398 0 -0.48655380740942072 -0.070773706982576595 0 -0.47610345921849079 -0.076935609790049209 0 -0.48655380740942072 -0.070773706982576595 0 -0.47885061812650132 -0.061482612178755891 0 -0.46528049729854237 -0.064525454181096453 0 -0.47610345921849079 -0.076935609790049209 0 -0.47885061812650132 -0.061482612178755891 0 -0.45971447421758849 -0.089381194334423736 0 -0.47985723710879719 -0.093686110831778857 0 -0.47610345921849079 -0.076935609790049209 0 -0.47985723710879719 -0.093686110831778857 0 -0.48799840306357178 -0.083065819825645398 0 -0.45971447421758849 -0.089381194334423736 0 -0.47610345921849079 -0.076935609790049209 0 -0.47985723710879719 -0.093686110831778857 0 -0.50000000000000544 -0.097991027329135894 0 -0.48799840306357178 -0.083065819825645398 0 -0.5 -0.072605238626237356 0 -0.50000000000000544 -0.097991027329135894 0 -0.47985723710879719 -0.093686110831778857 0 -0.48799840306357178 -0.083065819825645398 0 -0.48799840306357178 -0.083065819825645398 0 -0.5 -0.072605238626237356 0 -0.48655380740942072 -0.070773706982576595 0 -0.5 -0.072605238626237356 0 -0.48655380740942072 -0.070773706982576595 0 -0.48981655663853979 -0.059779254492195059 0 -0.48655380740942072 -0.070773706982576595 0 -0.48981655663853979 -0.059779254492195059 0 -0.47885061812650132 -0.061482612178755891 0 -0.5 -0.047219449923338708 0 -0.48981655663853979 -0.059779254492195059 0 -0.48309708471424312 -0.047876946800350803 0 -0.5 -0.072605238626237356 0 -0.5 -0.047219449923338708 0 -0.48981655663853979 -0.059779254492195059 0 -0.5 -0.047219449923338708 0 -0.4981542426727017 -0.032937872715613582 0 -0.48309708471424312 -0.047876946800350803 0 -0.5 -0.047219449923338708 0 -0.4981542426727017 -0.032937872715613582 0 -0.5 -0.02183366122044017 0 -0.4981542426727017 -0.032937872715613582 0 -0.47414341753988398 -0.032405571069325491 0 -0.4981542426727017 -0.032937872715613582 0 -0.47414341753988398 -0.032405571069325491 0 -0.48309708471424312 -0.047876946800350803 0 -0.47414341753988398 -0.032405571069325491 0 -0.48309708471424312 -0.047876946800350803 0 -0.46968561822947752 -0.047738871641649097 0 -0.47885061812650132 -0.061482612178755891 0 -0.48309708471424312 -0.047876946800350803 0 -0.47020743767440742 -0.057255858730348573 0 -0.48981655663853979 -0.059779254492195059 0 -0.47885061812650132 -0.061482612178755891 0 -0.48309708471424312 -0.047876946800350803 0 -0.48309708471424312 -0.047876946800350803 0 -0.46968561822947752 -0.047738871641649097 0 -0.47020743767440742 -0.057255858730348573 0 -0.46528049729854237 -0.064525454181096453 0 -0.47885061812650132 -0.061482612178755891 0 -0.47020743767440742 -0.057255858730348573 0 -0.46528049729854237 -0.064525454181096453 0 -0.46172680113302678 -0.056348666410350308 0 -0.45719350770974182 -0.061780314514431722 0 -0.46528049729854237 -0.064525454181096453 0 -0.47020743767440742 -0.057255858730348573 0 -0.46172680113302678 -0.056348666410350308 0 -0.46172680113302678 -0.056348666410350308 0 -0.45719350770974182 -0.061780314514431722 0 -0.45352910907690192 -0.055756862240259983 0 -0.45719350770974182 -0.061780314514431722 0 -0.45352910907690192 -0.055756862240259983 0 -0.45038259595429642 -0.058386661715493192 0 -0.46172680113302678 -0.056348666410350308 0 -0.45352910907690192 -0.055756862240259983 0 -0.46081090479367898 -0.04565233784552071 0 -0.46968561822947752 -0.047738871641649097 0 -0.47020743767440742 -0.057255858730348573 0 -0.46172680113302678 -0.056348666410350308 0 -0.46968561822947752 -0.047738871641649097 0 -0.46172680113302678 -0.056348666410350308 0 -0.46081090479367898 -0.04565233784552071 0 -0.47414341753988398 -0.032405571069325491 0 -0.45013259240706632 -0.031873269423036421 0 -0.45352910907690192 -0.055756862240259983 0 -0.46081090479367898 -0.04565233784552071 0 -0.45013259240706632 -0.031873269423036421 0 -0.47414341753988398 -0.032405571069325491 0 -0.46968561822947752 -0.047738871641649097 0 -0.46081090479367898 -0.04565233784552071 0 -0.47414341753988398 -0.032405571069325491 0 -0.46081090479367898 -0.04565233784552071 0 -0.45013259240706632 -0.031873269423036421 0 -0.45352910907690192 -0.055756862240259983 0 -0.45013259240706632 -0.031873269423036421 0 -0.45013259240706632 -0.031873269423036421 0 -0.44476924677903512 -0.046736515068769059 0 -0.4488339033823569 -0.049979037196747067 0 -0.43198431557160738 -0.031470935992871242 0 -0.45013259240706632 -0.031873269423036421 0 -0.43198431557160738 -0.031470935992871242 0 -0.45013259240706632 -0.031873269423036421 0 -0.43942954208201068 -0.040227757749081459 0 -0.45352910907690192 -0.055756862240259983 0 -0.45013259240706632 -0.031873269423036421 0 -0.4488339033823569 -0.049979037196747067 0 -0.45013259240706632 -0.031873269423036421 0 -0.44476924677903512 -0.046736515068769059 0 -0.43942954208201068 -0.040227757749081459 0 -0.43436019032094819 -0.049238388270281722 0 -0.43942954208201068 -0.040227757749081459 0 -0.44018630018045801 -0.049994813723569509 0 -0.44476924677903512 -0.046736515068769059 0 -0.43942954208201068 -0.040227757749081459 0 -0.44018630018045801 -0.049994813723569509 0 -0.44018630018045801 -0.049994813723569509 0 -0.43790415233093438 -0.05843541613368658 0 -0.44446836938936152 -0.055335991396028711 0 -0.44476924677903512 -0.046736515068769059 0 -0.44018630018045801 -0.049994813723569509 0 -0.44446836938936152 -0.055335991396028711 0 -0.44489447480533451 -0.066551810541070178 0 -0.43790415233093438 -0.05843541613368658 0 -0.44446836938936152 -0.055335991396028711 0 -0.44489447480533451 -0.066551810541070178 0 -0.44446836938936152 -0.055335991396028711 0 -0.45038259595429642 -0.058386661715493192 0 -0.45352910907690192 -0.055756862240259983 0 -0.45038259595429642 -0.058386661715493192 0 -0.4488339033823569 -0.049979037196747067 0 -0.44446836938936152 -0.055335991396028711 0 -0.45038259595429642 -0.058386661715493192 0 -0.4488339033823569 -0.049979037196747067 0 -0.44476924677903512 -0.046736515068769059 0 -0.44446836938936152 -0.055335991396028711 0 -0.4488339033823569 -0.049979037196747067 0 -0.44744445785473641 -0.01297087107594741 0 -0.46132774061281218 -0.0043098218320784939 0 -0.44475632330240727 0.0059315272711417139 0 -0.43132928284250999 -0.01521363629067863 0 -0.44744445785473641 -0.01297087107594741 0 -0.44475632330240727 0.0059315272711417139 0 -0.44744445785473641 -0.01297087107594741 0 -0.44475632330240727 0.0059315272711417139 0 -0.45013259240706632 -0.031873269423036421 0 -0.44744445785473641 -0.01297087107594741 0 -0.43198431557160738 -0.031470935992871242 0 -0.45013259240706632 -0.031873269423036421 0 -0.44744445785473641 -0.01297087107594741 0 -0.47414341753988398 -0.032405571069325491 0 -0.45013259240706632 -0.031873269423036421 0 -0.46247081970505233 -0.01952593759540389 0 -0.45013259240706632 -0.031873269423036421 0 -0.44744445785473641 -0.01297087107594741 0 -0.46247081970505233 -0.01952593759540389 0 -0.46247081970505233 -0.01952593759540389 0 -0.46132774061281218 -0.0043098218320784939 0 -0.47966342750852792 -0.011457600781008581 0 -0.44744445785473641 -0.01297087107594741 0 -0.46247081970505233 -0.01952593759540389 0 -0.46132774061281218 -0.0043098218320784939 0 -0.47414341753988398 -0.032405571069325491 0 -0.46247081970505233 -0.01952593759540389 0 -0.47966342750852792 -0.011457600781008581 0 -0.47414341753988398 -0.032405571069325491 0 -0.47966342750852792 -0.011457600781008581 0 -0.48631305129776359 -0.025264105667707148 0 -0.4981542426727017 -0.032937872715613582 0 -0.47414341753988398 -0.032405571069325491 0 -0.48631305129776359 -0.025264105667707148 0 -0.47966342750852792 -0.011457600781008581 0 -0.48631305129776359 -0.025264105667707148 0 -0.5 -0.02183366122044017 0 -0.4981542426727017 -0.032937872715613582 0 -0.48631305129776359 -0.025264105667707148 0 -0.5 -0.02183366122044017 0 -0.47966342750852792 -0.011457600781008581 0 -0.5 -0.02183366122044017 0 -0.5 0.0035521274824584781 0 -0.500000000000002 0.028937916185357071 0 -0.47237816165120539 0.017434721728247279 0 -0.48312096468449278 0.039030419778959262 0 -0.500000000000002 0.028937916185357071 0 -0.47237816165120539 0.017434721728247279 0 -0.5 0.0035521274824584781 0 -0.500000000000002 0.028937916185357071 0 -0.47237816165120539 0.017434721728247279 0 -0.47237816165120539 0.017434721728247279 0 -0.48312096468449278 0.039030419778959262 0 -0.47044998537681332 0.035457621007771667 0 -0.47966342750852792 -0.011457600781008581 0 -0.5 0.0035521274824584781 0 -0.47237816165120539 0.017434721728247279 0 -0.46132774061281218 -0.0043098218320784939 0 -0.47966342750852792 -0.011457600781008581 0 -0.47237816165120539 0.017434721728247279 0 -0.50000000000000067 0.049373407581201678 0 -0.48312096468449278 0.039030419778959262 0 -0.47730193125434839 0.057816034272713743 0 -0.50000000000000067 0.049373407581201678 0 -0.47730193125434839 0.057816034272713743 0 -0.50000000000000067 0.049373407581201678 0 -0.47730193125434839 0.057816034272713743 0 -0.5 0.078869508456544279 0 -0.500000000000002 0.028937916185357071 0 -0.50000000000000067 0.049373407581201678 0 -0.48312096468449278 0.039030419778959262 0 -0.48312096468449278 0.039030419778959262 0 -0.47044998537681332 0.035457621007771667 0 -0.47192491600867092 0.046047833242289803 0 -0.47192491600867092 0.046047833242289803 0 -0.47730193125434839 0.057816034272713743 0 -0.46048323745717751 0.052600271503338521 0 -0.48312096468449278 0.039030419778959262 0 -0.47192491600867092 0.046047833242289803 0 -0.47730193125434839 0.057816034272713743 0 -0.46048323745717751 0.052600271503338521 0 -0.44476989547151541 0.058885635216696992 0 -0.454603862508696 0.06625866096422553 0 -0.47730193125434839 0.057816034272713743 0 -0.454603862508696 0.06625866096422553 0 -0.47730193125434839 0.057816034272713743 0 -0.46048323745717751 0.052600271503338521 0 -0.454603862508696 0.06625866096422553 0 -0.47192491600867092 0.046047833242289803 0 -0.46048323745717751 0.052600271503338521 0 -0.46386497872855592 0.043026351063888302 0 -0.46048323745717751 0.052600271503338521 0 -0.45779810941940269 0.046440016124982893 0 -0.46386497872855592 0.043026351063888302 0 -0.46048323745717751 0.052600271503338521 0 -0.45779810941940269 0.046440016124982893 0 -0.4493149805711199 0.050236955001959037 0 -0.45382500812751919 0.041388536236683607 0 -0.46386497872855592 0.043026351063888302 0 -0.46105519404459577 0.036095376067799473 0 -0.45382500812751919 0.041388536236683607 0 -0.46386497872855592 0.043026351063888302 0 -0.45382500812751919 0.041388536236683607 0 -0.45779810941940269 0.046440016124982893 0 -0.46386497872855592 0.043026351063888302 0 -0.45382500812751919 0.041388536236683607 0 -0.45779810941940269 0.046440016124982893 0 -0.4493149805711199 0.050236955001959037 0 -0.47044998537681332 0.035457621007771667 0 -0.47192491600867092 0.046047833242289803 0 -0.46386497872855592 0.043026351063888302 0 -0.47044998537681332 0.035457621007771667 0 -0.46105519404459577 0.036095376067799473 0 -0.46323390489901523 0.02807094966158263 0 -0.47044998537681332 0.035457621007771667 0 -0.46386497872855592 0.043026351063888302 0 -0.46105519404459577 0.036095376067799473 0 -0.46105519404459577 0.036095376067799473 0 -0.45060954631765848 0.03228747518132509 0 -0.46323390489901523 0.02807094966158263 0 -0.45382500812751919 0.041388536236683607 0 -0.46105519404459577 0.036095376067799473 0 -0.45060954631765848 0.03228747518132509 0 -0.45382500812751919 0.041388536236683607 0 -0.42969865237998478 0.051870315928093227 0 -0.45382500812751919 0.041388536236683607 0 -0.44143456413699961 0.02928944099729501 0 -0.42450471774671211 0.03660553355352212 0 -0.45382500812751919 0.041388536236683607 0 -0.42450471774671211 0.03660553355352212 0 -0.45382500812751919 0.041388536236683607 0 -0.45060954631765848 0.03228747518132509 0 -0.44143456413699961 0.02928944099729501 0 -0.46048323745717751 0.052600271503338521 0 -0.44476989547151541 0.058885635216696992 0 -0.4493149805711199 0.050236955001959037 0 -0.44476989547151541 0.058885635216696992 0 -0.4493149805711199 0.050236955001959037 0 -0.42969865237998478 0.051870315928093227 0 -0.45382500812751919 0.041388536236683607 0 -0.4493149805711199 0.050236955001959037 0 -0.42969865237998478 0.051870315928093227 0 -0.47237816165120539 0.017434721728247279 0 -0.44475632330240727 0.0059315272711417139 0 -0.46132774061281218 -0.0043098218320784939 0 -0.47237816165120539 0.017434721728247279 0 -0.44475632330240727 0.0059315272711417139 0 -0.47237816165120539 0.017434721728247279 0 -0.46323390489901523 0.02807094966158263 0 -0.44475632330240727 0.0059315272711417139 0 -0.47237816165120539 0.017434721728247279 0 -0.47044998537681332 0.035457621007771667 0 -0.46323390489901523 0.02807094966158263 0 -0.45060954631765848 0.03228747518132509 0 -0.44143456413699961 0.02928944099729501 0 -0.44475632330240727 0.0059315272711417139 0 -0.45060954631765848 0.03228747518132509 0 -0.46323390489901523 0.02807094966158263 0 -0.44475632330240727 0.0059315272711417139 0 -0.44143456413699961 0.02928944099729501 0 -0.44475632330240727 0.0059315272711417139 0 -0.42925735624122019 0.01614186536418041 0 -0.44143456413699961 0.02928944099729501 0 -0.44475632330240727 0.0059315272711417139 0 -0.41874418772717381 -0.0049013018109871388 0 -0.44475632330240727 0.0059315272711417139 0 -0.41874418772717381 -0.0049013018109871388 0 -0.44475632330240727 0.0059315272711417139 0 -0.42925735624122019 0.01614186536418041 0 -0.41874418772717381 -0.0049013018109871388 0 -0.412129452465399 0.02020748719041077 0 -0.42925735624122019 0.01614186536418041 0 -0.41874418772717381 -0.0049013018109871388 0 -0.412129452465399 0.02020748719041077 0 -0.39707022305495038 0.0062338432535876736 0 -0.412129452465399 0.02020748719041077 0 -0.42450471774671211 0.03660553355352212 0 -0.39518442736590481 0.031822530870361347 0 -0.412129452465399 0.02020748719041077 0 -0.42925735624122019 0.01614186536418041 0 -0.42450471774671211 0.03660553355352212 0 -0.44143456413699961 0.02928944099729501 0 -0.42925735624122019 0.01614186536418041 0 -0.42450471774671211 0.03660553355352212 0 -0.45382500812751919 0.041388536236683607 0 -0.42450471774671211 0.03660553355352212 0 -0.42969865237998478 0.051870315928093227 0 -0.44476989547151541 0.058885635216696992 0 -0.42969865237998478 0.051870315928093227 0 -0.4319057937630435 0.074701287655737358 0 -0.42969865237998478 0.051870315928093227 0 -0.40906773035750532 0.042565915517081103 0 -0.40557229663245048 0.062352095619503202 0 -0.42969865237998478 0.051870315928093227 0 -0.40557229663245048 0.062352095619503202 0 -0.41909611694821752 0.068016903387645739 0 -0.42969865237998478 0.051870315928093227 0 -0.40557229663245048 0.062352095619503202 0 -0.42450471774671211 0.03660553355352212 0 -0.39518442736590481 0.031822530870361347 0 -0.42450471774671211 0.03660553355352212 0 -0.42969865237998478 0.051870315928093227 0 -0.40906773035750532 0.042565915517081103 0 -0.42450471774671211 0.03660553355352212 0 -0.40906773035750532 0.042565915517081103 0 -0.39518442736590481 0.031822530870361347 0 -0.40906773035750532 0.042565915517081103 0 -0.39518442736590481 0.031822530870361347 0 -0.39763794513295819 0.046500264729683362 0 -0.39518442736590481 0.031822530870361347 0 -0.38361844393125782 0.051134317228807381 0 -0.40906773035750532 0.042565915517081103 0 -0.39763794513295819 0.046500264729683362 0 -0.39518442736590481 0.031822530870361347 0 -0.39763794513295819 0.046500264729683362 0 -0.40557229663245048 0.062352095619503202 0 -0.38361844393125782 0.051134317228807381 0 -0.40906773035750532 0.042565915517081103 0 -0.39763794513295819 0.046500264729683362 0 -0.40557229663245048 0.062352095619503202 0 -0.40557229663245048 0.062352095619503202 0 -0.38361844393125782 0.051134317228807381 0 -0.38144594088491629 0.072833875310913107 0 -0.38361844393125782 0.051134317228807381 0 -0.38144594088491629 0.072833875310913107 0 -0.36612493139301461 0.056228938736466158 0 -0.39518442736590481 0.031822530870361347 0 -0.38361844393125782 0.051134317228807381 0 -0.36941200444574762 0.027618289835306169 0 -0.39518442736590481 0.031822530870361347 0 -0.37874315999108138 0.019099704062208369 0 -0.36941200444574762 0.027618289835306169 0 -0.39518442736590481 0.031822530870361347 0 -0.36941200444574762 0.027618289835306169 0 -0.39518442736590481 0.031822530870361347 0 -0.37874315999108138 0.019099704062208369 0 -0.39707022305495038 0.0062338432535876736 0 -0.39518442736590481 0.031822530870361347 0 -0.37874315999108138 0.019099704062208369 0 -0.37751697238409859 -0.0046786268195284399 0 -0.37874315999108138 0.019099704062208369 0 -0.39707022305495038 0.0062338432535876736 0 -0.412129452465399 0.02020748719041077 0 -0.39518442736590481 0.031822530870361347 0 -0.39707022305495038 0.0062338432535876736 0 -0.40262539344940318 0.09858634834314059 0 -0.38875263479789579 0.11027437519700301 0 -0.38650965627173861 0.091586541038761071 0 -0.40262539344940318 0.09858634834314059 0 -0.38875263479789579 0.11027437519700301 0 -0.40943371918354682 0.11463038646952339 0 -0.38875263479789579 0.11027437519700301 0 -0.40943371918354682 0.11463038646952339 0 -0.39670075324955062 0.1296749732065425 0 -0.38875263479789579 0.11027437519700301 0 -0.37081606141340512 0.1259061723713315 0 -0.36953535301128682 0.10207745902678871 0 -0.38875263479789579 0.11027437519700301 0 -0.39670075324955062 0.1296749732065425 0 -0.37081606141340512 0.1259061723713315 0 -0.38875263479789579 0.11027437519700301 0 -0.38650965627173861 0.091586541038761071 0 -0.36953535301128682 0.10207745902678871 0 -0.38650965627173861 0.091586541038761071 0 -0.37081497959615639 0.085784093540737447 0 -0.36953535301128682 0.10207745902678871 0 -0.38650965627173861 0.091586541038761071 0 -0.38144594088491629 0.072833875310913107 0 -0.39484935352289552 0.079274601000346348 0 -0.38650965627173861 0.091586541038761071 0 -0.38144594088491629 0.072833875310913107 0 -0.37081497959615639 0.085784093540737447 0 -0.40557229663245048 0.062352095619503202 0 -0.39484935352289552 0.079274601000346348 0 -0.40920772501739111 0.083143914347249229 0 -0.40557229663245048 0.062352095619503202 0 -0.38144594088491629 0.072833875310913107 0 -0.40557229663245048 0.062352095619503202 0 -0.38144594088491629 0.072833875310913107 0 -0.39484935352289552 0.079274601000346348 0 -0.38650965627173861 0.091586541038761071 0 -0.40920772501739111 0.083143914347249229 0 -0.40262539344940318 0.09858634834314059 0 -0.38650965627173861 0.091586541038761071 0 -0.40920772501739111 0.083143914347249229 0 -0.38650965627173861 0.091586541038761071 0 -0.39484935352289552 0.079274601000346348 0 -0.40920772501739111 0.083143914347249229 0 -0.40262539344940318 0.09858634834314059 0 -0.40920772501739111 0.083143914347249229 0 -0.42591326590092771 0.097381330761326559 0 -0.40920772501739111 0.083143914347249229 0 -0.4319057937630435 0.074701287655737358 0 -0.40920772501739111 0.083143914347249229 0 -0.41909611694821752 0.068016903387645739 0 -0.4319057937630435 0.074701287655737358 0 -0.40557229663245048 0.062352095619503202 0 -0.40920772501739111 0.083143914347249229 0 -0.41909611694821752 0.068016903387645739 0 -0.42969865237998478 0.051870315928093227 0 -0.41909611694821752 0.068016903387645739 0 -0.4319057937630435 0.074701287655737358 0 -0.40920772501739111 0.083143914347249229 0 -0.4319057937630435 0.074701287655737358 0 -0.42591326590092771 0.097381330761326559 0 -0.4319057937630435 0.074701287655737358 0 -0.42591326590092771 0.097381330761326559 0 -0.44765981408778099 0.086548599508252999 0 -0.42591326590092771 0.097381330761326559 0 -0.43096944656059127 0.1190583415095985 0 -0.45278472267021108 0.10575821396999741 0 -0.40262539344940318 0.09858634834314059 0 -0.42591326590092771 0.097381330761326559 0 -0.40943371918354682 0.11463038646952339 0 -0.40943371918354682 0.11463038646952339 0 -0.43096944656059127 0.1190583415095985 0 -0.41516793013082048 0.13120001553519489 0 -0.42591326590092771 0.097381330761326559 0 -0.40943371918354682 0.11463038646952339 0 -0.43096944656059127 0.1190583415095985 0 -0.43096944656059127 0.1190583415095985 0 -0.45278472267021108 0.10575821396999741 0 -0.45111401367762399 0.12759727361538889 0 -0.42591326590092771 0.097381330761326559 0 -0.45278472267021108 0.10575821396999741 0 -0.44765981408778099 0.086548599508252999 0 -0.45278472267021108 0.10575821396999741 0 -0.47309142559602702 0.088643504189978239 0 -0.47663876867217508 0.1189472418555759 0 -0.45278472267021108 0.10575821396999741 0 -0.47663876867217508 0.1189472418555759 0 -0.45111401367762399 0.12759727361538889 0 -0.4319057937630435 0.074701287655737358 0 -0.454603862508696 0.06625866096422553 0 -0.44476989547151541 0.058885635216696992 0 -0.4319057937630435 0.074701287655737358 0 -0.454603862508696 0.06625866096422553 0 -0.4319057937630435 0.074701287655737358 0 -0.44765981408778099 0.086548599508252999 0 -0.454603862508696 0.06625866096422553 0 -0.45278472267021108 0.10575821396999741 0 -0.44765981408778099 0.086548599508252999 0 -0.47309142559602702 0.088643504189978239 0 -0.44765981408778099 0.086548599508252999 0 -0.454603862508696 0.06625866096422553 0 -0.47309142559602702 0.088643504189978239 0 -0.47730193125434839 0.057816034272713743 0 -0.454603862508696 0.06625866096422553 0 -0.47309142559602702 0.088643504189978239 0 -0.47730193125434839 0.057816034272713743 0 -0.47309142559602702 0.088643504189978239 0 -0.5 0.078869508456544279 0 -0.47309142559602702 0.088643504189978239 0 -0.5 0.078869508456544279 0 -0.5 0.1083656093318868 0 -0.47309142559602702 0.088643504189978239 0 -0.47663876867217508 0.1189472418555759 0 -0.5 0.1083656093318868 0 -0.47663876867217508 0.1189472418555759 0 -0.5 0.1083656093318868 0 -0.5 0.1378617102072294 0 -0.47663876867217508 0.1189472418555759 0 -0.5 0.1378617102072294 0 -0.48073873865987848 0.13995632074778239 0 -0.47663876867217508 0.1189472418555759 0 -0.48073873865987848 0.13995632074778239 0 -0.46754256441038938 0.1371591807778654 0 -0.48073873865987848 0.13995632074778239 0 -0.47243714192676128 0.1506877140284654 0 -0.46754256441038938 0.1371591807778654 0 -0.47243714192676128 0.1506877140284654 0 -0.48707521829006628 0.15512575686977581 0 -0.47849998588434861 0.16038827161373981 0 -0.48073873865987848 0.13995632074778239 0 -0.47243714192676128 0.1506877140284654 0 -0.48707521829006628 0.15512575686977581 0 -0.5 0.1378617102072294 0 -0.48707521829006628 0.15512575686977581 0 -0.50000000000000022 0.167357811082572 0 -0.5 0.1378617102072294 0 -0.48073873865987848 0.13995632074778239 0 -0.48707521829006628 0.15512575686977581 0 -0.48707521829006628 0.15512575686977581 0 -0.50000000000000022 0.167357811082572 0 -0.48635267615851208 0.1739783432212097 0 -0.50000000000000022 0.167357811082572 0 -0.48635267615851208 0.1739783432212097 0 -0.50000000000000022 0.167357811082572 0 -0.50000000000000067 0.18313041463039631 0 -0.48635267615851208 0.1739783432212097 0 -0.50000000000000067 0.18313041463039631 0 -0.48635267615851208 0.1739783432212097 0 -0.48442706516865203 0.19160106043101249 0 -0.50000000000000067 0.18313041463039631 0 -0.48635267615851208 0.1739783432212097 0 -0.48635267615851208 0.1739783432212097 0 -0.46939428104299052 0.18220512828075799 0 -0.48635267615851208 0.1739783432212097 0 -0.46939428104299052 0.18220512828075799 0 -0.48442706516865203 0.19160106043101249 0 -0.48635267615851208 0.1739783432212097 0 -0.46939428104299052 0.18220512828075799 0 -0.47112648791460809 0.1716031578204964 0 -0.48635267615851208 0.1739783432212097 0 -0.46813490716205552 0.16176127233550761 0 -0.48635267615851208 0.1739783432212097 0 -0.47112648791460809 0.1716031578204964 0 -0.46813490716205552 0.16176127233550761 0 -0.48635267615851208 0.1739783432212097 0 -0.47849998588434861 0.16038827161373981 0 -0.46813490716205552 0.16176127233550761 0 -0.48707521829006628 0.15512575686977581 0 -0.48635267615851208 0.1739783432212097 0 -0.47849998588434861 0.16038827161373981 0 -0.47243714192676128 0.1506877140284654 0 -0.47849998588434861 0.16038827161373981 0 -0.46813490716205552 0.16176127233550761 0 -0.46813490716205552 0.16176127233550761 0 -0.45316090912425089 0.16169150757525441 0 -0.44991713816559942 0.1495442014498049 0 -0.46813490716205552 0.16176127233550761 0 -0.4650099141935069 0.16589628759403269 0 -0.45316090912425089 0.16169150757525441 0 -0.47112648791460809 0.1716031578204964 0 -0.46813490716205552 0.16176127233550761 0 -0.4650099141935069 0.16589628759403269 0 -0.47112648791460809 0.1716031578204964 0 -0.4650099141935069 0.16589628759403269 0 -0.4644916422696439 0.17753412175889891 0 -0.4650099141935069 0.16589628759403269 0 -0.45316090912425089 0.16169150757525441 0 -0.45326610857471938 0.17356874316509921 0 -0.46939428104299052 0.18220512828075799 0 -0.45243588592747003 0.19043191334030829 0 -0.4650099141935069 0.16589628759403269 0 -0.45243588592747003 0.19043191334030829 0 -0.46939428104299052 0.18220512828075799 0 -0.4644916422696439 0.17753412175889891 0 -0.45243588592747003 0.19043191334030829 0 -0.4650099141935069 0.16589628759403269 0 -0.4644916422696439 0.17753412175889891 0 -0.45243588592747003 0.19043191334030829 0 -0.4650099141935069 0.16589628759403269 0 -0.45326610857471938 0.17356874316509921 0 -0.45243588592747003 0.19043191334030829 0 -0.46939428104299052 0.18220512828075799 0 -0.47112648791460809 0.1716031578204964 0 -0.4644916422696439 0.17753412175889891 0 -0.45326610857471938 0.17356874316509921 0 -0.44601741216896262 0.180268293177272 0 -0.45243588592747003 0.19043191334030829 0 -0.44601741216896262 0.180268293177272 0 -0.45243588592747003 0.19043191334030829 0 -0.43221479356207942 0.1856891773590402 0 -0.45326610857471938 0.17356874316509921 0 -0.44601741216896262 0.180268293177272 0 -0.44152443212480652 0.17092893546717861 0 -0.44601741216896262 0.180268293177272 0 -0.44152443212480652 0.17092893546717861 0 -0.43221479356207942 0.1856891773590402 0 -0.45316090912425089 0.16169150757525441 0 -0.44152443212480652 0.17092893546717861 0 -0.43554704049895648 0.15737181574372661 0 -0.45316090912425089 0.16169150757525441 0 -0.45326610857471938 0.17356874316509921 0 -0.44152443212480652 0.17092893546717861 0 -0.44991713816559942 0.1495442014498049 0 -0.43169936916914331 0.13732713056410231 0 -0.45316090912425089 0.16169150757525441 0 -0.44991713816559942 0.1495442014498049 0 -0.43554704049895648 0.15737181574372661 0 -0.44991713816559942 0.1495442014498049 0 -0.43169936916914331 0.13732713056410231 0 -0.43554704049895648 0.15737181574372661 0 -0.44991713816559942 0.1495442014498049 0 -0.45111401367762399 0.12759727361538889 0 -0.43169936916914331 0.13732713056410231 0 -0.43096944656059127 0.1190583415095985 0 -0.45111401367762399 0.12759727361538889 0 -0.43169936916914331 0.13732713056410231 0 -0.47663876867217508 0.1189472418555759 0 -0.45111401367762399 0.12759727361538889 0 -0.46754256441038938 0.1371591807778654 0 -0.44991713816559942 0.1495442014498049 0 -0.45111401367762399 0.12759727361538889 0 -0.46754256441038938 0.1371591807778654 0 -0.47243714192676128 0.1506877140284654 0 -0.44991713816559942 0.1495442014498049 0 -0.46754256441038938 0.1371591807778654 0 -0.46813490716205552 0.16176127233550761 0 -0.44991713816559942 0.1495442014498049 0 -0.47243714192676128 0.1506877140284654 0 -0.46813490716205552 0.16176127233550761 0 -0.44991713816559942 0.1495442014498049 0 -0.47179075694806238 0.23511225308975861 0 -0.5 0.2364245287712485 0 -0.48125169178165411 0.25532848532078722 0 -0.47179075694806238 0.23511225308975861 0 -0.48125169178165411 0.25532848532078722 0 -0.45859907893804591 0.25600533817739662 0 -0.5 0.2364245287712485 0 -0.4847908172465159 0.22050003192594769 0 -0.5 0.2097774717008225 0 -0.47179075694806238 0.23511225308975861 0 -0.5 0.2364245287712485 0 -0.4847908172465159 0.22050003192594769 0 -0.47179075694806238 0.23511225308975861 0 -0.4847908172465159 0.22050003192594769 0 -0.47052968384079219 0.21528377921860359 0 -0.47052968384079219 0.21528377921860359 0 -0.48175631787759271 0.20714901954879811 0 -0.46903402313200299 0.1985827544676044 0 -0.4847908172465159 0.22050003192594769 0 -0.47052968384079219 0.21528377921860359 0 -0.48175631787759271 0.20714901954879811 0 -0.4847908172465159 0.22050003192594769 0 -0.48175631787759271 0.20714901954879811 0 -0.5 0.2097774717008225 0 -0.50000000000000067 0.18313041463039631 0 -0.5 0.2097774717008225 0 -0.48442706516865203 0.19160106043101249 0 -0.48175631787759271 0.20714901954879811 0 -0.5 0.2097774717008225 0 -0.48442706516865203 0.19160106043101249 0 -0.46939428104299052 0.18220512828075799 0 -0.48442706516865203 0.19160106043101249 0 -0.46903402313200299 0.1985827544676044 0 -0.48175631787759271 0.20714901954879811 0 -0.48442706516865203 0.19160106043101249 0 -0.46903402313200299 0.1985827544676044 0 -0.46903402313200299 0.1985827544676044 0 -0.45243588592747003 0.19043191334030829 0 -0.45705365008990628 0.20833121419667749 0 -0.46939428104299052 0.18220512828075799 0 -0.46903402313200299 0.1985827544676044 0 -0.45243588592747003 0.19043191334030829 0 -0.45243588592747003 0.19043191334030829 0 -0.43293285850542113 0.1998931396838815 0 -0.43221479356207942 0.1856891773590402 0 -0.45243588592747003 0.19043191334030829 0 -0.43293285850542113 0.1998931396838815 0 -0.45243588592747003 0.19043191334030829 0 -0.43994082400886658 0.2148134525276737 0 -0.45243588592747003 0.19043191334030829 0 -0.43994082400886658 0.2148134525276737 0 -0.43293285850542113 0.1998931396838815 0 -0.43994082400886658 0.2148134525276737 0 -0.45705365008990628 0.20833121419667749 0 -0.45333374483372901 0.2235890147067687 0 -0.45243588592747003 0.19043191334030829 0 -0.43994082400886658 0.2148134525276737 0 -0.45705365008990628 0.20833121419667749 0 -0.47052968384079219 0.21528377921860359 0 -0.45705365008990628 0.20833121419667749 0 -0.45333374483372901 0.2235890147067687 0 -0.47052968384079219 0.21528377921860359 0 -0.46903402313200299 0.1985827544676044 0 -0.45705365008990628 0.20833121419667749 0 -0.47179075694806238 0.23511225308975861 0 -0.47052968384079219 0.21528377921860359 0 -0.45333374483372901 0.2235890147067687 0 -0.47179075694806238 0.23511225308975861 0 -0.45333374483372901 0.2235890147067687 0 -0.45330364779787902 0.23973163754936089 0 -0.43994082400886658 0.2148134525276737 0 -0.45333374483372901 0.2235890147067687 0 -0.42744576209026269 0.239194991715039 0 -0.45333374483372901 0.2235890147067687 0 -0.45330364779787902 0.23973163754936089 0 -0.42744576209026269 0.239194991715039 0 -0.45330364779787902 0.23973163754936089 0 -0.42744576209026269 0.239194991715039 0 -0.43795594801819793 0.26037200874820449 0 -0.47179075694806238 0.23511225308975861 0 -0.45330364779787902 0.23973163754936089 0 -0.45859907893804591 0.25600533817739662 0 -0.42744576209026269 0.239194991715039 0 -0.40341196571864268 0.23123077231919401 0 -0.40580033969952928 0.245693854538451 0 -0.42744576209026269 0.239194991715039 0 -0.40580033969952928 0.245693854538451 0 -0.41858888358464352 0.25689446841416652 0 -0.43994082400886658 0.2148134525276737 0 -0.42744576209026269 0.239194991715039 0 -0.42519613080927171 0.21263297836697689 0 -0.43994082400886658 0.2148134525276737 0 -0.42744576209026269 0.239194991715039 0 -0.42744576209026269 0.239194991715039 0 -0.41096729856519248 0.21707153422282841 0 -0.40341196571864268 0.23123077231919401 0 -0.42744576209026269 0.239194991715039 0 -0.41096729856519248 0.21707153422282841 0 -0.42519613080927171 0.21263297836697689 0 -0.41096729856519248 0.21707153422282841 0 -0.42519613080927171 0.21263297836697689 0 -0.41866235211138608 0.20093143132479341 0 -0.41096729856519248 0.21707153422282841 0 -0.41866235211138608 0.20093143132479341 0 -0.404570638244381 0.20541742835848609 0 -0.43994082400886658 0.2148134525276737 0 -0.42519613080927171 0.21263297836697689 0 -0.43293285850542113 0.1998931396838815 0 -0.42519613080927171 0.21263297836697689 0 -0.43293285850542113 0.1998931396838815 0 -0.41866235211138608 0.20093143132479341 0 -0.43293285850542113 0.1998931396838815 0 -0.41866235211138608 0.20093143132479341 0 -0.43221479356207942 0.1856891773590402 0 -0.40809692685683241 0.18776047432624501 0 -0.41866235211138608 0.20093143132479341 0 -0.404570638244381 0.20541742835848609 0 -0.40809692685683241 0.18776047432624501 0 -0.41866235211138608 0.20093143132479341 0 -0.43221479356207942 0.1856891773590402 0 -0.40809692685683241 0.18776047432624501 0 -0.38689023755248447 0.2036074239831186 0 -0.3859869861173626 0.17517796439170549 0 -0.40809692685683241 0.18776047432624501 0 -0.38689023755248447 0.2036074239831186 0 -0.404570638244381 0.20541742835848609 0 -0.38689023755248447 0.2036074239831186 0 -0.3859869861173626 0.17517796439170549 0 -0.38689023755248447 0.2036074239831186 0 -0.3859869861173626 0.17517796439170549 0 -0.37339055945136429 0.18988585495433949 0 -0.38689023755248447 0.2036074239831186 0 -0.37291718615353131 0.20262430666132669 0 -0.37339055945136429 0.18988585495433949 0 -0.38689023755248447 0.2036074239831186 0 -0.37975376604721039 0.21868530721158 0 -0.38779348898760652 0.23203688357453151 0 -0.38689023755248447 0.2036074239831186 0 -0.38779348898760652 0.23203688357453151 0 -0.38689023755248447 0.2036074239831186 0 -0.37475848398722827 0.212485533685182 0 -0.37291718615353131 0.20262430666132669 0 -0.38689023755248447 0.2036074239831186 0 -0.37975376604721039 0.21868530721158 0 -0.37475848398722827 0.212485533685182 0 -0.37975376604721039 0.21868530721158 0 -0.37342615511717248 0.22006016001996001 0 -0.37475848398722827 0.212485533685182 0 -0.38689023755248447 0.2036074239831186 0 -0.39823637613600932 0.2177162779354451 0 -0.404570638244381 0.20541742835848609 0 -0.38689023755248447 0.2036074239831186 0 -0.39823637613600932 0.2177162779354451 0 -0.38779348898760652 0.23203688357453151 0 -0.41096729856519248 0.21707153422282841 0 -0.39823637613600932 0.2177162779354451 0 -0.404570638244381 0.20541742835848609 0 -0.41096729856519248 0.21707153422282841 0 -0.39823637613600932 0.2177162779354451 0 -0.40341196571864268 0.23123077231919401 0 -0.39823637613600932 0.2177162779354451 0 -0.40341196571864268 0.23123077231919401 0 -0.38779348898760652 0.23203688357453151 0 -0.37984316286213587 0.22772784565507659 0 -0.38807452743879189 0.24088245080081269 0 -0.36518034685450429 0.22420954375319729 0 -0.38807452743879189 0.24088245080081269 0 -0.36518034685450429 0.22420954375319729 0 -0.37975376604721039 0.21868530721158 0 -0.37984316286213587 0.22772784565507659 0 -0.38779348898760652 0.23203688357453151 0 -0.37975376604721039 0.21868530721158 0 -0.37984316286213587 0.22772784565507659 0 -0.37342615511717248 0.22006016001996001 0 -0.37984316286213587 0.22772784565507659 0 -0.38779348898760652 0.23203688357453151 0 -0.38807452743879189 0.24088245080081269 0 -0.38779348898760652 0.23203688357453151 0 -0.38807452743879189 0.24088245080081269 0 -0.38807452743879189 0.24088245080081269 0 -0.37693854363861617 0.24233794345957099 0 -0.36518034685450429 0.22420954375319729 0 -0.38807452743879189 0.24088245080081269 0 -0.37693854363861617 0.24233794345957099 0 -0.38869674042272878 0.26046634316594441 0 -0.37693854363861617 0.24233794345957099 0 -0.37116761061292508 0.24866231309539191 0 -0.37902113430158751 0.25386458267276829 0 -0.38807452743879189 0.24088245080081269 0 -0.39625193030275058 0.24228903754291109 0 -0.38869674042272878 0.26046634316594441 0 -0.38779348898760652 0.23203688357453151 0 -0.38807452743879189 0.24088245080081269 0 -0.39625193030275058 0.24228903754291109 0 -0.40341196571864268 0.23123077231919401 0 -0.38779348898760652 0.23203688357453151 0 -0.39625193030275058 0.24228903754291109 0 -0.40341196571864268 0.23123077231919401 0 -0.39625193030275058 0.24228903754291109 0 -0.40580033969952928 0.245693854538451 0 -0.39625193030275058 0.24228903754291109 0 -0.40580033969952928 0.245693854538451 0 -0.3982040435134121 0.25151182300141012 0 -0.41124678065811993 0.14883468672385231 0 -0.41516793013082048 0.13120001553519489 0 -0.43169936916914331 0.13732713056410231 0 -0.40943371918354682 0.11463038646952339 0 -0.41516793013082048 0.13120001553519489 0 -0.39670075324955062 0.1296749732065425 0 -0.41124678065811993 0.14883468672385231 0 -0.41516793013082048 0.13120001553519489 0 -0.39670075324955062 0.1296749732065425 0 -0.43096944656059127 0.1190583415095985 0 -0.41516793013082048 0.13120001553519489 0 -0.43169936916914331 0.13732713056410231 0 -0.41124678065811993 0.14883468672385231 0 -0.43169936916914331 0.13732713056410231 0 -0.43554704049895648 0.15737181574372661 0 -0.44152443212480652 0.17092893546717861 0 -0.42275458005485927 0.1701983402442577 0 -0.43554704049895648 0.15737181574372661 0 -0.41124678065811993 0.14883468672385231 0 -0.42275458005485927 0.1701983402442577 0 -0.43554704049895648 0.15737181574372661 0 -0.44152443212480652 0.17092893546717861 0 -0.42275458005485927 0.1701983402442577 0 -0.43221479356207942 0.1856891773590402 0 -0.40809692685683241 0.18776047432624501 0 -0.42275458005485927 0.1701983402442577 0 -0.43221479356207942 0.1856891773590402 0 -0.40809692685683241 0.18776047432624501 0 -0.42275458005485927 0.1701983402442577 0 -0.40263380167388302 0.16574399409727061 0 -0.41124678065811993 0.14883468672385231 0 -0.42275458005485927 0.1701983402442577 0 -0.40263380167388302 0.16574399409727061 0 -0.40263380167388302 0.16574399409727061 0 -0.3859869861173626 0.17517796439170549 0 -0.38508373468224061 0.14674850480029239 0 -0.40809692685683241 0.18776047432624501 0 -0.40263380167388302 0.16574399409727061 0 -0.3859869861173626 0.17517796439170549 0 -0.3859869861173626 0.17517796439170549 0 -0.3659412724014659 0.17503252743851891 0 -0.37339055945136429 0.18988585495433949 0 -0.3859869861173626 0.17517796439170549 0 -0.38508373468224061 0.14674850480029239 0 -0.3659412724014659 0.17503252743851891 0 -0.3859869861173626 0.17517796439170549 0 -0.38508373468224061 0.14674850480029239 0 -0.41124678065811993 0.14883468672385231 0 -0.38508373468224061 0.14674850480029239 0 -0.39670075324955062 0.1296749732065425 0 -0.41124678065811993 0.14883468672385231 0 -0.40263380167388302 0.16574399409727061 0 -0.38508373468224061 0.14674850480029239 0 -0.38508373468224061 0.14674850480029239 0 -0.39670075324955062 0.1296749732065425 0 -0.37081606141340512 0.1259061723713315 0 -0.37081606141340512 0.1259061723713315 0 -0.34786754310883589 0.13682338472300501 0 -0.36416238473750262 0.14957619678733261 0 -0.34786754310883589 0.13682338472300501 0 -0.35110331208156548 0.16337039460351499 0 -0.34786754310883589 0.13682338472300501 0 -0.36416238473750262 0.14957619678733261 0 -0.35110331208156548 0.16337039460351499 0 -0.38508373468224061 0.14674850480029239 0 -0.37081606141340512 0.1259061723713315 0 -0.36416238473750262 0.14957619678733261 0 -0.36416238473750262 0.14957619678733261 0 -0.3659412724014659 0.17503252743851891 0 -0.35110331208156548 0.16337039460351499 0 -0.38508373468224061 0.14674850480029239 0 -0.36416238473750262 0.14957619678733261 0 -0.3659412724014659 0.17503252743851891 0 -0.3659412724014659 0.17503252743851891 0 -0.37339055945136429 0.18988585495433949 0 -0.36412014868313658 0.18796608891938199 0 -0.3659412724014659 0.17503252743851891 0 -0.36412014868313658 0.18796608891938199 0 -0.35433908105429501 0.1899174044840253 0 -0.3659412724014659 0.17503252743851891 0 -0.35110331208156548 0.16337039460351499 0 -0.35433908105429501 0.1899174044840253 0 -0.35110331208156548 0.16337039460351499 0 -0.35433908105429501 0.1899174044840253 0 -0.35110331208156548 0.16337039460351499 0 -0.33802926677861328 0.18234890465073589 0 -0.35433908105429501 0.1899174044840253 0 -0.35110331208156548 0.16337039460351499 0 -0.32597863803692262 0.16241738725818311 0 -0.33205579243436317 0.14573348173303721 0 -0.35110331208156548 0.16337039460351499 0 -0.33802926677861328 0.18234890465073589 0 -0.32597863803692262 0.16241738725818311 0 -0.33802926677861328 0.18234890465073589 0 -0.32597863803692262 0.16241738725818311 0 -0.3088746567510211 0.18200979181076901 0 -0.32597863803692262 0.16241738725818311 0 -0.30660039968240149 0.16052241044816809 0 -0.3088746567510211 0.18200979181076901 0 -0.32597863803692262 0.16241738725818311 0 -0.3133129787191975 0.1433329203749038 0 -0.30660039968240149 0.16052241044816809 0 -0.32597863803692262 0.16241738725818311 0 -0.3133129787191975 0.1433329203749038 0 -0.33205579243436317 0.14573348173303721 0 -0.3133129787191975 0.1433329203749038 0 -0.33205579243436317 0.14573348173303721 0 -0.3220164902252946 0.1227233217055792 0 -0.34786754310883589 0.13682338472300501 0 -0.33205579243436317 0.14573348173303721 0 -0.3220164902252946 0.1227233217055792 0 -0.34786754310883589 0.13682338472300501 0 -0.35110331208156548 0.16337039460351499 0 -0.33205579243436317 0.14573348173303721 0 -0.34840026379089639 0.24801817990142791 0 -0.34633891660037092 0.23243422307984349 0 -0.3626731121651624 0.25460564236751648 0 -0.35704131951552648 0.23878722359083579 0 -0.34633891660037092 0.23243422307984349 0 -0.3626731121651624 0.25460564236751648 0 -0.34633891660037092 0.23243422307984349 0 -0.3626731121651624 0.25460564236751648 0 -0.34840026379089639 0.24801817990142791 0 -0.34633891660037092 0.23243422307984349 0 -0.3394505107503949 0.24137224099028201 0 -0.35704131951552648 0.23878722359083579 0 -0.36072636167906669 0.23725887278176119 0 -0.35851220350779789 0.22997923336295401 0 -0.35704131951552648 0.23878722359083579 0 -0.36392816992970473 0.24591775619777331 0 -0.3626731121651624 0.25460564236751648 0 -0.36392816992970473 0.24591775619777331 0 -0.37116761061292508 0.24866231309539191 0 -0.36778864358515939 0.2523947545466329 0 -0.37693854363861617 0.24233794345957099 0 -0.37116761061292508 0.24866231309539191 0 -0.36732215386020861 0.24123315546268859 0 -0.36392816992970473 0.24591775619777331 0 -0.37116761061292508 0.24866231309539191 0 -0.36732215386020861 0.24123315546268859 0 -0.37693854363861617 0.24233794345957099 0 -0.36732215386020861 0.24123315546268859 0 -0.36573592190803889 0.23500374976403421 0 -0.36732215386020861 0.24123315546268859 0 -0.36573592190803889 0.23500374976403421 0 -0.36072636167906669 0.23725887278176119 0 -0.36392816992970473 0.24591775619777331 0 -0.36732215386020861 0.24123315546268859 0 -0.36072636167906669 0.23725887278176119 0 -0.35704131951552648 0.23878722359083579 0 -0.36392816992970473 0.24591775619777331 0 -0.36072636167906669 0.23725887278176119 0 -0.36573592190803889 0.23500374976403421 0 -0.36072636167906669 0.23725887278176119 0 -0.35851220350779789 0.22997923336295401 0 -0.37693854363861617 0.24233794345957099 0 -0.36573592190803889 0.23500374976403421 0 -0.36518034685450429 0.22420954375319729 0 -0.36573592190803889 0.23500374976403421 0 -0.36518034685450429 0.22420954375319729 0 -0.35851220350779789 0.22997923336295401 0 -0.37693854363861617 0.24233794345957099 0 -0.36518034685450429 0.22420954375319729 0 -0.37984316286213587 0.22772784565507659 0 -0.37342615511717248 0.22006016001996001 0 -0.36518034685450429 0.22420954375319729 0 -0.37342615511717248 0.22006016001996001 0 -0.36518034685450429 0.22420954375319729 0 -0.36759501583478288 0.21719256979476501 0 -0.36518034685450429 0.22420954375319729 0 -0.35967247626055299 0.2157176906662493 0 -0.36759501583478288 0.21719256979476501 0 -0.36518034685450429 0.22420954375319729 0 -0.35967247626055299 0.2157176906662493 0 -0.36518034685450429 0.22420954375319729 0 -0.35684372649156809 0.21796144856587951 0 -0.35967247626055299 0.2157176906662493 0 -0.36518034685450429 0.22420954375319729 0 -0.35851220350779789 0.22997923336295401 0 -0.35684372649156809 0.21796144856587951 0 -0.36518034685450429 0.22420954375319729 0 -0.35684372649156809 0.21796144856587951 0 -0.35684372649156809 0.21796144856587951 0 -0.34034743051486682 0.23104627311208509 0 -0.3449115356161761 0.22394747282045571 0 -0.35684372649156809 0.21796144856587951 0 -0.34034743051486682 0.23104627311208509 0 -0.34633891660037092 0.23243422307984349 0 -0.35684372649156809 0.21796144856587951 0 -0.34034743051486682 0.23104627311208509 0 -0.3537813660324014 0.23033860141234011 0 -0.35851220350779789 0.22997923336295401 0 -0.35684372649156809 0.21796144856587951 0 -0.35704131951552648 0.23878722359083579 0 -0.3537813660324014 0.23033860141234011 0 -0.35851220350779789 0.22997923336295401 0 -0.35704131951552648 0.23878722359083579 0 -0.3537813660324014 0.23033860141234011 0 -0.34633891660037092 0.23243422307984349 0 -0.3537813660324014 0.23033860141234011 0 -0.34633891660037092 0.23243422307984349 0 -0.35684372649156809 0.21796144856587951 0 -0.35967247626055299 0.2157176906662493 0 -0.35943867252992068 0.20531878739707801 0 -0.34885087151958299 0.1990332976584927 0 -0.35684372649156809 0.21796144856587951 0 -0.35967247626055299 0.2157176906662493 0 -0.34885087151958299 0.1990332976584927 0 -0.35967247626055299 0.2157176906662493 0 -0.34885087151958299 0.1990332976584927 0 -0.3449115356161761 0.22394747282045571 0 -0.35684372649156809 0.21796144856587951 0 -0.33005955589966068 0.20951773664602741 0 -0.35684372649156809 0.21796144856587951 0 -0.33285919162129468 0.19998562018832439 0 -0.35684372649156809 0.21796144856587951 0 -0.34885087151958299 0.1990332976584927 0 -0.33285919162129468 0.19998562018832439 0 -0.35684372649156809 0.21796144856587951 0 -0.35967247626055299 0.2157176906662493 0 -0.35967247626055299 0.2157176906662493 0 -0.36759501583478288 0.21719256979476501 0 -0.36673696795115801 0.21011415188334939 0 -0.35967247626055299 0.2157176906662493 0 -0.36673696795115801 0.21011415188334939 0 -0.36759501583478288 0.21719256979476501 0 -0.37475848398722827 0.212485533685182 0 -0.36673696795115801 0.21011415188334939 0 -0.37342615511717248 0.22006016001996001 0 -0.36759501583478288 0.21719256979476501 0 -0.37475848398722827 0.212485533685182 0 -0.36673696795115801 0.21011415188334939 0 -0.36280968182542128 0.1970285688006444 0 -0.37291718615353131 0.20262430666132669 0 -0.37475848398722827 0.212485533685182 0 -0.36673696795115801 0.21011415188334939 0 -0.37291718615353131 0.20262430666132669 0 -0.35943867252992068 0.20531878739707801 0 -0.36673696795115801 0.21011415188334939 0 -0.36280968182542128 0.1970285688006444 0 -0.35967247626055299 0.2157176906662493 0 -0.35943867252992068 0.20531878739707801 0 -0.36673696795115801 0.21011415188334939 0 -0.36280968182542128 0.1970285688006444 0 -0.37291718615353131 0.20262430666132669 0 -0.37339055945136429 0.18988585495433949 0 -0.36280968182542128 0.1970285688006444 0 -0.36412014868313658 0.18796608891938199 0 -0.35433908105429501 0.1899174044840253 0 -0.36280968182542128 0.1970285688006444 0 -0.37339055945136429 0.18988585495433949 0 -0.36412014868313658 0.18796608891938199 0 -0.33802926677861328 0.18234890465073589 0 -0.35433908105429501 0.1899174044840253 0 -0.34885087151958299 0.1990332976584927 0 -0.36280968182542128 0.1970285688006444 0 -0.35433908105429501 0.1899174044840253 0 -0.34885087151958299 0.1990332976584927 0 -0.35943867252992068 0.20531878739707801 0 -0.36280968182542128 0.1970285688006444 0 -0.34885087151958299 0.1990332976584927 0 -0.33802926677861328 0.18234890465073589 0 -0.34885087151958299 0.1990332976584927 0 -0.33802926677861328 0.18234890465073589 0 -0.34885087151958299 0.1990332976584927 0 -0.33285919162129468 0.19998562018832439 0 -0.33285919162129468 0.19998562018832439 0 -0.31551999648774209 0.19318250507231821 0 -0.3088746567510211 0.18200979181076901 0 -0.33285919162129468 0.19998562018832439 0 -0.31551999648774209 0.19318250507231821 0 -0.31520757618314521 0.19508800047159919 0 -0.33285919162129468 0.19998562018832439 0 -0.3088746567510211 0.18200979181076901 0 -0.33285919162129468 0.19998562018832439 0 -0.31520757618314521 0.19508800047159919 0 -0.33005955589966068 0.20951773664602741 0 -0.33802926677861328 0.18234890465073589 0 -0.33285919162129468 0.19998562018832439 0 -0.3088746567510211 0.18200979181076901 0 -0.31551999648774209 0.19318250507231821 0 -0.31520757618314521 0.19508800047159919 0 -0.3088746567510211 0.18200979181076901 0 -0.31551999648774209 0.19318250507231821 0 -0.31520757618314521 0.19508800047159919 0 -0.31520757618314521 0.19508800047159919 0 -0.33005955589966068 0.20951773664602741 0 -0.31520757618314521 0.19508800047159919 0 -0.31067200470975243 0.22275108910089031 0 -0.31520757618314521 0.19508800047159919 0 -0.32235737493735822 0.21689258593720259 0 -0.33005955589966068 0.20951773664602741 0 -0.31520757618314521 0.19508800047159919 0 -0.32235737493735822 0.21689258593720259 0 -0.31067200470975243 0.22275108910089031 0 -0.32235737493735822 0.21689258593720259 0 -0.33005955589966068 0.20951773664602741 0 -0.33301114947964078 0.22300897977691131 0 -0.35684372649156809 0.21796144856587951 0 -0.33285919162129468 0.19998562018832439 0 -0.33005955589966068 0.20951773664602741 0 -0.3449115356161761 0.22394747282045571 0 -0.33005955589966068 0.20951773664602741 0 -0.3449115356161761 0.22394747282045571 0 -0.33005955589966068 0.20951773664602741 0 -0.33301114947964078 0.22300897977691131 0 -0.3449115356161761 0.22394747282045571 0 -0.34034743051486682 0.23104627311208509 0 -0.33301114947964078 0.22300897977691131 0 -0.34034743051486682 0.23104627311208509 0 -0.33301114947964078 0.22300897977691131 0 -0.32653857753919419 0.22915456965213449 0 -0.32235737493735822 0.21689258593720259 0 -0.32653857753919419 0.22915456965213449 0 -0.31067200470975243 0.22275108910089031 0 -0.32653857753919419 0.22915456965213449 0 -0.32385113453816577 0.24413109765829119 0 -0.31067200470975243 0.22275108910089031 0 -0.32235737493735822 0.21689258593720259 0 -0.33301114947964078 0.22300897977691131 0 -0.32653857753919419 0.22915456965213449 0 -0.32385113453816577 0.24413109765829119 0 -0.31067200470975243 0.22275108910089031 0 -0.30613643323636058 0.25041417773018149 0 -0.34034743051486682 0.23104627311208509 0 -0.32385113453816577 0.24413109765829119 0 -0.3394505107503949 0.24137224099028201 0 -0.34034743051486682 0.23104627311208509 0 -0.32653857753919419 0.22915456965213449 0 -0.32385113453816577 0.24413109765829119 0 -0.32385113453816577 0.24413109765829119 0 -0.3394505107503949 0.24137224099028201 0 -0.33813015026118409 0.25169783690702541 0 -0.34034743051486682 0.23104627311208509 0 -0.32385113453816577 0.24413109765829119 0 -0.34633891660037092 0.23243422307984349 0 -0.34034743051486682 0.23104627311208509 0 -0.3394505107503949 0.24137224099028201 0 -0.34840026379089639 0.24801817990142791 0 -0.3394505107503949 0.24137224099028201 0 -0.33813015026118409 0.25169783690702541 0 -0.2936501350895156 0.24405084356209761 0 -0.27760883961953331 0.24471233144187449 0 -0.28558837650731322 0.25659050624710322 0 -0.2936501350895156 0.24405084356209761 0 -0.28948567621590893 0.22982174900322019 0 -0.27760883961953331 0.24471233144187449 0 -0.2936501350895156 0.24405084356209761 0 -0.30278073114627357 0.23168097977174409 0 -0.28948567621590893 0.22982174900322019 0 -0.31067200470975243 0.22275108910089031 0 -0.30613643323636058 0.25041417773018149 0 -0.2936501350895156 0.24405084356209761 0 -0.30613643323636058 0.25041417773018149 0 -0.30002043710908338 0.2539961674922378 0 -0.31067200470975243 0.22275108910089031 0 -0.30278073114627357 0.23168097977174409 0 -0.30613643323636058 0.25041417773018149 0 -0.30278073114627357 0.23168097977174409 0 -0.30613643323636058 0.25041417773018149 0 -0.2936501350895156 0.24405084356209761 0 -0.30278073114627357 0.23168097977174409 0 -0.30613643323636058 0.25041417773018149 0 -0.31067200470975243 0.22275108910089031 0 -0.30278073114627357 0.23168097977174409 0 -0.2994250290561859 0.2129477818133067 0 -0.30278073114627357 0.23168097977174409 0 -0.2994250290561859 0.2129477818133067 0 -0.30278073114627357 0.23168097977174409 0 -0.28948567621590893 0.22982174900322019 0 -0.2994250290561859 0.2129477818133067 0 -0.28948567621590893 0.22982174900322019 0 -0.28747723021267352 0.2172744088958945 0 -0.2994250290561859 0.2129477818133067 0 -0.28948567621590893 0.22982174900322019 0 -0.28747723021267352 0.2172744088958945 0 -0.27561724026080991 0.21855370812130329 0 -0.28526648769991042 0.20345943581432799 0 -0.2994250290561859 0.2129477818133067 0 -0.2989632173274549 0.19529048458387091 0 -0.28747723021267352 0.2172744088958945 0 -0.28526648769991042 0.20345943581432799 0 -0.27561724026080991 0.21855370812130329 0 -0.28747723021267352 0.2172744088958945 0 -0.28526648769991042 0.20345943581432799 0 -0.2994250290561859 0.2129477818133067 0 -0.31520757618314521 0.19508800047159919 0 -0.31067200470975243 0.22275108910089031 0 -0.2994250290561859 0.2129477818133067 0 -0.31520757618314521 0.19508800047159919 0 -0.2989632173274549 0.19529048458387091 0 -0.30033627563880461 0.18063949276276831 0 -0.31520757618314521 0.19508800047159919 0 -0.2994250290561859 0.2129477818133067 0 -0.2989632173274549 0.19529048458387091 0 -0.31520757618314521 0.19508800047159919 0 -0.30033627563880461 0.18063949276276831 0 -0.28526648769991042 0.20345943581432799 0 -0.2989632173274549 0.19529048458387091 0 -0.29053230518417578 0.1852051269289153 0 -0.28526648769991042 0.20345943581432799 0 -0.27782091886673288 0.19150681906125541 0 -0.29053230518417578 0.1852051269289153 0 -0.28526648769991042 0.20345943581432799 0 -0.27782091886673288 0.19150681906125541 0 -0.26415439947783331 0.20401669932219829 0 -0.27782091886673288 0.19150681906125541 0 -0.26515770480637257 0.18887290286449479 0 -0.26415439947783331 0.20401669932219829 0 -0.26515770480637257 0.18887290286449479 0 -0.25009805300267218 0.19079316971494659 0 -0.26415439947783331 0.20401669932219829 0 -0.25009805300267218 0.19079316971494659 0 -0.26415439947783331 0.20401669932219829 0 -0.24414746955438291 0.212023491822808 0 -0.26415439947783331 0.20401669932219829 0 -0.26206855551726288 0.23187932405483971 0 -0.24414746955438291 0.212023491822808 0 -0.26415439947783331 0.20401669932219829 0 -0.26206855551726288 0.23187932405483971 0 -0.28526648769991042 0.20345943581432799 0 -0.26415439947783331 0.20401669932219829 0 -0.27561724026080991 0.21855370812130329 0 -0.26415439947783331 0.20401669932219829 0 -0.27561724026080991 0.21855370812130329 0 -0.26206855551726288 0.23187932405483971 0 -0.28948567621590893 0.22982174900322019 0 -0.26206855551726288 0.23187932405483971 0 -0.28948567621590893 0.22982174900322019 0 -0.27561724026080991 0.21855370812130329 0 -0.26206855551726288 0.23187932405483971 0 -0.26206855551726288 0.23187932405483971 0 -0.23831154991391679 0.23366221812923521 0 -0.26206855551726288 0.23187932405483971 0 -0.26017853627539478 0.25712612960181042 0 -0.24708083820574889 0.24741108561719261 0 -0.26206855551726288 0.23187932405483971 0 -0.26017853627539478 0.25712612960181042 0 -0.26206855551726288 0.23187932405483971 0 -0.27760883961953331 0.24471233144187449 0 -0.26017853627539478 0.25712612960181042 0 -0.28948567621590893 0.22982174900322019 0 -0.26206855551726288 0.23187932405483971 0 -0.27760883961953331 0.24471233144187449 0 -0.28489012188074758 0.16403396343321369 0 -0.27835769921218739 0.13952235491190151 0 -0.29601119221946698 0.1476085652424283 0 -0.28489012188074758 0.16403396343321369 0 -0.27835769921218739 0.13952235491190151 0 -0.29601119221946698 0.1476085652424283 0 -0.29675300577242752 0.12786930279719069 0 -0.27835769921218739 0.13952235491190151 0 -0.29675300577242752 0.12786930279719069 0 -0.27835769921218739 0.13952235491190151 0 -0.27182527654362731 0.1150107463905895 0 -0.3133129787191975 0.1433329203749038 0 -0.29675300577242752 0.12786930279719069 0 -0.3220164902252946 0.1227233217055792 0 -0.3133129787191975 0.1433329203749038 0 -0.29601119221946698 0.1476085652424283 0 -0.29675300577242752 0.12786930279719069 0 -0.3133129787191975 0.1433329203749038 0 -0.29601119221946698 0.1476085652424283 0 -0.30660039968240149 0.16052241044816809 0 -0.30660039968240149 0.16052241044816809 0 -0.3088746567510211 0.18200979181076901 0 -0.28489012188074758 0.16403396343321369 0 -0.3088746567510211 0.18200979181076901 0 -0.28489012188074758 0.16403396343321369 0 -0.3088746567510211 0.18200979181076901 0 -0.30033627563880461 0.18063949276276831 0 -0.28489012188074758 0.16403396343321369 0 -0.31520757618314521 0.19508800047159919 0 -0.3088746567510211 0.18200979181076901 0 -0.30033627563880461 0.18063949276276831 0 -0.29053230518417578 0.1852051269289153 0 -0.28546497509446311 0.16619098505393809 0 -0.30033627563880461 0.18063949276276831 0 -0.29053230518417578 0.1852051269289153 0 -0.28546497509446311 0.16619098505393809 0 -0.29053230518417578 0.1852051269289153 0 -0.28546497509446311 0.16619098505393809 0 -0.27560832951630632 0.17900011370477109 0 -0.2989632173274549 0.19529048458387091 0 -0.30033627563880461 0.18063949276276831 0 -0.29053230518417578 0.1852051269289153 0 -0.30033627563880461 0.18063949276276831 0 -0.28546497509446311 0.16619098505393809 0 -0.27782091886673288 0.19150681906125541 0 -0.29053230518417578 0.1852051269289153 0 -0.27560832951630632 0.17900011370477109 0 -0.29601119221946698 0.1476085652424283 0 -0.30660039968240149 0.16052241044816809 0 -0.28489012188074758 0.16403396343321369 0 -0.30033627563880461 0.18063949276276831 0 -0.28546497509446311 0.16619098505393809 0 -0.28489012188074758 0.16403396343321369 0 -0.28546497509446311 0.16619098505393809 0 -0.28489012188074758 0.16403396343321369 0 -0.28546497509446311 0.16619098505393809 0 -0.26924495786007813 0.15043210483027261 0 -0.28546497509446311 0.16619098505393809 0 -0.26903803039038082 0.1662953399960404 0 -0.27560832951630632 0.17900011370477109 0 -0.28546497509446311 0.16619098505393809 0 -0.28489012188074758 0.16403396343321369 0 -0.26924495786007813 0.15043210483027261 0 -0.28546497509446311 0.16619098505393809 0 -0.26903803039038082 0.1662953399960404 0 -0.26924495786007813 0.15043210483027261 0 -0.26515770480637257 0.18887290286449479 0 -0.27560832951630632 0.17900011370477109 0 -0.25963213510244643 0.17655298254818819 0 -0.26903803039038082 0.1662953399960404 0 -0.27560832951630632 0.17900011370477109 0 -0.25963213510244643 0.17655298254818819 0 -0.27782091886673288 0.19150681906125541 0 -0.26515770480637257 0.18887290286449479 0 -0.27560832951630632 0.17900011370477109 0 -0.25009805300267218 0.19079316971494659 0 -0.25963213510244643 0.17655298254818819 0 -0.24108776620825001 0.17436978599253969 0 -0.26515770480637257 0.18887290286449479 0 -0.25009805300267218 0.19079316971494659 0 -0.25963213510244643 0.17655298254818819 0 -0.25963213510244643 0.17655298254818819 0 -0.25498243227620382 0.15985217418311479 0 -0.24108776620825001 0.17436978599253969 0 -0.26903803039038082 0.1662953399960404 0 -0.25963213510244643 0.17655298254818819 0 -0.25498243227620382 0.15985217418311479 0 -0.26903803039038082 0.1662953399960404 0 -0.25498243227620382 0.15985217418311479 0 -0.26924495786007813 0.15043210483027261 0 -0.25498243227620382 0.15985217418311479 0 -0.26924495786007813 0.15043210483027261 0 -0.25302494062569231 0.13467322460660769 0 -0.26924495786007813 0.15043210483027261 0 -0.25302494062569231 0.13467322460660769 0 -0.28489012188074758 0.16403396343321369 0 -0.26924495786007813 0.15043210483027261 0 -0.27835769921218739 0.13952235491190151 0 -0.26924495786007813 0.15043210483027261 0 -0.27835769921218739 0.13952235491190151 0 -0.26567437232113222 0.13164229311625261 0 -0.27835769921218739 0.13952235491190151 0 -0.27182527654362731 0.1150107463905895 0 -0.27835769921218739 0.13952235491190151 0 -0.26567437232113222 0.13164229311625261 0 -0.27182527654362731 0.1150107463905895 0 -0.26567437232113222 0.13164229311625261 0 -0.25302494062569231 0.13467322460660769 0 -0.2552307640024038 0.1195148507435051 0 -0.26924495786007813 0.15043210483027261 0 -0.26567437232113222 0.13164229311625261 0 -0.25302494062569231 0.13467322460660769 0 -0.25302494062569231 0.13467322460660769 0 -0.2552307640024038 0.1195148507435051 0 -0.24237127806191081 0.12429578813242689 0 -0.26567437232113222 0.13164229311625261 0 -0.2552307640024038 0.1195148507435051 0 -0.27182527654362731 0.1150107463905895 0 -0.2552307640024038 0.1195148507435051 0 -0.25574915649652019 0.1021364681163857 0 -0.27182527654362731 0.1150107463905895 0 -0.2552307640024038 0.1195148507435051 0 -0.25574915649652019 0.1021364681163857 0 -0.2427395599655402 0.1093305840987684 0 -0.25574915649652019 0.1021364681163857 0 -0.27182527654362731 0.1150107463905895 0 -0.26529285387506713 0.090499137869277296 0 -0.25574915649652019 0.1021364681163857 0 -0.25329249931290521 0.08817995973143529 0 -0.2442305775981316 0.092899430819925341 0 -0.27182527654362731 0.1150107463905895 0 -0.26529285387506713 0.090499137869277296 0 -0.2791077625611994 0.099457282113663004 0 -0.27182527654362731 0.1150107463905895 0 -0.26529285387506713 0.090499137869277296 0 -0.29675300577242752 0.12786930279719069 0 -0.27182527654362731 0.1150107463905895 0 -0.29606605862798541 0.10406598649086191 0 -0.2791077625611994 0.099457282113663004 0 -0.27182527654362731 0.1150107463905895 0 -0.29606605862798541 0.10406598649086191 0 -0.2791077625611994 0.099457282113663004 0 -0.29606605862798541 0.10406598649086191 0 -0.28145337526463932 0.083202631269458718 0 -0.29606605862798541 0.10406598649086191 0 -0.29790643979737391 0.086888851632295885 0 -0.32353608828045788 0.093926632472420515 0 -0.29675300577242752 0.12786930279719069 0 -0.29606605862798541 0.10406598649086191 0 -0.3220164902252946 0.1227233217055792 0 -0.30611687062500359 0.073705037739068516 0 -0.29066852732342291 0.06890665277010255 0 -0.29708967214894427 0.056190047038989437 0 -0.30611687062500359 0.073705037739068516 0 -0.29790643979737391 0.086888851632295885 0 -0.29066852732342291 0.06890665277010255 0 -0.30611687062500359 0.073705037739068516 0 -0.29790643979737391 0.086888851632295885 0 -0.32353608828045788 0.093926632472420515 0 -0.29790643979737391 0.086888851632295885 0 -0.28145337526463932 0.083202631269458718 0 -0.29066852732342291 0.06890665277010255 0 -0.29606605862798541 0.10406598649086191 0 -0.28145337526463932 0.083202631269458718 0 -0.29606605862798541 0.10406598649086191 0 -0.29790643979737391 0.086888851632295885 0 -0.28145337526463932 0.083202631269458718 0 -0.28145337526463932 0.083202631269458718 0 -0.29066852732342291 0.06890665277010255 0 -0.28216917747797138 0.068469949985549894 0 -0.29066852732342291 0.06890665277010255 0 -0.28216917747797138 0.068469949985549894 0 -0.28434824384168872 0.058487065146086953 0 -0.28145337526463932 0.083202631269458718 0 -0.28216917747797138 0.068469949985549894 0 -0.27220656348213518 0.06328345075655141 0 -0.28145337526463932 0.083202631269458718 0 -0.27220656348213518 0.06328345075655141 0 -0.26684069190129323 0.062339276048055711 0 -0.28145337526463932 0.083202631269458718 0 -0.26839178127359259 0.07654700362233921 0 -0.26684069190129323 0.062339276048055711 0 -0.28145337526463932 0.083202631269458718 0 -0.26684069190129323 0.062339276048055711 0 -0.28216917747797138 0.068469949985549894 0 -0.27220656348213518 0.06328345075655141 0 -0.28434824384168872 0.058487065146086953 0 -0.28145337526463932 0.083202631269458718 0 -0.26839178127359259 0.07654700362233921 0 -0.26529285387506713 0.090499137869277296 0 -0.2791077625611994 0.099457282113663004 0 -0.28145337526463932 0.083202631269458718 0 -0.26529285387506713 0.090499137869277296 0 -0.26529285387506713 0.090499137869277296 0 -0.25876043120650688 0.065987529347965077 0 -0.25574915649652019 0.1021364681163857 0 -0.26529285387506713 0.090499137869277296 0 -0.25329249931290521 0.08817995973143529 0 -0.25329249931290521 0.08817995973143529 0 -0.254542124708383 0.077397032767125812 0 -0.24664778388642369 0.077967729084462353 0 -0.26529285387506713 0.090499137869277296 0 -0.25329249931290521 0.08817995973143529 0 -0.254542124708383 0.077397032767125812 0 -0.26839178127359259 0.07654700362233921 0 -0.26529285387506713 0.090499137869277296 0 -0.25876043120650688 0.065987529347965077 0 -0.26529285387506713 0.090499137869277296 0 -0.25876043120650688 0.065987529347965077 0 -0.254542124708383 0.077397032767125812 0 -0.26839178127359259 0.07654700362233921 0 -0.25876043120650688 0.065987529347965077 0 -0.26684069190129323 0.062339276048055711 0 -0.25876043120650688 0.065987529347965077 0 -0.2485678566767793 0.056775404975444588 0 -0.2475218709412379 0.066024892856062389 0 -0.25876043120650688 0.065987529347965077 0 -0.254542124708383 0.077397032767125812 0 -0.2475218709412379 0.066024892856062389 0 -0.25222800853794691 0.04147592082665285 0 -0.26684069190129323 0.062339276048055711 0 -0.25222800853794691 0.04147592082665285 0 -0.26104493120511207 0.044094304485537972 0 -0.26684069190129323 0.062339276048055711 0 -0.25876043120650688 0.065987529347965077 0 -0.25222800853794691 0.04147592082665285 0 -0.26684069190129323 0.062339276048055711 0 -0.25876043120650688 0.065987529347965077 0 -0.25222800853794691 0.04147592082665285 0 -0.24994589315221871 0.051626894547475377 0 -0.25876043120650688 0.065987529347965077 0 -0.24994589315221871 0.051626894547475377 0 -0.2485678566767793 0.056775404975444588 0 -0.25876043120650688 0.065987529347965077 0 -0.25222800853794691 0.04147592082665285 0 -0.26104493120511207 0.044094304485537972 0 -0.26813778962801449 0.046061178675825959 0 -0.26684069190129323 0.062339276048055711 0 -0.25222800853794691 0.04147592082665285 0 -0.25636562620235198 0.03833688597921342 0 -0.26104493120511207 0.044094304485537972 0 -0.25005264979120451 0.033313322553551489 0 -0.26213691527514471 0.034463996051111369 0 -0.24603772611947489 0.02763480897983139 0 -0.25222800853794691 0.04147592082665285 0 -0.25005264979120451 0.033313322553551489 0 -0.25636562620235198 0.03833688597921342 0 -0.25005264979120451 0.033313322553551489 0 -0.26213691527514471 0.034463996051111369 0 -0.25222800853794691 0.04147592082665285 0 -0.25636562620235198 0.03833688597921342 0 -0.25005264979120451 0.033313322553551489 0 -0.25636562620235198 0.03833688597921342 0 -0.26213691527514471 0.034463996051111369 0 -0.26104493120511207 0.044094304485537972 0 -0.26213691527514471 0.034463996051111369 0 -0.26104493120511207 0.044094304485537972 0 -0.26813778962801449 0.046061178675825959 0 -0.26213691527514471 0.034463996051111369 0 -0.26813778962801449 0.046061178675825959 0 -0.27310369219291292 0.036486052388786959 0 -0.26213691527514471 0.034463996051111369 0 -0.27310369219291292 0.036486052388786959 0 -0.27048072062932538 0.02564728271813508 0 -0.27310369219291292 0.036486052388786959 0 -0.28051831681801748 0.032316173792463987 0 -0.28356513931065558 0.043471603606495129 0 -0.27310369219291292 0.036486052388786959 0 -0.28051831681801748 0.032316173792463987 0 -0.27048072062932538 0.02564728271813508 0 -0.26813778962801449 0.046061178675825959 0 -0.27310369219291292 0.036486052388786959 0 -0.28356513931065558 0.043471603606495129 0 -0.26813778962801449 0.046061178675825959 0 -0.27099167743109048 0.054468239714596217 0 -0.28356513931065558 0.043471603606495129 0 -0.27220656348213518 0.06328345075655141 0 -0.28356513931065558 0.043471603606495129 0 -0.27220656348213518 0.06328345075655141 0 -0.27099167743109048 0.054468239714596217 0 -0.28356513931065558 0.043471603606495129 0 -0.27220656348213518 0.06328345075655141 0 -0.28434824384168872 0.058487065146086953 0 -0.28356513931065558 0.043471603606495129 0 -0.26813778962801449 0.046061178675825959 0 -0.26684069190129323 0.062339276048055711 0 -0.27099167743109048 0.054468239714596217 0 -0.27220656348213518 0.06328345075655141 0 -0.26684069190129323 0.062339276048055711 0 -0.27099167743109048 0.054468239714596217 0 -0.26050176464085911 -0.0039751709235620811 0 -0.25344844270157141 0.011580410678068261 0 -0.26736688710907008 0.010971726527584489 0 -0.26050176464085911 -0.0039751709235620811 0 -0.25344844270157141 0.011580410678068261 0 -0.2457000676155878 0.0036029929913239788 0 -0.25344844270157141 0.011580410678068261 0 -0.2571244315963267 0.018992171729980731 0 -0.26736688710907008 0.010971726527584489 0 -0.26213691527514471 0.034463996051111369 0 -0.27048072062932538 0.02564728271813508 0 -0.24603772611947489 0.02763480897983139 0 -0.27048072062932538 0.02564728271813508 0 -0.24603772611947489 0.02763480897983139 0 -0.2571244315963267 0.018992171729980731 0 -0.27048072062932538 0.02564728271813508 0 -0.24603772611947489 0.02763480897983139 0 -0.2571244315963267 0.018992171729980731 0 -0.27048072062932538 0.02564728271813508 0 -0.26736688710907008 0.010971726527584489 0 -0.2571244315963267 0.018992171729980731 0 -0.24603772611947489 0.02763480897983139 0 -0.2482883814221917 0.019126629746284419 0 -0.25344844270157141 0.011580410678068261 0 -0.2571244315963267 0.018992171729980731 0 -0.2482883814221917 0.019126629746284419 0 -0.27048072062932538 0.02564728271813508 0 -0.26736688710907008 0.010971726527584489 0 -0.28329296811855148 0.013569739276137111 0 -0.27952179029809099 -0.0066640366484581092 0 -0.26736688710907008 0.010971726527584489 0 -0.28329296811855148 0.013569739276137111 0 -0.26050176464085911 -0.0039751709235620811 0 -0.27952179029809099 -0.0066640366484581092 0 -0.26736688710907008 0.010971726527584489 0 -0.26736688710907008 0.010971726527584489 0 -0.28329296811855148 0.013569739276137111 0 -0.28329296811855148 0.013569739276137111 0 -0.29450529376719742 0.00055483878714147092 0 -0.29921904912803332 0.01616775202468736 0 -0.27952179029809099 -0.0066640366484581092 0 -0.28329296811855148 0.013569739276137111 0 -0.29450529376719742 0.00055483878714147092 0 -0.28329296811855148 0.013569739276137111 0 -0.29921904912803332 0.01616775202468736 0 -0.28329296811855148 0.013569739276137111 0 -0.29492371513917598 0.023659756456438821 0 -0.29921904912803332 0.01616775202468736 0 -0.27048072062932538 0.02564728271813508 0 -0.29492371513917598 0.023659756456438821 0 -0.28051831681801748 0.032316173792463987 0 -0.27048072062932538 0.02564728271813508 0 -0.29492371513917598 0.023659756456438821 0 -0.27048072062932538 0.02564728271813508 0 -0.28329296811855148 0.013569739276137111 0 -0.29492371513917598 0.023659756456438821 0 -0.29492371513917598 0.023659756456438821 0 -0.31090530336947969 0.02236025011737117 0 -0.29921904912803332 0.01616775202468736 0 -0.29492371513917598 0.023659756456438821 0 -0.31090530336947969 0.02236025011737117 0 -0.30118092553911668 0.033381892659084693 0 -0.29921904912803332 0.01616775202468736 0 -0.31947546327194998 0.019472169612075339 0 -0.29492371513917598 0.023659756456438821 0 -0.31090530336947969 0.02236025011737117 0 -0.31090530336947969 0.02236025011737117 0 -0.29921904912803332 0.01616775202468736 0 -0.31947546327194998 0.019472169612075339 0 -0.31090530336947969 0.02236025011737117 0 -0.30118092553911668 0.033381892659084693 0 -0.3120583185974064 0.035629910341278631 0 -0.29492371513917598 0.023659756456438821 0 -0.29921904912803332 0.01616775202468736 0 -0.31085632474231928 -0.0041302086698588453 0 -0.29450529376719742 0.00055483878714147092 0 -0.29921904912803332 0.01616775202468736 0 -0.31085632474231928 -0.0041302086698588453 0 -0.29921904912803332 0.01616775202468736 0 -0.3181990247722235 0.0075291515236812091 0 -0.29921904912803332 0.01616775202468736 0 -0.3181990247722235 0.0075291515236812091 0 -0.31947546327194998 0.019472169612075339 0 -0.31085632474231928 -0.0041302086698588453 0 -0.29921904912803332 0.01616775202468736 0 -0.28356513931065558 0.043471603606495129 0 -0.30385143010570081 0.043277149945420902 0 -0.29708967214894427 0.056190047038989437 0 -0.29066852732342291 0.06890665277010255 0 -0.28434824384168872 0.058487065146086953 0 -0.29708967214894427 0.056190047038989437 0 -0.28434824384168872 0.058487065146086953 0 -0.28356513931065558 0.043471603606495129 0 -0.29708967214894427 0.056190047038989437 0 -0.29492371513917598 0.023659756456438821 0 -0.28356513931065558 0.043471603606495129 0 -0.30118092553911668 0.033381892659084693 0 -0.29492371513917598 0.023659756456438821 0 -0.28356513931065558 0.043471603606495129 0 -0.28051831681801748 0.032316173792463987 0 -0.29492371513917598 0.023659756456438821 0 -0.28356513931065558 0.043471603606495129 0 -0.28356513931065558 0.043471603606495129 0 -0.30385143010570081 0.043277149945420902 0 -0.30118092553911668 0.033381892659084693 0 -0.30385143010570081 0.043277149945420902 0 -0.3120583185974064 0.035629910341278631 0 -0.31535410687312931 0.051480598528209021 0 -0.30385143010570081 0.043277149945420902 0 -0.30118092553911668 0.033381892659084693 0 -0.3120583185974064 0.035629910341278631 0 -0.30611687062500359 0.073705037739068516 0 -0.29708967214894427 0.056190047038989437 0 -0.31535410687312931 0.051480598528209021 0 -0.30385143010570081 0.043277149945420902 0 -0.29708967214894427 0.056190047038989437 0 -0.31535410687312931 0.051480598528209021 0 -0.31535410687312931 0.051480598528209021 0 -0.33286910244693652 0.049577549752542437 0 -0.32737414473988752 0.067514298991596736 0 -0.3120583185974064 0.035629910341278631 0 -0.31535410687312931 0.051480598528209021 0 -0.32275626960964288 0.03511131722499438 0 -0.31535410687312931 0.051480598528209021 0 -0.32275626960964288 0.03511131722499438 0 -0.33286910244693652 0.049577549752542437 0 -0.3120583185974064 0.035629910341278631 0 -0.32275626960964288 0.03511131722499438 0 -0.31830187608736937 0.028168253572591642 0 -0.33702527921919567 0.03474375485143015 0 -0.34363958152559082 0.023414048800250321 0 -0.34613550019018058 0.042368804522187643 0 -0.32275626960964288 0.03511131722499438 0 -0.33702527921919567 0.03474375485143015 0 -0.33286910244693652 0.049577549752542437 0 -0.33702527921919567 0.03474375485143015 0 -0.33286910244693652 0.049577549752542437 0 -0.34613550019018058 0.042368804522187643 0 -0.33286910244693652 0.049577549752542437 0 -0.34863141885477128 0.061323560244124761 0 -0.32737414473988752 0.067514298991596736 0 -0.33286910244693652 0.049577549752542437 0 -0.34863141885477128 0.061323560244124761 0 -0.34613550019018058 0.042368804522187643 0 -0.3284259764527393 -0.0037316893772865898 0 -0.3181990247722235 0.0075291515236812091 0 -0.33301831026607648 0.009867734028789198 0 -0.3181990247722235 0.0075291515236812091 0 -0.31947546327194998 0.019472169612075339 0 -0.33301831026607648 0.009867734028789198 0 -0.31090530336947969 0.02236025011737117 0 -0.32694720275040712 0.020691030322838821 0 -0.31090530336947969 0.02236025011737117 0 -0.32694720275040712 0.020691030322838821 0 -0.31830187608736937 0.028168253572591642 0 -0.31090530336947969 0.02236025011737117 0 -0.32694720275040712 0.020691030322838821 0 -0.31947546327194998 0.019472169612075339 0 -0.32694720275040712 0.020691030322838821 0 -0.31947546327194998 0.019472169612075339 0 -0.33301831026607648 0.009867734028789198 0 -0.32694720275040712 0.020691030322838821 0 -0.31947546327194998 0.019472169612075339 0 -0.31090530336947969 0.02236025011737117 0 -0.3120583185974064 0.035629910341278631 0 -0.31830187608736937 0.028168253572591642 0 -0.32275626960964288 0.03511131722499438 0 -0.32694720275040712 0.020691030322838821 0 -0.31830187608736937 0.028168253572591642 0 -0.32275626960964288 0.03511131722499438 0 -0.32694720275040712 0.020691030322838821 0 -0.33973187741586708 0.022776587199460591 0 -0.32275626960964288 0.03511131722499438 0 -0.33702527921919567 0.03474375485143015 0 -0.33973187741586708 0.022776587199460591 0 -0.32275626960964288 0.03511131722499438 0 -0.33973187741586708 0.022776587199460591 0 -0.33702527921919567 0.03474375485143015 0 -0.33973187741586708 0.022776587199460591 0 -0.34363958152559082 0.023414048800250321 0 -0.33973187741586708 0.022776587199460591 0 -0.34322173593219918 0.020240803908655888 0 -0.33301831026607648 0.009867734028789198 0 -0.33973187741586708 0.022776587199460591 0 -0.34363958152559082 0.023414048800250321 0 -0.33973187741586708 0.022776587199460591 0 -0.34322173593219918 0.020240803908655888 0 -0.33973187741586708 0.022776587199460591 0 -0.34322173593219918 0.020240803908655888 0 -0.34363958152559082 0.023414048800250321 0 -0.34322173593219918 0.020240803908655888 0 -0.34363958152559082 0.023414048800250321 0 -0.32694720275040712 0.020691030322838821 0 -0.33973187741586708 0.022776587199460591 0 -0.32694720275040712 0.020691030322838821 0 -0.33973187741586708 0.022776587199460591 0 -0.33301831026607648 0.009867734028789198 0 -0.34018868727428719 -0.0027930782522934202 0 -0.34322173593219918 0.020240803908655888 0 -0.34018868727428719 -0.0027930782522934202 0 -0.34322173593219918 0.020240803908655888 0 -0.33301831026607648 0.009867734028789198 0 -0.34018868727428719 -0.0027930782522934202 0 -0.34322173593219918 0.020240803908655888 0 -0.34752128710213742 0.0048699476174654194 0 -0.34018868727428719 -0.0027930782522934202 0 -0.3284259764527393 -0.0037316893772865898 0 -0.33301831026607648 0.009867734028789198 0 -0.34239774648643212 -0.0090256460551746617 0 -0.34752128710213742 0.0048699476174654194 0 -0.36230189261625839 0.0063768772540551636 0 -0.34322173593219918 0.020240803908655888 0 -0.36230189261625839 0.0063768772540551636 0 -0.34322173593219918 0.020240803908655888 0 -0.35742821012303749 0.019984260961258771 0 -0.36230189261625839 0.0063768772540551636 0 -0.34322173593219918 0.020240803908655888 0 -0.34752128710213742 0.0048699476174654194 0 -0.36230189261625839 0.0063768772540551636 0 -0.34363958152559082 0.023414048800250321 0 -0.35742821012303749 0.019984260961258771 0 -0.36941200444574762 0.027618289835306169 0 -0.34363958152559082 0.023414048800250321 0 -0.36941200444574762 0.027618289835306169 0 -0.36117050152088542 0.041867604362397753 0 -0.34363958152559082 0.023414048800250321 0 -0.36941200444574762 0.027618289835306169 0 -0.34322173593219918 0.020240803908655888 0 -0.34363958152559082 0.023414048800250321 0 -0.35742821012303749 0.019984260961258771 0 -0.37874315999108138 0.019099704062208369 0 -0.35742821012303749 0.019984260961258771 0 -0.36941200444574762 0.027618289835306169 0 -0.37874315999108138 0.019099704062208369 0 -0.35742821012303749 0.019984260961258771 0 -0.36230189261625839 0.0063768772540551636 0 -0.37751697238409859 -0.0046786268195284399 0 -0.37874315999108138 0.019099704062208369 0 -0.36230189261625839 0.0063768772540551636 0 -0.37874315999108138 0.019099704062208369 0 -0.36230189261625839 0.0063768772540551636 0 -0.37751697238409859 -0.0046786268195284399 0 -0.36230189261625839 0.0063768772540551636 0 -0.34863141885477128 0.061323560244124761 0 -0.34613550019018058 0.042368804522187643 0 -0.34863141885477128 0.061323560244124761 0 -0.36117050152088542 0.041867604362397753 0 -0.36612493139301461 0.056228938736466158 0 -0.34863141885477128 0.061323560244124761 0 -0.34613550019018058 0.042368804522187643 0 -0.36117050152088542 0.041867604362397753 0 -0.34863141885477128 0.061323560244124761 0 -0.36612493139301461 0.056228938736466158 0 -0.34363958152559082 0.023414048800250321 0 -0.34613550019018058 0.042368804522187643 0 -0.36117050152088542 0.041867604362397753 0 -0.34363958152559082 0.023414048800250321 0 -0.34613550019018058 0.042368804522187643 0 -0.38361844393125782 0.051134317228807381 0 -0.36941200444574762 0.027618289835306169 0 -0.36117050152088542 0.041867604362397753 0 -0.38361844393125782 0.051134317228807381 0 -0.36117050152088542 0.041867604362397753 0 -0.36612493139301461 0.056228938736466158 0 -0.38361844393125782 0.051134317228807381 0 -0.36612493139301461 0.056228938736466158 0 -0.34863141885477128 0.061323560244124761 0 -0.36612493139301461 0.056228938736466158 0 -0.36425371444267512 0.073009124108626172 0 -0.38144594088491629 0.072833875310913107 0 -0.36425371444267512 0.073009124108626172 0 -0.37081497959615639 0.085784093540737447 0 -0.38144594088491629 0.072833875310913107 0 -0.36612493139301461 0.056228938736466158 0 -0.36425371444267512 0.073009124108626172 0 -0.34863141885477128 0.061323560244124761 0 -0.35233023337016572 0.089413468218598136 0 -0.34863141885477128 0.061323560244124761 0 -0.36425371444267512 0.073009124108626172 0 -0.35233023337016572 0.089413468218598136 0 -0.34863141885477128 0.061323560244124761 0 -0.35233023337016572 0.089413468218598136 0 -0.33971493575059131 0.077310790801408499 0 -0.35233023337016572 0.089413468218598136 0 -0.37081497959615639 0.085784093540737447 0 -0.36953535301128682 0.10207745902678871 0 -0.36425371444267512 0.073009124108626172 0 -0.35233023337016572 0.089413468218598136 0 -0.37081497959615639 0.085784093540737447 0 -0.37081606141340512 0.1259061723713315 0 -0.36953535301128682 0.10207745902678871 0 -0.34463177413610652 0.11027637484249481 0 -0.34786754310883589 0.13682338472300501 0 -0.34463177413610652 0.11027637484249481 0 -0.37081606141340512 0.1259061723713315 0 -0.34786754310883589 0.13682338472300501 0 -0.34463177413610652 0.11027637484249481 0 -0.35233023337016572 0.089413468218598136 0 -0.36953535301128682 0.10207745902678871 0 -0.34463177413610652 0.11027637484249481 0 -0.35233023337016572 0.089413468218598136 0 -0.34463177413610652 0.11027637484249481 0 -0.32353608828045788 0.093926632472420515 0 -0.34463177413610652 0.11027637484249481 0 -0.3220164902252946 0.1227233217055792 0 -0.32353608828045788 0.093926632472420515 0 -0.34786754310883589 0.13682338472300501 0 -0.34463177413610652 0.11027637484249481 0 -0.3220164902252946 0.1227233217055792 0 -0.29606605862798541 0.10406598649086191 0 -0.3220164902252946 0.1227233217055792 0 -0.32353608828045788 0.093926632472420515 0 -0.30611687062500359 0.073705037739068516 0 -0.32353608828045788 0.093926632472420515 0 -0.32737414473988752 0.067514298991596736 0 -0.30611687062500359 0.073705037739068516 0 -0.32737414473988752 0.067514298991596736 0 -0.30611687062500359 0.073705037739068516 0 -0.31535410687312931 0.051480598528209021 0 -0.32737414473988752 0.067514298991596736 0 -0.34863141885477128 0.061323560244124761 0 -0.32737414473988752 0.067514298991596736 0 -0.34863141885477128 0.061323560244124761 0 -0.32737414473988752 0.067514298991596736 0 -0.33971493575059131 0.077310790801408499 0 -0.32353608828045788 0.093926632472420515 0 -0.32737414473988752 0.067514298991596736 0 -0.33971493575059131 0.077310790801408499 0 -0.35233023337016572 0.089413468218598136 0 -0.32353608828045788 0.093926632472420515 0 -0.33971493575059131 0.077310790801408499 0 -0.39976672013406278 0.48643127051066948 0 -0.38836008563000168 0.47234427544998397 0 -0.40922050275837663 0.47137502197441977 0 -0.39976672013406278 0.48643127051066948 0 -0.38286589359701539 0.5 0 -0.41178521923313421 0.50000000000000067 0 -0.39976672013406278 0.48643127051066948 0 -0.38286589359701539 0.5 0 -0.38836008563000168 0.47234427544998397 0 -0.38286589359701539 0.5 0 -0.38836008563000168 0.47234427544998397 0 -0.36865535175256431 0.4830701207901279 0 -0.38836008563000168 0.47234427544998397 0 -0.36948871577933412 0.46616952432095321 0 -0.36865535175256431 0.4830701207901279 0 -0.38836008563000168 0.47234427544998397 0 -0.38276943238096361 0.45701512309642828 0 -0.36948871577933412 0.46616952432095321 0 -0.38836008563000168 0.47234427544998397 0 -0.38276943238096361 0.45701512309642828 0 -0.39699702828106581 0.46185218359975622 0 -0.38276943238096361 0.45701512309642828 0 -0.38440217883421551 0.44042255919139273 0 -0.39464421166747471 0.4513077605741499 0 -0.38276943238096361 0.45701512309642828 0 -0.38440217883421551 0.44042255919139273 0 -0.37004059758614172 0.44906812439271038 0 -0.38440217883421551 0.44042255919139273 0 -0.37275054302977062 0.43465633988172903 0 -0.37004059758614172 0.44906812439271038 0 -0.38440217883421551 0.44042255919139273 0 -0.39613869489279552 0.43867667327355658 0 -0.38940403861047629 0.43361211063244243 0 -0.38440217883421551 0.44042255919139273 0 -0.39613869489279552 0.43867667327355658 0 -0.39464421166747471 0.4513077605741499 0 -0.39464421166747471 0.4513077605741499 0 -0.4099909089685122 0.45721873690379888 0 -0.40846117502097817 0.44382095224385609 0 -0.39613869489279552 0.43867667327355658 0 -0.39464421166747471 0.4513077605741499 0 -0.40846117502097817 0.44382095224385609 0 -0.39613869489279552 0.43867667327355658 0 -0.40846117502097817 0.44382095224385609 0 -0.40669214301514961 0.43085131386574271 0 -0.38836008563000168 0.47234427544998397 0 -0.39699702828106581 0.46185218359975622 0 -0.40922050275837663 0.47137502197441977 0 -0.38276943238096361 0.45701512309642828 0 -0.39464421166747471 0.4513077605741499 0 -0.39699702828106581 0.46185218359975622 0 -0.39464421166747471 0.4513077605741499 0 -0.39699702828106581 0.46185218359975622 0 -0.4099909089685122 0.45721873690379888 0 -0.39699702828106581 0.46185218359975622 0 -0.4099909089685122 0.45721873690379888 0 -0.40922050275837663 0.47137502197441977 0 -0.4099909089685122 0.45721873690379888 0 -0.42603024135188827 0.464754742254463 0 -0.40922050275837663 0.47137502197441977 0 -0.4099909089685122 0.45721873690379888 0 -0.42254747243579172 0.44847273297825768 0 -0.42603024135188827 0.464754742254463 0 -0.4099909089685122 0.45721873690379888 0 -0.40846117502097817 0.44382095224385609 0 -0.42254747243579172 0.44847273297825768 0 -0.40846117502097817 0.44382095224385609 0 -0.42254747243579172 0.44847273297825768 0 -0.41822422401196307 0.43596897613462349 0 -0.42254747243579172 0.44847273297825768 0 -0.43885317475738628 0.45340602284303938 0 -0.43447693850814401 0.43345413264189397 0 -0.42254747243579172 0.44847273297825768 0 -0.43447693850814401 0.43345413264189397 0 -0.41822422401196307 0.43596897613462349 0 -0.42603024135188827 0.464754742254463 0 -0.44698916686541867 0.47214195086184269 0 -0.43885317475738628 0.45340602284303938 0 -0.42254747243579172 0.44847273297825768 0 -0.42603024135188827 0.464754742254463 0 -0.43885317475738628 0.45340602284303938 0 -0.41178521923313421 0.50000000000000067 0 -0.42938719304927658 0.48607097543092193 0 -0.46357924869595157 0.5 0 -0.42603024135188827 0.464754742254463 0 -0.42938719304927658 0.48607097543092193 0 -0.44698916686541867 0.47214195086184269 0 -0.39976672013406278 0.48643127051066948 0 -0.40922050275837663 0.47137502197441977 0 -0.42938719304927658 0.48607097543092193 0 -0.42603024135188827 0.464754742254463 0 -0.40922050275837663 0.47137502197441977 0 -0.42938719304927658 0.48607097543092193 0 -0.41178521923313421 0.50000000000000067 0 -0.42938719304927658 0.48607097543092193 0 -0.39976672013406278 0.48643127051066948 0 -0.41178521923313421 0.50000000000000067 0 -0.42938719304927658 0.48607097543092193 0 -0.42938719304927658 0.48607097543092193 0 -0.44698916686541867 0.47214195086184269 0 -0.46357924869595157 0.5 0 -0.42938719304927658 0.48607097543092193 0 -0.44698916686541867 0.47214195086184269 0 -0.44698916686541867 0.47214195086184269 0 -0.46404019981427402 0.47632325848451118 0 -0.46459114068156082 0.45821292629276372 0 -0.44698916686541867 0.47214195086184269 0 -0.46404019981427402 0.47632325848451118 0 -0.46357924869595157 0.5 0 -0.46404019981427402 0.47632325848451118 0 -0.47742363565475499 0.47860457333194412 0 -0.46459114068156082 0.45821292629276372 0 -0.46404019981427402 0.47632325848451118 0 -0.46357924869595157 0.5 0 -0.47742363565475499 0.47860457333194412 0 -0.46357924869595157 0.5 0 -0.5 0.5 0 -0.47742363565475499 0.47860457333194412 0 -0.5 0.5 0 -0.47742363565475499 0.47860457333194412 0 -0.48382030566633322 0.46141000397612641 0 -0.5 0.5 0 -0.49999999999999911 0.44100796610486109 0 -0.48382030566633322 0.46141000397612641 0 -0.49999999999999911 0.44100796610486109 0 -0.48382030566633322 0.46141000397612641 0 -0.47300564573636739 0.43814850673459882 0 -0.47742363565475499 0.47860457333194412 0 -0.48382030566633322 0.46141000397612641 0 -0.46459114068156082 0.45821292629276372 0 -0.48382030566633322 0.46141000397612641 0 -0.47300564573636739 0.43814850673459882 0 -0.46459114068156082 0.45821292629276372 0 -0.47300564573636739 0.43814850673459882 0 -0.45338502600298508 0.44396017580243868 0 -0.46459114068156082 0.45821292629276372 0 -0.44698916686541867 0.47214195086184269 0 -0.46459114068156082 0.45821292629276372 0 -0.44698916686541867 0.47214195086184269 0 -0.46459114068156082 0.45821292629276372 0 -0.43885317475738628 0.45340602284303938 0 -0.45338502600298508 0.44396017580243868 0 -0.46459114068156082 0.45821292629276372 0 -0.43885317475738628 0.45340602284303938 0 -0.45338502600298508 0.44396017580243868 0 -0.43885317475738628 0.45340602284303938 0 -0.43447693850814401 0.43345413264189397 0 -0.45338502600298508 0.44396017580243868 0 -0.45485358276334409 0.42856891080417259 0 -0.43447693850814401 0.43345413264189397 0 -0.44290025128568411 0.42079048544876441 0 -0.45485358276334409 0.42856891080417259 0 -0.43447693850814401 0.43345413264189397 0 -0.44290025128568411 0.42079048544876441 0 -0.45005654084561958 0.40842331193776998 0 -0.43221394302562849 0.41271558641122108 0 -0.44290025128568411 0.42079048544876441 0 -0.45005654084561958 0.40842331193776998 0 -0.45485358276334409 0.42856891080417259 0 -0.45005654084561958 0.40842331193776998 0 -0.46667660303745567 0.41822602622814908 0 -0.46919912916372392 0.39920002894458317 0 -0.45005654084561958 0.40842331193776998 0 -0.46667660303745567 0.41822602622814908 0 -0.45485358276334409 0.42856891080417259 0 -0.47300564573636739 0.43814850673459882 0 -0.45338502600298508 0.44396017580243868 0 -0.45485358276334409 0.42856891080417259 0 -0.47300564573636739 0.43814850673459882 0 -0.46667660303745567 0.41822602622814908 0 -0.45485358276334409 0.42856891080417259 0 -0.47300564573636739 0.43814850673459882 0 -0.46667660303745567 0.41822602622814908 0 -0.48459956458186121 0.42010399752472238 0 -0.48459956458186121 0.42010399752472238 0 -0.48689614564277339 0.40086682163273779 0 -0.46919912916372392 0.39920002894458317 0 -0.48459956458186121 0.42010399752472238 0 -0.46919912916372392 0.39920002894458317 0 -0.46667660303745567 0.41822602622814908 0 -0.48459956458186121 0.42010399752472238 0 -0.46919912916372392 0.39920002894458317 0 -0.5 0.41607951288039419 0 -0.48459956458186121 0.42010399752472238 0 -0.48689614564277339 0.40086682163273779 0 -0.49999999999999911 0.44100796610486109 0 -0.47300564573636739 0.43814850673459882 0 -0.48459956458186121 0.42010399752472238 0 -0.49999999999999911 0.44100796610486109 0 -0.48459956458186121 0.42010399752472238 0 -0.49999999999999911 0.44100796610486109 0 -0.5 0.41607951288039419 0 -0.48459956458186121 0.42010399752472238 0 -0.5 0.39115105965592728 0 -0.48068203446828239 0.37779950915806149 0 -0.5 0.36622260643146048 0 -0.5 0.39115105965592728 0 -0.48689614564277339 0.40086682163273779 0 -0.48068203446828239 0.37779950915806149 0 -0.5 0.41607951288039419 0 -0.5 0.39115105965592728 0 -0.48689614564277339 0.40086682163273779 0 -0.48689614564277339 0.40086682163273779 0 -0.46919912916372392 0.39920002894458317 0 -0.48068203446828239 0.37779950915806149 0 -0.46919912916372392 0.39920002894458317 0 -0.45379869374558651 0.37829606036444402 0 -0.46919912916372392 0.39920002894458317 0 -0.48068203446828239 0.37779950915806149 0 -0.45379869374558651 0.37829606036444402 0 -0.45005654084561958 0.40842331193776998 0 -0.46919912916372392 0.39920002894458317 0 -0.45379869374558651 0.37829606036444402 0 -0.45005654084561958 0.40842331193776998 0 -0.43616727843710468 0.39174948790594272 0 -0.43221394302562849 0.41271558641122108 0 -0.45005654084561958 0.40842331193776998 0 -0.45379869374558651 0.37829606036444402 0 -0.43616727843710468 0.39174948790594272 0 -0.45379869374558651 0.37829606036444402 0 -0.43616727843710468 0.39174948790594272 0 -0.42659989592659903 0.37296220205617903 0 -0.41428877453195379 0.38708202444259282 0 -0.43616727843710468 0.39174948790594272 0 -0.42659989592659903 0.37296220205617903 0 -0.41428877453195379 0.38708202444259282 0 -0.40056952993112699 0.3763491639531904 0 -0.41004472284565552 0.36618682098783573 0 -0.41428877453195379 0.38708202444259282 0 -0.41004472284565552 0.36618682098783573 0 -0.42659989592659903 0.37296220205617903 0 -0.41342500862769188 0.40155132427213203 0 -0.40551453872419291 0.3955942126028662 0 -0.40106586249417198 0.40526246524215331 0 -0.41342500862769188 0.40155132427213203 0 -0.4083754760911969 0.41110119656098748 0 -0.40106586249417198 0.40526246524215331 0 -0.41428877453195379 0.38708202444259282 0 -0.41342500862769188 0.40155132427213203 0 -0.40551453872419291 0.3955942126028662 0 -0.41428877453195379 0.38708202444259282 0 -0.41342500862769188 0.40155132427213203 0 -0.42455458296209703 0.40058610772112768 0 -0.41342500862769188 0.40155132427213203 0 -0.42455458296209703 0.40058610772112768 0 -0.41818352071266363 0.41170501463393933 0 -0.41428877453195379 0.38708202444259282 0 -0.43616727843710468 0.39174948790594272 0 -0.42455458296209703 0.40058610772112768 0 -0.43616727843710468 0.39174948790594272 0 -0.42455458296209703 0.40058610772112768 0 -0.43221394302562849 0.41271558641122108 0 -0.43221394302562849 0.41271558641122108 0 -0.41894339107975193 0.42324574894336731 0 -0.41818352071266363 0.41170501463393933 0 -0.42455458296209703 0.40058610772112768 0 -0.43221394302562849 0.41271558641122108 0 -0.41818352071266363 0.41170501463393933 0 -0.44290025128568411 0.42079048544876441 0 -0.43221394302562849 0.41271558641122108 0 -0.43447693850814401 0.43345413264189397 0 -0.43447693850814401 0.43345413264189397 0 -0.41822422401196307 0.43596897613462349 0 -0.41894339107975193 0.42324574894336731 0 -0.43221394302562849 0.41271558641122108 0 -0.43447693850814401 0.43345413264189397 0 -0.41894339107975193 0.42324574894336731 0 -0.41822422401196307 0.43596897613462349 0 -0.41894339107975193 0.42324574894336731 0 -0.40669214301514961 0.43085131386574271 0 -0.41894339107975193 0.42324574894336731 0 -0.40669214301514961 0.43085131386574271 0 -0.40895704086816298 0.42016803307752132 0 -0.40846117502097817 0.44382095224385609 0 -0.41822422401196307 0.43596897613462349 0 -0.40669214301514961 0.43085131386574271 0 -0.41894339107975193 0.42324574894336731 0 -0.41818352071266363 0.41170501463393933 0 -0.40895704086816298 0.42016803307752132 0 -0.40895704086816298 0.42016803307752132 0 -0.4083754760911969 0.41110119656098748 0 -0.40265570057530831 0.41477833691669669 0 -0.41818352071266363 0.41170501463393933 0 -0.40895704086816298 0.42016803307752132 0 -0.4083754760911969 0.41110119656098748 0 -0.41342500862769188 0.40155132427213203 0 -0.41818352071266363 0.41170501463393933 0 -0.4083754760911969 0.41110119656098748 0 -0.39526916679403928 0.41415947294129662 0 -0.38916051924958062 0.41928739122256309 0 -0.38864557592762572 0.40143362550085432 0 -0.40265570057530831 0.41477833691669669 0 -0.39526916679403928 0.41415947294129662 0 -0.40106586249417198 0.40526246524215331 0 -0.4083754760911969 0.41110119656098748 0 -0.40265570057530831 0.41477833691669669 0 -0.40106586249417198 0.40526246524215331 0 -0.40265570057530831 0.41477833691669669 0 -0.39526916679403928 0.41415947294129662 0 -0.39961095662897028 0.42320051676152481 0 -0.40895704086816298 0.42016803307752132 0 -0.40265570057530831 0.41477833691669669 0 -0.39961095662897028 0.42320051676152481 0 -0.39526916679403928 0.41415947294129662 0 -0.38936980656421433 0.42654365909649222 0 -0.38916051924958062 0.41928739122256309 0 -0.39526916679403928 0.41415947294129662 0 -0.39961095662897028 0.42320051676152481 0 -0.38936980656421433 0.42654365909649222 0 -0.39526916679403928 0.41415947294129662 0 -0.38864557592762572 0.40143362550085432 0 -0.40106586249417198 0.40526246524215331 0 -0.39613869489279552 0.43867667327355658 0 -0.40669214301514961 0.43085131386574271 0 -0.39622273201353791 0.42982624300686167 0 -0.40669214301514961 0.43085131386574271 0 -0.39961095662897028 0.42320051676152481 0 -0.39622273201353791 0.42982624300686167 0 -0.40669214301514961 0.43085131386574271 0 -0.40895704086816298 0.42016803307752132 0 -0.39961095662897028 0.42320051676152481 0 -0.39961095662897028 0.42320051676152481 0 -0.39622273201353791 0.42982624300686167 0 -0.38936980656421433 0.42654365909649222 0 -0.39613869489279552 0.43867667327355658 0 -0.39622273201353791 0.42982624300686167 0 -0.38940403861047629 0.43361211063244243 0 -0.39622273201353791 0.42982624300686167 0 -0.38940403861047629 0.43361211063244243 0 -0.38936980656421433 0.42654365909649222 0 -0.38440217883421551 0.44042255919139273 0 -0.38940403861047629 0.43361211063244243 0 -0.38271675003858052 0.43033542924393492 0 -0.38940403861047629 0.43361211063244243 0 -0.38936980656421433 0.42654365909649222 0 -0.38271675003858052 0.43033542924393492 0 -0.38936980656421433 0.42654365909649222 0 -0.38407079908958869 0.42336582041998511 0 -0.38271675003858052 0.43033542924393492 0 -0.38936980656421433 0.42654365909649222 0 -0.38407079908958869 0.42336582041998511 0 -0.38916051924958062 0.41928739122256309 0 -0.38936980656421433 0.42654365909649222 0 -0.38916051924958062 0.41928739122256309 0 -0.37631563863825868 0.42309763206095391 0 -0.38271675003858052 0.43033542924393492 0 -0.37275054302977062 0.43465633988172903 0 -0.38407079908958869 0.42336582041998511 0 -0.37631563863825868 0.42309763206095391 0 -0.38271675003858052 0.43033542924393492 0 -0.38440217883421551 0.44042255919139273 0 -0.38271675003858052 0.43033542924393492 0 -0.37275054302977062 0.43465633988172903 0 -0.38916051924958062 0.41928739122256309 0 -0.38864557592762572 0.40143362550085432 0 -0.38916051924958062 0.41928739122256309 0 -0.38228867873572298 0.39909236712652268 0 -0.38864557592762572 0.40143362550085432 0 -0.38916051924958062 0.41928739122256309 0 -0.38039068915983071 0.41100688951045461 0 -0.38228867873572298 0.39909236712652268 0 -0.38916051924958062 0.41928739122256309 0 -0.38228867873572298 0.39909236712652268 0 -0.38407079908958869 0.42336582041998511 0 -0.38916051924958062 0.41928739122256309 0 -0.38126078680144748 0.41830469337779091 0 -0.38916051924958062 0.41928739122256309 0 -0.38126078680144748 0.41830469337779091 0 -0.38039068915983071 0.41100688951045461 0 -0.38126078680144748 0.41830469337779091 0 -0.37602442616234011 0.41445159907153961 0 -0.38039068915983071 0.41100688951045461 0 -0.37631563863825868 0.42309763206095391 0 -0.38126078680144748 0.41830469337779091 0 -0.37602442616234011 0.41445159907153961 0 -0.38407079908958869 0.42336582041998511 0 -0.37631563863825868 0.42309763206095391 0 -0.38126078680144748 0.41830469337779091 0 -0.37602442616234011 0.41445159907153961 0 -0.38039068915983071 0.41100688951045461 0 -0.37239657611058341 0.40487616820464828 0 -0.38228867873572298 0.39909236712652268 0 -0.37165537978427632 0.39230288392250512 0 -0.37239657611058341 0.40487616820464828 0 -0.38039068915983071 0.41100688951045461 0 -0.38228867873572298 0.39909236712652268 0 -0.37239657611058341 0.40487616820464828 0 -0.38228867873572298 0.39909236712652268 0 -0.38864557592762572 0.40143362550085432 0 -0.38362797288578843 0.38893500529546499 0 -0.38228867873572298 0.39909236712652268 0 -0.37565629158876779 0.37889043664926669 0 -0.38228867873572298 0.39909236712652268 0 -0.37565629158876779 0.37889043664926669 0 -0.38362797288578843 0.38893500529546499 0 -0.38864557592762572 0.40143362550085432 0 -0.38792134529103689 0.37632359190521619 0 -0.38362797288578843 0.38893500529546499 0 -0.38864557592762572 0.40143362550085432 0 -0.38792134529103689 0.37632359190521619 0 -0.38228867873572298 0.39909236712652268 0 -0.37565629158876779 0.37889043664926669 0 -0.37165537978427632 0.39230288392250512 0 -0.37565629158876779 0.37889043664926669 0 -0.38792134529103689 0.37632359190521619 0 -0.38362797288578843 0.38893500529546499 0 -0.38864557592762572 0.40143362550085432 0 -0.38792134529103689 0.37632359190521619 0 -0.39747687353777411 0.38861344970704148 0 -0.41428877453195379 0.38708202444259282 0 -0.39747687353777411 0.38861344970704148 0 -0.40551453872419291 0.3955942126028662 0 -0.41428877453195379 0.38708202444259282 0 -0.39747687353777411 0.38861344970704148 0 -0.40056952993112699 0.3763491639531904 0 -0.38792134529103689 0.37632359190521619 0 -0.39747687353777411 0.38861344970704148 0 -0.40056952993112699 0.3763491639531904 0 -0.39747687353777411 0.38861344970704148 0 -0.40551453872419291 0.3955942126028662 0 -0.3981757126709411 0.39772593826322877 0 -0.40551453872419291 0.3955942126028662 0 -0.40106586249417198 0.40526246524215331 0 -0.3981757126709411 0.39772593826322877 0 -0.38864557592762572 0.40143362550085432 0 -0.40106586249417198 0.40526246524215331 0 -0.3981757126709411 0.39772593826322877 0 -0.38864557592762572 0.40143362550085432 0 -0.39747687353777411 0.38861344970704148 0 -0.3981757126709411 0.39772593826322877 0 -0.40509746878188069 0.34385084075687322 0 -0.38719711465445078 0.35121355830957812 0 -0.391848313967878 0.33639784645771742 0 -0.40509746878188069 0.34385084075687322 0 -0.3970532261479735 0.36301590227652891 0 -0.38719711465445078 0.35121355830957812 0 -0.40509746878188069 0.34385084075687322 0 -0.38719711465445078 0.35121355830957812 0 -0.40509746878188069 0.34385084075687322 0 -0.3970532261479735 0.36301590227652891 0 -0.41004472284565552 0.36618682098783573 0 -0.38792134529103689 0.37632359190521619 0 -0.3970532261479735 0.36301590227652891 0 -0.38719711465445078 0.35121355830957812 0 -0.40056952993112699 0.3763491639531904 0 -0.3970532261479735 0.36301590227652891 0 -0.41004472284565552 0.36618682098783573 0 -0.38792134529103689 0.37632359190521619 0 -0.40056952993112699 0.3763491639531904 0 -0.3970532261479735 0.36301590227652891 0 -0.38792134529103689 0.37632359190521619 0 -0.37945464656632422 0.36645373223861322 0 -0.38719711465445078 0.35121355830957812 0 -0.38792134529103689 0.37632359190521619 0 -0.38719711465445078 0.35121355830957812 0 -0.37565629158876779 0.37889043664926669 0 -0.38792134529103689 0.37632359190521619 0 -0.37945464656632422 0.36645373223861322 0 -0.38719711465445078 0.35121355830957812 0 -0.37507345220846661 0.34756729091211452 0 -0.36902390444181271 0.35868850617201092 0 -0.37945464656632422 0.36645373223861322 0 -0.38719711465445078 0.35121355830957812 0 -0.36902390444181271 0.35868850617201092 0 -0.38719711465445078 0.35121355830957812 0 -0.36902390444181271 0.35868850617201092 0 -0.37507345220846661 0.34756729091211452 0 -0.38651459348757128 0.32754964716831519 0 -0.36360930633724159 0.34219590222004748 0 -0.38719711465445078 0.35121355830957812 0 -0.38651459348757128 0.32754964716831519 0 -0.391848313967878 0.33639784645771742 0 -0.38719711465445078 0.35121355830957812 0 -0.38651459348757128 0.32754964716831519 0 -0.38719711465445078 0.35121355830957812 0 -0.37507345220846661 0.34756729091211452 0 -0.38651459348757128 0.32754964716831519 0 -0.38651459348757128 0.32754964716831519 0 -0.39379330715314331 0.31484150325675392 0 -0.38583207232069311 0.30388573602705232 0 -0.38651459348757128 0.32754964716831519 0 -0.38583207232069311 0.30388573602705232 0 -0.38651459348757128 0.32754964716831519 0 -0.38583207232069311 0.30388573602705232 0 -0.36173759541267492 0.3163954833441599 0 -0.39794869143458572 0.32337583447733032 0 -0.41472911092155462 0.32526448628110022 0 -0.40503530710815022 0.31210648361198118 0 -0.38651459348757128 0.32754964716831519 0 -0.39379330715314331 0.31484150325675392 0 -0.39794869143458572 0.32337583447733032 0 -0.39379330715314331 0.31484150325675392 0 -0.39794869143458572 0.32337583447733032 0 -0.40503530710815022 0.31210648361198118 0 -0.39794869143458572 0.32337583447733032 0 -0.391848313967878 0.33639784645771742 0 -0.41472911092155462 0.32526448628110022 0 -0.40509746878188069 0.34385084075687322 0 -0.391848313967878 0.33639784645771742 0 -0.41472911092155462 0.32526448628110022 0 -0.391848313967878 0.33639784645771742 0 -0.41472911092155462 0.32526448628110022 0 -0.38651459348757128 0.32754964716831519 0 -0.39794869143458572 0.32337583447733032 0 -0.391848313967878 0.33639784645771742 0 -0.40509746878188069 0.34385084075687322 0 -0.42299782290930998 0.33648812320416688 0 -0.40509746878188069 0.34385084075687322 0 -0.41472911092155462 0.32526448628110022 0 -0.42299782290930998 0.33648812320416688 0 -0.41472911092155462 0.32526448628110022 0 -0.42299782290930998 0.33648812320416688 0 -0.41472911092155462 0.32526448628110022 0 -0.42269104203127372 0.31156757014732489 0 -0.41392363796185172 0.3082553066405575 0 -0.41472911092155462 0.32526448628110022 0 -0.41392363796185172 0.3082553066405575 0 -0.40503530710815022 0.31210648361198118 0 -0.41472911092155462 0.32526448628110022 0 -0.40503530710815022 0.31210648361198118 0 -0.41472911092155462 0.32526448628110022 0 -0.43819941775125809 0.31384428182232071 0 -0.42269104203127372 0.31156757014732489 0 -0.42299782290930998 0.33648812320416688 0 -0.44671605944720338 0.32673241249399892 0 -0.43819941775125809 0.31384428182232071 0 -0.41472911092155462 0.32526448628110022 0 -0.43819941775125809 0.31384428182232071 0 -0.41472911092155462 0.32526448628110022 0 -0.42299782290930998 0.33648812320416688 0 -0.43819941775125809 0.31384428182232071 0 -0.42299782290930998 0.33648812320416688 0 -0.44671605944720338 0.32673241249399892 0 -0.42299782290930998 0.33648812320416688 0 -0.43872882221383303 0.34102364561075132 0 -0.44671605944720338 0.32673241249399892 0 -0.42299782290930998 0.33648812320416688 0 -0.43839825832744922 0.35739209178430492 0 -0.43872882221383303 0.34102364561075132 0 -0.42299782290930998 0.33648812320416688 0 -0.43839825832744922 0.35739209178430492 0 -0.42299782290930998 0.33648812320416688 0 -0.41987374360215279 0.35404577654749031 0 -0.43839825832744922 0.35739209178430492 0 -0.40509746878188069 0.34385084075687322 0 -0.42299782290930998 0.33648812320416688 0 -0.41987374360215279 0.35404577654749031 0 -0.40509746878188069 0.34385084075687322 0 -0.41987374360215279 0.35404577654749031 0 -0.41004472284565552 0.36618682098783573 0 -0.41987374360215279 0.35404577654749031 0 -0.41004472284565552 0.36618682098783573 0 -0.42659989592659903 0.37296220205617903 0 -0.41987374360215279 0.35404577654749031 0 -0.42659989592659903 0.37296220205617903 0 -0.43839825832744922 0.35739209178430492 0 -0.45379869374558651 0.37829606036444402 0 -0.43839825832744922 0.35739209178430492 0 -0.46647136848795401 0.35235314262262751 0 -0.45379869374558651 0.37829606036444402 0 -0.42659989592659903 0.37296220205617903 0 -0.43839825832744922 0.35739209178430492 0 -0.45379869374558651 0.37829606036444402 0 -0.43839825832744922 0.35739209178430492 0 -0.43839825832744922 0.35739209178430492 0 -0.46647136848795401 0.35235314262262751 0 -0.45395578951714338 0.3410555905570084 0 -0.43839825832744922 0.35739209178430492 0 -0.45395578951714338 0.3410555905570084 0 -0.43872882221383303 0.34102364561075132 0 -0.48068203446828239 0.37779950915806149 0 -0.45379869374558651 0.37829606036444402 0 -0.46647136848795401 0.35235314262262751 0 -0.48068203446828239 0.37779950915806149 0 -0.46647136848795401 0.35235314262262751 0 -0.48546392161398988 0.35353494888967052 0 -0.46647136848795401 0.35235314262262751 0 -0.48546392161398988 0.35353494888967052 0 -0.4738091949036195 0.32893286456733822 0 -0.48546392161398988 0.35353494888967052 0 -0.5 0.36622260643146048 0 -0.5 0.34129415320699358 0 -0.48068203446828239 0.37779950915806149 0 -0.48546392161398988 0.35353494888967052 0 -0.5 0.36622260643146048 0 -0.50000000000000089 0.31636569998252673 0 -0.4738091949036195 0.32893286456733822 0 -0.48007257809699772 0.30996436927466448 0 -0.50000000000000089 0.31636569998252673 0 -0.5 0.34129415320699358 0 -0.4738091949036195 0.32893286456733822 0 -0.48546392161398988 0.35353494888967052 0 -0.5 0.34129415320699358 0 -0.4738091949036195 0.32893286456733822 0 -0.4738091949036195 0.32893286456733822 0 -0.46166972458096173 0.3024240773635411 0 -0.48007257809699772 0.30996436927466448 0 -0.4738091949036195 0.32893286456733822 0 -0.44671605944720338 0.32673241249399892 0 -0.46166972458096173 0.3024240773635411 0 -0.4738091949036195 0.32893286456733822 0 -0.45395578951714338 0.3410555905570084 0 -0.44671605944720338 0.32673241249399892 0 -0.46647136848795401 0.35235314262262751 0 -0.4738091949036195 0.32893286456733822 0 -0.45395578951714338 0.3410555905570084 0 -0.45395578951714338 0.3410555905570084 0 -0.43872882221383303 0.34102364561075132 0 -0.44671605944720338 0.32673241249399892 0 -0.44671605944720338 0.32673241249399892 0 -0.43819941775125809 0.31384428182232071 0 -0.46166972458096173 0.3024240773635411 0 -0.43819941775125809 0.31384428182232071 0 -0.46166972458096173 0.3024240773635411 0 -0.43819941775125809 0.31384428182232071 0 -0.46166972458096173 0.3024240773635411 0 -0.43749079747772901 0.29594046276945257 0 -0.45260888357420048 0.2777226828970063 0 -0.43772453934250399 0.27555164753355149 0 -0.43749079747772901 0.29594046276945257 0 -0.46166972458096173 0.3024240773635411 0 -0.45260888357420048 0.2777226828970063 0 -0.43749079747772901 0.29594046276945257 0 -0.4681057370342519 0.28573066202882608 0 -0.46166972458096173 0.3024240773635411 0 -0.45260888357420048 0.2777226828970063 0 -0.46166972458096173 0.3024240773635411 0 -0.48007257809699772 0.30996436927466448 0 -0.48481139290341002 0.29213483518525218 0 -0.4681057370342519 0.28573066202882608 0 -0.48481139290341002 0.29213483518525218 0 -0.46962278580681849 0.26790397038797797 0 -0.4681057370342519 0.28573066202882608 0 -0.46166972458096173 0.3024240773635411 0 -0.48481139290341002 0.29213483518525218 0 -0.48481139290341002 0.29213483518525218 0 -0.5 0.28971864291210059 0 -0.48749752899699772 0.27345323565666702 0 -0.50000000000000089 0.31636569998252673 0 -0.48481139290341002 0.29213483518525218 0 -0.50000000000000089 0.31636569998252673 0 -0.48007257809699772 0.30996436927466448 0 -0.48481139290341002 0.29213483518525218 0 -0.50000000000000089 0.31636569998252673 0 -0.48481139290341002 0.29213483518525218 0 -0.5 0.28971864291210059 0 -0.5 0.26307158584167462 0 -0.48749752899699772 0.27345323565666702 0 -0.48125169178165411 0.25532848532078722 0 -0.5 0.2364245287712485 0 -0.5 0.26307158584167462 0 -0.48125169178165411 0.25532848532078722 0 -0.5 0.28971864291210059 0 -0.5 0.26307158584167462 0 -0.48749752899699772 0.27345323565666702 0 -0.48481139290341002 0.29213483518525218 0 -0.46962278580681849 0.26790397038797797 0 -0.48481139290341002 0.29213483518525218 0 -0.48749752899699772 0.27345323565666702 0 -0.46962278580681849 0.26790397038797797 0 -0.48749752899699772 0.27345323565666702 0 -0.46962278580681849 0.26790397038797797 0 -0.48125169178165411 0.25532848532078722 0 -0.46962278580681849 0.26790397038797797 0 -0.48125169178165411 0.25532848532078722 0 -0.45859907893804591 0.25600533817739662 0 -0.46962278580681849 0.26790397038797797 0 -0.45859907893804591 0.25600533817739662 0 -0.45260888357420048 0.2777226828970063 0 -0.4681057370342519 0.28573066202882608 0 -0.46962278580681849 0.26790397038797797 0 -0.45260888357420048 0.2777226828970063 0 -0.45260888357420048 0.2777226828970063 0 -0.43772453934250399 0.27555164753355149 0 -0.43795594801819793 0.26037200874820449 0 -0.45859907893804591 0.25600533817739662 0 -0.45260888357420048 0.2777226828970063 0 -0.43795594801819793 0.26037200874820449 0 -0.45330364779787902 0.23973163754936089 0 -0.45859907893804591 0.25600533817739662 0 -0.43795594801819793 0.26037200874820449 0 -0.42744576209026269 0.239194991715039 0 -0.43795594801819793 0.26037200874820449 0 -0.41858888358464352 0.25689446841416652 0 -0.43795594801819793 0.26037200874820449 0 -0.41858888358464352 0.25689446841416652 0 -0.42510993509463202 0.26941752332322733 0 -0.40580033969952928 0.245693854538451 0 -0.41858888358464352 0.25689446841416652 0 -0.40261860671784139 0.25957607527603682 0 -0.41858888358464352 0.25689446841416652 0 -0.41260270988739822 0.26711235688404072 0 -0.40261860671784139 0.25957607527603682 0 -0.41858888358464352 0.25689446841416652 0 -0.41260270988739822 0.26711235688404072 0 -0.42510993509463202 0.26941752332322733 0 -0.41260270988739822 0.26711235688404072 0 -0.41664295147167429 0.27575734194250379 0 -0.39753919484708639 0.27409934754011062 0 -0.41978184020065612 0.28625916462339462 0 -0.39753919484708639 0.27409934754011062 0 -0.41664295147167429 0.27575734194250379 0 -0.41978184020065612 0.28625916462339462 0 -0.39753919484708639 0.27409934754011062 0 -0.41260270988739822 0.26711235688404072 0 -0.41664295147167429 0.27575734194250379 0 -0.42510993509463202 0.26941752332322733 0 -0.41664295147167429 0.27575734194250379 0 -0.42510993509463202 0.26941752332322733 0 -0.42818107732859861 0.28189831734174559 0 -0.43772453934250399 0.27555164753355149 0 -0.43795594801819793 0.26037200874820449 0 -0.42510993509463202 0.26941752332322733 0 -0.43772453934250399 0.27555164753355149 0 -0.42510993509463202 0.26941752332322733 0 -0.42818107732859861 0.28189831734174559 0 -0.43749079747772901 0.29594046276945257 0 -0.41978184020065612 0.28625916462339462 0 -0.4208819708738249 0.2950332789602686 0 -0.43749079747772901 0.29594046276945257 0 -0.41978184020065612 0.28625916462339462 0 -0.43749079747772901 0.29594046276945257 0 -0.42818107732859861 0.28189831734174559 0 -0.41978184020065612 0.28625916462339462 0 -0.43772453934250399 0.27555164753355149 0 -0.43749079747772901 0.29594046276945257 0 -0.42818107732859861 0.28189831734174559 0 -0.42818107732859861 0.28189831734174559 0 -0.41978184020065612 0.28625916462339462 0 -0.43819941775125809 0.31384428182232071 0 -0.43749079747772901 0.29594046276945257 0 -0.42466461981525661 0.30253258787941539 0 -0.43749079747772901 0.29594046276945257 0 -0.42466461981525661 0.30253258787941539 0 -0.4208819708738249 0.2950332789602686 0 -0.43819941775125809 0.31384428182232071 0 -0.42466461981525661 0.30253258787941539 0 -0.42269104203127372 0.31156757014732489 0 -0.42466461981525661 0.30253258787941539 0 -0.42269104203127372 0.31156757014732489 0 -0.41392363796185172 0.3082553066405575 0 -0.42466461981525661 0.30253258787941539 0 -0.41342999038594508 0.29859925160447631 0 -0.41392363796185172 0.3082553066405575 0 -0.42466461981525661 0.30253258787941539 0 -0.41342999038594508 0.29859925160447631 0 -0.4208819708738249 0.2950332789602686 0 -0.40730402408910032 0.30192004971003611 0 -0.41342999038594508 0.29859925160447631 0 -0.40904260648953789 0.29183492792460342 0 -0.40730402408910032 0.30192004971003611 0 -0.41342999038594508 0.29859925160447631 0 -0.41392363796185172 0.3082553066405575 0 -0.40730402408910032 0.30192004971003611 0 -0.41392363796185172 0.3082553066405575 0 -0.40503530710815022 0.31210648361198118 0 -0.41978184020065612 0.28625916462339462 0 -0.40904260648953789 0.29183492792460342 0 -0.39753919484708639 0.27409934754011062 0 -0.41978184020065612 0.28625916462339462 0 -0.40904260648953789 0.29183492792460342 0 -0.41664295147167429 0.27575734194250379 0 -0.42818107732859861 0.28189831734174559 0 -0.41978184020065612 0.28625916462339462 0 -0.41978184020065612 0.28625916462339462 0 -0.4208819708738249 0.2950332789602686 0 -0.40904260648953789 0.29183492792460342 0 -0.41342999038594508 0.29859925160447631 0 -0.4208819708738249 0.2950332789602686 0 -0.40904260648953789 0.29183492792460342 0 -0.41342999038594508 0.29859925160447631 0 -0.40904260648953789 0.29183492792460342 0 -0.40904260648953789 0.29183492792460342 0 -0.39753919484708639 0.27409934754011062 0 -0.40904260648953789 0.29183492792460342 0 -0.39803581355630879 0.28749501110502601 0 -0.39753919484708639 0.27409934754011062 0 -0.40904260648953789 0.29183492792460342 0 -0.39803581355630879 0.28749501110502601 0 -0.39534150329474371 0.29894848094286391 0 -0.40904260648953789 0.29183492792460342 0 -0.39534150329474371 0.29894848094286391 0 -0.39803581355630879 0.28749501110502601 0 -0.39534150329474371 0.29894848094286391 0 -0.39050096131835532 0.28483516783527613 0 -0.39803581355630879 0.28749501110502601 0 -0.39050096131835532 0.28483516783527613 0 -0.39234801038732242 0.27953644642506598 0 -0.40503530710815022 0.31210648361198118 0 -0.39534150329474371 0.29894848094286391 0 -0.40730402408910032 0.30192004971003611 0 -0.40503530710815022 0.31210648361198118 0 -0.39534150329474371 0.29894848094286391 0 -0.40730402408910032 0.30192004971003611 0 -0.40904260648953789 0.29183492792460342 0 -0.39534150329474371 0.29894848094286391 0 -0.39534150329474371 0.29894848094286391 0 -0.39363587141471501 0.30728981499909053 0 -0.38583207232069311 0.30388573602705232 0 -0.39379330715314331 0.31484150325675392 0 -0.40503530710815022 0.31210648361198118 0 -0.39363587141471501 0.30728981499909053 0 -0.39379330715314331 0.31484150325675392 0 -0.39363587141471501 0.30728981499909053 0 -0.38583207232069311 0.30388573602705232 0 -0.40503530710815022 0.31210648361198118 0 -0.39534150329474371 0.29894848094286391 0 -0.39363587141471501 0.30728981499909053 0 -0.39534150329474371 0.29894848094286391 0 -0.38583207232069311 0.30388573602705232 0 -0.39534150329474371 0.29894848094286391 0 -0.38583207232069311 0.30388573602705232 0 -0.38562483938483211 0.29670069618099959 0 -0.38583207232069311 0.30388573602705232 0 -0.38562483938483211 0.29670069618099959 0 -0.38583207232069311 0.30388573602705232 0 -0.38562483938483211 0.29670069618099959 0 -0.37240919827804569 0.30057634780168507 0 -0.39534150329474371 0.29894848094286391 0 -0.39050096131835532 0.28483516783527613 0 -0.37900730772995411 0.27677706165518939 0 -0.39534150329474371 0.29894848094286391 0 -0.38562483938483211 0.29670069618099959 0 -0.37900730772995411 0.27677706165518939 0 -0.39534150329474371 0.29894848094286391 0 -0.37900730772995411 0.27677706165518939 0 -0.38562483938483211 0.29670069618099959 0 -0.37900730772995411 0.27677706165518939 0 -0.3744913029212204 0.28952661047867589 0 -0.38562483938483211 0.29670069618099959 0 -0.3744913029212204 0.28952661047867589 0 -0.37240919827804569 0.30057634780168507 0 -0.38898123860903122 0.26942080410216213 0 -0.3819505975439535 0.27112380495768601 0 -0.36805485872834293 0.25798057532003799 0 -0.37900730772995411 0.27677706165518939 0 -0.3819505975439535 0.27112380495768601 0 -0.36805485872834293 0.25798057532003799 0 -0.37900730772995411 0.27677706165518939 0 -0.38658726172428642 0.27727151968961927 0 -0.3819505975439535 0.27112380495768601 0 -0.39050096131835532 0.28483516783527613 0 -0.37900730772995411 0.27677706165518939 0 -0.38658726172428642 0.27727151968961927 0 -0.38658726172428642 0.27727151968961927 0 -0.38912943164184638 0.27408511757487919 0 -0.3819505975439535 0.27112380495768601 0 -0.38658726172428642 0.27727151968961927 0 -0.38912943164184638 0.27408511757487919 0 -0.39234801038732242 0.27953644642506598 0 -0.39050096131835532 0.28483516783527613 0 -0.38658726172428642 0.27727151968961927 0 -0.39234801038732242 0.27953644642506598 0 -0.38912943164184638 0.27408511757487919 0 -0.38898123860903122 0.26942080410216213 0 -0.38912943164184638 0.27408511757487919 0 -0.38898123860903122 0.26942080410216213 0 -0.3819505975439535 0.27112380495768601 0 -0.38898123860903122 0.26942080410216213 0 -0.36805485872834293 0.25798057532003799 0 -0.38898123860903122 0.26942080410216213 0 -0.37902113430158751 0.25386458267276829 0 -0.37500269716740919 0.25646460594739889 0 -0.38807452743879189 0.24088245080081269 0 -0.38869674042272878 0.26046634316594441 0 -0.38898123860903122 0.26942080410216213 0 -0.37500269716740919 0.25646460594739889 0 -0.36805485872834293 0.25798057532003799 0 -0.37693854363861617 0.24233794345957099 0 -0.38869674042272878 0.26046634316594441 0 -0.37693854363861617 0.24233794345957099 0 -0.37902113430158751 0.25386458267276829 0 -0.38869674042272878 0.26046634316594441 0 -0.37116761061292508 0.24866231309539191 0 -0.37902113430158751 0.25386458267276829 0 -0.37500269716740919 0.25646460594739889 0 -0.38898123860903122 0.26942080410216213 0 -0.38869674042272878 0.26046634316594441 0 -0.38898123860903122 0.26942080410216213 0 -0.37902113430158751 0.25386458267276829 0 -0.38869674042272878 0.26046634316594441 0 -0.39625193030275058 0.24228903754291109 0 -0.38869674042272878 0.26046634316594441 0 -0.3982040435134121 0.25151182300141012 0 -0.38869674042272878 0.26046634316594441 0 -0.40261860671784139 0.25957607527603682 0 -0.39753919484708639 0.27409934754011062 0 -0.38869674042272878 0.26046634316594441 0 -0.3982040435134121 0.25151182300141012 0 -0.40261860671784139 0.25957607527603682 0 -0.40580033969952928 0.245693854538451 0 -0.3982040435134121 0.25151182300141012 0 -0.40261860671784139 0.25957607527603682 0 -0.41260270988739822 0.26711235688404072 0 -0.40261860671784139 0.25957607527603682 0 -0.39753919484708639 0.27409934754011062 0 -0.39803581355630879 0.28749501110502601 0 -0.39753919484708639 0.27409934754011062 0 -0.39234801038732242 0.27953644642506598 0 -0.38912943164184638 0.27408511757487919 0 -0.39753919484708639 0.27409934754011062 0 -0.39234801038732242 0.27953644642506598 0 -0.38898123860903122 0.26942080410216213 0 -0.39753919484708639 0.27409934754011062 0 -0.38869674042272878 0.26046634316594441 0 -0.39753919484708639 0.27409934754011062 0 -0.38912943164184638 0.27408511757487919 0 -0.38898123860903122 0.26942080410216213 0 -0.39753919484708639 0.27409934754011062 0 -0.38898123860903122 0.26942080410216213 0 -0.38869674042272878 0.26046634316594441 0 -0.39753919484708639 0.27409934754011062 0 -0.34934570103832852 0.27363484543415878 0 -0.35320621628322629 0.26348378910036518 0 -0.36178958064770972 0.27368187473058408 0 -0.35320621628322629 0.26348378910036518 0 -0.36299410747027111 0.26554783638089119 0 -0.36178958064770972 0.27368187473058408 0 -0.34934570103832852 0.27363484543415878 0 -0.36178958064770972 0.27368187473058408 0 -0.35669461872719982 0.28410937009634701 0 -0.34934570103832852 0.27363484543415878 0 -0.35669461872719982 0.28410937009634701 0 -0.3451826088404506 0.28464606494730682 0 -0.34934570103832852 0.27363484543415878 0 -0.35320621628322629 0.26348378910036518 0 -0.34037659163916589 0.26366456568522018 0 -0.34644561411291053 0.25620709145436737 0 -0.35320621628322629 0.26348378910036518 0 -0.34037659163916589 0.26366456568522018 0 -0.34644561411291053 0.25620709145436737 0 -0.35373634310408292 0.25621590266701172 0 -0.35320621628322629 0.26348378910036518 0 -0.34840026379089639 0.24801817990142791 0 -0.34644561411291053 0.25620709145436737 0 -0.35373634310408292 0.25621590266701172 0 -0.34840026379089639 0.24801817990142791 0 -0.34644561411291053 0.25620709145436737 0 -0.33813015026118409 0.25169783690702541 0 -0.34840026379089639 0.24801817990142791 0 -0.35373634310408292 0.25621590266701172 0 -0.3626731121651624 0.25460564236751648 0 -0.35373634310408292 0.25621590266701172 0 -0.358192980689862 0.25974258446376169 0 -0.3626731121651624 0.25460564236751648 0 -0.35320621628322629 0.26348378910036518 0 -0.358192980689862 0.25974258446376169 0 -0.36299410747027111 0.26554783638089119 0 -0.35373634310408292 0.25621590266701172 0 -0.35320621628322629 0.26348378910036518 0 -0.358192980689862 0.25974258446376169 0 -0.358192980689862 0.25974258446376169 0 -0.36299410747027111 0.26554783638089119 0 -0.3626731121651624 0.25460564236751648 0 -0.37900730772995411 0.27677706165518939 0 -0.3626731121651624 0.25460564236751648 0 -0.36805485872834293 0.25798057532003799 0 -0.36392816992970473 0.24591775619777331 0 -0.3626731121651624 0.25460564236751648 0 -0.36778864358515939 0.2523947545466329 0 -0.3626731121651624 0.25460564236751648 0 -0.36778864358515939 0.2523947545466329 0 -0.36805485872834293 0.25798057532003799 0 -0.37500269716740919 0.25646460594739889 0 -0.36778864358515939 0.2523947545466329 0 -0.36805485872834293 0.25798057532003799 0 -0.37116761061292508 0.24866231309539191 0 -0.37500269716740919 0.25646460594739889 0 -0.36778864358515939 0.2523947545466329 0 -0.37900730772995411 0.27677706165518939 0 -0.36299410747027111 0.26554783638089119 0 -0.36178958064770972 0.27368187473058408 0 -0.37900730772995411 0.27677706165518939 0 -0.36178958064770972 0.27368187473058408 0 -0.3676975406279902 0.28332253794927992 0 -0.37900730772995411 0.27677706165518939 0 -0.3626731121651624 0.25460564236751648 0 -0.37900730772995411 0.27677706165518939 0 -0.36299410747027111 0.26554783638089119 0 -0.3626731121651624 0.25460564236751648 0 -0.36178958064770972 0.27368187473058408 0 -0.3676975406279902 0.28332253794927992 0 -0.35669461872719982 0.28410937009634701 0 -0.37900730772995411 0.27677706165518939 0 -0.3676975406279902 0.28332253794927992 0 -0.3744913029212204 0.28952661047867589 0 -0.3676975406279902 0.28332253794927992 0 -0.3744913029212204 0.28952661047867589 0 -0.36505230986917458 0.29272796318874139 0 -0.3744913029212204 0.28952661047867589 0 -0.36505230986917458 0.29272796318874139 0 -0.37240919827804569 0.30057634780168507 0 -0.3676975406279902 0.28332253794927992 0 -0.36505230986917458 0.29272796318874139 0 -0.35669461872719982 0.28410937009634701 0 -0.38583207232069311 0.30388573602705232 0 -0.37240919827804569 0.30057634780168507 0 -0.36173759541267492 0.3163954833441599 0 -0.37240919827804569 0.30057634780168507 0 -0.36011392222469257 0.3034399465824511 0 -0.36173759541267492 0.3163954833441599 0 -0.38583207232069311 0.30388573602705232 0 -0.36173759541267492 0.3163954833441599 0 -0.36505230986917458 0.29272796318874139 0 -0.37240919827804569 0.30057634780168507 0 -0.36011392222469257 0.3034399465824511 0 -0.36011392222469257 0.3034399465824511 0 -0.34852776833256099 0.31108669770464109 0 -0.36173759541267492 0.3163954833441599 0 -0.36011392222469257 0.3034399465824511 0 -0.34852776833256099 0.31108669770464109 0 -0.35109997133954562 0.2966429343280112 0 -0.36505230986917458 0.29272796318874139 0 -0.36011392222469257 0.3034399465824511 0 -0.35109997133954562 0.2966429343280112 0 -0.34852776833256099 0.31108669770464109 0 -0.35109997133954562 0.2966429343280112 0 -0.33851082084134809 0.30602709547811191 0 -0.36505230986917458 0.29272796318874139 0 -0.35669461872719982 0.28410937009634701 0 -0.35109997133954562 0.2966429343280112 0 -0.35109997133954562 0.2966429343280112 0 -0.3451826088404506 0.28464606494730682 0 -0.33881925187025319 0.29412163514857048 0 -0.35669461872719982 0.28410937009634701 0 -0.35109997133954562 0.2966429343280112 0 -0.3451826088404506 0.28464606494730682 0 -0.3451826088404506 0.28464606494730682 0 -0.33538915625649363 0.28528258940839818 0 -0.33406183296524422 0.27592013140542621 0 -0.3451826088404506 0.28464606494730682 0 -0.33881925187025319 0.29412163514857048 0 -0.33538915625649363 0.28528258940839818 0 -0.33881925187025319 0.29412163514857048 0 -0.32741846465547109 0.30158438262344017 0 -0.32718118676668029 0.29093488817676988 0 -0.33881925187025319 0.29412163514857048 0 -0.33538915625649363 0.28528258940839818 0 -0.32718118676668029 0.29093488817676988 0 -0.33538915625649363 0.28528258940839818 0 -0.32718118676668029 0.29093488817676988 0 -0.32390098492860342 0.28027713050981978 0 -0.34852776833256099 0.31108669770464109 0 -0.33851082084134809 0.30602709547811191 0 -0.33787853873294021 0.3156607601258023 0 -0.35109997133954562 0.2966429343280112 0 -0.33881925187025319 0.29412163514857048 0 -0.33851082084134809 0.30602709547811191 0 -0.33881925187025319 0.29412163514857048 0 -0.33851082084134809 0.30602709547811191 0 -0.32741846465547109 0.30158438262344017 0 -0.33851082084134809 0.30602709547811191 0 -0.3262238854526604 0.31400380020931151 0 -0.33787853873294021 0.3156607601258023 0 -0.33851082084134809 0.30602709547811191 0 -0.32741846465547109 0.30158438262344017 0 -0.3262238854526604 0.31400380020931151 0 -0.32741846465547109 0.30158438262344017 0 -0.31570913124657107 0.30385373881377969 0 -0.3262238854526604 0.31400380020931151 0 -0.32741846465547109 0.30158438262344017 0 -0.31570913124657107 0.30385373881377969 0 -0.32220505749355022 0.29637359699847637 0 -0.31570913124657107 0.30385373881377969 0 -0.31153198490401568 0.28053483050913708 0 -0.31570913124657107 0.30385373881377969 0 -0.31851144730547809 0.28912137837991603 0 -0.31153198490401568 0.28053483050913708 0 -0.32718118676668029 0.29093488817676988 0 -0.31851144730547809 0.28912137837991603 0 -0.32390098492860342 0.28027713050981978 0 -0.32220505749355022 0.29637359699847637 0 -0.32718118676668029 0.29093488817676988 0 -0.31851144730547809 0.28912137837991603 0 -0.32741846465547109 0.30158438262344017 0 -0.32220505749355022 0.29637359699847637 0 -0.32718118676668029 0.29093488817676988 0 -0.31570913124657107 0.30385373881377969 0 -0.32220505749355022 0.29637359699847637 0 -0.31851144730547809 0.28912137837991603 0 -0.31851144730547809 0.28912137837991603 0 -0.32390098492860342 0.28027713050981978 0 -0.31153198490401568 0.28053483050913708 0 -0.3184075106482791 0.27316419053636859 0 -0.32390098492860342 0.28027713050981978 0 -0.31153198490401568 0.28053483050913708 0 -0.3184075106482791 0.27316419053636859 0 -0.31573788546135839 0.26626814150673089 0 -0.31153198490401568 0.28053483050913708 0 -0.3184075106482791 0.27316419053636859 0 -0.31573788546135839 0.26626814150673089 0 -0.32424344170521258 0.26795451774688228 0 -0.32424344170521258 0.26795451774688228 0 -0.32390098492860342 0.28027713050981978 0 -0.33406183296524422 0.27592013140542621 0 -0.3184075106482791 0.27316419053636859 0 -0.32424344170521258 0.26795451774688228 0 -0.32390098492860342 0.28027713050981978 0 -0.33538915625649363 0.28528258940839818 0 -0.32390098492860342 0.28027713050981978 0 -0.33406183296524422 0.27592013140542621 0 -0.32424344170521258 0.26795451774688228 0 -0.33406183296524422 0.27592013140542621 0 -0.33216774606787031 0.26687950405184607 0 -0.33406183296524422 0.27592013140542621 0 -0.33216774606787031 0.26687950405184607 0 -0.34037659163916589 0.26366456568522018 0 -0.34934570103832852 0.27363484543415878 0 -0.33406183296524422 0.27592013140542621 0 -0.34037659163916589 0.26366456568522018 0 -0.34934570103832852 0.27363484543415878 0 -0.3451826088404506 0.28464606494730682 0 -0.33406183296524422 0.27592013140542621 0 -0.34644561411291053 0.25620709145436737 0 -0.33813015026118409 0.25169783690702541 0 -0.34037659163916589 0.26366456568522018 0 -0.33813015026118409 0.25169783690702541 0 -0.34037659163916589 0.26366456568522018 0 -0.33015141878107862 0.25833922298941558 0 -0.32424344170521258 0.26795451774688228 0 -0.33216774606787031 0.26687950405184607 0 -0.33015141878107862 0.25833922298941558 0 -0.33216774606787031 0.26687950405184607 0 -0.34037659163916589 0.26366456568522018 0 -0.33015141878107862 0.25833922298941558 0 -0.32385113453816577 0.24413109765829119 0 -0.33813015026118409 0.25169783690702541 0 -0.33015141878107862 0.25833922298941558 0 -0.32385113453816577 0.24413109765829119 0 -0.32026774380945611 0.25878178042116362 0 -0.30735483856146228 0.25721592220449419 0 -0.32385113453816577 0.24413109765829119 0 -0.33015141878107862 0.25833922298941558 0 -0.32026774380945611 0.25878178042116362 0 -0.32385113453816577 0.24413109765829119 0 -0.30735483856146228 0.25721592220449419 0 -0.32424344170521258 0.26795451774688228 0 -0.33015141878107862 0.25833922298941558 0 -0.32026774380945611 0.25878178042116362 0 -0.31573788546135839 0.26626814150673089 0 -0.32424344170521258 0.26795451774688228 0 -0.32026774380945611 0.25878178042116362 0 -0.31573788546135839 0.26626814150673089 0 -0.32026774380945611 0.25878178042116362 0 -0.30735483856146228 0.25721592220449419 0 -0.32385113453816577 0.24413109765829119 0 -0.30613643323636058 0.25041417773018149 0 -0.30735483856146228 0.25721592220449419 0 -0.30613643323636058 0.25041417773018149 0 -0.3046723804107897 0.25934364192434678 0 -0.30613643323636058 0.25041417773018149 0 -0.30735483856146228 0.25721592220449419 0 -0.3046723804107897 0.25934364192434678 0 -0.30613643323636058 0.25041417773018149 0 -0.30735483856146228 0.25721592220449419 0 -0.30735483856146228 0.25721592220449419 0 -0.3046723804107897 0.25934364192434678 0 -0.3046723804107897 0.25934364192434678 0 -0.29261936745410688 0.26962820173481222 0 -0.29565887532278617 0.26039458930171 0 -0.3046723804107897 0.25934364192434678 0 -0.30002043710908338 0.2539961674922378 0 -0.29565887532278617 0.26039458930171 0 -0.30613643323636058 0.25041417773018149 0 -0.3046723804107897 0.25934364192434678 0 -0.30002043710908338 0.2539961674922378 0 -0.3046723804107897 0.25934364192434678 0 -0.29261936745410688 0.26962820173481222 0 -0.30097174618886952 0.28191433077052402 0 -0.31573788546135839 0.26626814150673089 0 -0.30735483856146228 0.25721592220449419 0 -0.31153198490401568 0.28053483050913708 0 -0.30735483856146228 0.25721592220449419 0 -0.31153198490401568 0.28053483050913708 0 -0.3046723804107897 0.25934364192434678 0 -0.30097174618886952 0.28191433077052402 0 -0.3046723804107897 0.25934364192434678 0 -0.31153198490401568 0.28053483050913708 0 -0.30097174618886952 0.28191433077052402 0 -0.30735483856146228 0.25721592220449419 0 -0.3046723804107897 0.25934364192434678 0 -0.31153198490401568 0.28053483050913708 0 -0.29261936745410688 0.26962820173481222 0 -0.28558837650731322 0.25659050624710322 0 -0.27348754746191278 0.28097553139553899 0 -0.29261936745410688 0.26962820173481222 0 -0.28853229563229538 0.28104048396433401 0 -0.27348754746191278 0.28097553139553899 0 -0.29261936745410688 0.26962820173481222 0 -0.28853229563229538 0.28104048396433401 0 -0.30097174618886952 0.28191433077052402 0 -0.30002043710908338 0.2539961674922378 0 -0.29565887532278617 0.26039458930171 0 -0.28558837650731322 0.25659050624710322 0 -0.2936501350895156 0.24405084356209761 0 -0.30002043710908338 0.2539961674922378 0 -0.28558837650731322 0.25659050624710322 0 -0.29261936745410688 0.26962820173481222 0 -0.29565887532278617 0.26039458930171 0 -0.28558837650731322 0.25659050624710322 0 -0.27760883961953331 0.24471233144187449 0 -0.28558837650731322 0.25659050624710322 0 -0.27161229781529761 0.26470304311630749 0 -0.27760883961953331 0.24471233144187449 0 -0.27161229781529761 0.26470304311630749 0 -0.26017853627539478 0.25712612960181042 0 -0.28558837650731322 0.25659050624710322 0 -0.27348754746191278 0.28097553139553899 0 -0.28558837650731322 0.25659050624710322 0 -0.27161229781529761 0.26470304311630749 0 -0.27348754746191278 0.28097553139553899 0 -0.27161229781529761 0.26470304311630749 0 -0.27348754746191278 0.28097553139553899 0 -0.2582885170335229 0.2823729351487807 0 -0.27161229781529761 0.26470304311630749 0 -0.26017853627539478 0.25712612960181042 0 -0.2582885170335229 0.2823729351487807 0 -0.26017853627539478 0.25712612960181042 0 -0.2582885170335229 0.2823729351487807 0 -0.26017853627539478 0.25712612960181042 0 -0.2582885170335229 0.2823729351487807 0 -0.24659824264107669 0.26745791470798058 0 -0.2582885170335229 0.2823729351487807 0 -0.24524345341823151 0.28132751991458749 0 -0.24659824264107669 0.26745791470798058 0 -0.26017853627539478 0.25712612960181042 0 -0.24659824264107669 0.26745791470798058 0 -0.24708083820574889 0.24741108561719261 0 -0.26138671841651229 0.30536055654397481 0 -0.2450536089478739 0.3139474193401352 0 -0.24875292378774869 0.30240359109268639 0 -0.26138671841651229 0.30536055654397481 0 -0.25553608612723411 0.29348988609606458 0 -0.24875292378774869 0.30240359109268639 0 -0.27348754746191278 0.28097553139553899 0 -0.26138671841651229 0.30536055654397481 0 -0.25553608612723411 0.29348988609606458 0 -0.27348754746191278 0.28097553139553899 0 -0.25553608612723411 0.29348988609606458 0 -0.2582885170335229 0.2823729351487807 0 -0.25553608612723411 0.29348988609606458 0 -0.2582885170335229 0.2823729351487807 0 -0.24524345341823151 0.28132751991458749 0 -0.27348754746191278 0.28097553139553899 0 -0.26138671841651229 0.30536055654397481 0 -0.27348754746191278 0.28097553139553899 0 -0.27620121577263662 0.30204634146059939 0 -0.28705052142429272 0.29164387195646069 0 -0.27348754746191278 0.28097553139553899 0 -0.26138671841651229 0.30536055654397481 0 -0.27620121577263662 0.30204634146059939 0 -0.26138671841651229 0.30536055654397481 0 -0.27620121577263662 0.30204634146059939 0 -0.26863500868113732 0.31671166226291692 0 -0.27620121577263662 0.30204634146059939 0 -0.28215959192692741 0.31397509786346067 0 -0.26863500868113732 0.31671166226291692 0 -0.28579421591860787 0.30284756173448402 0 -0.29727111196695022 0.30448501961670138 0 -0.28215959192692741 0.31397509786346067 0 -0.27620121577263662 0.30204634146059939 0 -0.28579421591860787 0.30284756173448402 0 -0.28215959192692741 0.31397509786346067 0 -0.27620121577263662 0.30204634146059939 0 -0.28579421591860787 0.30284756173448402 0 -0.28705052142429272 0.29164387195646069 0 -0.28579421591860787 0.30284756173448402 0 -0.28705052142429272 0.29164387195646069 0 -0.29727111196695022 0.30448501961670138 0 -0.28705052142429272 0.29164387195646069 0 -0.30097174618886952 0.28191433077052402 0 -0.29727111196695022 0.30448501961670138 0 -0.28853229563229538 0.28104048396433401 0 -0.27348754746191278 0.28097553139553899 0 -0.28705052142429272 0.29164387195646069 0 -0.28853229563229538 0.28104048396433401 0 -0.28705052142429272 0.29164387195646069 0 -0.30097174618886952 0.28191433077052402 0 -0.30097174618886952 0.28191433077052402 0 -0.30638652464836402 0.29474919868341087 0 -0.29727111196695022 0.30448501961670138 0 -0.31570913124657107 0.30385373881377969 0 -0.31153198490401568 0.28053483050913708 0 -0.30638652464836402 0.29474919868341087 0 -0.30097174618886952 0.28191433077052402 0 -0.29727111196695022 0.30448501961670138 0 -0.31153198490401568 0.28053483050913708 0 -0.30097174618886952 0.28191433077052402 0 -0.30638652464836402 0.29474919868341087 0 -0.30638652464836402 0.29474919868341087 0 -0.29727111196695022 0.30448501961670138 0 -0.30644864893541313 0.30295807370691258 0 -0.31570913124657107 0.30385373881377969 0 -0.30638652464836402 0.29474919868341087 0 -0.30644864893541313 0.30295807370691258 0 -0.29727111196695022 0.30448501961670138 0 -0.30644864893541313 0.30295807370691258 0 -0.31065870921025568 0.31125470803060779 0 -0.31570913124657107 0.30385373881377969 0 -0.30644864893541313 0.30295807370691258 0 -0.31065870921025568 0.31125470803060779 0 -0.31065870921025568 0.31125470803060779 0 -0.30883773405756931 0.3377885471212847 0 -0.31065870921025568 0.31125470803060779 0 -0.30883773405756931 0.3377885471212847 0 -0.29357047774503092 0.32705570846287879 0 -0.29727111196695022 0.30448501961670138 0 -0.31065870921025568 0.31125470803060779 0 -0.29357047774503092 0.32705570846287879 0 -0.30883773405756931 0.3377885471212847 0 -0.29357047774503092 0.32705570846287879 0 -0.29262626825077048 0.34455041950175169 0 -0.29357047774503092 0.32705570846287879 0 -0.274141627918498 0.33243073375413901 0 -0.29262626825077048 0.34455041950175169 0 -0.29727111196695022 0.30448501961670138 0 -0.29357047774503092 0.32705570846287879 0 -0.28215959192692741 0.31397509786346067 0 -0.29727111196695022 0.30448501961670138 0 -0.29357047774503092 0.32705570846287879 0 -0.29357047774503092 0.32705570846287879 0 -0.28215959192692741 0.31397509786346067 0 -0.274141627918498 0.33243073375413901 0 -0.28215959192692741 0.31397509786346067 0 -0.26863500868113732 0.31671166226291692 0 -0.274141627918498 0.33243073375413901 0 -0.274141627918498 0.33243073375413901 0 -0.25955035673909083 0.3456577152017431 0 -0.27605024542652951 0.35088571902688143 0 -0.274141627918498 0.33243073375413901 0 -0.27605024542652951 0.35088571902688143 0 -0.29262626825077048 0.34455041950175169 0 -0.25955035673909083 0.3456577152017431 0 -0.24928588937111201 0.32974558169241042 0 -0.24572874428987909 0.33995181879428488 0 -0.274141627918498 0.33243073375413901 0 -0.25955035673909083 0.3456577152017431 0 -0.24928588937111201 0.32974558169241042 0 -0.26863500868113732 0.31671166226291692 0 -0.274141627918498 0.33243073375413901 0 -0.24928588937111201 0.32974558169241042 0 -0.26138671841651229 0.30536055654397481 0 -0.2450536089478739 0.3139474193401352 0 -0.24928588937111201 0.32974558169241042 0 -0.26138671841651229 0.30536055654397481 0 -0.26863500868113732 0.31671166226291692 0 -0.24928588937111201 0.32974558169241042 0 -0.26138671841651229 0.30536055654397481 0 -0.24928588937111201 0.32974558169241042 0 -0.26466135647484251 0.37871894617901009 0 -0.24854457481009459 0.35801624129052168 0 -0.26508502773092368 0.36006591479951822 0 -0.26466135647484251 0.37871894617901009 0 -0.24854457481009459 0.35801624129052168 0 -0.26466135647484251 0.37871894617901009 0 -0.2463014505838588 0.37962687200612621 0 -0.24854457481009459 0.35801624129052168 0 -0.26508502773092368 0.36006591479951822 0 -0.25955035673909083 0.3456577152017431 0 -0.24854457481009459 0.35801624129052168 0 -0.25955035673909083 0.3456577152017431 0 -0.24854457481009459 0.35801624129052168 0 -0.24572874428987909 0.33995181879428488 0 -0.26508502773092368 0.36006591479951822 0 -0.25955035673909083 0.3456577152017431 0 -0.27605024542652951 0.35088571902688143 0 -0.26508502773092368 0.36006591479951822 0 -0.27605024542652951 0.35088571902688143 0 -0.27661860520406117 0.36705095229943469 0 -0.27605024542652951 0.35088571902688143 0 -0.27661860520406117 0.36705095229943469 0 -0.28909170636710663 0.36100081784495758 0 -0.26508502773092368 0.36006591479951822 0 -0.27661860520406117 0.36705095229943469 0 -0.26466135647484251 0.37871894617901009 0 -0.27661860520406117 0.36705095229943469 0 -0.28909170636710663 0.36100081784495758 0 -0.288474487480401 0.37965604496162819 0 -0.28909170636710663 0.36100081784495758 0 -0.30701675890488289 0.36432238621196172 0 -0.288474487480401 0.37965604496162819 0 -0.28909170636710663 0.36100081784495758 0 -0.29262626825077048 0.34455041950175169 0 -0.30701675890488289 0.36432238621196172 0 -0.27605024542652951 0.35088571902688143 0 -0.28909170636710663 0.36100081784495758 0 -0.29262626825077048 0.34455041950175169 0 -0.30883773405756931 0.3377885471212847 0 -0.29262626825077048 0.34455041950175169 0 -0.30701675890488289 0.36432238621196172 0 -0.30883773405756931 0.3377885471212847 0 -0.30701675890488289 0.36432238621196172 0 -0.30701675890488289 0.36432238621196172 0 -0.3224108932712153 0.37304923804824369 0 -0.3240634239316818 0.35049155542306448 0 -0.3224108932712153 0.37304923804824369 0 -0.3240634239316818 0.35049155542306448 0 -0.34420592442724141 0.36797627800285532 0 -0.337314481749457 0.34374539534742782 0 -0.34420592442724141 0.36797627800285532 0 -0.34930897468442668 0.35162496206280353 0 -0.3240634239316818 0.35049155542306448 0 -0.337314481749457 0.34374539534742782 0 -0.34420592442724141 0.36797627800285532 0 -0.30883773405756931 0.3377885471212847 0 -0.30701675890488289 0.36432238621196172 0 -0.3240634239316818 0.35049155542306448 0 -0.30883773405756931 0.3377885471212847 0 -0.3240634239316818 0.35049155542306448 0 -0.31988627758912652 0.3271726471184222 0 -0.3240634239316818 0.35049155542306448 0 -0.31988627758912652 0.3271726471184222 0 -0.337314481749457 0.34374539534742782 0 -0.3240634239316818 0.35049155542306448 0 -0.31988627758912652 0.3271726471184222 0 -0.31065870921025568 0.31125470803060779 0 -0.30883773405756931 0.3377885471212847 0 -0.31988627758912652 0.3271726471184222 0 -0.31988627758912652 0.3271726471184222 0 -0.3262238854526604 0.31400380020931151 0 -0.33764311850465822 0.3289052306612702 0 -0.31570913124657107 0.30385373881377969 0 -0.31065870921025568 0.31125470803060779 0 -0.31988627758912652 0.3271726471184222 0 -0.31570913124657107 0.30385373881377969 0 -0.31988627758912652 0.3271726471184222 0 -0.31570913124657107 0.30385373881377969 0 -0.31988627758912652 0.3271726471184222 0 -0.3262238854526604 0.31400380020931151 0 -0.34852776833256099 0.31108669770464109 0 -0.33787853873294021 0.3156607601258023 0 -0.33764311850465822 0.3289052306612702 0 -0.3262238854526604 0.31400380020931151 0 -0.33787853873294021 0.3156607601258023 0 -0.33764311850465822 0.3289052306612702 0 -0.31988627758912652 0.3271726471184222 0 -0.33764311850465822 0.3289052306612702 0 -0.337314481749457 0.34374539534742782 0 -0.33764311850465822 0.3289052306612702 0 -0.337314481749457 0.34374539534742782 0 -0.34990192827699329 0.3369656114248768 0 -0.34990192827699329 0.3369656114248768 0 -0.36173759541267492 0.3163954833441599 0 -0.36360930633724159 0.34219590222004748 0 -0.34990192827699329 0.3369656114248768 0 -0.36360930633724159 0.34219590222004748 0 -0.35922118418508292 0.35202954724616559 0 -0.34852776833256099 0.31108669770464109 0 -0.33764311850465822 0.3289052306612702 0 -0.36173759541267492 0.3163954833441599 0 -0.33764311850465822 0.3289052306612702 0 -0.34990192827699329 0.3369656114248768 0 -0.36173759541267492 0.3163954833441599 0 -0.33764311850465822 0.3289052306612702 0 -0.36173759541267492 0.3163954833441599 0 -0.38651459348757128 0.32754964716831519 0 -0.36173759541267492 0.3163954833441599 0 -0.36360930633724159 0.34219590222004748 0 -0.37507345220846661 0.34756729091211452 0 -0.36360930633724159 0.34219590222004748 0 -0.36902390444181271 0.35868850617201092 0 -0.36360930633724159 0.34219590222004748 0 -0.36902390444181271 0.35868850617201092 0 -0.35922118418508292 0.35202954724616559 0 -0.36360930633724159 0.34219590222004748 0 -0.36902390444181271 0.35868850617201092 0 -0.36902390444181271 0.35868850617201092 0 -0.3637320855182043 0.36086512054495717 0 -0.35922118418508292 0.35202954724616559 0 -0.37565629158876779 0.37889043664926669 0 -0.36902390444181271 0.35868850617201092 0 -0.37565629158876779 0.37889043664926669 0 -0.37945464656632422 0.36645373223861322 0 -0.36902390444181271 0.35868850617201092 0 -0.37565629158876779 0.37889043664926669 0 -0.36902390444181271 0.35868850617201092 0 -0.36718053220715768 0.37131370429529242 0 -0.36718053220715768 0.37131370429529242 0 -0.35892126635272631 0.36842566769679008 0 -0.35759415489524482 0.38047512849322079 0 -0.36902390444181271 0.35868850617201092 0 -0.36718053220715768 0.37131370429529242 0 -0.3637320855182043 0.36086512054495717 0 -0.36718053220715768 0.37131370429529242 0 -0.3637320855182043 0.36086512054495717 0 -0.35892126635272631 0.36842566769679008 0 -0.36902390444181271 0.35868850617201092 0 -0.3637320855182043 0.36086512054495717 0 -0.35507788703353632 0.36018431511071441 0 -0.35892126635272631 0.36842566769679008 0 -0.34420592442724141 0.36797627800285532 0 -0.35507788703353632 0.36018431511071441 0 -0.34420592442724141 0.36797627800285532 0 -0.34930897468442668 0.35162496206280353 0 -0.3637320855182043 0.36086512054495717 0 -0.35507788703353632 0.36018431511071441 0 -0.35892126635272631 0.36842566769679008 0 -0.35892126635272631 0.36842566769679008 0 -0.34420592442724141 0.36797627800285532 0 -0.35759415489524482 0.38047512849322079 0 -0.337314481749457 0.34374539534742782 0 -0.34990192827699329 0.3369656114248768 0 -0.34930897468442668 0.35162496206280353 0 -0.34990192827699329 0.3369656114248768 0 -0.34930897468442668 0.35162496206280353 0 -0.35922118418508292 0.35202954724616559 0 -0.35507788703353632 0.36018431511071441 0 -0.34930897468442668 0.35162496206280353 0 -0.35922118418508292 0.35202954724616559 0 -0.3637320855182043 0.36086512054495717 0 -0.35507788703353632 0.36018431511071441 0 -0.35922118418508292 0.35202954724616559 0 -0.34784803471118553 0.3930483678011768 0 -0.35381478654587323 0.40909590852597449 0 -0.338526100176119 0.41437429951986771 0 -0.34784803471118553 0.3930483678011768 0 -0.36137466688256048 0.39476884696444497 0 -0.35381478654587323 0.40909590852597449 0 -0.34420592442724141 0.36797627800285532 0 -0.34784803471118553 0.3930483678011768 0 -0.35759415489524482 0.38047512849322079 0 -0.34784803471118553 0.3930483678011768 0 -0.35759415489524482 0.38047512849322079 0 -0.36137466688256048 0.39476884696444497 0 -0.35759415489524482 0.38047512849322079 0 -0.36656068560374661 0.38388660066764291 0 -0.36137466688256048 0.39476884696444497 0 -0.36656068560374661 0.38388660066764291 0 -0.37165537978427632 0.39230288392250512 0 -0.36137466688256048 0.39476884696444497 0 -0.36718053220715768 0.37131370429529242 0 -0.35759415489524482 0.38047512849322079 0 -0.36656068560374661 0.38388660066764291 0 -0.37565629158876779 0.37889043664926669 0 -0.36718053220715768 0.37131370429529242 0 -0.36656068560374661 0.38388660066764291 0 -0.37565629158876779 0.37889043664926669 0 -0.36656068560374661 0.38388660066764291 0 -0.37165537978427632 0.39230288392250512 0 -0.37165537978427632 0.39230288392250512 0 -0.36137466688256048 0.39476884696444497 0 -0.37239657611058341 0.40487616820464828 0 -0.36137466688256048 0.39476884696444497 0 -0.36366497273191939 0.40796976549846531 0 -0.35381478654587323 0.40909590852597449 0 -0.36137466688256048 0.39476884696444497 0 -0.37239657611058341 0.40487616820464828 0 -0.36366497273191939 0.40796976549846531 0 -0.37239657611058341 0.40487616820464828 0 -0.36975844010158021 0.41497261220385062 0 -0.36366497273191939 0.40796976549846531 0 -0.37602442616234011 0.41445159907153961 0 -0.37239657611058341 0.40487616820464828 0 -0.36975844010158021 0.41497261220385062 0 -0.37631563863825868 0.42309763206095391 0 -0.37602442616234011 0.41445159907153961 0 -0.36975844010158021 0.41497261220385062 0 -0.37631563863825868 0.42309763206095391 0 -0.36975844010158021 0.41497261220385062 0 -0.36549402488689298 0.42424180957468799 0 -0.36975844010158021 0.41497261220385062 0 -0.36098039401900001 0.41613529159340817 0 -0.36549402488689298 0.42424180957468799 0 -0.36098039401900001 0.41613529159340817 0 -0.36549402488689298 0.42424180957468799 0 -0.35283776503996589 0.42288674971054419 0 -0.36098039401900001 0.41613529159340817 0 -0.36366497273191939 0.40796976549846531 0 -0.35381478654587323 0.40909590852597449 0 -0.36975844010158021 0.41497261220385062 0 -0.36098039401900001 0.41613529159340817 0 -0.36366497273191939 0.40796976549846531 0 -0.37631563863825868 0.42309763206095391 0 -0.37275054302977062 0.43465633988172903 0 -0.36549402488689298 0.42424180957468799 0 -0.36549402488689298 0.42424180957468799 0 -0.36009956132034499 0.43335150085513902 0 -0.35283776503996589 0.42288674971054419 0 -0.37275054302977062 0.43465633988172903 0 -0.36549402488689298 0.42424180957468799 0 -0.36009956132034499 0.43335150085513902 0 -0.37275054302977062 0.43465633988172903 0 -0.36009956132034499 0.43335150085513902 0 -0.36458973158501379 0.44062874706777128 0 -0.36009956132034499 0.43335150085513902 0 -0.35283776503996589 0.42288674971054419 0 -0.34582460902219958 0.43571716061842308 0 -0.35283776503996589 0.42288674971054419 0 -0.34582460902219958 0.43571716061842308 0 -0.33959113467907542 0.42618565701944627 0 -0.36098039401900001 0.41613529159340817 0 -0.35283776503996589 0.42288674971054419 0 -0.35381478654587323 0.40909590852597449 0 -0.35283776503996589 0.42288674971054419 0 -0.35381478654587323 0.40909590852597449 0 -0.338526100176119 0.41437429951986771 0 -0.338526100176119 0.41437429951986771 0 -0.32961585395375109 0.42475700029493252 0 -0.3189392262529066 0.41522321259854028 0 -0.338526100176119 0.41437429951986771 0 -0.3189392262529066 0.41522321259854028 0 -0.33157257534007401 0.3915997453006978 0 -0.35283776503996589 0.42288674971054419 0 -0.338526100176119 0.41437429951986771 0 -0.33959113467907542 0.42618565701944627 0 -0.338526100176119 0.41437429951986771 0 -0.33959113467907542 0.42618565701944627 0 -0.32961585395375109 0.42475700029493252 0 -0.34582460902219958 0.43571716061842308 0 -0.33959113467907542 0.42618565701944627 0 -0.33244041938196872 0.43588406149406628 0 -0.33959113467907542 0.42618565701944627 0 -0.32961585395375109 0.42475700029493252 0 -0.33244041938196872 0.43588406149406628 0 -0.32181502347682212 0.43217603522671849 0 -0.3189392262529066 0.41522321259854028 0 -0.30630587716573909 0.43884667989638299 0 -0.32961585395375109 0.42475700029493252 0 -0.32181502347682212 0.43217603522671849 0 -0.3189392262529066 0.41522321259854028 0 -0.3189392262529066 0.41522321259854028 0 -0.30630587716573909 0.43884667989638299 0 -0.32961585395375109 0.42475700029493252 0 -0.33244041938196872 0.43588406149406628 0 -0.32181502347682212 0.43217603522671849 0 -0.3189392262529066 0.41522321259854028 0 -0.33157257534007401 0.3915997453006978 0 -0.30519578375219653 0.39085622530263869 0 -0.3189392262529066 0.41522321259854028 0 -0.33157257534007401 0.3915997453006978 0 -0.34784803471118553 0.3930483678011768 0 -0.338526100176119 0.41437429951986771 0 -0.33157257534007401 0.3915997453006978 0 -0.34420592442724141 0.36797627800285532 0 -0.34784803471118553 0.3930483678011768 0 -0.33157257534007401 0.3915997453006978 0 -0.34420592442724141 0.36797627800285532 0 -0.33157257534007401 0.3915997453006978 0 -0.3224108932712153 0.37304923804824369 0 -0.34420592442724141 0.36797627800285532 0 -0.33157257534007401 0.3915997453006978 0 -0.3224108932712153 0.37304923804824369 0 -0.33157257534007401 0.3915997453006978 0 -0.30519578375219653 0.39085622530263869 0 -0.30701675890488289 0.36432238621196172 0 -0.30519578375219653 0.39085622530263869 0 -0.288474487480401 0.37965604496162819 0 -0.30701675890488289 0.36432238621196172 0 -0.3224108932712153 0.37304923804824369 0 -0.30519578375219653 0.39085622530263869 0 -0.30701675890488289 0.36432238621196172 0 -0.30519578375219653 0.39085622530263869 0 -0.30519578375219653 0.39085622530263869 0 -0.3033748085995101 0.41739006439331577 0 -0.30519578375219653 0.39085622530263869 0 -0.29331418243527507 0.39994726985634971 0 -0.3033748085995101 0.41739006439331577 0 -0.29331418243527507 0.39994726985634971 0 -0.288474487480401 0.37965604496162819 0 -0.28077813813959052 0.3994216510674985 0 -0.29331418243527507 0.39994726985634971 0 -0.28077813813959052 0.3994216510674985 0 -0.28874769420467727 0.41241236355666722 0 -0.30519578375219653 0.39085622530263869 0 -0.29331418243527507 0.39994726985634971 0 -0.288474487480401 0.37965604496162819 0 -0.27661860520406117 0.36705095229943469 0 -0.288474487480401 0.37965604496162819 0 -0.26466135647484251 0.37871894617901009 0 -0.288474487480401 0.37965604496162819 0 -0.28077813813959052 0.3994216510674985 0 -0.26466135647484251 0.37871894617901009 0 -0.28077813813959052 0.3994216510674985 0 -0.26466135647484251 0.37871894617901009 0 -0.28077813813959052 0.3994216510674985 0 -0.27196926484997691 0.39938764456122239 0 -0.26466135647484251 0.37871894617901009 0 -0.28077813813959052 0.3994216510674985 0 -0.27196926484997691 0.39938764456122239 0 -0.27610703315340779 0.4126156480341166 0 -0.27196926484997691 0.39938764456122239 0 -0.25813362092896058 0.39293867770453372 0 -0.2562778875568294 0.40597914758632769 0 -0.25813362092896058 0.39293867770453372 0 -0.2562778875568294 0.40597914758632769 0 -0.2453765542474412 0.3989940811016664 0 -0.27196926484997691 0.39938764456122239 0 -0.25813362092896058 0.39293867770453372 0 -0.26466135647484251 0.37871894617901009 0 -0.25813362092896058 0.39293867770453372 0 -0.26466135647484251 0.37871894617901009 0 -0.2463014505838588 0.37962687200612621 0 -0.26051488801274958 0.42488409953442108 0 -0.24906051117552239 0.4503805545076201 0 -0.24393648029280979 0.43004797860943311 0 -0.27196926484997691 0.39938764456122239 0 -0.2562778875568294 0.40597914758632769 0 -0.26051488801274958 0.42488409953442108 0 -0.2562778875568294 0.40597914758632769 0 -0.26051488801274958 0.42488409953442108 0 -0.24539510974501871 0.41369123502979532 0 -0.27196926484997691 0.39938764456122239 0 -0.26051488801274958 0.42488409953442108 0 -0.27610703315340779 0.4126156480341166 0 -0.26051488801274958 0.42488409953442108 0 -0.27610703315340779 0.4126156480341166 0 -0.27852518056004488 0.42697248145077371 0 -0.27196926484997691 0.39938764456122239 0 -0.26051488801274958 0.42488409953442108 0 -0.27610703315340779 0.4126156480341166 0 -0.27852518056004488 0.42697248145077371 0 -0.28874769420467727 0.41241236355666722 0 -0.26051488801274958 0.42488409953442108 0 -0.27852518056004488 0.42697248145077371 0 -0.26735646099648369 0.44242718055118291 0 -0.29242192687067953 0.42796861313940932 0 -0.30630587716573909 0.43884667989638299 0 -0.285156073823426 0.44422147639990711 0 -0.27852518056004488 0.42697248145077371 0 -0.29242192687067953 0.42796861313940932 0 -0.285156073823426 0.44422147639990711 0 -0.27852518056004488 0.42697248145077371 0 -0.29242192687067953 0.42796861313940932 0 -0.28874769420467727 0.41241236355666722 0 -0.29331418243527507 0.39994726985634971 0 -0.28874769420467727 0.41241236355666722 0 -0.3033748085995101 0.41739006439331577 0 -0.28077813813959052 0.3994216510674985 0 -0.27610703315340779 0.4126156480341166 0 -0.28874769420467727 0.41241236355666722 0 -0.29242192687067953 0.42796861313940932 0 -0.28874769420467727 0.41241236355666722 0 -0.3033748085995101 0.41739006439331577 0 -0.3189392262529066 0.41522321259854028 0 -0.30519578375219653 0.39085622530263869 0 -0.3033748085995101 0.41739006439331577 0 -0.29242192687067953 0.42796861313940932 0 -0.3033748085995101 0.41739006439331577 0 -0.30630587716573909 0.43884667989638299 0 -0.3189392262529066 0.41522321259854028 0 -0.3033748085995101 0.41739006439331577 0 -0.30630587716573909 0.43884667989638299 0 -0.29374626919253899 0.46092630406915419 0 -0.29673466386224512 0.4812183740211704 0 -0.31335651375499551 0.46252780652225622 0 -0.30630587716573909 0.43884667989638299 0 -0.29374626919253899 0.46092630406915419 0 -0.31335651375499551 0.46252780652225622 0 -0.29374626919253899 0.46092630406915419 0 -0.285156073823426 0.44422147639990711 0 -0.27289758751888399 0.46579946426439489 0 -0.30630587716573909 0.43884667989638299 0 -0.29374626919253899 0.46092630406915419 0 -0.285156073823426 0.44422147639990711 0 -0.285156073823426 0.44422147639990711 0 -0.26735646099648369 0.44242718055118291 0 -0.27289758751888399 0.46579946426439489 0 -0.27852518056004488 0.42697248145077371 0 -0.285156073823426 0.44422147639990711 0 -0.26735646099648369 0.44242718055118291 0 -0.27289758751888399 0.46579946426439489 0 -0.24906051117552239 0.4503805545076201 0 -0.24221412324937869 0.46562002357420829 0 -0.27289758751888399 0.46579946426439489 0 -0.24906051117552239 0.4503805545076201 0 -0.26051488801274958 0.42488409953442108 0 -0.26735646099648369 0.44242718055118291 0 -0.24906051117552239 0.4503805545076201 0 -0.26051488801274958 0.42488409953442108 0 -0.24906051117552239 0.4503805545076201 0 -0.26735646099648369 0.44242718055118291 0 -0.27289758751888399 0.46579946426439489 0 -0.24906051117552239 0.4503805545076201 0 -0.25127816318788648 0.49042974632039882 0 -0.26718859105253912 0.49999999999999961 0 -0.24945194317039601 0.5 0 -0.25127816318788648 0.49042974632039882 0 -0.26718859105253912 0.49999999999999961 0 -0.25127816318788648 0.49042974632039882 0 -0.26548062498322889 0.48354828021732371 0 -0.26718859105253912 0.49999999999999961 0 -0.25127816318788648 0.49042974632039882 0 -0.25344764685252269 0.47725140140342448 0 -0.26548062498322889 0.48354828021732371 0 -0.27289758751888399 0.46579946426439489 0 -0.25344764685252269 0.47725140140342448 0 -0.26548062498322889 0.48354828021732371 0 -0.27289758751888399 0.46579946426439489 0 -0.25344764685252269 0.47725140140342448 0 -0.24221412324937869 0.46562002357420829 0 -0.27289758751888399 0.46579946426439489 0 -0.26548062498322889 0.48354828021732371 0 -0.27986402636177371 0.48606652654607291 0 -0.27986402636177371 0.48606652654607291 0 -0.26718859105253912 0.49999999999999961 0 -0.29610791668865821 0.5 0 -0.26548062498322889 0.48354828021732371 0 -0.27986402636177371 0.48606652654607291 0 -0.26718859105253912 0.49999999999999961 0 -0.27986402636177371 0.48606652654607291 0 -0.29610791668865821 0.5 0 -0.29673466386224512 0.4812183740211704 0 -0.27289758751888399 0.46579946426439489 0 -0.29673466386224512 0.4812183740211704 0 -0.27289758751888399 0.46579946426439489 0 -0.27986402636177371 0.48606652654607291 0 -0.29673466386224512 0.4812183740211704 0 -0.29374626919253899 0.46092630406915419 0 -0.27289758751888399 0.46579946426439489 0 -0.29673466386224512 0.4812183740211704 0 -0.29673466386224512 0.4812183740211704 0 -0.31286148836268668 0.48169344492202548 0 -0.31335651375499551 0.46252780652225622 0 -0.29610791668865821 0.5 0 -0.3250272423247772 0.5 0 -0.31286148836268668 0.48169344492202548 0 -0.29610791668865821 0.5 0 -0.29673466386224512 0.4812183740211704 0 -0.31286148836268668 0.48169344492202548 0 -0.3250272423247772 0.5 0 -0.32869521690572601 0.47414196666656599 0 -0.31286148836268668 0.48169344492202548 0 -0.3250272423247772 0.5 0 -0.3539465679608963 0.5 0 -0.34861549579557422 0.47683680417970231 0 -0.3250272423247772 0.5 0 -0.32869521690572601 0.47414196666656599 0 -0.34861549579557422 0.47683680417970231 0 -0.32869521690572601 0.47414196666656599 0 -0.31286148836268668 0.48169344492202548 0 -0.31335651375499551 0.46252780652225622 0 -0.32869521690572601 0.47414196666656599 0 -0.31335651375499551 0.46252780652225622 0 -0.33762144220330548 0.45409780653165732 0 -0.31335651375499551 0.46252780652225622 0 -0.32177374062974518 0.44616922184967062 0 -0.33762144220330548 0.45409780653165732 0 -0.30630587716573909 0.43884667989638299 0 -0.31335651375499551 0.46252780652225622 0 -0.32177374062974518 0.44616922184967062 0 -0.32181502347682212 0.43217603522671849 0 -0.30630587716573909 0.43884667989638299 0 -0.32177374062974518 0.44616922184967062 0 -0.33244041938196872 0.43588406149406628 0 -0.32181502347682212 0.43217603522671849 0 -0.32177374062974518 0.44616922184967062 0 -0.33244041938196872 0.43588406149406628 0 -0.32177374062974518 0.44616922184967062 0 -0.33762144220330548 0.45409780653165732 0 -0.34582460902219958 0.43571716061842308 0 -0.33244041938196872 0.43588406149406628 0 -0.33762144220330548 0.45409780653165732 0 -0.32869521690572601 0.47414196666656599 0 -0.33762144220330548 0.45409780653165732 0 -0.34861549579557422 0.47683680417970231 0 -0.35443143601232951 0.46088744889925182 0 -0.36948871577933412 0.46616952432095321 0 -0.34861549579557422 0.47683680417970231 0 -0.33762144220330548 0.45409780653165732 0 -0.35443143601232951 0.46088744889925182 0 -0.35546822440379777 0.44543902314150668 0 -0.33762144220330548 0.45409780653165732 0 -0.35443143601232951 0.46088744889925182 0 -0.34861549579557422 0.47683680417970231 0 -0.34582460902219958 0.43571716061842308 0 -0.33762144220330548 0.45409780653165732 0 -0.35546822440379777 0.44543902314150668 0 -0.36009956132034499 0.43335150085513902 0 -0.34582460902219958 0.43571716061842308 0 -0.35546822440379777 0.44543902314150668 0 -0.35546822440379777 0.44543902314150668 0 -0.36458973158501379 0.44062874706777128 0 -0.37004059758614172 0.44906812439271038 0 -0.36009956132034499 0.43335150085513902 0 -0.35546822440379777 0.44543902314150668 0 -0.36458973158501379 0.44062874706777128 0 -0.35443143601232951 0.46088744889925182 0 -0.35546822440379777 0.44543902314150668 0 -0.37004059758614172 0.44906812439271038 0 -0.37275054302977062 0.43465633988172903 0 -0.36458973158501379 0.44062874706777128 0 -0.37004059758614172 0.44906812439271038 0 -0.38276943238096361 0.45701512309642828 0 -0.37004059758614172 0.44906812439271038 0 -0.36948871577933412 0.46616952432095321 0 -0.35443143601232951 0.46088744889925182 0 -0.37004059758614172 0.44906812439271038 0 -0.36948871577933412 0.46616952432095321 0 -0.36948871577933412 0.46616952432095321 0 -0.36865535175256431 0.4830701207901279 0 -0.34861549579557422 0.47683680417970231 0 -0.38286589359701539 0.5 0 -0.36865535175256431 0.4830701207901279 0 -0.3539465679608963 0.5 0 -0.36865535175256431 0.4830701207901279 0 -0.3539465679608963 0.5 0 -0.34861549579557422 0.47683680417970231 0 -0.14397055153712021 0.47733051161919371 0 -0.14918297618799431 0.46852711126342822 0 -0.16418962814884569 0.48494941904835392 0 -0.14397055153712021 0.47733051161919371 0 -0.13889908149474869 0.48531199684400622 0 -0.16418962814884569 0.48494941904835392 0 -0.14397055153712021 0.47733051161919371 0 -0.13407165341845539 0.46751217712241239 0 -0.14918297618799431 0.46852711126342822 0 -0.1516380525463078 0.49166631685973261 0 -0.13889908149474869 0.48531199684400622 0 -0.16418962814884569 0.48494941904835392 0 -0.13889908149474869 0.48531199684400622 0 -0.16418962814884569 0.48494941904835392 0 -0.1516380525463078 0.49166631685973261 0 -0.14009645423271369 0.5 0 -0.1690745551184912 0.5 0 -0.1516380525463078 0.49166631685973261 0 -0.13889908149474869 0.48531199684400622 0 -0.14009645423271369 0.5 0 -0.13889908149474869 0.48531199684400622 0 -0.1136085348406518 0.48567457463965957 0 -0.14009645423271369 0.5 0 -0.12637183686921941 0.49372603032261708 0 -0.11111835334693621 0.50000000000000133 0 -0.13889908149474869 0.48531199684400622 0 -0.12637183686921941 0.49372603032261708 0 -0.1136085348406518 0.48567457463965957 0 -0.13889908149474869 0.48531199684400622 0 -0.14009645423271369 0.5 0 -0.12637183686921941 0.49372603032261708 0 -0.13350941843555689 0.48035185381776802 0 -0.12059116906993531 0.46292791820578189 0 -0.13889908149474869 0.48531199684400622 0 -0.13350941843555689 0.48035185381776802 0 -0.1136085348406518 0.48567457463965957 0 -0.13350941843555689 0.48035185381776802 0 -0.13407165341845539 0.46751217712241239 0 -0.12059116906993531 0.46292791820578189 0 -0.14397055153712021 0.47733051161919371 0 -0.13889908149474869 0.48531199684400622 0 -0.13350941843555689 0.48035185381776802 0 -0.14397055153712021 0.47733051161919371 0 -0.13350941843555689 0.48035185381776802 0 -0.13407165341845539 0.46751217712241239 0 -0.12943006961773479 0.45986061918146942 0 -0.13407165341845539 0.46751217712241239 0 -0.12059116906993531 0.46292791820578189 0 -0.12943006961773479 0.45986061918146942 0 -0.13928474622439241 0.45643866251684467 0 -0.12377270975815841 0.45256371888083929 0 -0.13928474622439241 0.45643866251684467 0 -0.12377270975815841 0.45256371888083929 0 -0.12943006961773479 0.45986061918146942 0 -0.13928474622439241 0.45643866251684467 0 -0.13407165341845539 0.46751217712241239 0 -0.13928474622439241 0.45643866251684467 0 -0.1346981962458782 0.44543977172490168 0 -0.1456823463091545 0.44065162816550868 0 -0.1346981962458782 0.44543977172490168 0 -0.1456823463091545 0.44065162816550868 0 -0.13005298269180801 0.43210507733641412 0 -0.13005298269180801 0.43210507733641412 0 -0.12377270975815841 0.45256371888083929 0 -0.1346981962458782 0.44543977172490168 0 -0.13005298269180801 0.43210507733641412 0 -0.12377270975815841 0.45256371888083929 0 -0.13928474622439241 0.45643866251684467 0 -0.1346981962458782 0.44543977172490168 0 -0.12377270975815841 0.45256371888083929 0 -0.1456823463091545 0.44065162816550868 0 -0.15201150640378239 0.45648441803149098 0 -0.16124255210230809 0.44711073056686362 0 -0.13928474622439241 0.45643866251684467 0 -0.1456823463091545 0.44065162816550868 0 -0.15201150640378239 0.45648441803149098 0 -0.1456823463091545 0.44065162816550868 0 -0.16124255210230809 0.44711073056686362 0 -0.15803134048318029 0.43474589279884812 0 -0.13928474622439241 0.45643866251684467 0 -0.13407165341845539 0.46751217712241239 0 -0.14918297618799431 0.46852711126342822 0 -0.13928474622439241 0.45643866251684467 0 -0.15201150640378239 0.45648441803149098 0 -0.14918297618799431 0.46852711126342822 0 -0.15201150640378239 0.45648441803149098 0 -0.14918297618799431 0.46852711126342822 0 -0.16381149829916769 0.46518534006258688 0 -0.16381149829916769 0.46518534006258688 0 -0.16124255210230809 0.44711073056686362 0 -0.17806687568622831 0.45287826519121471 0 -0.15201150640378239 0.45648441803149098 0 -0.16381149829916769 0.46518534006258688 0 -0.16124255210230809 0.44711073056686362 0 -0.16124255210230809 0.44711073056686362 0 -0.17806687568622831 0.45287826519121471 0 -0.16807398552720809 0.42931739778682282 0 -0.1852257282497895 0.446551744074905 0 -0.16807398552720809 0.42931739778682282 0 -0.17806687568622831 0.45287826519121471 0 -0.1852257282497895 0.446551744074905 0 -0.16807398552720809 0.42931739778682282 0 -0.17806687568622831 0.45287826519121471 0 -0.16807398552720809 0.42931739778682282 0 -0.17806687568622831 0.45287826519121471 0 -0.1852257282497895 0.446551744074905 0 -0.1891534945663701 0.45757194624194453 0 -0.1852257282497895 0.446551744074905 0 -0.19083250450713851 0.43807985523787529 0 -0.1811545365187674 0.43169427589095138 0 -0.17806687568622831 0.45287826519121471 0 -0.18805976584524869 0.47643913259560638 0 -0.1891534945663701 0.45757194624194453 0 -0.17806687568622831 0.45287826519121471 0 -0.17450621652066631 0.47615466930642281 0 -0.18805976584524869 0.47643913259560638 0 -0.17806687568622831 0.45287826519121471 0 -0.18805976584524869 0.47643913259560638 0 -0.16381149829916769 0.46518534006258688 0 -0.17806687568622831 0.45287826519121471 0 -0.17450621652066631 0.47615466930642281 0 -0.17450621652066631 0.47615466930642281 0 -0.16418962814884569 0.48494941904835392 0 -0.1894801748029426 0.48458684125270157 0 -0.17450621652066631 0.47615466930642281 0 -0.1894801748029426 0.48458684125270157 0 -0.18805976584524869 0.47643913259560638 0 -0.14918297618799431 0.46852711126342822 0 -0.16381149829916769 0.46518534006258688 0 -0.16418962814884569 0.48494941904835392 0 -0.16381149829916769 0.46518534006258688 0 -0.17450621652066631 0.47615466930642281 0 -0.16418962814884569 0.48494941904835392 0 -0.1516380525463078 0.49166631685973261 0 -0.1690745551184912 0.5 0 -0.16418962814884569 0.48494941904835392 0 -0.1690745551184912 0.5 0 -0.19805265600426861 0.49999999999999861 0 -0.1894801748029426 0.48458684125270157 0 -0.16418962814884569 0.48494941904835392 0 -0.1894801748029426 0.48458684125270157 0 -0.1690745551184912 0.5 0 -0.16418962814884569 0.48494941904835392 0 -0.1894801748029426 0.48458684125270157 0 -0.19805265600426861 0.49999999999999861 0 -0.18805976584524869 0.47643913259560638 0 -0.21131636372669849 0.48624970962156883 0 -0.19805265600426861 0.49999999999999861 0 -0.1894801748029426 0.48458684125270157 0 -0.18805976584524869 0.47643913259560638 0 -0.19805265600426861 0.49999999999999861 0 -0.18805976584524869 0.47643913259560638 0 -0.18805976584524869 0.47643913259560638 0 -0.20491472507349501 0.47308631608673862 0 -0.21131636372669849 0.48624970962156883 0 -0.18805976584524869 0.47643913259560638 0 -0.20491472507349501 0.47308631608673862 0 -0.20026248299519911 0.46259604066021121 0 -0.20491472507349501 0.47308631608673862 0 -0.21364711030295799 0.47764205275150112 0 -0.21079940724022159 0.46731309914690611 0 -0.20491472507349501 0.47308631608673862 0 -0.21364711030295799 0.47764205275150112 0 -0.21131636372669849 0.48624970962156883 0 -0.2180119504417892 0.47995774201308689 0 -0.21131636372669849 0.48624970962156883 0 -0.2223619688157262 0.48546110983653767 0 -0.21364711030295799 0.47764205275150112 0 -0.2180119504417892 0.47995774201308689 0 -0.2215533999819603 0.47239650512704923 0 -0.21364711030295799 0.47764205275150112 0 -0.2180119504417892 0.47995774201308689 0 -0.21131636372669849 0.48624970962156883 0 -0.21364711030295799 0.47764205275150112 0 -0.2215533999819603 0.47239650512704923 0 -0.21079940724022159 0.46731309914690611 0 -0.19805265600426861 0.49999999999999861 0 -0.21131636372669849 0.48624970962156883 0 -0.22676879149443979 0.499999999999996 0 -0.22676879149443979 0.499999999999996 0 -0.2294874821164247 0.49394842914506831 0 -0.2223619688157262 0.48546110983653767 0 -0.22676879149443979 0.499999999999996 0 -0.2294874821164247 0.49394842914506831 0 -0.23171529528825299 0.50000000000000089 0 -0.2294874821164247 0.49394842914506831 0 -0.23171529528825299 0.50000000000000089 0 -0.23977532133710319 0.49312162428118828 0 -0.22676879149443979 0.499999999999996 0 -0.2294874821164247 0.49394842914506831 0 -0.2294874821164247 0.49394842914506831 0 -0.23171529528825299 0.50000000000000089 0 -0.2294874821164247 0.49394842914506831 0 -0.23536773532323499 0.4808594926407963 0 -0.21131636372669849 0.48624970962156883 0 -0.22676879149443979 0.499999999999996 0 -0.2223619688157262 0.48546110983653767 0 -0.2294874821164247 0.49394842914506831 0 -0.22571733337277319 0.47505469621661173 0 -0.23536773532323499 0.4808594926407963 0 -0.2294874821164247 0.49394842914506831 0 -0.2215533999819603 0.47239650512704923 0 -0.2294874821164247 0.49394842914506831 0 -0.2223619688157262 0.48546110983653767 0 -0.2215533999819603 0.47239650512704923 0 -0.2294874821164247 0.49394842914506831 0 -0.22571733337277319 0.47505469621661173 0 -0.2215533999819603 0.47239650512704923 0 -0.2180119504417892 0.47995774201308689 0 -0.2223619688157262 0.48546110983653767 0 -0.2215533999819603 0.47239650512704923 0 -0.22571733337277319 0.47505469621661173 0 -0.2215533999819603 0.47239650512704923 0 -0.22929392169664739 0.46527230110483381 0 -0.22571733337277319 0.47505469621661173 0 -0.23536773532323499 0.4808594926407963 0 -0.22929392169664739 0.46527230110483381 0 -0.22571733337277319 0.47505469621661173 0 -0.23536773532323499 0.4808594926407963 0 -0.25127816318788648 0.49042974632039882 0 -0.25344764685252269 0.47725140140342448 0 -0.23536773532323499 0.4808594926407963 0 -0.25344764685252269 0.47725140140342448 0 -0.23536773532323499 0.4808594926407963 0 -0.24221412324937869 0.46562002357420829 0 -0.23536773532323499 0.4808594926407963 0 -0.24221412324937869 0.46562002357420829 0 -0.22929392169664739 0.46527230110483381 0 -0.23536773532323499 0.4808594926407963 0 -0.24221412324937869 0.46562002357420829 0 -0.25127816318788648 0.49042974632039882 0 -0.23536773532323499 0.4808594926407963 0 -0.23977532133710319 0.49312162428118828 0 -0.23171529528825299 0.50000000000000089 0 -0.24945194317039601 0.5 0 -0.23977532133710319 0.49312162428118828 0 -0.25127816318788648 0.49042974632039882 0 -0.23536773532323499 0.4808594926407963 0 -0.25127816318788648 0.49042974632039882 0 -0.24945194317039601 0.5 0 -0.23977532133710319 0.49312162428118828 0 -0.2294874821164247 0.49394842914506831 0 -0.23536773532323499 0.4808594926407963 0 -0.23977532133710319 0.49312162428118828 0 -0.23444294973161861 0.45204976878133751 0 -0.24906051117552239 0.4503805545076201 0 -0.2301888143644806 0.43817347903010467 0 -0.24906051117552239 0.4503805545076201 0 -0.2301888143644806 0.43817347903010467 0 -0.24906051117552239 0.4503805545076201 0 -0.2301888143644806 0.43817347903010467 0 -0.24393648029280979 0.43004797860943311 0 -0.24906051117552239 0.4503805545076201 0 -0.24221412324937869 0.46562002357420829 0 -0.23444294973161861 0.45204976878133751 0 -0.24221412324937869 0.46562002357420829 0 -0.22929392169664739 0.46527230110483381 0 -0.23444294973161861 0.45204976878133751 0 -0.24906051117552239 0.4503805545076201 0 -0.24221412324937869 0.46562002357420829 0 -0.2215533999819603 0.47239650512704923 0 -0.22929392169664739 0.46527230110483381 0 -0.2136193178474956 0.45084458110903042 0 -0.23444294973161861 0.45204976878133751 0 -0.22929392169664739 0.46527230110483381 0 -0.2136193178474956 0.45084458110903042 0 -0.2301888143644806 0.43817347903010467 0 -0.2136193178474956 0.45084458110903042 0 -0.21629502470879231 0.43729218970399542 0 -0.23444294973161861 0.45204976878133751 0 -0.2301888143644806 0.43817347903010467 0 -0.2136193178474956 0.45084458110903042 0 -0.2136193178474956 0.45084458110903042 0 -0.20568523571303091 0.4292926570910115 0 -0.21629502470879231 0.43729218970399542 0 -0.2136193178474956 0.45084458110903042 0 -0.19943265318197451 0.44030129103740312 0 -0.20568523571303091 0.4292926570910115 0 -0.2136193178474956 0.45084458110903042 0 -0.20568523571303091 0.4292926570910115 0 -0.2136193178474956 0.45084458110903042 0 -0.21079940724022159 0.46731309914690611 0 -0.20026248299519911 0.46259604066021121 0 -0.2215533999819603 0.47239650512704923 0 -0.2136193178474956 0.45084458110903042 0 -0.21079940724022159 0.46731309914690611 0 -0.2215533999819603 0.47239650512704923 0 -0.2136193178474956 0.45084458110903042 0 -0.20491472507349501 0.47308631608673862 0 -0.21079940724022159 0.46731309914690611 0 -0.20026248299519911 0.46259604066021121 0 -0.18805976584524869 0.47643913259560638 0 -0.20026248299519911 0.46259604066021121 0 -0.1891534945663701 0.45757194624194453 0 -0.2136193178474956 0.45084458110903042 0 -0.20026248299519911 0.46259604066021121 0 -0.19415262005538461 0.449394548687785 0 -0.20026248299519911 0.46259604066021121 0 -0.1891534945663701 0.45757194624194453 0 -0.19415262005538461 0.449394548687785 0 -0.2136193178474956 0.45084458110903042 0 -0.19943265318197451 0.44030129103740312 0 -0.19415262005538461 0.449394548687785 0 -0.1852257282497895 0.446551744074905 0 -0.1891534945663701 0.45757194624194453 0 -0.19415262005538461 0.449394548687785 0 -0.1852257282497895 0.446551744074905 0 -0.19415262005538461 0.449394548687785 0 -0.19083250450713851 0.43807985523787529 0 -0.19943265318197451 0.44030129103740312 0 -0.19415262005538461 0.449394548687785 0 -0.19083250450713851 0.43807985523787529 0 -0.19657112158146209 0.43142795838050901 0 -0.19244542074239601 0.41375932807507532 0 -0.20568523571303091 0.4292926570910115 0 -0.1884583674554528 0.42910931335569907 0 -0.19657112158146209 0.43142795838050901 0 -0.19244542074239601 0.41375932807507532 0 -0.19083250450713851 0.43807985523787529 0 -0.1884583674554528 0.42910931335569907 0 -0.19657112158146209 0.43142795838050901 0 -0.19943265318197451 0.44030129103740312 0 -0.19083250450713851 0.43807985523787529 0 -0.19657112158146209 0.43142795838050901 0 -0.19943265318197451 0.44030129103740312 0 -0.19657112158146209 0.43142795838050901 0 -0.20568523571303091 0.4292926570910115 0 -0.19244542074239601 0.41375932807507532 0 -0.21131711755343821 0.42596640355259002 0 -0.1884583674554528 0.42910931335569907 0 -0.19244542074239601 0.41375932807507532 0 -0.18329236872364921 0.42224406207837623 0 -0.21131711755343821 0.42596640355259002 0 -0.2190096020657368 0.41642494706005528 0 -0.2059170109357347 0.40585343696734871 0 -0.19244542074239601 0.41375932807507532 0 -0.21131711755343821 0.42596640355259002 0 -0.2059170109357347 0.40585343696734871 0 -0.2190096020657368 0.41642494706005528 0 -0.21947546590599709 0.40136805522857938 0 -0.2059170109357347 0.40585343696734871 0 -0.19244542074239601 0.41375932807507532 0 -0.20568523571303091 0.4292926570910115 0 -0.21131711755343821 0.42596640355259002 0 -0.21131711755343821 0.42596640355259002 0 -0.22381533776723619 0.42582631460653397 0 -0.2190096020657368 0.41642494706005528 0 -0.20568523571303091 0.4292926570910115 0 -0.21131711755343821 0.42596640355259002 0 -0.21629502470879231 0.43729218970399542 0 -0.2301888143644806 0.43817347903010467 0 -0.21131711755343821 0.42596640355259002 0 -0.2301888143644806 0.43817347903010467 0 -0.21131711755343821 0.42596640355259002 0 -0.21629502470879231 0.43729218970399542 0 -0.2301888143644806 0.43817347903010467 0 -0.21131711755343821 0.42596640355259002 0 -0.22381533776723619 0.42582631460653397 0 -0.2301888143644806 0.43817347903010467 0 -0.22381533776723619 0.42582631460653397 0 -0.2345230781662776 0.42311052494522422 0 -0.2345230781662776 0.42311052494522422 0 -0.21947546590599709 0.40136805522857938 0 -0.24539510974501871 0.41369123502979532 0 -0.2345230781662776 0.42311052494522422 0 -0.21947546590599709 0.40136805522857938 0 -0.2190096020657368 0.41642494706005528 0 -0.2345230781662776 0.42311052494522422 0 -0.21947546590599709 0.40136805522857938 0 -0.22381533776723619 0.42582631460653397 0 -0.2190096020657368 0.41642494706005528 0 -0.2345230781662776 0.42311052494522422 0 -0.26051488801274958 0.42488409953442108 0 -0.24539510974501871 0.41369123502979532 0 -0.24393648029280979 0.43004797860943311 0 -0.24539510974501871 0.41369123502979532 0 -0.24393648029280979 0.43004797860943311 0 -0.2345230781662776 0.42311052494522422 0 -0.2301888143644806 0.43817347903010467 0 -0.24393648029280979 0.43004797860943311 0 -0.2345230781662776 0.42311052494522422 0 -0.2463014505838588 0.37962687200612621 0 -0.2453765542474412 0.3989940811016664 0 -0.23355655689143601 0.38736027955934987 0 -0.25813362092896058 0.39293867770453372 0 -0.2463014505838588 0.37962687200612621 0 -0.2453765542474412 0.3989940811016664 0 -0.2463014505838588 0.37962687200612621 0 -0.23355655689143601 0.38736027955934987 0 -0.23045941465011499 0.37261238147978087 0 -0.24539510974501871 0.41369123502979532 0 -0.2453765542474412 0.3989940811016664 0 -0.21947546590599709 0.40136805522857938 0 -0.2562778875568294 0.40597914758632769 0 -0.24539510974501871 0.41369123502979532 0 -0.2453765542474412 0.3989940811016664 0 -0.2453765542474412 0.3989940811016664 0 -0.21947546590599709 0.40136805522857938 0 -0.23355655689143601 0.38736027955934987 0 -0.21947546590599709 0.40136805522857938 0 -0.23355655689143601 0.38736027955934987 0 -0.22113862605661161 0.38098326696081419 0 -0.23355655689143601 0.38736027955934987 0 -0.22113862605661161 0.38098326696081419 0 -0.23045941465011499 0.37261238147978087 0 -0.21947546590599709 0.40136805522857938 0 -0.22113862605661161 0.38098326696081419 0 -0.2044278536457167 0.37962558551193448 0 -0.21947546590599709 0.40136805522857938 0 -0.2044278536457167 0.37962558551193448 0 -0.21947546590599709 0.40136805522857938 0 -0.2044278536457167 0.37962558551193448 0 -0.2059170109357347 0.40585343696734871 0 -0.19244542074239601 0.41375932807507532 0 -0.2059170109357347 0.40585343696734871 0 -0.18860386678211219 0.39834639853769588 0 -0.2044278536457167 0.37962558551193448 0 -0.2059170109357347 0.40585343696734871 0 -0.18860386678211219 0.39834639853769588 0 -0.2044278536457167 0.37962558551193448 0 -0.1881234305746253 0.38460643135795419 0 -0.18224778959402241 0.37317945664449331 0 -0.2044278536457167 0.37962558551193448 0 -0.18860386678211219 0.39834639853769588 0 -0.1881234305746253 0.38460643135795419 0 -0.1772142122766501 0.3872742847376931 0 -0.16505010311588511 0.38747173085297232 0 -0.18224778959402241 0.37317945664449331 0 -0.1881234305746253 0.38460643135795419 0 -0.1772142122766501 0.3872742847376931 0 -0.18224778959402241 0.37317945664449331 0 -0.18860386678211219 0.39834639853769588 0 -0.1881234305746253 0.38460643135795419 0 -0.1772142122766501 0.3872742847376931 0 -0.16505010311588511 0.38747173085297232 0 -0.15614183315789709 0.37873087368590103 0 -0.16941411300006309 0.36237626140902479 0 -0.1772142122766501 0.3872742847376931 0 -0.16505010311588511 0.38747173085297232 0 -0.17171667536583551 0.39615294766817721 0 -0.1772142122766501 0.3872742847376931 0 -0.16505010311588511 0.38747173085297232 0 -0.16505010311588511 0.38747173085297232 0 -0.16012277951424689 0.41580656559604562 0 -0.17171667536583551 0.39615294766817721 0 -0.17408206777034449 0.40478326790221048 0 -0.16012277951424689 0.41580656559604562 0 -0.16505010311588511 0.38747173085297232 0 -0.16012277951424689 0.41580656559604562 0 -0.15463131194860261 0.40254284999193007 0 -0.16505010311588511 0.38747173085297232 0 -0.17171667536583551 0.39615294766817721 0 -0.16012277951424689 0.41580656559604562 0 -0.16505010311588511 0.38747173085297232 0 -0.15343517445529781 0.39502727221670808 0 -0.15463131194860261 0.40254284999193007 0 -0.18860386678211219 0.39834639853769588 0 -0.1772142122766501 0.3872742847376931 0 -0.17171667536583551 0.39615294766817721 0 -0.18860386678211219 0.39834639853769588 0 -0.17408206777034449 0.40478326790221048 0 -0.18103622081625101 0.41410156415493421 0 -0.18860386678211219 0.39834639853769588 0 -0.17171667536583551 0.39615294766817721 0 -0.17408206777034449 0.40478326790221048 0 -0.19244542074239601 0.41375932807507532 0 -0.18860386678211219 0.39834639853769588 0 -0.18103622081625101 0.41410156415493421 0 -0.19244542074239601 0.41375932807507532 0 -0.18103622081625101 0.41410156415493421 0 -0.18329236872364921 0.42224406207837623 0 -0.18103622081625101 0.41410156415493421 0 -0.17336729808537921 0.42255582891522098 0 -0.1707774306833513 0.41484475512026497 0 -0.18103622081625101 0.41410156415493421 0 -0.18329236872364921 0.42224406207837623 0 -0.17336729808537921 0.42255582891522098 0 -0.17408206777034449 0.40478326790221048 0 -0.18103622081625101 0.41410156415493421 0 -0.1707774306833513 0.41484475512026497 0 -0.1852257282497895 0.446551744074905 0 -0.1811545365187674 0.43169427589095138 0 -0.16807398552720809 0.42931739778682282 0 -0.19083250450713851 0.43807985523787529 0 -0.1884583674554528 0.42910931335569907 0 -0.1811545365187674 0.43169427589095138 0 -0.1884583674554528 0.42910931335569907 0 -0.1811545365187674 0.43169427589095138 0 -0.18329236872364921 0.42224406207837623 0 -0.1811545365187674 0.43169427589095138 0 -0.17336729808537921 0.42255582891522098 0 -0.16807398552720809 0.42931739778682282 0 -0.1811545365187674 0.43169427589095138 0 -0.18329236872364921 0.42224406207837623 0 -0.17336729808537921 0.42255582891522098 0 -0.16124255210230809 0.44711073056686362 0 -0.16807398552720809 0.42931739778682282 0 -0.15803134048318029 0.43474589279884812 0 -0.17336729808537921 0.42255582891522098 0 -0.1635080222088407 0.42472944458345208 0 -0.17336729808537921 0.42255582891522098 0 -0.16743559820916259 0.42781223174238953 0 -0.1635080222088407 0.42472944458345208 0 -0.17336729808537921 0.42255582891522098 0 -0.1635080222088407 0.42472944458345208 0 -0.16694388262295451 0.41948414855374577 0 -0.16807398552720809 0.42931739778682282 0 -0.1635080222088407 0.42472944458345208 0 -0.16743559820916259 0.42781223174238953 0 -0.16807398552720809 0.42931739778682282 0 -0.1635080222088407 0.42472944458345208 0 -0.16743559820916259 0.42781223174238953 0 -0.16807398552720809 0.42931739778682282 0 -0.17336729808537921 0.42255582891522098 0 -0.16743559820916259 0.42781223174238953 0 -0.16807398552720809 0.42931739778682282 0 -0.16807398552720809 0.42931739778682282 0 -0.1635080222088407 0.42472944458345208 0 -0.15803134048318029 0.43474589279884812 0 -0.1635080222088407 0.42472944458345208 0 -0.16012277951424689 0.41580656559604562 0 -0.14614073171867811 0.4072785124400321 0 -0.17408206777034449 0.40478326790221048 0 -0.1707774306833513 0.41484475512026497 0 -0.16012277951424689 0.41580656559604562 0 -0.1707774306833513 0.41484475512026497 0 -0.16694388262295451 0.41948414855374577 0 -0.16012277951424689 0.41580656559604562 0 -0.17336729808537921 0.42255582891522098 0 -0.1707774306833513 0.41484475512026497 0 -0.16694388262295451 0.41948414855374577 0 -0.1635080222088407 0.42472944458345208 0 -0.16694388262295451 0.41948414855374577 0 -0.16012277951424689 0.41580656559604562 0 -0.1635080222088407 0.42472944458345208 0 -0.14614073171867811 0.4072785124400321 0 -0.14678050245032431 0.42841726095993299 0 -0.1635080222088407 0.42472944458345208 0 -0.14614073171867811 0.4072785124400321 0 -0.16012277951424689 0.41580656559604562 0 -0.14614073171867811 0.4072785124400321 0 -0.15463131194860261 0.40254284999193007 0 -0.14614073171867811 0.4072785124400321 0 -0.14678050245032431 0.42841726095993299 0 -0.1402552237610728 0.41846640863415779 0 -0.14614073171867811 0.4072785124400321 0 -0.1402552237610728 0.41846640863415779 0 -0.13804667818348071 0.40606478380025202 0 -0.1635080222088407 0.42472944458345208 0 -0.15803134048318029 0.43474589279884812 0 -0.14678050245032431 0.42841726095993299 0 -0.1635080222088407 0.42472944458345208 0 -0.14678050245032431 0.42841726095993299 0 -0.1456823463091545 0.44065162816550868 0 -0.14678050245032431 0.42841726095993299 0 -0.13005298269180801 0.43210507733641412 0 -0.1456823463091545 0.44065162816550868 0 -0.15803134048318029 0.43474589279884812 0 -0.14678050245032431 0.42841726095993299 0 -0.14678050245032431 0.42841726095993299 0 -0.13005298269180801 0.43210507733641412 0 -0.14678050245032431 0.42841726095993299 0 -0.13005298269180801 0.43210507733641412 0 -0.1402552237610728 0.41846640863415779 0 -0.13005298269180801 0.43210507733641412 0 -0.1402552237610728 0.41846640863415779 0 -0.13804667818348071 0.40606478380025202 0 -0.13005298269180801 0.43210507733641412 0 -0.13804667818348071 0.40606478380025202 0 -0.116321194068536 0.41292800880089719 0 -0.13005298269180801 0.43210507733641412 0 -0.13804667818348071 0.40606478380025202 0 -0.14614073171867811 0.4072785124400321 0 -0.13814189445138231 0.39228441910132811 0 -0.12877344122851619 0.38982758029661152 0 -0.14614073171867811 0.4072785124400321 0 -0.13804667818348071 0.40606478380025202 0 -0.12877344122851619 0.38982758029661152 0 -0.13804667818348071 0.40606478380025202 0 -0.12877344122851619 0.38982758029661152 0 -0.116321194068536 0.41292800880089719 0 -0.14614073171867811 0.4072785124400321 0 -0.12877344122851619 0.38982758029661152 0 -0.12837063364772741 0.38806710686130003 0 -0.12906759272644749 0.38662911207340261 0 -0.14671036838180629 0.38776941885713612 0 -0.13814189445138231 0.39228441910132811 0 -0.12877344122851619 0.38982758029661152 0 -0.12837063364772741 0.38806710686130003 0 -0.13814189445138231 0.39228441910132811 0 -0.12837063364772741 0.38806710686130003 0 -0.14671036838180629 0.38776941885713612 0 -0.12906759272644749 0.38662911207340261 0 -0.13812999431338149 0.38024631174825663 0 -0.14671036838180629 0.38776941885713612 0 -0.12837063364772741 0.38806710686130003 0 -0.14671036838180629 0.38776941885713612 0 -0.12837063364772741 0.38806710686130003 0 -0.12906759272644749 0.38662911207340261 0 -0.12837063364772741 0.38806710686130003 0 -0.12906759272644749 0.38662911207340261 0 -0.12633768088122821 0.38124362562102831 0 -0.12633768088122821 0.38124362562102831 0 -0.1289832552009941 0.3738314810065792 0 -0.1208413835241765 0.37571939208829908 0 -0.12906759272644749 0.38662911207340261 0 -0.13062963078051279 0.38048763261231672 0 -0.13812999431338149 0.38024631174825663 0 -0.13062963078051279 0.38048763261231672 0 -0.13812999431338149 0.38024631174825663 0 -0.1289832552009941 0.3738314810065792 0 -0.12633768088122821 0.38124362562102831 0 -0.13062963078051279 0.38048763261231672 0 -0.1289832552009941 0.3738314810065792 0 -0.12906759272644749 0.38662911207340261 0 -0.12633768088122821 0.38124362562102831 0 -0.13062963078051279 0.38048763261231672 0 -0.16505010311588511 0.38747173085297232 0 -0.14671036838180629 0.38776941885713612 0 -0.16505010311588511 0.38747173085297232 0 -0.14671036838180629 0.38776941885713612 0 -0.15343517445529781 0.39502727221670808 0 -0.16505010311588511 0.38747173085297232 0 -0.14671036838180629 0.38776941885713612 0 -0.15614183315789709 0.37873087368590103 0 -0.13812999431338149 0.38024631174825663 0 -0.14671036838180629 0.38776941885713612 0 -0.14650908652218861 0.37542239554622431 0 -0.14671036838180629 0.38776941885713612 0 -0.14650908652218861 0.37542239554622431 0 -0.15614183315789709 0.37873087368590103 0 -0.14671036838180629 0.38776941885713612 0 -0.15343517445529781 0.39502727221670808 0 -0.1478118961911534 0.39698049452142692 0 -0.15343517445529781 0.39502727221670808 0 -0.15463131194860261 0.40254284999193007 0 -0.1478118961911534 0.39698049452142692 0 -0.14614073171867811 0.4072785124400321 0 -0.15463131194860261 0.40254284999193007 0 -0.1478118961911534 0.39698049452142692 0 -0.14614073171867811 0.4072785124400321 0 -0.13814189445138231 0.39228441910132811 0 -0.1478118961911534 0.39698049452142692 0 -0.13814189445138231 0.39228441910132811 0 -0.14671036838180629 0.38776941885713612 0 -0.1478118961911534 0.39698049452142692 0 -0.14500181395004769 0.3565448825387631 0 -0.13643899428725839 0.35790030585195748 0 -0.1405403331541058 0.34694981747966031 0 -0.1486555912468786 0.34971481907098478 0 -0.1405403331541058 0.34694981747966031 0 -0.1487244040638131 0.34185200137961053 0 -0.14500181395004769 0.3565448825387631 0 -0.1486555912468786 0.34971481907098478 0 -0.1405403331541058 0.34694981747966031 0 -0.1486555912468786 0.34971481907098478 0 -0.1556778760805437 0.3465658381814849 0 -0.1487244040638131 0.34185200137961053 0 -0.1486555912468786 0.34971481907098478 0 -0.1556778760805437 0.3465658381814849 0 -0.1556408049531425 0.35744627027754461 0 -0.14500181395004769 0.3565448825387631 0 -0.1486555912468786 0.34971481907098478 0 -0.1556408049531425 0.35744627027754461 0 -0.14500181395004769 0.3565448825387631 0 -0.1556408049531425 0.35744627027754461 0 -0.1462355338521639 0.36517943507144313 0 -0.1556408049531425 0.35744627027754461 0 -0.1547771951504667 0.36850320634790029 0 -0.1462355338521639 0.36517943507144313 0 -0.14650908652218861 0.37542239554622431 0 -0.15614183315789709 0.37873087368590103 0 -0.1547771951504667 0.36850320634790029 0 -0.14650908652218861 0.37542239554622431 0 -0.1547771951504667 0.36850320634790029 0 -0.1462355338521639 0.36517943507144313 0 -0.14650908652218861 0.37542239554622431 0 -0.1462355338521639 0.36517943507144313 0 -0.13732354638716229 0.36922817382717171 0 -0.13812999431338149 0.38024631174825663 0 -0.14650908652218861 0.37542239554622431 0 -0.13732354638716229 0.36922817382717171 0 -0.14500181395004769 0.3565448825387631 0 -0.1462355338521639 0.36517943507144313 0 -0.13643899428725839 0.35790030585195748 0 -0.13732354638716229 0.36922817382717171 0 -0.12873561250203791 0.36187736029042528 0 -0.13643899428725839 0.35790030585195748 0 -0.1462355338521639 0.36517943507144313 0 -0.13732354638716229 0.36922817382717171 0 -0.13643899428725839 0.35790030585195748 0 -0.13812999431338149 0.38024631174825663 0 -0.13732354638716229 0.36922817382717171 0 -0.1289832552009941 0.3738314810065792 0 -0.1289832552009941 0.3738314810065792 0 -0.12873561250203791 0.36187736029042528 0 -0.11977795347138211 0.36734030369386972 0 -0.13732354638716229 0.36922817382717171 0 -0.1289832552009941 0.3738314810065792 0 -0.12873561250203791 0.36187736029042528 0 -0.12873561250203791 0.36187736029042528 0 -0.13643899428725839 0.35790030585195748 0 -0.13068611345135009 0.35062293799885119 0 -0.12873561250203791 0.36187736029042528 0 -0.13068611345135009 0.35062293799885119 0 -0.12039313373428299 0.35558581878008938 0 -0.13643899428725839 0.35790030585195748 0 -0.1405403331541058 0.34694981747966031 0 -0.13068611345135009 0.35062293799885119 0 -0.1405403331541058 0.34694981747966031 0 -0.13068611345135009 0.35062293799885119 0 -0.13287643526781431 0.34035136428829288 0 -0.13068611345135009 0.35062293799885119 0 -0.13287643526781431 0.34035136428829288 0 -0.12292568622273931 0.34412929319006758 0 -0.12529970340807561 0.33289750756057052 0 -0.13287643526781431 0.34035136428829288 0 -0.12292568622273931 0.34412929319006758 0 -0.12529970340807561 0.33289750756057052 0 -0.135459550051758 0.33247793882547128 0 -0.13291719227795029 0.32399469496139233 0 -0.12529970340807561 0.33289750756057052 0 -0.135459550051758 0.33247793882547128 0 -0.13287643526781431 0.34035136428829288 0 -0.135459550051758 0.33247793882547128 0 -0.14326437070439069 0.32644114984670708 0 -0.1423767781035363 0.33597831622891849 0 -0.1405403331541058 0.34694981747966031 0 -0.13287643526781431 0.34035136428829288 0 -0.1423767781035363 0.33597831622891849 0 -0.135459550051758 0.33247793882547128 0 -0.13287643526781431 0.34035136428829288 0 -0.1423767781035363 0.33597831622891849 0 -0.13291719227795029 0.32399469496139233 0 -0.12888470526442741 0.31231562276637193 0 -0.1219067151924611 0.32441517511822993 0 -0.12529970340807561 0.33289750756057052 0 -0.13291719227795029 0.32399469496139233 0 -0.1219067151924611 0.32441517511822993 0 -0.13291719227795029 0.32399469496139233 0 -0.14247333126689099 0.31510625062330322 0 -0.14326437070439069 0.32644114984670708 0 -0.135459550051758 0.33247793882547128 0 -0.13291719227795029 0.32399469496139233 0 -0.14326437070439069 0.32644114984670708 0 -0.13291719227795029 0.32399469496139233 0 -0.14247333126689099 0.31510625062330322 0 -0.12888470526442741 0.31231562276637193 0 -0.147542391130383 0.3178510542811846 0 -0.14247333126689099 0.31510625062330322 0 -0.15188518188580971 0.3106656581497359 0 -0.147542391130383 0.3178510542811846 0 -0.14247333126689099 0.31510625062330322 0 -0.14326437070439069 0.32644114984670708 0 -0.147542391130383 0.3178510542811846 0 -0.14326437070439069 0.32644114984670708 0 -0.15279708360416561 0.32680760208370518 0 -0.147542391130383 0.3178510542811846 0 -0.15279708360416561 0.32680760208370518 0 -0.15738392009100949 0.32330799201434512 0 -0.147542391130383 0.3178510542811846 0 -0.15928501686487551 0.31439817636200029 0 -0.15738392009100949 0.32330799201434512 0 -0.147542391130383 0.3178510542811846 0 -0.15928501686487551 0.31439817636200029 0 -0.147542391130383 0.3178510542811846 0 -0.15928501686487551 0.31439817636200029 0 -0.15188518188580971 0.3106656581497359 0 -0.1405403331541058 0.34694981747966031 0 -0.1423767781035363 0.33597831622891849 0 -0.1487244040638131 0.34185200137961053 0 -0.1423767781035363 0.33597831622891849 0 -0.15144542221785229 0.33420721681590959 0 -0.1487244040638131 0.34185200137961053 0 -0.14326437070439069 0.32644114984670708 0 -0.1423767781035363 0.33597831622891849 0 -0.15144542221785229 0.33420721681590959 0 -0.14326437070439069 0.32644114984670708 0 -0.15279708360416561 0.32680760208370518 0 -0.15144542221785229 0.33420721681590959 0 -0.15279708360416561 0.32680760208370518 0 -0.15144542221785229 0.33420721681590959 0 -0.15703220887019889 0.33383346690708621 0 -0.15144542221785229 0.33420721681590959 0 -0.1583960544880427 0.33894632174240302 0 -0.15703220887019889 0.33383346690708621 0 -0.15144542221785229 0.33420721681590959 0 -0.1487244040638131 0.34185200137961053 0 -0.1583960544880427 0.33894632174240302 0 -0.1556778760805437 0.3465658381814849 0 -0.1487244040638131 0.34185200137961053 0 -0.1583960544880427 0.33894632174240302 0 -0.1583960544880427 0.33894632174240302 0 -0.16235762954335459 0.33414876211855687 0 -0.1666095436469488 0.33758341205443582 0 -0.1583960544880427 0.33894632174240302 0 -0.1666095436469488 0.33758341205443582 0 -0.1662072053804724 0.34460188189691687 0 -0.17075262414975681 0.3348302574718186 0 -0.15928501686487551 0.31439817636200029 0 -0.1737781228842416 0.3372807919650776 0 -0.1556778760805437 0.3465658381814849 0 -0.1583960544880427 0.33894632174240302 0 -0.1662072053804724 0.34460188189691687 0 -0.1583960544880427 0.33894632174240302 0 -0.15703220887019889 0.33383346690708621 0 -0.16235762954335459 0.33414876211855687 0 -0.15703220887019889 0.33383346690708621 0 -0.1590766747459457 0.32928753827344642 0 -0.16235762954335459 0.33414876211855687 0 -0.15279708360416561 0.32680760208370518 0 -0.15703220887019889 0.33383346690708621 0 -0.1590766747459457 0.32928753827344642 0 -0.1590766747459457 0.32928753827344642 0 -0.16235762954335459 0.33414876211855687 0 -0.16416699153265391 0.32949615512889019 0 -0.16235762954335459 0.33414876211855687 0 -0.16613976227092991 0.33416301749664562 0 -0.1666095436469488 0.33758341205443582 0 -0.16613976227092991 0.33416301749664562 0 -0.17075262414975681 0.3348302574718186 0 -0.1666095436469488 0.33758341205443582 0 -0.16613976227092991 0.33416301749664562 0 -0.16416699153265391 0.32949615512889019 0 -0.17075262414975681 0.3348302574718186 0 -0.16235762954335459 0.33414876211855687 0 -0.16613976227092991 0.33416301749664562 0 -0.16416699153265391 0.32949615512889019 0 -0.17075262414975681 0.3348302574718186 0 -0.17088995853375419 0.33757508702920719 0 -0.1666095436469488 0.33758341205443582 0 -0.17075262414975681 0.3348302574718186 0 -0.17088995853375419 0.33757508702920719 0 -0.1737781228842416 0.3372807919650776 0 -0.17088995853375419 0.33757508702920719 0 -0.16930266974516461 0.34022779692095317 0 -0.1737781228842416 0.3372807919650776 0 -0.17088995853375419 0.33757508702920719 0 -0.16930266974516461 0.34022779692095317 0 -0.1666095436469488 0.33758341205443582 0 -0.16930266974516461 0.34022779692095317 0 -0.1737781228842416 0.3372807919650776 0 -0.1662072053804724 0.34460188189691687 0 -0.16930266974516461 0.34022779692095317 0 -0.1666095436469488 0.33758341205443582 0 -0.1662072053804724 0.34460188189691687 0 -0.16416699153265391 0.32949615512889019 0 -0.17075262414975681 0.3348302574718186 0 -0.15928501686487551 0.31439817636200029 0 -0.15928501686487551 0.31439817636200029 0 -0.1737781228842416 0.3372807919650776 0 -0.15928501686487551 0.31439817636200029 0 -0.17018740356987061 0.32258961763134442 0 -0.1737781228842416 0.3372807919650776 0 -0.15928501686487551 0.31439817636200029 0 -0.17018740356987061 0.32258961763134442 0 -0.17821204652865499 0.3091032413007565 0 -0.16416699153265391 0.32949615512889019 0 -0.15928501686487551 0.31439817636200029 0 -0.15738392009100949 0.32330799201434512 0 -0.15279708360416561 0.32680760208370518 0 -0.1590766747459457 0.32928753827344642 0 -0.15738392009100949 0.32330799201434512 0 -0.1590766747459457 0.32928753827344642 0 -0.16416699153265391 0.32949615512889019 0 -0.15738392009100949 0.32330799201434512 0 -0.17018740356987061 0.32258961763134442 0 -0.18695440299631291 0.31585145153239758 0 -0.17018740356987061 0.32258961763134442 0 -0.18093911649024 0.32543938940121558 0 -0.18695440299631291 0.31585145153239758 0 -0.17018740356987061 0.32258961763134442 0 -0.18695440299631291 0.31585145153239758 0 -0.17821204652865499 0.3091032413007565 0 -0.17018740356987061 0.32258961763134442 0 -0.18093911649024 0.32543938940121558 0 -0.1783453155830291 0.33021572024094581 0 -0.18093911649024 0.32543938940121558 0 -0.18695440299631291 0.31585145153239758 0 -0.18909643161085021 0.32592847035820149 0 -0.18093911649024 0.32543938940121558 0 -0.1845008912229065 0.32954355067328039 0 -0.18909643161085021 0.32592847035820149 0 -0.1737781228842416 0.3372807919650776 0 -0.1928583322241034 0.34612699854318302 0 -0.1880122437377986 0.33775344269313717 0 -0.1737781228842416 0.3372807919650776 0 -0.1783453155830291 0.33021572024094581 0 -0.18312901061753031 0.33372684783282519 0 -0.17018740356987061 0.32258961763134442 0 -0.1737781228842416 0.3372807919650776 0 -0.1783453155830291 0.33021572024094581 0 -0.18312901061753031 0.33372684783282519 0 -0.1845008912229065 0.32954355067328039 0 -0.1909945818128832 0.33240732553321428 0 -0.18312901061753031 0.33372684783282519 0 -0.1909945818128832 0.33240732553321428 0 -0.1880122437377986 0.33775344269313717 0 -0.18093911649024 0.32543938940121558 0 -0.1783453155830291 0.33021572024094581 0 -0.1845008912229065 0.32954355067328039 0 -0.1783453155830291 0.33021572024094581 0 -0.18312901061753031 0.33372684783282519 0 -0.1845008912229065 0.32954355067328039 0 -0.1737781228842416 0.3372807919650776 0 -0.18312901061753031 0.33372684783282519 0 -0.1880122437377986 0.33775344269313717 0 -0.1737781228842416 0.3372807919650776 0 -0.18938024138543619 0.35788311579528981 0 -0.1767262765987242 0.34842020381200928 0 -0.16941411300006309 0.36237626140902479 0 -0.18938024138543619 0.35788311579528981 0 -0.1737781228842416 0.3372807919650776 0 -0.1767262765987242 0.34842020381200928 0 -0.18938024138543619 0.35788311579528981 0 -0.1737781228842416 0.3372807919650776 0 -0.1928583322241034 0.34612699854318302 0 -0.18938024138543619 0.35788311579528981 0 -0.1737781228842416 0.3372807919650776 0 -0.1767262765987242 0.34842020381200928 0 -0.16941411300006309 0.36237626140902479 0 -0.1556408049531425 0.35744627027754461 0 -0.1662072053804724 0.34460188189691687 0 -0.16941411300006309 0.36237626140902479 0 -0.1737781228842416 0.3372807919650776 0 -0.16941411300006309 0.36237626140902479 0 -0.1737781228842416 0.3372807919650776 0 -0.1662072053804724 0.34460188189691687 0 -0.16941411300006309 0.36237626140902479 0 -0.1556778760805437 0.3465658381814849 0 -0.1556408049531425 0.35744627027754461 0 -0.1662072053804724 0.34460188189691687 0 -0.16505010311588511 0.38747173085297232 0 -0.16941411300006309 0.36237626140902479 0 -0.15614183315789709 0.37873087368590103 0 -0.1547771951504667 0.36850320634790029 0 -0.16941411300006309 0.36237626140902479 0 -0.1556408049531425 0.35744627027754461 0 -0.1547771951504667 0.36850320634790029 0 -0.16941411300006309 0.36237626140902479 0 -0.16941411300006309 0.36237626140902479 0 -0.18224778959402241 0.37317945664449331 0 -0.18938024138543619 0.35788311579528981 0 -0.16505010311588511 0.38747173085297232 0 -0.16941411300006309 0.36237626140902479 0 -0.18224778959402241 0.37317945664449331 0 -0.2044278536457167 0.37962558551193448 0 -0.20244908633319031 0.35988481575763948 0 -0.18938024138543619 0.35788311579528981 0 -0.2044278536457167 0.37962558551193448 0 -0.18938024138543619 0.35788311579528981 0 -0.2044278536457167 0.37962558551193448 0 -0.18224778959402241 0.37317945664449331 0 -0.18938024138543619 0.35788311579528981 0 -0.20244908633319031 0.35988481575763948 0 -0.1928583322241034 0.34612699854318302 0 -0.18938024138543619 0.35788311579528981 0 -0.20244908633319031 0.35988481575763948 0 -0.1928583322241034 0.34612699854318302 0 -0.20469110267935109 0.34704112653043379 0 -0.20244908633319031 0.35988481575763948 0 -0.20469110267935109 0.34704112653043379 0 -0.21536760024174789 0.36269791181040861 0 -0.20469110267935109 0.34704112653043379 0 -0.2158091171706619 0.34810140657344579 0 -0.21536760024174789 0.36269791181040861 0 -0.2158091171706619 0.34810140657344579 0 -0.21536760024174789 0.36269791181040861 0 -0.22107323322170461 0.35426201494590992 0 -0.2044278536457167 0.37962558551193448 0 -0.20244908633319031 0.35988481575763948 0 -0.21536760024174789 0.36269791181040861 0 -0.22113862605661161 0.38098326696081419 0 -0.2044278536457167 0.37962558551193448 0 -0.21536760024174789 0.36269791181040861 0 -0.22113862605661161 0.38098326696081419 0 -0.21536760024174789 0.36269791181040861 0 -0.23045941465011499 0.37261238147978087 0 -0.23045941465011499 0.37261238147978087 0 -0.22665723328220291 0.35903495130258328 0 -0.24026012912579059 0.3676810038595939 0 -0.21536760024174789 0.36269791181040861 0 -0.23045941465011499 0.37261238147978087 0 -0.22665723328220291 0.35903495130258328 0 -0.22895162746005401 0.34780837195643632 0 -0.22665723328220291 0.35903495130258328 0 -0.24026012912579059 0.3676810038595939 0 -0.22367983406614589 0.35031476300387809 0 -0.22895162746005401 0.34780837195643632 0 -0.22665723328220291 0.35903495130258328 0 -0.22107323322170461 0.35426201494590992 0 -0.22367983406614589 0.35031476300387809 0 -0.22665723328220291 0.35903495130258328 0 -0.21536760024174789 0.36269791181040861 0 -0.22107323322170461 0.35426201494590992 0 -0.22665723328220291 0.35903495130258328 0 -0.2158091171706619 0.34810140657344579 0 -0.22107323322170461 0.35426201494590992 0 -0.22367983406614589 0.35031476300387809 0 -0.2158091171706619 0.34810140657344579 0 -0.22367983406614589 0.35031476300387809 0 -0.22413025018142679 0.34454742535507188 0 -0.22367983406614589 0.35031476300387809 0 -0.22413025018142679 0.34454742535507188 0 -0.22895162746005401 0.34780837195643632 0 -0.24854457481009459 0.35801624129052168 0 -0.23242779314534659 0.33731353640203332 0 -0.22895162746005401 0.34780837195643632 0 -0.24854457481009459 0.35801624129052168 0 -0.24026012912579059 0.3676810038595939 0 -0.24854457481009459 0.35801624129052168 0 -0.24572874428987909 0.33995181879428488 0 -0.23242779314534659 0.33731353640203332 0 -0.22895162746005401 0.34780837195643632 0 -0.24854457481009459 0.35801624129052168 0 -0.23242779314534659 0.33731353640203332 0 -0.22895162746005401 0.34780837195643632 0 -0.24026012912579059 0.3676810038595939 0 -0.2463014505838588 0.37962687200612621 0 -0.23045941465011499 0.37261238147978087 0 -0.24026012912579059 0.3676810038595939 0 -0.2463014505838588 0.37962687200612621 0 -0.24854457481009459 0.35801624129052168 0 -0.24026012912579059 0.3676810038595939 0 -0.23918227599157041 0.32754551216654387 0 -0.2450536089478739 0.3139474193401352 0 -0.24928588937111201 0.32974558169241042 0 -0.23918227599157041 0.32754551216654387 0 -0.2450536089478739 0.3139474193401352 0 -0.2335771335127447 0.31765739854469799 0 -0.2450536089478739 0.3139474193401352 0 -0.2335771335127447 0.31765739854469799 0 -0.23768883541382371 0.30633353088660759 0 -0.23918227599157041 0.32754551216654387 0 -0.24928588937111201 0.32974558169241042 0 -0.24572874428987909 0.33995181879428488 0 -0.23918227599157041 0.32754551216654387 0 -0.24572874428987909 0.33995181879428488 0 -0.23242779314534659 0.33731353640203332 0 -0.22895162746005401 0.34780837195643632 0 -0.2176431257943173 0.32793574005327869 0 -0.22895162746005401 0.34780837195643632 0 -0.23242779314534659 0.33731353640203332 0 -0.2176431257943173 0.32793574005327869 0 -0.22413025018142679 0.34454742535507188 0 -0.22895162746005401 0.34780837195643632 0 -0.2176431257943173 0.32793574005327869 0 -0.23918227599157041 0.32754551216654387 0 -0.23242779314534659 0.33731353640203332 0 -0.22902048668246641 0.3266573182257021 0 -0.23242779314534659 0.33731353640203332 0 -0.22902048668246641 0.3266573182257021 0 -0.2176431257943173 0.32793574005327869 0 -0.2253715736653237 0.31956598612127313 0 -0.2193886206425201 0.31477999489589442 0 -0.2176431257943173 0.32793574005327869 0 -0.22902048668246641 0.3266573182257021 0 -0.2253715736653237 0.31956598612127313 0 -0.2176431257943173 0.32793574005327869 0 -0.22902048668246641 0.3266573182257021 0 -0.2335771335127447 0.31765739854469799 0 -0.2253715736653237 0.31956598612127313 0 -0.23918227599157041 0.32754551216654387 0 -0.22902048668246641 0.3266573182257021 0 -0.2335771335127447 0.31765739854469799 0 -0.2335771335127447 0.31765739854469799 0 -0.2253715736653237 0.31956598612127313 0 -0.2272285016945699 0.31079947888679182 0 -0.2253715736653237 0.31956598612127313 0 -0.2193886206425201 0.31477999489589442 0 -0.2272285016945699 0.31079947888679182 0 -0.2193886206425201 0.31477999489589442 0 -0.2176431257943173 0.32793574005327869 0 -0.20633462412858039 0.30806310815012139 0 -0.2176431257943173 0.32793574005327869 0 -0.20554232658887031 0.33019943844373412 0 -0.19943397299177751 0.31889846590952348 0 -0.2176431257943173 0.32793574005327869 0 -0.20633462412858039 0.30806310815012139 0 -0.2176431257943173 0.32793574005327869 0 -0.19943397299177751 0.31889846590952348 0 -0.20633462412858039 0.30806310815012139 0 -0.22413025018142679 0.34454742535507188 0 -0.2176431257943173 0.32793574005327869 0 -0.20554232658887031 0.33019943844373412 0 -0.20469110267935109 0.34704112653043379 0 -0.2158091171706619 0.34810140657344579 0 -0.20554232658887031 0.33019943844373412 0 -0.22413025018142679 0.34454742535507188 0 -0.20554232658887031 0.33019943844373412 0 -0.2158091171706619 0.34810140657344579 0 -0.22413025018142679 0.34454742535507188 0 -0.20554232658887031 0.33019943844373412 0 -0.20469110267935109 0.34704112653043379 0 -0.20554232658887031 0.33019943844373412 0 -0.19816311776115389 0.33745185727925109 0 -0.20554232658887031 0.33019943844373412 0 -0.1909945818128832 0.33240732553321428 0 -0.18909643161085021 0.32592847035820149 0 -0.1928583322241034 0.34612699854318302 0 -0.20469110267935109 0.34704112653043379 0 -0.19816311776115389 0.33745185727925109 0 -0.20554232658887031 0.33019943844373412 0 -0.19816311776115389 0.33745185727925109 0 -0.1909945818128832 0.33240732553321428 0 -0.19816311776115389 0.33745185727925109 0 -0.1909945818128832 0.33240732553321428 0 -0.1880122437377986 0.33775344269313717 0 -0.1845008912229065 0.32954355067328039 0 -0.1909945818128832 0.33240732553321428 0 -0.18909643161085021 0.32592847035820149 0 -0.1928583322241034 0.34612699854318302 0 -0.19816311776115389 0.33745185727925109 0 -0.1880122437377986 0.33775344269313717 0 -0.18695440299631291 0.31585145153239758 0 -0.19943397299177751 0.31889846590952348 0 -0.20633462412858039 0.30806310815012139 0 -0.18695440299631291 0.31585145153239758 0 -0.20554232658887031 0.33019943844373412 0 -0.19943397299177751 0.31889846590952348 0 -0.18695440299631291 0.31585145153239758 0 -0.20554232658887031 0.33019943844373412 0 -0.18909643161085021 0.32592847035820149 0 -0.18695440299631291 0.31585145153239758 0 -0.20554232658887031 0.33019943844373412 0 -0.18695440299631291 0.31585145153239758 0 -0.20291673853887379 0.30205679677315622 0 -0.20633462412858039 0.30806310815012139 0 -0.18695440299631291 0.31585145153239758 0 -0.20291673853887379 0.30205679677315622 0 -0.17821204652865499 0.3091032413007565 0 -0.20291673853887379 0.30205679677315622 0 -0.17821204652865499 0.3091032413007565 0 -0.18695440299631291 0.31585145153239758 0 -0.20633462412858039 0.30806310815012139 0 -0.20291673853887379 0.30205679677315622 0 -0.1927030606054779 0.28410811816414372 0 -0.20291673853887379 0.30205679677315622 0 -0.1927030606054779 0.28410811816414372 0 -0.20292139016082181 0.28570855283568042 0 -0.20291673853887379 0.30205679677315622 0 -0.1927030606054779 0.28410811816414372 0 -0.17882248482312629 0.29275897435542031 0 -0.20291673853887379 0.30205679677315622 0 -0.21483893957674119 0.29326324897403122 0 -0.2297893474813919 0.29439200386066311 0 -0.20291673853887379 0.30205679677315622 0 -0.20292139016082181 0.28570855283568042 0 -0.20772471755298841 0.29308349852796423 0 -0.20292139016082181 0.28570855283568042 0 -0.21317340970631399 0.28707667025692712 0 -0.20817777699393819 0.2768009129967493 0 -0.20292139016082181 0.28570855283568042 0 -0.20772471755298841 0.29308349852796423 0 -0.21317340970631399 0.28707667025692712 0 -0.20291673853887379 0.30205679677315622 0 -0.20772471755298841 0.29308349852796423 0 -0.21483893957674119 0.29326324897403122 0 -0.21483893957674119 0.29326324897403122 0 -0.21317340970631399 0.28707667025692712 0 -0.22059048460413741 0.2897072754514457 0 -0.20772471755298841 0.29308349852796423 0 -0.21483893957674119 0.29326324897403122 0 -0.21317340970631399 0.28707667025692712 0 -0.21317340970631399 0.28707667025692712 0 -0.22491212076682801 0.2829418013309129 0 -0.21689600988351679 0.27891469174475592 0 -0.20291673853887379 0.30205679677315622 0 -0.2297893474813919 0.29439200386066311 0 -0.20291673853887379 0.30205679677315622 0 -0.20633462412858039 0.30806310815012139 0 -0.22521699708094051 0.30047483537338698 0 -0.20633462412858039 0.30806310815012139 0 -0.21954218588665281 0.3085293543265486 0 -0.22521699708094051 0.30047483537338698 0 -0.20633462412858039 0.30806310815012139 0 -0.22521699708094051 0.30047483537338698 0 -0.20291673853887379 0.30205679677315622 0 -0.20633462412858039 0.30806310815012139 0 -0.2193886206425201 0.31477999489589442 0 -0.20633462412858039 0.30806310815012139 0 -0.21954218588665281 0.3085293543265486 0 -0.20291673853887379 0.30205679677315622 0 -0.22521699708094051 0.30047483537338698 0 -0.2297893474813919 0.29439200386066311 0 -0.21954218588665281 0.3085293543265486 0 -0.2272285016945699 0.31079947888679182 0 -0.22521699708094051 0.30047483537338698 0 -0.2193886206425201 0.31477999489589442 0 -0.21954218588665281 0.3085293543265486 0 -0.2272285016945699 0.31079947888679182 0 -0.2272285016945699 0.31079947888679182 0 -0.22521699708094051 0.30047483537338698 0 -0.23768883541382371 0.30633353088660759 0 -0.2335771335127447 0.31765739854469799 0 -0.2272285016945699 0.31079947888679182 0 -0.23768883541382371 0.30633353088660759 0 -0.21483893957674119 0.29326324897403122 0 -0.22059048460413741 0.2897072754514457 0 -0.2297893474813919 0.29439200386066311 0 -0.22521699708094051 0.30047483537338698 0 -0.2297893474813919 0.29439200386066311 0 -0.2440993700332996 0.29288656259664991 0 -0.22059048460413741 0.2897072754514457 0 -0.22491212076682801 0.2829418013309129 0 -0.2297893474813919 0.29439200386066311 0 -0.21317340970631399 0.28707667025692712 0 -0.22059048460413741 0.2897072754514457 0 -0.22491212076682801 0.2829418013309129 0 -0.22491212076682801 0.2829418013309129 0 -0.2297893474813919 0.29439200386066311 0 -0.23570373873003361 0.28559898150640189 0 -0.22491212076682801 0.2829418013309129 0 -0.23570373873003361 0.28559898150640189 0 -0.23447440195041699 0.27644701982919639 0 -0.22521699708094051 0.30047483537338698 0 -0.2440993700332996 0.29288656259664991 0 -0.2297893474813919 0.29439200386066311 0 -0.23570373873003361 0.28559898150640189 0 -0.2440993700332996 0.29288656259664991 0 -0.23570373873003361 0.28559898150640189 0 -0.24524345341823151 0.28132751991458749 0 -0.2440993700332996 0.29288656259664991 0 -0.25553608612723411 0.29348988609606458 0 -0.2440993700332996 0.29288656259664991 0 -0.24875292378774869 0.30240359109268639 0 -0.25553608612723411 0.29348988609606458 0 -0.24524345341823151 0.28132751991458749 0 -0.2440993700332996 0.29288656259664991 0 -0.22521699708094051 0.30047483537338698 0 -0.2440993700332996 0.29288656259664991 0 -0.23768883541382371 0.30633353088660759 0 -0.2440993700332996 0.29288656259664991 0 -0.24875292378774869 0.30240359109268639 0 -0.23768883541382371 0.30633353088660759 0 -0.2450536089478739 0.3139474193401352 0 -0.24875292378774869 0.30240359109268639 0 -0.23768883541382371 0.30633353088660759 0 -0.24659824264107669 0.26745791470798058 0 -0.23283802015306981 0.25125873577813129 0 -0.24708083820574889 0.24741108561719261 0 -0.24659824264107669 0.26745791470798058 0 -0.22884813952263819 0.26565991196255928 0 -0.23283802015306981 0.25125873577813129 0 -0.24659824264107669 0.26745791470798058 0 -0.23447440195041699 0.27644701982919639 0 -0.22884813952263819 0.26565991196255928 0 -0.23570373873003361 0.28559898150640189 0 -0.24524345341823151 0.28132751991458749 0 -0.23447440195041699 0.27644701982919639 0 -0.24524345341823151 0.28132751991458749 0 -0.24659824264107669 0.26745791470798058 0 -0.23447440195041699 0.27644701982919639 0 -0.23447440195041699 0.27644701982919639 0 -0.22884813952263819 0.26565991196255928 0 -0.2243810202385455 0.27433660209227839 0 -0.22491212076682801 0.2829418013309129 0 -0.23447440195041699 0.27644701982919639 0 -0.2243810202385455 0.27433660209227839 0 -0.22491212076682801 0.2829418013309129 0 -0.2243810202385455 0.27433660209227839 0 -0.21689600988351679 0.27891469174475592 0 -0.2243810202385455 0.27433660209227839 0 -0.21689600988351679 0.27891469174475592 0 -0.21678269645909171 0.26928407227306239 0 -0.22884813952263819 0.26565991196255928 0 -0.2243810202385455 0.27433660209227839 0 -0.21678269645909171 0.26928407227306239 0 -0.22884813952263819 0.26565991196255928 0 -0.21801617806649609 0.25550106181951843 0 -0.21678269645909171 0.26928407227306239 0 -0.22884813952263819 0.26565991196255928 0 -0.23283802015306981 0.25125873577813129 0 -0.21801617806649609 0.25550106181951843 0 -0.21801617806649609 0.25550106181951843 0 -0.20994760851894981 0.26093202656205911 0 -0.21678269645909171 0.26928407227306239 0 -0.20994760851894981 0.26093202656205911 0 -0.20281353610187841 0.26682517715005138 0 -0.198162703788584 0.25837617337235241 0 -0.20994760851894981 0.26093202656205911 0 -0.198162703788584 0.25837617337235241 0 -0.20458554865317749 0.249787391716987 0 -0.21801617806649609 0.25550106181951843 0 -0.20994760851894981 0.26093202656205911 0 -0.20458554865317749 0.249787391716987 0 -0.21317340970631399 0.28707667025692712 0 -0.21689600988351679 0.27891469174475592 0 -0.20817777699393819 0.2768009129967493 0 -0.21689600988351679 0.27891469174475592 0 -0.21678269645909171 0.26928407227306239 0 -0.20817777699393819 0.2768009129967493 0 -0.21678269645909171 0.26928407227306239 0 -0.20817777699393819 0.2768009129967493 0 -0.20281353610187841 0.26682517715005138 0 -0.20994760851894981 0.26093202656205911 0 -0.21678269645909171 0.26928407227306239 0 -0.20281353610187841 0.26682517715005138 0 -0.1927030606054779 0.28410811816414372 0 -0.19553509756126139 0.27339655040809729 0 -0.18248938267208159 0.26615943955513138 0 -0.1927030606054779 0.28410811816414372 0 -0.18248938267208159 0.26615943955513138 0 -0.1927030606054779 0.28410811816414372 0 -0.20292139016082181 0.28570855283568042 0 -0.19553509756126139 0.27339655040809729 0 -0.20292139016082181 0.28570855283568042 0 -0.20817777699393819 0.2768009129967493 0 -0.19553509756126139 0.27339655040809729 0 -0.20817777699393819 0.2768009129967493 0 -0.19553509756126139 0.27339655040809729 0 -0.20281353610187841 0.26682517715005138 0 -0.19553509756126139 0.27339655040809729 0 -0.20281353610187841 0.26682517715005138 0 -0.18941030779761281 0.26218945893698348 0 -0.19553509756126139 0.27339655040809729 0 -0.18941030779761281 0.26218945893698348 0 -0.18248938267208159 0.26615943955513138 0 -0.198162703788584 0.25837617337235241 0 -0.19374788972594381 0.24991124577830251 0 -0.20458554865317749 0.249787391716987 0 -0.20281353610187841 0.26682517715005138 0 -0.198162703788584 0.25837617337235241 0 -0.18941030779761281 0.26218945893698348 0 -0.198162703788584 0.25837617337235241 0 -0.18941030779761281 0.26218945893698348 0 -0.19374788972594381 0.24991124577830251 0 -0.18941030779761281 0.26218945893698348 0 -0.18576852533201429 0.25360460113913352 0 -0.19374788972594381 0.24991124577830251 0 -0.18576852533201429 0.25360460113913352 0 -0.1747649578879803 0.25258516995377711 0 -0.18248938267208159 0.26615943955513138 0 -0.18941030779761281 0.26218945893698348 0 -0.18576852533201429 0.25360460113913352 0 -0.18248938267208159 0.26615943955513138 0 -0.18941030779761281 0.26218945893698348 0 -0.18248938267208159 0.26615943955513138 0 -0.1747649578879803 0.25258516995377711 0 -0.1705082274760952 0.26366525944774288 0 -0.18248938267208159 0.26615943955513138 0 -0.1747649578879803 0.25258516995377711 0 -0.18248938267208159 0.26615943955513138 0 -0.1747649578879803 0.25258516995377711 0 -0.16613550636552379 0.25848463431843682 0 -0.15940029187245869 0.25150970070557682 0 -0.1747649578879803 0.25258516995377711 0 -0.16613550636552379 0.25848463431843682 0 -0.1705082274760952 0.26366525944774288 0 -0.16613550636552379 0.25848463431843682 0 -0.1705082274760952 0.26366525944774288 0 -0.1618446743148646 0.26641705783071667 0 -0.16613550636552379 0.25848463431843682 0 -0.15940029187245869 0.25150970070557682 0 -0.1618446743148646 0.26641705783071667 0 -0.16530437968077391 0.27601709984776418 0 -0.14811937668946731 0.28587476014039909 0 -0.1618446743148646 0.26641705783071667 0 -0.16530437968077391 0.27601709984776418 0 -0.153742307362428 0.27457794913659989 0 -0.1705082274760952 0.26366525944774288 0 -0.1618446743148646 0.26641705783071667 0 -0.16530437968077391 0.27601709984776418 0 -0.16530437968077391 0.27601709984776418 0 -0.18248938267208159 0.26615943955513138 0 -0.1927030606054779 0.28410811816414372 0 -0.18248938267208159 0.26615943955513138 0 -0.17882248482312629 0.29275897435542031 0 -0.1705082274760952 0.26366525944774288 0 -0.16530437968077391 0.27601709984776418 0 -0.18248938267208159 0.26615943955513138 0 -0.16530437968077391 0.27601709984776418 0 -0.18248938267208159 0.26615943955513138 0 -0.17882248482312629 0.29275897435542031 0 -0.17882248482312629 0.29275897435542031 0 -0.17821204652865499 0.3091032413007565 0 -0.16316571160906099 0.29748900072057788 0 -0.20291673853887379 0.30205679677315622 0 -0.17882248482312629 0.29275897435542031 0 -0.17821204652865499 0.3091032413007565 0 -0.18695440299631291 0.31585145153239758 0 -0.17821204652865499 0.3091032413007565 0 -0.17821204652865499 0.3091032413007565 0 -0.16316571160906099 0.29748900072057788 0 -0.15938405898436689 0.30552100474609167 0 -0.15928501686487551 0.31439817636200029 0 -0.17821204652865499 0.3091032413007565 0 -0.15938405898436689 0.30552100474609167 0 -0.15928501686487551 0.31439817636200029 0 -0.17821204652865499 0.3091032413007565 0 -0.17821204652865499 0.3091032413007565 0 -0.16316571160906099 0.29748900072057788 0 -0.16316571160906099 0.29748900072057788 0 -0.15938405898436689 0.30552100474609167 0 -0.15074111118253189 0.30045180473609961 0 -0.15928501686487551 0.31439817636200029 0 -0.15938405898436689 0.30552100474609167 0 -0.15188518188580971 0.3106656581497359 0 -0.16530437968077391 0.27601709984776418 0 -0.17882248482312629 0.29275897435542031 0 -0.16316571160906099 0.29748900072057788 0 -0.16530437968077391 0.27601709984776418 0 -0.16316571160906099 0.29748900072057788 0 -0.14811937668946731 0.28587476014039909 0 -0.14811937668946731 0.28587476014039909 0 -0.15074111118253189 0.30045180473609961 0 -0.1274516957091533 0.29773015395345598 0 -0.16316571160906099 0.29748900072057788 0 -0.14811937668946731 0.28587476014039909 0 -0.15074111118253189 0.30045180473609961 0 -0.16316571160906099 0.29748900072057788 0 -0.14811937668946731 0.28587476014039909 0 -0.14247333126689099 0.31510625062330322 0 -0.15074111118253189 0.30045180473609961 0 -0.12888470526442741 0.31231562276637193 0 -0.15938405898436689 0.30552100474609167 0 -0.15188518188580971 0.3106656581497359 0 -0.15074111118253189 0.30045180473609961 0 -0.14247333126689099 0.31510625062330322 0 -0.15188518188580971 0.3106656581497359 0 -0.15074111118253189 0.30045180473609961 0 -0.15074111118253189 0.30045180473609961 0 -0.12888470526442741 0.31231562276637193 0 -0.15074111118253189 0.30045180473609961 0 -0.1274516957091533 0.29773015395345598 0 -0.12888470526442741 0.31231562276637193 0 -0.14811937668946731 0.28587476014039909 0 -0.1274516957091533 0.29773015395345598 0 -0.14811937668946731 0.28587476014039909 0 -0.1274516957091533 0.29773015395345598 0 -0.1300069107039119 0.28455592982049571 0 -0.14811937668946731 0.28587476014039909 0 -0.1300069107039119 0.28455592982049571 0 -0.12869855138798811 0.27088385780289498 0 -0.14811937668946731 0.28587476014039909 0 -0.12869855138798811 0.27088385780289498 0 -0.12869855138798811 0.27088385780289498 0 -0.14515019222721021 0.26596454045885659 0 -0.1394970135330646 0.24843970012419911 0 -0.12869855138798811 0.27088385780289498 0 -0.1394970135330646 0.24843970012419911 0 -0.1212353466615667 0.24712127301656889 0 -0.15940029187245869 0.25150970070557682 0 -0.1618446743148646 0.26641705783071667 0 -0.1394970135330646 0.24843970012419911 0 -0.1618446743148646 0.26641705783071667 0 -0.1394970135330646 0.24843970012419911 0 -0.1618446743148646 0.26641705783071667 0 -0.14515019222721021 0.26596454045885659 0 -0.1394970135330646 0.24843970012419911 0 -0.14811937668946731 0.28587476014039909 0 -0.14515019222721021 0.26596454045885659 0 -0.153742307362428 0.27457794913659989 0 -0.1618446743148646 0.26641705783071667 0 -0.14515019222721021 0.26596454045885659 0 -0.153742307362428 0.27457794913659989 0 -0.14811937668946731 0.28587476014039909 0 -0.12869855138798811 0.27088385780289498 0 -0.14515019222721021 0.26596454045885659 0 -0.16530437968077391 0.27601709984776418 0 -0.14811937668946731 0.28587476014039909 0 -0.153742307362428 0.27457794913659989 0 -0.095350162429973725 0.27681746122228013 0 -0.10927772608650881 0.25589295546539093 0 -0.1157580190290388 0.28373494738523292 0 -0.10927772608650881 0.25589295546539093 0 -0.081957731769234696 0.26156995996438498 0 -0.096944804560050099 0.2381419304994993 0 -0.095350162429973725 0.27681746122228013 0 -0.10927772608650881 0.25589295546539093 0 -0.081957731769234696 0.26156995996438498 0 -0.12869855138798811 0.27088385780289498 0 -0.10927772608650881 0.25589295546539093 0 -0.12869855138798811 0.27088385780289498 0 -0.10927772608650881 0.25589295546539093 0 -0.1212353466615667 0.24712127301656889 0 -0.12869855138798811 0.27088385780289498 0 -0.10927772608650881 0.25589295546539093 0 -0.1157580190290388 0.28373494738523292 0 -0.1300069107039119 0.28455592982049571 0 -0.12869855138798811 0.27088385780289498 0 -0.1157580190290388 0.28373494738523292 0 -0.1274516957091533 0.29773015395345598 0 -0.1300069107039119 0.28455592982049571 0 -0.1157580190290388 0.28373494738523292 0 -0.1274516957091533 0.29773015395345598 0 -0.1157580190290388 0.28373494738523292 0 -0.1132000949255753 0.29690644125194732 0 -0.1157580190290388 0.28373494738523292 0 -0.1132000949255753 0.29690644125194732 0 -0.1028066502352698 0.29657511590258773 0 -0.1274516957091533 0.29773015395345598 0 -0.12888470526442741 0.31231562276637193 0 -0.10678401472883919 0.30958554776651248 0 -0.1274516957091533 0.29773015395345598 0 -0.10678401472883919 0.30958554776651248 0 -0.1274516957091533 0.29773015395345598 0 -0.1132000949255753 0.29690644125194732 0 -0.10678401472883919 0.30958554776651248 0 -0.10678401472883919 0.30958554776651248 0 -0.1028066502352698 0.29657511590258773 0 -0.091092039634195321 0.30668588812666331 0 -0.1132000949255753 0.29690644125194732 0 -0.10678401472883919 0.30958554776651248 0 -0.1028066502352698 0.29657511590258773 0 -0.095350162429973725 0.27681746122228013 0 -0.1157580190290388 0.28373494738523292 0 -0.1028066502352698 0.29657511590258773 0 -0.1028066502352698 0.29657511590258773 0 -0.075483952389374484 0.29145731954954152 0 -0.095350162429973725 0.27681746122228013 0 -0.1028066502352698 0.29657511590258773 0 -0.075483952389374484 0.29145731954954152 0 -0.091092039634195321 0.30668588812666331 0 -0.07548622516048073 0.30961531861532748 0 -0.075483952389374484 0.29145731954954152 0 -0.1028066502352698 0.29657511590258773 0 -0.091092039634195321 0.30668588812666331 0 -0.075483952389374484 0.29145731954954152 0 -0.07548622516048073 0.30961531861532748 0 -0.075483952389374484 0.29145731954954152 0 -0.055728869672717687 0.30630046285240259 0 -0.075483952389374484 0.29145731954954152 0 -0.081957731769234696 0.26156995996438498 0 -0.059389090243463602 0.26295491142278721 0 -0.095350162429973725 0.27681746122228013 0 -0.075483952389374484 0.29145731954954152 0 -0.081957731769234696 0.26156995996438498 0 -0.081957731769234696 0.26156995996438498 0 -0.059389090243463602 0.26295491142278721 0 -0.075864302924797899 0.24291815196878139 0 -0.075483952389374484 0.29145731954954152 0 -0.059389090243463602 0.26295491142278721 0 -0.048161254543479151 0.28633952319649519 0 -0.059389090243463602 0.26295491142278721 0 -0.035279234423327553 0.26643407451227802 0 -0.048161254543479151 0.28633952319649519 0 -0.035279234423327553 0.26643407451227802 0 -0.020838556697583721 0.28122172684344898 0 -0.048161254543479151 0.28633952319649519 0 -0.035279234423327553 0.26643407451227802 0 -0.02413567987462862 0.254854751671236 0 -0.040119759498235409 0.24558835577856419 0 -0.059389090243463602 0.26295491142278721 0 -0.035279234423327553 0.26643407451227802 0 -0.040119759498235409 0.24558835577856419 0 -0.035279234423327553 0.26643407451227802 0 -0.02413567987462862 0.254854751671236 0 -0.019384943816604251 0.26656106019625803 0 -0.02413567987462862 0.254854751671236 0 -0.012908066458149389 0.25558445017526649 0 -0.01457910293094635 0.24190570529910241 0 -0.02413567987462862 0.254854751671236 0 -0.019384943816604251 0.26656106019625803 0 -0.012908066458149389 0.25558445017526649 0 -0.035279234423327553 0.26643407451227802 0 -0.020838556697583721 0.28122172684344898 0 -0.019384943816604251 0.26656106019625803 0 -0.020838556697583721 0.28122172684344898 0 -0.0054617966726731469 0.26950653154764481 0 -0.0043575086169384998 0.28349943520809301 0 -0.020838556697583721 0.28122172684344898 0 -0.019384943816604251 0.26656106019625803 0 -0.0054617966726731469 0.26950653154764481 0 -0.0054617966726731469 0.26950653154764481 0 -0.0043575086169384998 0.28349943520809301 0 0.0076037112374945769 0.26639349024927222 0 -0.0054617966726731469 0.26950653154764481 0 -0.0013326871299239821 0.2440100841972129 0 0.0049666156689328854 0.25201108762944008 0 -0.0054617966726731469 0.26950653154764481 0 -0.0013326871299239821 0.2440100841972129 0 -0.0054617966726731469 0.26950653154764481 0 -0.012908066458149389 0.25558445017526649 0 -0.0013326871299239821 0.2440100841972129 0 -0.019384943816604251 0.26656106019625803 0 -0.0054617966726731469 0.26950653154764481 0 -0.012908066458149389 0.25558445017526649 0 -0.0038539669141323262 0.29889443083153638 0 -0.01092720094023128 0.31700858863921799 0 0.01006068730028371 0.31638405784929963 0 -0.0038539669141323262 0.29889443083153638 0 -0.018181173618310741 0.299378620560523 0 -0.01092720094023128 0.31700858863921799 0 -0.0038539669141323262 0.29889443083153638 0 -0.0043575086169384998 0.28349943520809301 0 -0.018181173618310741 0.299378620560523 0 -0.020838556697583721 0.28122172684344898 0 -0.0043575086169384998 0.28349943520809301 0 -0.018181173618310741 0.299378620560523 0 -0.020838556697583721 0.28122172684344898 0 -0.018181173618310741 0.299378620560523 0 -0.038183788517366243 0.3023518065513961 0 -0.018181173618310741 0.299378620560523 0 -0.028670455941729341 0.31447567373597468 0 -0.01092720094023128 0.31700858863921799 0 -0.018181173618310741 0.299378620560523 0 -0.038183788517366243 0.3023518065513961 0 -0.028670455941729341 0.31447567373597468 0 -0.038183788517366243 0.3023518065513961 0 -0.041233241423791027 0.31885621501673561 0 -0.028670455941729341 0.31447567373597468 0 -0.038183788517366243 0.3023518065513961 0 -0.055728869672717687 0.30630046285240259 0 -0.041233241423791027 0.31885621501673561 0 -0.020838556697583721 0.28122172684344898 0 -0.038183788517366243 0.3023518065513961 0 -0.048161254543479151 0.28633952319649519 0 -0.020838556697583721 0.28122172684344898 0 -0.048161254543479151 0.28633952319649519 0 -0.075483952389374484 0.29145731954954152 0 -0.048161254543479151 0.28633952319649519 0 -0.075483952389374484 0.29145731954954152 0 -0.048161254543479151 0.28633952319649519 0 -0.055728869672717687 0.30630046285240259 0 -0.038183788517366243 0.3023518065513961 0 -0.048161254543479151 0.28633952319649519 0 -0.055728869672717687 0.30630046285240259 0 -0.055728869672717687 0.30630046285240259 0 -0.053073081374198541 0.32423826314878379 0 -0.041233241423791027 0.31885621501673561 0 -0.055728869672717687 0.30630046285240259 0 -0.053073081374198541 0.32423826314878379 0 -0.069009930357591009 0.32219198096846141 0 -0.053073081374198541 0.32423826314878379 0 -0.062756188233432167 0.33237991221662561 0 -0.069009930357591009 0.32219198096846141 0 -0.053073081374198541 0.32423826314878379 0 -0.05669696175247077 0.3403105103355335 0 -0.062756188233432167 0.33237991221662561 0 -0.053073081374198541 0.32423826314878379 0 -0.05669696175247077 0.3403105103355335 0 -0.053073081374198541 0.32423826314878379 0 -0.05669696175247077 0.3403105103355335 0 -0.043571779459199843 0.33691087859506558 0 -0.05669696175247077 0.3403105103355335 0 -0.063306822697340448 0.33889989772530271 0 -0.062756188233432167 0.33237991221662561 0 -0.05669696175247077 0.3403105103355335 0 -0.063315487510113566 0.34790707685718869 0 -0.063306822697340448 0.33889989772530271 0 -0.05669696175247077 0.3403105103355335 0 -0.043571779459199843 0.33691087859506558 0 -0.051823532727561968 0.34815949641695582 0 -0.043571779459199843 0.33691087859506558 0 -0.028171473577534582 0.32886020521679049 0 -0.025443776554203969 0.3438380537494351 0 -0.043571779459199843 0.33691087859506558 0 -0.041233241423791027 0.31885621501673561 0 -0.028171473577534582 0.32886020521679049 0 -0.053073081374198541 0.32423826314878379 0 -0.043571779459199843 0.33691087859506558 0 -0.041233241423791027 0.31885621501673561 0 -0.041233241423791027 0.31885621501673561 0 -0.028670455941729341 0.31447567373597468 0 -0.028171473577534582 0.32886020521679049 0 -0.028171473577534582 0.32886020521679049 0 -0.01278588670069968 0.33396198269988042 0 -0.01092720094023128 0.31700858863921799 0 -0.028670455941729341 0.31447567373597468 0 -0.028171473577534582 0.32886020521679049 0 -0.01092720094023128 0.31700858863921799 0 -0.028171473577534582 0.32886020521679049 0 -0.01278588670069968 0.33396198269988042 0 -0.025443776554203969 0.3438380537494351 0 -0.01278588670069968 0.33396198269988042 0 -0.0055851820357215674 0.34968689729223862 0 0.0035349958629163568 0.33250778778836237 0 -0.01278588670069968 0.33396198269988042 0 -0.0055851820357215674 0.34968689729223862 0 -0.025443776554203969 0.3438380537494351 0 -0.01278588670069968 0.33396198269988042 0 -0.01092720094023128 0.31700858863921799 0 0.0035349958629163568 0.33250778778836237 0 -0.0034838820815913372 0.36744886831743617 0 -0.0055851820357215674 0.34968689729223862 0 -0.025094214824712819 0.36324135376618849 0 -0.0034838820815913372 0.36744886831743617 0 -0.025094214824712819 0.36324135376618849 0 -0.014293527002905751 0.37806695691512399 0 -0.0034838820815913372 0.36744886831743617 0 -0.025094214824712819 0.36324135376618849 0 -0.025443776554203969 0.3438380537494351 0 -0.025094214824712819 0.36324135376618849 0 -0.035203579601487733 0.35075603133140743 0 -0.0055851820357215674 0.34968689729223862 0 -0.025443776554203969 0.3438380537494351 0 -0.025094214824712819 0.36324135376618849 0 -0.025094214824712819 0.36324135376618849 0 -0.046704547567834258 0.3590338392149407 0 -0.038461839282638473 0.37101847206591387 0 -0.046704547567834258 0.3590338392149407 0 -0.049127052510234789 0.37614106821621729 0 -0.025094214824712819 0.36324135376618849 0 -0.038461839282638473 0.37101847206591387 0 -0.046704547567834258 0.3590338392149407 0 -0.025094214824712819 0.36324135376618849 0 -0.038461839282638473 0.37101847206591387 0 -0.032921542227771973 0.38565762706630879 0 -0.025094214824712819 0.36324135376618849 0 -0.035203579601487733 0.35075603133140743 0 -0.046704547567834258 0.3590338392149407 0 -0.043571779459199843 0.33691087859506558 0 -0.035203579601487733 0.35075603133140743 0 -0.046704547567834258 0.3590338392149407 0 -0.043571779459199843 0.33691087859506558 0 -0.025443776554203969 0.3438380537494351 0 -0.035203579601487733 0.35075603133140743 0 -0.043571779459199843 0.33691087859506558 0 -0.046704547567834258 0.3590338392149407 0 -0.05669696175247077 0.3403105103355335 0 -0.060320842130742992 0.35638275752228332 0 -0.05669696175247077 0.3403105103355335 0 -0.060320842130742992 0.35638275752228332 0 -0.063315487510113566 0.34790707685718869 0 -0.05669696175247077 0.3403105103355335 0 -0.051823532727561968 0.34815949641695582 0 -0.060320842130742992 0.35638275752228332 0 -0.043571779459199843 0.33691087859506558 0 -0.046704547567834258 0.3590338392149407 0 -0.051823532727561968 0.34815949641695582 0 -0.046704547567834258 0.3590338392149407 0 -0.060320842130742992 0.35638275752228332 0 -0.046704547567834258 0.3590338392149407 0 -0.051823532727561968 0.34815949641695582 0 -0.060320842130742992 0.35638275752228332 0 -0.055373400353466933 0.36755149913580842 0 -0.065341159205055621 0.37864833158979228 0 -0.049127052510234789 0.37614106821621729 0 -0.046704547567834258 0.3590338392149407 0 -0.055373400353466933 0.36755149913580842 0 -0.049127052510234789 0.37614106821621729 0 -0.060320842130742992 0.35638275752228332 0 -0.055373400353466933 0.36755149913580842 0 -0.065341159205055621 0.37864833158979228 0 -0.046704547567834258 0.3590338392149407 0 -0.049127052510234789 0.37614106821621729 0 -0.046704547567834258 0.3590338392149407 0 -0.060320842130742992 0.35638275752228332 0 -0.055373400353466933 0.36755149913580842 0 -0.060320842130742992 0.35638275752228332 0 -0.065341159205055621 0.37864833158979228 0 -0.060320842130742992 0.35638275752228332 0 -0.072882798127439405 0.3672026331610751 0 -0.065341159205055621 0.37864833158979228 0 -0.072882798127439405 0.3672026331610751 0 -0.083567908517797801 0.36592912395782679 0 -0.075475898281908108 0.35343208017552719 0 -0.083567908517797801 0.36592912395782679 0 -0.091038471511108998 0.37600562363980933 0 -0.079708182501692537 0.38162087255994581 0 -0.072882798127439405 0.3672026331610751 0 -0.083567908517797801 0.36592912395782679 0 -0.079708182501692537 0.38162087255994581 0 -0.083567908517797801 0.36592912395782679 0 -0.090630954433072994 0.35048140282877061 0 -0.097528469921316974 0.36524340569627878 0 -0.083567908517797801 0.36592912395782679 0 -0.097528469921316974 0.36524340569627878 0 -0.091038471511108998 0.37600562363980933 0 -0.090630954433072994 0.35048140282877061 0 -0.075475898281908108 0.35343208017552719 0 -0.085171893428218251 0.33604325882691638 0 -0.090630954433072994 0.35048140282877061 0 -0.075475898281908108 0.35343208017552719 0 -0.083567908517797801 0.36592912395782679 0 -0.090630954433072994 0.35048140282877061 0 -0.075475898281908108 0.35343208017552719 0 -0.075475898281908108 0.35343208017552719 0 -0.063315487510113566 0.34790707685718869 0 -0.085171893428218251 0.33604325882691638 0 -0.060320842130742992 0.35638275752228332 0 -0.075475898281908108 0.35343208017552719 0 -0.063315487510113566 0.34790707685718869 0 -0.060320842130742992 0.35638275752228332 0 -0.072882798127439405 0.3672026331610751 0 -0.075475898281908108 0.35343208017552719 0 -0.060320842130742992 0.35638275752228332 0 -0.075475898281908108 0.35343208017552719 0 -0.063315487510113566 0.34790707685718869 0 -0.063306822697340448 0.33889989772530271 0 -0.070458653293345289 0.33500209149186272 0 -0.063315487510113566 0.34790707685718869 0 -0.070458653293345289 0.33500209149186272 0 -0.085171893428218251 0.33604325882691638 0 -0.063315487510113566 0.34790707685718869 0 -0.085171893428218251 0.33604325882691638 0 -0.063306822697340448 0.33889989772530271 0 -0.062756188233432167 0.33237991221662561 0 -0.070458653293345289 0.33500209149186272 0 -0.062756188233432167 0.33237991221662561 0 -0.070458653293345289 0.33500209149186272 0 -0.069009930357591009 0.32219198096846141 0 -0.070458653293345289 0.33500209149186272 0 -0.077871880725902037 0.32855510587878117 0 -0.085171893428218251 0.33604325882691638 0 -0.070458653293345289 0.33500209149186272 0 -0.077871880725902037 0.32855510587878117 0 -0.069009930357591009 0.32219198096846141 0 -0.07548622516048073 0.30961531861532748 0 -0.069009930357591009 0.32219198096846141 0 -0.086116333748525148 0.32144094157956898 0 -0.07548622516048073 0.30961531861532748 0 -0.055728869672717687 0.30630046285240259 0 -0.069009930357591009 0.32219198096846141 0 -0.077871880725902037 0.32855510587878117 0 -0.069009930357591009 0.32219198096846141 0 -0.086116333748525148 0.32144094157956898 0 -0.086116333748525148 0.32144094157956898 0 -0.085171893428218251 0.33604325882691638 0 -0.10702829934632289 0.32417944079664412 0 -0.091092039634195321 0.30668588812666331 0 -0.07548622516048073 0.30961531861532748 0 -0.086116333748525148 0.32144094157956898 0 -0.090630954433072994 0.35048140282877061 0 -0.085171893428218251 0.33604325882691638 0 -0.10149621578476881 0.34069348112033487 0 -0.077871880725902037 0.32855510587878117 0 -0.086116333748525148 0.32144094157956898 0 -0.085171893428218251 0.33604325882691638 0 -0.085171893428218251 0.33604325882691638 0 -0.10702829934632289 0.32417944079664412 0 -0.085171893428218251 0.33604325882691638 0 -0.10149621578476881 0.34069348112033487 0 -0.10702829934632289 0.32417944079664412 0 -0.10149621578476881 0.34069348112033487 0 -0.10702829934632289 0.32417944079664412 0 -0.1134768013982029 0.33800347324630209 0 -0.10149621578476881 0.34069348112033487 0 -0.1134768013982029 0.33800347324630209 0 -0.1122415028104779 0.34874378478197388 0 -0.10678401472883919 0.30958554776651248 0 -0.086116333748525148 0.32144094157956898 0 -0.10678401472883919 0.30958554776651248 0 -0.091092039634195321 0.30668588812666331 0 -0.086116333748525148 0.32144094157956898 0 -0.10678401472883919 0.30958554776651248 0 -0.086116333748525148 0.32144094157956898 0 -0.10702829934632289 0.32417944079664412 0 -0.12888470526442741 0.31231562276637193 0 -0.10678401472883919 0.30958554776651248 0 -0.10702829934632289 0.32417944079664412 0 -0.12888470526442741 0.31231562276637193 0 -0.10702829934632289 0.32417944079664412 0 -0.1219067151924611 0.32441517511822993 0 -0.12888470526442741 0.31231562276637193 0 -0.10702829934632289 0.32417944079664412 0 -0.10702829934632289 0.32417944079664412 0 -0.1219067151924611 0.32441517511822993 0 -0.1169278798362656 0.32987389918043658 0 -0.1134768013982029 0.33800347324630209 0 -0.12292568622273931 0.34412929319006758 0 -0.1122415028104779 0.34874378478197388 0 -0.10702829934632289 0.32417944079664412 0 -0.1134768013982029 0.33800347324630209 0 -0.1169278798362656 0.32987389918043658 0 -0.12529970340807561 0.33289750756057052 0 -0.1134768013982029 0.33800347324630209 0 -0.1169278798362656 0.32987389918043658 0 -0.12529970340807561 0.33289750756057052 0 -0.1219067151924611 0.32441517511822993 0 -0.1169278798362656 0.32987389918043658 0 -0.12529970340807561 0.33289750756057052 0 -0.1134768013982029 0.33800347324630209 0 -0.12292568622273931 0.34412929319006758 0 -0.12292568622273931 0.34412929319006758 0 -0.1122415028104779 0.34874378478197388 0 -0.12039313373428299 0.35558581878008938 0 -0.13068611345135009 0.35062293799885119 0 -0.12292568622273931 0.34412929319006758 0 -0.12039313373428299 0.35558581878008938 0 -0.1122415028104779 0.34874378478197388 0 -0.12039313373428299 0.35558581878008938 0 -0.10960730830349701 0.36080016138576998 0 -0.12873561250203791 0.36187736029042528 0 -0.12039313373428299 0.35558581878008938 0 -0.11977795347138211 0.36734030369386972 0 -0.1289832552009941 0.3738314810065792 0 -0.11977795347138211 0.36734030369386972 0 -0.1208413835241765 0.37571939208829908 0 -0.11977795347138211 0.36734030369386972 0 -0.10960730830349701 0.36080016138576998 0 -0.10986281031167951 0.37629041132067648 0 -0.11977795347138211 0.36734030369386972 0 -0.10986281031167951 0.37629041132067648 0 -0.1208413835241765 0.37571939208829908 0 -0.12039313373428299 0.35558581878008938 0 -0.11977795347138211 0.36734030369386972 0 -0.10960730830349701 0.36080016138576998 0 -0.097528469921316974 0.36524340569627878 0 -0.10986281031167951 0.37629041132067648 0 -0.091038471511108998 0.37600562363980933 0 -0.10960730830349701 0.36080016138576998 0 -0.097528469921316974 0.36524340569627878 0 -0.10230089025062671 0.35319244716262571 0 -0.10960730830349701 0.36080016138576998 0 -0.097528469921316974 0.36524340569627878 0 -0.10986281031167951 0.37629041132067648 0 -0.090630954433072994 0.35048140282877061 0 -0.097528469921316974 0.36524340569627878 0 -0.10230089025062671 0.35319244716262571 0 -0.090630954433072994 0.35048140282877061 0 -0.10149621578476881 0.34069348112033487 0 -0.10230089025062671 0.35319244716262571 0 -0.10149621578476881 0.34069348112033487 0 -0.1122415028104779 0.34874378478197388 0 -0.10230089025062671 0.35319244716262571 0 -0.1122415028104779 0.34874378478197388 0 -0.10960730830349701 0.36080016138576998 0 -0.10230089025062671 0.35319244716262571 0 -0.1020636737859323 0.40094997460820719 0 -0.095098460129181939 0.38860717611925472 0 -0.1117345468884547 0.3883371414902772 0 -0.1020636737859323 0.40094997460820719 0 -0.096306437038766304 0.41235482635471921 0 -0.089689439425903447 0.39754357435617849 0 -0.1020636737859323 0.40094997460820719 0 -0.095098460129181939 0.38860717611925472 0 -0.089689439425903447 0.39754357435617849 0 -0.095098460129181939 0.38860717611925472 0 -0.10986281031167951 0.37629041132067648 0 -0.091038471511108998 0.37600562363980933 0 -0.095098460129181939 0.38860717611925472 0 -0.1117345468884547 0.3883371414902772 0 -0.10986281031167951 0.37629041132067648 0 -0.095098460129181939 0.38860717611925472 0 -0.1117345468884547 0.3883371414902772 0 -0.12837063364772741 0.38806710686130003 0 -0.1117345468884547 0.3883371414902772 0 -0.1195322400360084 0.38224735741484722 0 -0.12837063364772741 0.38806710686130003 0 -0.1117345468884547 0.3883371414902772 0 -0.10986281031167951 0.37629041132067648 0 -0.1208413835241765 0.37571939208829908 0 -0.1195322400360084 0.38224735741484722 0 -0.1117345468884547 0.3883371414902772 0 -0.10986281031167951 0.37629041132067648 0 -0.1195322400360084 0.38224735741484722 0 -0.12633768088122821 0.38124362562102831 0 -0.1208413835241765 0.37571939208829908 0 -0.1195322400360084 0.38224735741484722 0 -0.12837063364772741 0.38806710686130003 0 -0.12633768088122821 0.38124362562102831 0 -0.1195322400360084 0.38224735741484722 0 -0.12837063364772741 0.38806710686130003 0 -0.116321194068536 0.41292800880089719 0 -0.12837063364772741 0.38806710686130003 0 -0.1117345468884547 0.3883371414902772 0 -0.116321194068536 0.41292800880089719 0 -0.1020636737859323 0.40094997460820719 0 -0.1117345468884547 0.3883371414902772 0 -0.116321194068536 0.41292800880089719 0 -0.12877344122851619 0.38982758029661152 0 -0.12837063364772741 0.38806710686130003 0 -0.116321194068536 0.41292800880089719 0 -0.13005298269180801 0.43210507733641412 0 -0.104271754489344 0.43778891074049409 0 -0.13005298269180801 0.43210507733641412 0 -0.116321194068536 0.41292800880089719 0 -0.104271754489344 0.43778891074049409 0 -0.116321194068536 0.41292800880089719 0 -0.104271754489344 0.43778891074049409 0 -0.089366415274601707 0.42081245161028941 0 -0.091493216656862608 0.43420724897273327 0 -0.10227867792115571 0.4382283124278834 0 -0.1006197462043097 0.42596369872131828 0 -0.089366415274601707 0.42081245161028941 0 -0.10227867792115571 0.4382283124278834 0 -0.116321194068536 0.41292800880089719 0 -0.1006197462043097 0.42596369872131828 0 -0.104271754489344 0.43778891074049409 0 -0.089366415274601707 0.42081245161028941 0 -0.10227867792115571 0.4382283124278834 0 -0.1006197462043097 0.42596369872131828 0 -0.104271754489344 0.43778891074049409 0 -0.10227867792115571 0.4382283124278834 0 -0.091493216656862608 0.43420724897273327 0 -0.096698109042289537 0.43945862711880468 0 -0.10227867792115571 0.4382283124278834 0 -0.1020636737859323 0.40094997460820719 0 -0.116321194068536 0.41292800880089719 0 -0.096306437038766304 0.41235482635471921 0 -0.116321194068536 0.41292800880089719 0 -0.1006197462043097 0.42596369872131828 0 -0.096306437038766304 0.41235482635471921 0 -0.1006197462043097 0.42596369872131828 0 -0.096306437038766304 0.41235482635471921 0 -0.089366415274601707 0.42081245161028941 0 -0.086505771771151818 0.4074924928241066 0 -0.089366415274601707 0.42081245161028941 0 -0.076454152628046362 0.4033965907926963 0 -0.089366415274601707 0.42081245161028941 0 -0.076454152628046362 0.4033965907926963 0 -0.089366415274601707 0.42081245161028941 0 -0.073886501319984116 0.41654772020922431 0 -0.076454152628046362 0.4033965907926963 0 -0.096306437038766304 0.41235482635471921 0 -0.086505771771151818 0.4074924928241066 0 -0.089366415274601707 0.42081245161028941 0 -0.084865738595338983 0.42862488615129701 0 -0.077411526360599989 0.4321815347611474 0 -0.073886501319984116 0.41654772020922431 0 -0.091493216656862608 0.43420724897273327 0 -0.084865738595338983 0.42862488615129701 0 -0.083980356147502142 0.43745580011464968 0 -0.091493216656862608 0.43420724897273327 0 -0.083980356147502142 0.43745580011464968 0 -0.091770002960287242 0.44066341641347623 0 -0.089366415274601707 0.42081245161028941 0 -0.091493216656862608 0.43420724897273327 0 -0.084865738595338983 0.42862488615129701 0 -0.089366415274601707 0.42081245161028941 0 -0.084865738595338983 0.42862488615129701 0 -0.073886501319984116 0.41654772020922431 0 -0.083980356147502142 0.43745580011464968 0 -0.077411526360599989 0.4321815347611474 0 -0.07619725056849723 0.44067925592084711 0 -0.084865738595338983 0.42862488615129701 0 -0.083980356147502142 0.43745580011464968 0 -0.077411526360599989 0.4321815347611474 0 -0.077411526360599989 0.4321815347611474 0 -0.073886501319984116 0.41654772020922431 0 -0.077411526360599989 0.4321815347611474 0 -0.066477178642820323 0.42643264157298932 0 -0.073886501319984116 0.41654772020922431 0 -0.066477178642820323 0.42643264157298932 0 -0.059237909393007188 0.43644277212312937 0 -0.07619725056849723 0.44067925592084711 0 -0.077411526360599989 0.4321815347611474 0 -0.066477178642820323 0.42643264157298932 0 -0.07619725056849723 0.44067925592084711 0 -0.063236846882126913 0.41073463597304599 0 -0.073886501319984116 0.41654772020922431 0 -0.070361476279369367 0.40091390565730101 0 -0.073886501319984116 0.41654772020922431 0 -0.070361476279369367 0.40091390565730101 0 -0.076454152628046362 0.4033965907926963 0 -0.073886501319984116 0.41654772020922431 0 -0.070361476279369367 0.40091390565730101 0 -0.066477178642820323 0.42643264157298932 0 -0.063236846882126913 0.41073463597304599 0 -0.073886501319984116 0.41654772020922431 0 -0.068834000537101384 0.39413940839500611 0 -0.070361476279369367 0.40091390565730101 0 -0.051549557452638263 0.39324829721749349 0 -0.068834000537101384 0.39413940839500611 0 -0.070361476279369367 0.40091390565730101 0 -0.068834000537101384 0.39413940839500611 0 -0.076454152628046362 0.4033965907926963 0 -0.080096069401393716 0.39341029841690112 0 -0.068834000537101384 0.39413940839500611 0 -0.076454152628046362 0.4033965907926963 0 -0.068834000537101384 0.39413940839500611 0 -0.070361476279369367 0.40091390565730101 0 -0.076454152628046362 0.4033965907926963 0 -0.070361476279369367 0.40091390565730101 0 -0.076454152628046362 0.4033965907926963 0 -0.086505771771151818 0.4074924928241066 0 -0.076454152628046362 0.4033965907926963 0 -0.089689439425903447 0.39754357435617849 0 -0.086505771771151818 0.4074924928241066 0 -0.076454152628046362 0.4033965907926963 0 -0.076454152628046362 0.4033965907926963 0 -0.080096069401393716 0.39341029841690112 0 -0.089689439425903447 0.39754357435617849 0 -0.095098460129181939 0.38860717611925472 0 -0.080096069401393716 0.39341029841690112 0 -0.089689439425903447 0.39754357435617849 0 -0.096306437038766304 0.41235482635471921 0 -0.086505771771151818 0.4074924928241066 0 -0.089689439425903447 0.39754357435617849 0 -0.095098460129181939 0.38860717611925472 0 -0.091038471511108998 0.37600562363980933 0 -0.079708182501692537 0.38162087255994581 0 -0.095098460129181939 0.38860717611925472 0 -0.080096069401393716 0.39341029841690112 0 -0.079708182501692537 0.38162087255994581 0 -0.072882798127439405 0.3672026331610751 0 -0.079708182501692537 0.38162087255994581 0 -0.065341159205055621 0.37864833158979228 0 -0.068834000537101384 0.39413940839500611 0 -0.080096069401393716 0.39341029841690112 0 -0.079708182501692537 0.38162087255994581 0 -0.068834000537101384 0.39413940839500611 0 -0.079708182501692537 0.38162087255994581 0 -0.065341159205055621 0.37864833158979228 0 -0.068834000537101384 0.39413940839500611 0 -0.065341159205055621 0.37864833158979228 0 -0.049127052510234789 0.37614106821621729 0 -0.051549557452638263 0.39324829721749349 0 -0.068834000537101384 0.39413940839500611 0 -0.065341159205055621 0.37864833158979228 0 -0.051549557452638263 0.39324829721749349 0 -0.065341159205055621 0.37864833158979228 0 -0.049127052510234789 0.37614106821621729 0 -0.051549557452638263 0.39324829721749349 0 -0.063236846882126913 0.41073463597304599 0 -0.070361476279369367 0.40091390565730101 0 -0.051549557452638263 0.39324829721749349 0 -0.070361476279369367 0.40091390565730101 0 -0.051549557452638263 0.39324829721749349 0 -0.051549557452638263 0.39324829721749349 0 -0.032921542227771973 0.38565762706630879 0 -0.033863778813403987 0.40897935719494161 0 -0.051549557452638263 0.39324829721749349 0 -0.032921542227771973 0.38565762706630879 0 -0.049127052510234789 0.37614106821621729 0 -0.051549557452638263 0.39324829721749349 0 -0.032921542227771973 0.38565762706630879 0 -0.038461839282638473 0.37101847206591387 0 -0.049127052510234789 0.37614106821621729 0 -0.032921542227771973 0.38565762706630879 0 -0.032921542227771973 0.38565762706630879 0 -0.014055865382264649 0.39463020864714832 0 -0.014293527002905751 0.37806695691512399 0 -0.025094214824712819 0.36324135376618849 0 -0.032921542227771973 0.38565762706630879 0 -0.014293527002905751 0.37806695691512399 0 -0.032921542227771973 0.38565762706630879 0 -0.014293527002905751 0.37806695691512399 0 -0.032921542227771973 0.38565762706630879 0 -0.014055865382264649 0.39463020864714832 0 -0.033863778813403987 0.40897935719494161 0 -0.014055865382264649 0.39463020864714832 0 -0.0014469214343290631 0.38164885239551077 0 0.0064722166335862566 0.39644184522916132 0 -0.014055865382264649 0.39463020864714832 0 -0.0097128342867564173 0.41684450137468382 0 0.0064722166335862566 0.39644184522916132 0 -0.014055865382264649 0.39463020864714832 0 -0.0014469214343290631 0.38164885239551077 0 -0.014293527002905751 0.37806695691512399 0 -0.0034838820815913372 0.36744886831743617 0 -0.0014469214343290631 0.38164885239551077 0 -0.014293527002905751 0.37806695691512399 0 -0.0097128342867564173 0.41684450137468382 0 -0.033869012429423487 0.43632811166578239 0 -0.0014214974804462269 0.44051859902314672 0 -0.014055865382264649 0.39463020864714832 0 -0.0097128342867564173 0.41684450137468382 0 -0.033863778813403987 0.40897935719494161 0 -0.0097128342867564173 0.41684450137468382 0 -0.033869012429423487 0.43632811166578239 0 -0.033863778813403987 0.40897935719494161 0 -0.033869012429423487 0.43632811166578239 0 -0.033863778813403987 0.40897935719494161 0 -0.055328756988421469 0.41993622291311983 0 -0.051549557452638263 0.39324829721749349 0 -0.055328756988421469 0.41993622291311983 0 -0.063236846882126913 0.41073463597304599 0 -0.051549557452638263 0.39324829721749349 0 -0.055328756988421469 0.41993622291311983 0 -0.066477178642820323 0.42643264157298932 0 -0.063236846882126913 0.41073463597304599 0 -0.055328756988421469 0.41993622291311983 0 -0.051549557452638263 0.39324829721749349 0 -0.033863778813403987 0.40897935719494161 0 -0.055328756988421469 0.41993622291311983 0 -0.066477178642820323 0.42643264157298932 0 -0.055328756988421469 0.41993622291311983 0 -0.059237909393007188 0.43644277212312937 0 -0.055328756988421469 0.41993622291311983 0 -0.059237909393007188 0.43644277212312937 0 -0.059107956524204489 0.44662414860874622 0 -0.033869012429423487 0.43632811166578239 0 -0.055328756988421469 0.41993622291311983 0 -0.059107956524204489 0.44662414860874622 0 -0.055328756988421469 0.41993622291311983 0 -0.059107956524204489 0.44662414860874622 0 -0.059107956524204489 0.44662414860874622 0 -0.062887156059987487 0.47331207430437261 0 -0.041331611663213787 0.45577831016985709 0 -0.037686169613109333 0.47476463432235722 0 -0.062887156059987487 0.47331207430437261 0 -0.059107956524204489 0.44662414860874622 0 -0.041331611663213787 0.45577831016985709 0 -0.062887156059987487 0.47331207430437261 0 -0.041331611663213787 0.45577831016985709 0 -0.018408499141231958 0.4584682829000517 0 -0.037686169613109333 0.47476463432235722 0 -0.033869012429423487 0.43632811166578239 0 -0.059107956524204489 0.44662414860874622 0 -0.041331611663213787 0.45577831016985709 0 -0.033869012429423487 0.43632811166578239 0 -0.018408499141231958 0.4584682829000517 0 -0.0014214974804462269 0.44051859902314672 0 -0.033869012429423487 0.43632811166578239 0 -0.041331611663213787 0.45577831016985709 0 -0.018408499141231958 0.4584682829000517 0 -0.018408499141231958 0.4584682829000517 0 -0.0014214974804462269 0.44051859902314672 0 0.01145499106498408 0.46472717460465918 0 -0.018408499141231958 0.4584682829000517 0 -0.0083367107648278493 0.47804354545789629 0 0.01145499106498408 0.46472717460465918 0 -0.0083367107648278493 0.47804354545789629 0 -0.038299331595965769 0.5 0 -0.037686169613109333 0.47476463432235722 0 -0.018408499141231958 0.4584682829000517 0 -0.0083367107648278493 0.47804354545789629 0 -0.037686169613109333 0.47476463432235722 0 -0.0099323075961611496 0.5 0 -0.0083367107648278493 0.47804354545789629 0 -0.038299331595965769 0.5 0 -0.038299331595965769 0.5 0 -0.037686169613109333 0.47476463432235722 0 -0.062887156059987487 0.47331207430437261 0 -0.038299331595965769 0.5 0 -0.06666635559577036 0.49999999999999889 0 -0.062887156059987487 0.47331207430437261 0 -0.06666635559577036 0.49999999999999889 0 -0.062887156059987487 0.47331207430437261 0 -0.06666635559577036 0.49999999999999889 0 -0.07498639554305217 0.48622828074658581 0 -0.062887156059987487 0.47331207430437261 0 -0.07498639554305217 0.48622828074658581 0 -0.074119640016212282 0.49999999999999689 0 -0.080835077782081571 0.4861444311429105 0 -0.07498639554305217 0.48622828074658581 0 -0.080835077782081571 0.4861444311429105 0 -0.074119640016212282 0.49999999999999689 0 -0.080835077782081571 0.4861444311429105 0 -0.06666635559577036 0.49999999999999889 0 -0.07498639554305217 0.48622828074658581 0 -0.074119640016212282 0.49999999999999689 0 -0.074119640016212282 0.49999999999999689 0 -0.091665320199478373 0.5 0 -0.080835077782081571 0.4861444311429105 0 -0.091665320199478373 0.5 0 -0.080835077782081571 0.4861444311429105 0 -0.1001732509075393 0.49403453110542522 0 -0.080835077782081571 0.4861444311429105 0 -0.1064804706686351 0.48577676609602022 0 -0.080835077782081571 0.4861444311429105 0 -0.088536425040727174 0.47025469305661799 0 -0.080835077782081571 0.4861444311429105 0 -0.088536425040727174 0.47025469305661799 0 -0.1064804706686351 0.48577676609602022 0 -0.080835077782081571 0.4861444311429105 0 -0.088536425040727174 0.47025469305661799 0 -0.076172333240962939 0.47580479123631941 0 -0.088536425040727174 0.47025469305661799 0 -0.076172333240962939 0.47580479123631941 0 -0.075480184347950216 0.46540000074036642 0 -0.076172333240962939 0.47580479123631941 0 -0.062887156059987487 0.47331207430437261 0 -0.075480184347950216 0.46540000074036642 0 -0.07498639554305217 0.48622828074658581 0 -0.076172333240962939 0.47580479123631941 0 -0.062887156059987487 0.47331207430437261 0 -0.07498639554305217 0.48622828074658581 0 -0.080835077782081571 0.4861444311429105 0 -0.076172333240962939 0.47580479123631941 0 -0.062887156059987487 0.47331207430437261 0 -0.075480184347950216 0.46540000074036642 0 -0.070249450204074165 0.45231871224721759 0 -0.059107956524204489 0.44662414860874622 0 -0.062887156059987487 0.47331207430437261 0 -0.070249450204074165 0.45231871224721759 0 -0.075480184347950216 0.46540000074036642 0 -0.070249450204074165 0.45231871224721759 0 -0.079555557193999274 0.45530973285730419 0 -0.059107956524204489 0.44662414860874622 0 -0.070249450204074165 0.45231871224721759 0 -0.07619725056849723 0.44067925592084711 0 -0.059237909393007188 0.43644277212312937 0 -0.059107956524204489 0.44662414860874622 0 -0.07619725056849723 0.44067925592084711 0 -0.059237909393007188 0.43644277212312937 0 -0.07619725056849723 0.44067925592084711 0 -0.070249450204074165 0.45231871224721759 0 -0.07619725056849723 0.44067925592084711 0 -0.079555557193999274 0.45530973285730419 0 -0.083980356147502142 0.43745580011464968 0 -0.07619725056849723 0.44067925592084711 0 -0.093156591743987285 0.44491573971856468 0 -0.07619725056849723 0.44067925592084711 0 -0.087936515413747682 0.45228811518069911 0 -0.093156591743987285 0.44491573971856468 0 -0.07619725056849723 0.44067925592084711 0 -0.093156591743987285 0.44491573971856468 0 -0.07619725056849723 0.44067925592084711 0 -0.087936515413747682 0.45228811518069911 0 -0.079555557193999274 0.45530973285730419 0 -0.087936515413747682 0.45228811518069911 0 -0.093156591743987285 0.44491573971856468 0 -0.096237772299373942 0.4543649549703262 0 -0.083980356147502142 0.43745580011464968 0 -0.093156591743987285 0.44491573971856468 0 -0.091770002960287242 0.44066341641347623 0 -0.093156591743987285 0.44491573971856468 0 -0.091770002960287242 0.44066341641347623 0 -0.091493216656862608 0.43420724897273327 0 -0.091770002960287242 0.44066341641347623 0 -0.096698109042289537 0.43945862711880468 0 -0.088536425040727174 0.47025469305661799 0 -0.096237772299373942 0.4543649549703262 0 -0.088536425040727174 0.47025469305661799 0 -0.087936515413747682 0.45228811518069911 0 -0.079555557193999274 0.45530973285730419 0 -0.088536425040727174 0.47025469305661799 0 -0.087936515413747682 0.45228811518069911 0 -0.096237772299373942 0.4543649549703262 0 -0.088536425040727174 0.47025469305661799 0 -0.075480184347950216 0.46540000074036642 0 -0.079555557193999274 0.45530973285730419 0 -0.096237772299373942 0.4543649549703262 0 -0.1013591214840051 0.47007086053317299 0 -0.096237772299373942 0.4543649549703262 0 -0.10622792002046549 0.45979532052823452 0 -0.1013591214840051 0.47007086053317299 0 -0.088536425040727174 0.47025469305661799 0 -0.096237772299373942 0.4543649549703262 0 -0.1013591214840051 0.47007086053317299 0 -0.096237772299373942 0.4543649549703262 0 -0.10622792002046549 0.45979532052823452 0 -0.099990199853393455 0.44662279129184779 0 -0.10622792002046549 0.45979532052823452 0 -0.1096534432167388 0.47284908800057368 0 -0.1013591214840051 0.47007086053317299 0 -0.096698109042289537 0.43945862711880468 0 -0.10227867792115571 0.4382283124278834 0 -0.096698109042289537 0.43945862711880468 0 -0.1033551047620382 0.43968018035794831 0 -0.10227867792115571 0.4382283124278834 0 -0.093156591743987285 0.44491573971856468 0 -0.096698109042289537 0.43945862711880468 0 -0.099990199853393455 0.44662279129184779 0 -0.093156591743987285 0.44491573971856468 0 -0.091770002960287242 0.44066341641347623 0 -0.096698109042289537 0.43945862711880468 0 -0.096698109042289537 0.43945862711880468 0 -0.099990199853393455 0.44662279129184779 0 -0.1033551047620382 0.43968018035794831 0 -0.093156591743987285 0.44491573971856468 0 -0.096237772299373942 0.4543649549703262 0 -0.093156591743987285 0.44491573971856468 0 -0.096237772299373942 0.4543649549703262 0 -0.099990199853393455 0.44662279129184779 0 -0.093156591743987285 0.44491573971856468 0 -0.099990199853393455 0.44662279129184779 0 -0.096237772299373942 0.4543649549703262 0 -0.099990199853393455 0.44662279129184779 0 -0.10622792002046549 0.45979532052823452 0 -0.099990199853393455 0.44662279129184779 0 -0.1104372687472697 0.44923249397101378 0 -0.099990199853393455 0.44662279129184779 0 -0.1104372687472697 0.44923249397101378 0 -0.1033551047620382 0.43968018035794831 0 -0.1104372687472697 0.44923249397101378 0 -0.099990199853393455 0.44662279129184779 0 -0.1033551047620382 0.43968018035794831 0 -0.1104372687472697 0.44923249397101378 0 -0.104271754489344 0.43778891074049409 0 -0.1033551047620382 0.43968018035794831 0 -0.1104372687472697 0.44923249397101378 0 -0.099990199853393455 0.44662279129184779 0 -0.1033551047620382 0.43968018035794831 0 -0.104271754489344 0.43778891074049409 0 -0.1033551047620382 0.43968018035794831 0 -0.104271754489344 0.43778891074049409 0 -0.10227867792115571 0.4382283124278834 0 -0.104271754489344 0.43778891074049409 0 -0.1033551047620382 0.43968018035794831 0 -0.10227867792115571 0.4382283124278834 0 -0.1033551047620382 0.43968018035794831 0 -0.10227867792115571 0.4382283124278834 0 -0.13005298269180801 0.43210507733641412 0 -0.104271754489344 0.43778891074049409 0 -0.1104372687472697 0.44923249397101378 0 -0.13005298269180801 0.43210507733641412 0 -0.1104372687472697 0.44923249397101378 0 -0.12377270975815841 0.45256371888083929 0 -0.1104372687472697 0.44923249397101378 0 -0.12377270975815841 0.45256371888083929 0 -0.10622792002046549 0.45979532052823452 0 -0.12059116906993531 0.46292791820578189 0 -0.1096534432167388 0.47284908800057368 0 -0.10622792002046549 0.45979532052823452 0 -0.1104372687472697 0.44923249397101378 0 -0.12059116906993531 0.46292791820578189 0 -0.1104372687472697 0.44923249397101378 0 -0.12059116906993531 0.46292791820578189 0 -0.12377270975815841 0.45256371888083929 0 -0.12059116906993531 0.46292791820578189 0 -0.12943006961773479 0.45986061918146942 0 -0.12377270975815841 0.45256371888083929 0 -0.12059116906993531 0.46292791820578189 0 -0.1104372687472697 0.44923249397101378 0 -0.12377270975815841 0.45256371888083929 0 -0.12059116906993531 0.46292791820578189 0 -0.13350941843555689 0.48035185381776802 0 -0.12059116906993531 0.46292791820578189 0 -0.1136085348406518 0.48567457463965957 0 -0.12059116906993531 0.46292791820578189 0 -0.1136085348406518 0.48567457463965957 0 -0.12059116906993531 0.46292791820578189 0 -0.1096534432167388 0.47284908800057368 0 -0.1136085348406518 0.48567457463965957 0 -0.1096534432167388 0.47284908800057368 0 -0.1136085348406518 0.48567457463965957 0 -0.1064804706686351 0.48577676609602022 0 -0.12637183686921941 0.49372603032261708 0 -0.1165345313854423 0.49363508600423761 0 -0.1136085348406518 0.48567457463965957 0 -0.12637183686921941 0.49372603032261708 0 -0.1165345313854423 0.49363508600423761 0 -0.11111835334693621 0.50000000000000133 0 -0.1165345313854423 0.49363508600423761 0 -0.11013589742821769 0.49698705178601482 0 -0.11111835334693621 0.50000000000000133 0 -0.11013589742821769 0.49698705178601482 0 -0.11111835334693621 0.50000000000000133 0 -0.11013589742821769 0.49698705178601482 0 -0.11111835334693621 0.50000000000000133 0 -0.10921100038274451 0.50000000000000255 0 -0.11013589742821769 0.49698705178601482 0 -0.10921100038274451 0.50000000000000255 0 -0.11013589742821769 0.49698705178601482 0 -0.1136085348406518 0.48567457463965957 0 -0.1064804706686351 0.48577676609602022 0 -0.11013589742821769 0.49698705178601482 0 -0.1136085348406518 0.48567457463965957 0 -0.1165345313854423 0.49363508600423761 0 -0.11013589742821769 0.49698705178601482 0 -0.1136085348406518 0.48567457463965957 0 -0.1136085348406518 0.48567457463965957 0 -0.1064804706686351 0.48577676609602022 0 -0.091665320199478373 0.5 0 -0.10921100038274451 0.50000000000000255 0 -0.1001732509075393 0.49403453110542522 0 -0.080835077782081571 0.4861444311429105 0 -0.1064804706686351 0.48577676609602022 0 -0.1001732509075393 0.49403453110542522 0 -0.11013589742821769 0.49698705178601482 0 -0.1064804706686351 0.48577676609602022 0 -0.11013589742821769 0.49698705178601482 0 -0.1064804706686351 0.48577676609602022 0 -0.1001732509075393 0.49403453110542522 0 -0.11013589742821769 0.49698705178601482 0 -0.10921100038274451 0.50000000000000255 0 -0.1001732509075393 0.49403453110542522 0 -0.1096534432167388 0.47284908800057368 0 -0.1064804706686351 0.48577676609602022 0 -0.1013591214840051 0.47007086053317299 0 -0.088536425040727174 0.47025469305661799 0 -0.1064804706686351 0.48577676609602022 0 -0.1013591214840051 0.47007086053317299 0 -0.1064804706686351 0.48577676609602022 0 -0.1013591214840051 0.47007086053317299 0 -0.17021668224762701 0.09059361461838969 0 -0.1689389247794669 0.072902344057831803 0 -0.15079461155191801 0.094324277531409179 0 -0.1689389247794669 0.072902344057831803 0 -0.15079461155191801 0.094324277531409179 0 -0.1510908967191639 0.078723101166785381 0 -0.1689389247794669 0.072902344057831803 0 -0.15079461155191801 0.094324277531409179 0 -0.1689389247794669 0.072902344057831803 0 -0.1510908967191639 0.078723101166785381 0 -0.156111633610964 0.069015405779673397 0 -0.1689389247794669 0.072902344057831803 0 -0.156111633610964 0.069015405779673397 0 -0.1599451115486589 0.057302964908714067 0 -0.1689389247794669 0.072902344057831803 0 -0.1861162293089923 0.068597927228619002 0 -0.18444583837170639 0.082684273682675571 0 -0.1689389247794669 0.072902344057831803 0 -0.1861162293089923 0.068597927228619002 0 -0.18708323800701571 0.051480410584254427 0 -0.17021668224762701 0.09059361461838969 0 -0.1689389247794669 0.072902344057831803 0 -0.18444583837170639 0.082684273682675571 0 -0.17021668224762701 0.09059361461838969 0 -0.18444583837170639 0.082684273682675571 0 -0.18223239277766659 0.096400843835505318 0 -0.18223239277766659 0.096400843835505318 0 -0.16902836303602681 0.106809602783337 0 -0.1890172492979367 0.1085888864300685 0 -0.17021668224762701 0.09059361461838969 0 -0.18223239277766659 0.096400843835505318 0 -0.16902836303602681 0.106809602783337 0 -0.1758420291915638 0.12315875155015581 0 -0.16902836303602681 0.106809602783337 0 -0.1890172492979367 0.1085888864300685 0 -0.1758420291915638 0.12315875155015581 0 -0.16902836303602681 0.106809602783337 0 -0.15502268142011241 0.1163004960991699 0 -0.1758420291915638 0.12315875155015581 0 -0.15502268142011241 0.1163004960991699 0 -0.1607497922328017 0.1326564153135171 0 -0.16902836303602681 0.106809602783337 0 -0.15079461155191801 0.094324277531409179 0 -0.15502268142011241 0.1163004960991699 0 -0.17021668224762701 0.09059361461838969 0 -0.16902836303602681 0.106809602783337 0 -0.15079461155191801 0.094324277531409179 0 -0.15079461155191801 0.094324277531409179 0 -0.15502268142011241 0.1163004960991699 0 -0.13265029832436931 0.1157462110049866 0 -0.15079461155191801 0.094324277531409179 0 -0.13265029832436931 0.1157462110049866 0 -0.15502268142011241 0.1163004960991699 0 -0.13265029832436931 0.1157462110049866 0 -0.14342078234017019 0.13280238705102479 0 -0.136551707266936 0.099495669033707254 0 -0.1183672833392774 0.090953737896455833 0 -0.1227818931155536 0.10678728714420491 0 -0.13265029832436931 0.1157462110049866 0 -0.136551707266936 0.099495669033707254 0 -0.1227818931155536 0.10678728714420491 0 -0.13265029832436931 0.1157462110049866 0 -0.136551707266936 0.099495669033707254 0 -0.15079461155191801 0.094324277531409179 0 -0.13265029832436931 0.1157462110049866 0 -0.136551707266936 0.099495669033707254 0 -0.136551707266936 0.099495669033707254 0 -0.1404531162095026 0.083245127062427843 0 -0.1183672833392774 0.090953737896455833 0 -0.1391561974439679 0.074128351402584655 0 -0.1183672833392774 0.090953737896455833 0 -0.136551707266936 0.099495669033707254 0 -0.1404531162095026 0.083245127062427843 0 -0.1391561974439679 0.074128351402584655 0 -0.1207599071254775 0.073075643047433608 0 -0.1183672833392774 0.090953737896455833 0 -0.1404531162095026 0.083245127062427843 0 -0.1391561974439679 0.074128351402584655 0 -0.1183672833392774 0.090953737896455833 0 -0.15079461155191801 0.094324277531409179 0 -0.136551707266936 0.099495669033707254 0 -0.1404531162095026 0.083245127062427843 0 -0.1404531162095026 0.083245127062427843 0 -0.1510908967191639 0.078723101166785381 0 -0.1391561974439679 0.074128351402584655 0 -0.15079461155191801 0.094324277531409179 0 -0.1404531162095026 0.083245127062427843 0 -0.1510908967191639 0.078723101166785381 0 -0.156111633610964 0.069015405779673397 0 -0.15259359763589439 0.063252869856823823 0 -0.1391561974439679 0.074128351402584655 0 -0.15259359763589439 0.063252869856823823 0 -0.1391561974439679 0.074128351402584655 0 -0.1442907585109697 0.055478049399267301 0 -0.1510908967191639 0.078723101166785381 0 -0.156111633610964 0.069015405779673397 0 -0.1391561974439679 0.074128351402584655 0 -0.156111633610964 0.069015405779673397 0 -0.15259359763589439 0.063252869856823823 0 -0.1599451115486589 0.057302964908714067 0 -0.15259359763589439 0.063252869856823823 0 -0.1391561974439679 0.074128351402584655 0 -0.1391561974439679 0.074128351402584655 0 -0.1254106300938177 0.062366355819442602 0 -0.1207599071254775 0.073075643047433608 0 -0.1391561974439679 0.074128351402584655 0 -0.13420653123103321 0.053584755837126553 0 -0.1254106300938177 0.062366355819442602 0 -0.13420653123103321 0.053584755837126553 0 -0.1254106300938177 0.062366355819442602 0 -0.12287179881639709 0.044701360289824653 0 -0.1391561974439679 0.074128351402584655 0 -0.13420653123103321 0.053584755837126553 0 -0.1442907585109697 0.055478049399267301 0 -0.13420653123103321 0.053584755837126553 0 -0.13546894445642599 0.031518506890723552 0 -0.12287179881639709 0.044701360289824653 0 -0.13420653123103321 0.053584755837126553 0 -0.13546894445642599 0.031518506890723552 0 -0.1442907585109697 0.055478049399267301 0 -0.15237707734260519 0.049330406969836003 0 -0.15238976807402191 0.026545416448787391 0 -0.13546894445642599 0.031518506890723552 0 -0.15237707734260519 0.049330406969836003 0 -0.1442907585109697 0.055478049399267301 0 -0.15237707734260519 0.049330406969836003 0 -0.15238976807402191 0.026545416448787391 0 -0.16341449676402159 0.038977343155882888 0 -0.13546894445642599 0.031518506890723552 0 -0.15237707734260519 0.049330406969836003 0 -0.15238976807402191 0.026545416448787391 0 -0.13546894445642599 0.031518506890723552 0 -0.15237707734260519 0.049330406969836003 0 -0.15237707734260519 0.049330406969836003 0 -0.1599451115486589 0.057302964908714067 0 -0.15259359763589439 0.063252869856823823 0 -0.15237707734260519 0.049330406969836003 0 -0.15259359763589439 0.063252869856823823 0 -0.15237707734260519 0.049330406969836003 0 -0.1599451115486589 0.057302964908714067 0 -0.15259359763589439 0.063252869856823823 0 -0.15237707734260519 0.049330406969836003 0 -0.1442907585109697 0.055478049399267301 0 -0.1298498211362587 -0.0047987804970502437 0 -0.13853001708391749 0.010606183027952611 0 -0.118560811570255 0.01370660681160321 0 -0.13546894445642599 0.031518506890723552 0 -0.118560811570255 0.01370660681160321 0 -0.13546894445642599 0.031518506890723552 0 -0.13853001708391749 0.010606183027952611 0 -0.118560811570255 0.01370660681160321 0 -0.13546894445642599 0.031518506890723552 0 -0.13853001708391749 0.010606183027952611 0 -0.15238976807402191 0.026545416448787391 0 -0.15238976807402191 0.026545416448787391 0 -0.15240245880543771 0.0037604259277388701 0 -0.13853001708391749 0.010606183027952611 0 -0.15238976807402191 0.026545416448787391 0 -0.15240245880543771 0.0037604259277388701 0 -0.14250829846110319 -0.0070950774140885733 0 -0.13853001708391749 0.010606183027952611 0 -0.15240245880543771 0.0037604259277388701 0 -0.15240245880543771 0.0037604259277388701 0 -0.1705694102235043 0.02208589946059809 0 -0.17322371024038649 0.00319519120039094 0 -0.15238976807402191 0.026545416448787391 0 -0.15240245880543771 0.0037604259277388701 0 -0.1705694102235043 0.02208589946059809 0 -0.15238976807402191 0.026545416448787391 0 -0.1705694102235043 0.02208589946059809 0 -0.16341449676402159 0.038977343155882888 0 -0.1705694102235043 0.02208589946059809 0 -0.186281228691307 0.012926873842808009 0 -0.181791116631319 0.039622027991479042 0 -0.1885831841696638 -0.0071662509829557818 0 -0.186281228691307 0.012926873842808009 0 -0.17322371024038649 0.00319519120039094 0 -0.1705694102235043 0.02208589946059809 0 -0.186281228691307 0.012926873842808009 0 -0.17322371024038649 0.00319519120039094 0 -0.1599451115486589 0.057302964908714067 0 -0.181791116631319 0.039622027991479042 0 -0.15237707734260519 0.049330406969836003 0 -0.1599451115486589 0.057302964908714067 0 -0.16341449676402159 0.038977343155882888 0 -0.15259359763589439 0.063252869856823823 0 -0.1599451115486589 0.057302964908714067 0 -0.1599451115486589 0.057302964908714067 0 -0.16341449676402159 0.038977343155882888 0 -0.181791116631319 0.039622027991479042 0 -0.1705694102235043 0.02208589946059809 0 -0.16341449676402159 0.038977343155882888 0 -0.181791116631319 0.039622027991479042 0 -0.1689389247794669 0.072902344057831803 0 -0.1599451115486589 0.057302964908714067 0 -0.18708323800701571 0.051480410584254427 0 -0.1599451115486589 0.057302964908714067 0 -0.181791116631319 0.039622027991479042 0 -0.18708323800701571 0.051480410584254427 0 -0.1689389247794669 0.072902344057831803 0 -0.18708323800701571 0.051480410584254427 0 -0.1861162293089923 0.068597927228619002 0 -0.18708323800701571 0.051480410584254427 0 -0.19342120697934451 0.060767361896478772 0 -0.19342120697934451 0.060767361896478772 0 -0.19738852468551529 0.051602359540535381 0 -0.20371307845270401 0.05875659040484793 0 -0.18708323800701571 0.051480410584254427 0 -0.19738852468551529 0.051602359540535381 0 -0.19852560631743271 0.04065479782539741 0 -0.18708323800701571 0.051480410584254427 0 -0.19342120697934451 0.060767361896478772 0 -0.19738852468551529 0.051602359540535381 0 -0.181791116631319 0.039622027991479042 0 -0.19852560631743271 0.04065479782539741 0 -0.20363712171397949 0.02194109107424461 0 -0.181791116631319 0.039622027991479042 0 -0.18708323800701571 0.051480410584254427 0 -0.19852560631743271 0.04065479782539741 0 -0.19738852468551529 0.051602359540535381 0 -0.19852560631743271 0.04065479782539741 0 -0.2090819693021245 0.045333235407690728 0 -0.19852560631743271 0.04065479782539741 0 -0.21124325861765419 0.036075297765772937 0 -0.20363712171397949 0.02194109107424461 0 -0.19852560631743271 0.04065479782539741 0 -0.2090819693021245 0.045333235407690728 0 -0.21124325861765419 0.036075297765772937 0 -0.21124325861765419 0.036075297765772937 0 -0.22409931218314519 0.030554825226231128 0 -0.2208722835715892 0.041892539295300818 0 -0.2090819693021245 0.045333235407690728 0 -0.21124325861765419 0.036075297765772937 0 -0.2208722835715892 0.041892539295300818 0 -0.2090819693021245 0.045333235407690728 0 -0.2116386073091456 0.05458097190916928 0 -0.22117900649868349 0.054694692718553012 0 -0.2090819693021245 0.045333235407690728 0 -0.22117900649868349 0.054694692718553012 0 -0.2208722835715892 0.041892539295300818 0 -0.2116386073091456 0.05458097190916928 0 -0.22117900649868349 0.054694692718553012 0 -0.21266427670021409 0.064733569044368167 0 -0.2116386073091456 0.05458097190916928 0 -0.20371307845270401 0.05875659040484793 0 -0.21266427670021409 0.064733569044368167 0 -0.19738852468551529 0.051602359540535381 0 -0.2090819693021245 0.045333235407690728 0 -0.20371307845270401 0.05875659040484793 0 -0.2090819693021245 0.045333235407690728 0 -0.2116386073091456 0.05458097190916928 0 -0.20371307845270401 0.05875659040484793 0 -0.1885831841696638 -0.0071662509829557818 0 -0.2046107688949933 -0.0027033495577167368 0 -0.186281228691307 0.012926873842808009 0 -0.2046107688949933 -0.0027033495577167368 0 -0.186281228691307 0.012926873842808009 0 -0.20363712171397949 0.02194109107424461 0 -0.186281228691307 0.012926873842808009 0 -0.181791116631319 0.039622027991479042 0 -0.20363712171397949 0.02194109107424461 0 -0.181791116631319 0.039622027991479042 0 -0.20363712171397949 0.02194109107424461 0 -0.21124325861765419 0.036075297765772937 0 -0.20363712171397949 0.02194109107424461 0 -0.22409931218314519 0.030554825226231128 0 -0.20363712171397949 0.02194109107424461 0 -0.22548312679664009 0.0042601541570101709 0 -0.2046107688949933 -0.0027033495577167368 0 -0.20363712171397949 0.02194109107424461 0 -0.22548312679664009 0.0042601541570101709 0 -0.20363712171397949 0.02194109107424461 0 -0.22548312679664009 0.0042601541570101709 0 -0.2289165280954405 0.018795927429600741 0 -0.22548312679664009 0.0042601541570101709 0 -0.2289165280954405 0.018795927429600741 0 -0.2394860419176203 0.0139045137359264 0 -0.20363712171397949 0.02194109107424461 0 -0.2289165280954405 0.018795927429600741 0 -0.22409931218314519 0.030554825226231128 0 -0.22409931218314519 0.030554825226231128 0 -0.2356219538629008 0.027197677122752621 0 -0.2334146474112577 0.033292983753269632 0 -0.2289165280954405 0.018795927429600741 0 -0.22409931218314519 0.030554825226231128 0 -0.2356219538629008 0.027197677122752621 0 -0.2356219538629008 0.027197677122752621 0 -0.2334146474112577 0.033292983753269632 0 -0.23858170684624869 0.033251884381169217 0 -0.2356219538629008 0.027197677122752621 0 -0.24336729957558681 0.02882498506088493 0 -0.2405066774636124 0.02272698369023915 0 -0.2356219538629008 0.027197677122752621 0 -0.24336729957558681 0.02882498506088493 0 -0.23858170684624869 0.033251884381169217 0 -0.25005264979120451 0.033313322553551489 0 -0.24336729957558681 0.02882498506088493 0 -0.24603772611947489 0.02763480897983139 0 -0.24336729957558681 0.02882498506088493 0 -0.24603772611947489 0.02763480897983139 0 -0.2405066774636124 0.02272698369023915 0 -0.2482883814221917 0.019126629746284419 0 -0.2405066774636124 0.02272698369023915 0 -0.2394860419176203 0.0139045137359264 0 -0.24603772611947489 0.02763480897983139 0 -0.2482883814221917 0.019126629746284419 0 -0.2405066774636124 0.02272698369023915 0 -0.2289165280954405 0.018795927429600741 0 -0.2356219538629008 0.027197677122752621 0 -0.2405066774636124 0.02272698369023915 0 -0.2289165280954405 0.018795927429600741 0 -0.2405066774636124 0.02272698369023915 0 -0.2394860419176203 0.0139045137359264 0 -0.22548312679664009 0.0042601541570101709 0 -0.2394860419176203 0.0139045137359264 0 -0.2457000676155878 0.0036029929913239788 0 -0.25344844270157141 0.011580410678068261 0 -0.2482883814221917 0.019126629746284419 0 -0.2394860419176203 0.0139045137359264 0 -0.25344844270157141 0.011580410678068261 0 -0.2394860419176203 0.0139045137359264 0 -0.2457000676155878 0.0036029929913239788 0 -0.22891722354018371 0.0476394734304929 0 -0.23489600419316101 0.044009456105588728 0 -0.23717259630511831 0.049971491109943832 0 -0.22891722354018371 0.0476394734304929 0 -0.2322370420858241 0.055317915954266272 0 -0.22117900649868349 0.054694692718553012 0 -0.22891722354018371 0.0476394734304929 0 -0.2322370420858241 0.055317915954266272 0 -0.23717259630511831 0.049971491109943832 0 -0.2322370420858241 0.055317915954266272 0 -0.22117900649868349 0.054694692718553012 0 -0.2305611379612971 0.063503445737931596 0 -0.2322370420858241 0.055317915954266272 0 -0.23866108302326039 0.063955673710024044 0 -0.2305611379612971 0.063503445737931596 0 -0.22891722354018371 0.0476394734304929 0 -0.22117900649868349 0.054694692718553012 0 -0.2208722835715892 0.041892539295300818 0 -0.22891722354018371 0.0476394734304929 0 -0.2208722835715892 0.041892539295300818 0 -0.2298663736389088 0.039331469656389097 0 -0.22409931218314519 0.030554825226231128 0 -0.2208722835715892 0.041892539295300818 0 -0.2298663736389088 0.039331469656389097 0 -0.22409931218314519 0.030554825226231128 0 -0.2334146474112577 0.033292983753269632 0 -0.2298663736389088 0.039331469656389097 0 -0.2334146474112577 0.033292983753269632 0 -0.2298663736389088 0.039331469656389097 0 -0.236998770934116 0.038599540127451398 0 -0.22891722354018371 0.0476394734304929 0 -0.2298663736389088 0.039331469656389097 0 -0.23489600419316101 0.044009456105588728 0 -0.2298663736389088 0.039331469656389097 0 -0.23489600419316101 0.044009456105588728 0 -0.236998770934116 0.038599540127451398 0 -0.23489600419316101 0.044009456105588728 0 -0.24041179761709011 0.044102687728994547 0 -0.23717259630511831 0.049971491109943832 0 -0.23489600419316101 0.044009456105588728 0 -0.24041179761709011 0.044102687728994547 0 -0.236998770934116 0.038599540127451398 0 -0.24041179761709011 0.044102687728994547 0 -0.236998770934116 0.038599540127451398 0 -0.24323024493028531 0.038140021443668987 0 -0.24336729957558681 0.02882498506088493 0 -0.23858170684624869 0.033251884381169217 0 -0.24323024493028531 0.038140021443668987 0 -0.2334146474112577 0.033292983753269632 0 -0.236998770934116 0.038599540127451398 0 -0.23858170684624869 0.033251884381169217 0 -0.236998770934116 0.038599540127451398 0 -0.23858170684624869 0.033251884381169217 0 -0.24323024493028531 0.038140021443668987 0 -0.25222800853794691 0.04147592082665285 0 -0.25005264979120451 0.033313322553551489 0 -0.24336729957558681 0.02882498506088493 0 -0.25222800853794691 0.04147592082665285 0 -0.24336729957558681 0.02882498506088493 0 -0.25222800853794691 0.04147592082665285 0 -0.24336729957558681 0.02882498506088493 0 -0.24323024493028531 0.038140021443668987 0 -0.25222800853794691 0.04147592082665285 0 -0.2460627218301864 0.04421891876816024 0 -0.24994589315221871 0.051626894547475377 0 -0.25222800853794691 0.04147592082665285 0 -0.24323024493028531 0.038140021443668987 0 -0.2460627218301864 0.04421891876816024 0 -0.24041179761709011 0.044102687728994547 0 -0.2460627218301864 0.04421891876816024 0 -0.24411044750967389 0.049676698819154111 0 -0.24041179761709011 0.044102687728994547 0 -0.24323024493028531 0.038140021443668987 0 -0.2460627218301864 0.04421891876816024 0 -0.2460627218301864 0.04421891876816024 0 -0.24994589315221871 0.051626894547475377 0 -0.24411044750967389 0.049676698819154111 0 -0.24994589315221871 0.051626894547475377 0 -0.24411044750967389 0.049676698819154111 0 -0.2485678566767793 0.056775404975444588 0 -0.24411044750967389 0.049676698819154111 0 -0.2414103578023353 0.057038559319617113 0 -0.2485678566767793 0.056775404975444588 0 -0.24041179761709011 0.044102687728994547 0 -0.24411044750967389 0.049676698819154111 0 -0.23717259630511831 0.049971491109943832 0 -0.2322370420858241 0.055317915954266272 0 -0.23717259630511831 0.049971491109943832 0 -0.2414103578023353 0.057038559319617113 0 -0.24411044750967389 0.049676698819154111 0 -0.23717259630511831 0.049971491109943832 0 -0.2414103578023353 0.057038559319617113 0 -0.2322370420858241 0.055317915954266272 0 -0.2414103578023353 0.057038559319617113 0 -0.23866108302326039 0.063955673710024044 0 -0.2414103578023353 0.057038559319617113 0 -0.2475218709412379 0.066024892856062389 0 -0.23866108302326039 0.063955673710024044 0 -0.2414103578023353 0.057038559319617113 0 -0.2485678566767793 0.056775404975444588 0 -0.2475218709412379 0.066024892856062389 0 -0.2475218709412379 0.066024892856062389 0 -0.24664778388642369 0.077967729084462353 0 -0.2370396259948758 0.072546564948962666 0 -0.254542124708383 0.077397032767125812 0 -0.2475218709412379 0.066024892856062389 0 -0.24664778388642369 0.077967729084462353 0 -0.24664778388642369 0.077967729084462353 0 -0.2370396259948758 0.072546564948962666 0 -0.23249557971049359 0.083193625878201116 0 -0.2475218709412379 0.066024892856062389 0 -0.2370396259948758 0.072546564948962666 0 -0.23866108302326039 0.063955673710024044 0 -0.2370396259948758 0.072546564948962666 0 -0.23866108302326039 0.063955673710024044 0 -0.2305611379612971 0.063503445737931596 0 -0.2442305775981316 0.092899430819925341 0 -0.23249557971049359 0.083193625878201116 0 -0.22865959628618579 0.099586580705811889 0 -0.25329249931290521 0.08817995973143529 0 -0.24664778388642369 0.077967729084462353 0 -0.2442305775981316 0.092899430819925341 0 -0.24664778388642369 0.077967729084462353 0 -0.2442305775981316 0.092899430819925341 0 -0.23249557971049359 0.083193625878201116 0 -0.23249557971049359 0.083193625878201116 0 -0.22368893220384181 0.071002381357851987 0 -0.21622054053059861 0.08479257438413812 0 -0.23249557971049359 0.083193625878201116 0 -0.21622054053059861 0.08479257438413812 0 -0.22865959628618579 0.099586580705811889 0 -0.22117900649868349 0.054694692718553012 0 -0.22368893220384181 0.071002381357851987 0 -0.21266427670021409 0.064733569044368167 0 -0.22117900649868349 0.054694692718553012 0 -0.2305611379612971 0.063503445737931596 0 -0.22368893220384181 0.071002381357851987 0 -0.2370396259948758 0.072546564948962666 0 -0.2305611379612971 0.063503445737931596 0 -0.22368893220384181 0.071002381357851987 0 -0.2370396259948758 0.072546564948962666 0 -0.23249557971049359 0.083193625878201116 0 -0.22368893220384181 0.071002381357851987 0 -0.22368893220384181 0.071002381357851987 0 -0.21266427670021409 0.064733569044368167 0 -0.2135510397025297 0.073997605895227608 0 -0.20371307845270401 0.05875659040484793 0 -0.21266427670021409 0.064733569044368167 0 -0.20163040937546431 0.075461898794552174 0 -0.2135510397025297 0.073997605895227608 0 -0.21622054053059861 0.08479257438413812 0 -0.20163040937546431 0.075461898794552174 0 -0.21266427670021409 0.064733569044368167 0 -0.2135510397025297 0.073997605895227608 0 -0.20163040937546431 0.075461898794552174 0 -0.22368893220384181 0.071002381357851987 0 -0.2135510397025297 0.073997605895227608 0 -0.21622054053059861 0.08479257438413812 0 -0.21622054053059861 0.08479257438413812 0 -0.19754039174102139 0.092149013561155527 0 -0.20163040937546431 0.075461898794552174 0 -0.18444583837170639 0.082684273682675571 0 -0.19754039174102139 0.092149013561155527 0 -0.20163040937546431 0.075461898794552174 0 -0.18444583837170639 0.082684273682675571 0 -0.18223239277766659 0.096400843835505318 0 -0.19754039174102139 0.092149013561155527 0 -0.19342120697934451 0.060767361896478772 0 -0.20371307845270401 0.05875659040484793 0 -0.20163040937546431 0.075461898794552174 0 -0.1861162293089923 0.068597927228619002 0 -0.18444583837170639 0.082684273682675571 0 -0.20163040937546431 0.075461898794552174 0 -0.1861162293089923 0.068597927228619002 0 -0.19342120697934451 0.060767361896478772 0 -0.20163040937546431 0.075461898794552174 0 -0.1758420291915638 0.12315875155015581 0 -0.1890172492979367 0.1085888864300685 0 -0.19878641820461279 0.12752343115374851 0 -0.1890172492979367 0.1085888864300685 0 -0.21067390083672891 0.1054916756965089 0 -0.19878641820461279 0.12752343115374851 0 -0.18223239277766659 0.096400843835505318 0 -0.19754039174102139 0.092149013561155527 0 -0.1890172492979367 0.1085888864300685 0 -0.19754039174102139 0.092149013561155527 0 -0.1890172492979367 0.1085888864300685 0 -0.21067390083672891 0.1054916756965089 0 -0.21622054053059861 0.08479257438413812 0 -0.19754039174102139 0.092149013561155527 0 -0.21067390083672891 0.1054916756965089 0 -0.21622054053059861 0.08479257438413812 0 -0.21067390083672891 0.1054916756965089 0 -0.22865959628618579 0.099586580705811889 0 -0.21067390083672891 0.1054916756965089 0 -0.22559741907562189 0.1218115933573294 0 -0.19878641820461279 0.12752343115374851 0 -0.22559741907562189 0.1218115933573294 0 -0.22865959628618579 0.099586580705811889 0 -0.2427395599655402 0.1093305840987684 0 -0.21067390083672891 0.1054916756965089 0 -0.22559741907562189 0.1218115933573294 0 -0.22865959628618579 0.099586580705811889 0 -0.2442305775981316 0.092899430819925341 0 -0.22865959628618579 0.099586580705811889 0 -0.2427395599655402 0.1093305840987684 0 -0.25574915649652019 0.1021364681163857 0 -0.2442305775981316 0.092899430819925341 0 -0.2427395599655402 0.1093305840987684 0 -0.22559741907562189 0.1218115933573294 0 -0.2427395599655402 0.1093305840987684 0 -0.24237127806191081 0.12429578813242689 0 -0.2552307640024038 0.1195148507435051 0 -0.2427395599655402 0.1093305840987684 0 -0.24237127806191081 0.12429578813242689 0 -0.25302494062569231 0.13467322460660769 0 -0.24237127806191081 0.12429578813242689 0 -0.23457548327862399 0.1370905037575377 0 -0.22559741907562189 0.1218115933573294 0 -0.24237127806191081 0.12429578813242689 0 -0.23457548327862399 0.1370905037575377 0 -0.22559741907562189 0.1218115933573294 0 -0.23457548327862399 0.1370905037575377 0 -0.2159619447630278 0.14252513044589851 0 -0.2374474384436164 0.15546858075919509 0 -0.21995880273758431 0.16578589620232481 0 -0.2159619447630278 0.14252513044589851 0 -0.23457548327862399 0.1370905037575377 0 -0.2374474384436164 0.15546858075919509 0 -0.2159619447630278 0.14252513044589851 0 -0.25498243227620382 0.15985217418311479 0 -0.25302494062569231 0.13467322460660769 0 -0.2374474384436164 0.15546858075919509 0 -0.25302494062569231 0.13467322460660769 0 -0.23457548327862399 0.1370905037575377 0 -0.2374474384436164 0.15546858075919509 0 -0.25498243227620382 0.15985217418311479 0 -0.2374474384436164 0.15546858075919509 0 -0.24108776620825001 0.17436978599253969 0 -0.25009805300267218 0.19079316971494659 0 -0.24108776620825001 0.17436978599253969 0 -0.22640884286674801 0.18892315573945029 0 -0.24108776620825001 0.17436978599253969 0 -0.21995880273758431 0.16578589620232481 0 -0.22640884286674801 0.18892315573945029 0 -0.2374474384436164 0.15546858075919509 0 -0.24108776620825001 0.17436978599253969 0 -0.21995880273758431 0.16578589620232481 0 -0.21995880273758431 0.16578589620232481 0 -0.201326849684062 0.17746983075445169 0 -0.19771822247881921 0.15331388234036961 0 -0.21995880273758431 0.16578589620232481 0 -0.201326849684062 0.17746983075445169 0 -0.22640884286674801 0.18892315573945029 0 -0.201326849684062 0.17746983075445169 0 -0.22640884286674801 0.18892315573945029 0 -0.201326849684062 0.17746983075445169 0 -0.19771822247881921 0.15331388234036961 0 -0.176244856501376 0.16601650576945309 0 -0.201326849684062 0.17746983075445169 0 -0.176244856501376 0.16601650576945309 0 -0.19771822247881921 0.15331388234036961 0 -0.19878641820461279 0.12752343115374851 0 -0.1767506969879773 0.14287202781861641 0 -0.22559741907562189 0.1218115933573294 0 -0.19878641820461279 0.12752343115374851 0 -0.2159619447630278 0.14252513044589851 0 -0.21995880273758431 0.16578589620232481 0 -0.19771822247881921 0.15331388234036961 0 -0.2159619447630278 0.14252513044589851 0 -0.19771822247881921 0.15331388234036961 0 -0.19878641820461279 0.12752343115374851 0 -0.2159619447630278 0.14252513044589851 0 -0.23283802015306981 0.25125873577813129 0 -0.23831154991391679 0.23366221812923521 0 -0.2145545443105708 0.2354451122036311 0 -0.23831154991391679 0.23366221812923521 0 -0.2145545443105708 0.2354451122036311 0 -0.23283802015306981 0.25125873577813129 0 -0.21801617806649609 0.25550106181951843 0 -0.2145545443105708 0.2354451122036311 0 -0.23283802015306981 0.25125873577813129 0 -0.24708083820574889 0.24741108561719261 0 -0.23831154991391679 0.23366221812923521 0 -0.26206855551726288 0.23187932405483971 0 -0.24708083820574889 0.24741108561719261 0 -0.23831154991391679 0.23366221812923521 0 -0.23831154991391679 0.23366221812923521 0 -0.22536872848199249 0.2203716540050637 0 -0.24414746955438291 0.212023491822808 0 -0.26206855551726288 0.23187932405483971 0 -0.23831154991391679 0.23366221812923521 0 -0.24414746955438291 0.212023491822808 0 -0.23831154991391679 0.23366221812923521 0 -0.22536872848199249 0.2203716540050637 0 -0.2145545443105708 0.2354451122036311 0 -0.22536872848199249 0.2203716540050637 0 -0.24414746955438291 0.212023491822808 0 -0.22640884286674801 0.18892315573945029 0 -0.22536872848199249 0.2203716540050637 0 -0.22640884286674801 0.18892315573945029 0 -0.20893975905636311 0.20869334754450661 0 -0.25009805300267218 0.19079316971494659 0 -0.24414746955438291 0.212023491822808 0 -0.22640884286674801 0.18892315573945029 0 -0.201326849684062 0.17746983075445169 0 -0.22640884286674801 0.18892315573945029 0 -0.20893975905636311 0.20869334754450661 0 -0.201326849684062 0.17746983075445169 0 -0.1841072037433403 0.20524246511309349 0 -0.18125535484208649 0.18425405463222469 0 -0.201326849684062 0.17746983075445169 0 -0.20893975905636311 0.20869334754450661 0 -0.1841072037433403 0.20524246511309349 0 -0.20893975905636311 0.20869334754450661 0 -0.1953301783162672 0.2209563791085184 0 -0.1841072037433403 0.20524246511309349 0 -0.22536872848199249 0.2203716540050637 0 -0.20893975905636311 0.20869334754450661 0 -0.2145545443105708 0.2354451122036311 0 -0.20893975905636311 0.20869334754450661 0 -0.1953301783162672 0.2209563791085184 0 -0.2145545443105708 0.2354451122036311 0 -0.1953301783162672 0.2209563791085184 0 -0.1907975387072248 0.23722800627802709 0 -0.17780338858735309 0.22325348905496339 0 -0.1953301783162672 0.2209563791085184 0 -0.1907975387072248 0.23722800627802709 0 -0.2145545443105708 0.2354451122036311 0 -0.18576852533201429 0.25360460113913352 0 -0.1907975387072248 0.23722800627802709 0 -0.19374788972594381 0.24991124577830251 0 -0.1907975387072248 0.23722800627802709 0 -0.2145545443105708 0.2354451122036311 0 -0.1907975387072248 0.23722800627802709 0 -0.19374788972594381 0.24991124577830251 0 -0.20458554865317749 0.249787391716987 0 -0.1907975387072248 0.23722800627802709 0 -0.2145545443105708 0.2354451122036311 0 -0.20458554865317749 0.249787391716987 0 -0.21801617806649609 0.25550106181951843 0 -0.2145545443105708 0.2354451122036311 0 -0.20458554865317749 0.249787391716987 0 -0.15940029187245869 0.25150970070557682 0 -0.16704053310387881 0.23901090035242301 0 -0.14977921040672881 0.24030631234443989 0 -0.16704053310387881 0.23901090035242301 0 -0.14977921040672881 0.24030631234443989 0 -0.1747649578879803 0.25258516995377711 0 -0.16704053310387881 0.23901090035242301 0 -0.1747649578879803 0.25258516995377711 0 -0.15940029187245869 0.25150970070557682 0 -0.16704053310387881 0.23901090035242301 0 -0.1747649578879803 0.25258516995377711 0 -0.1907975387072248 0.23722800627802709 0 -0.16704053310387881 0.23901090035242301 0 -0.1907975387072248 0.23722800627802709 0 -0.16704053310387881 0.23901090035242301 0 -0.18576852533201429 0.25360460113913352 0 -0.1747649578879803 0.25258516995377711 0 -0.1907975387072248 0.23722800627802709 0 -0.1907975387072248 0.23722800627802709 0 -0.16704053310387881 0.23901090035242301 0 -0.17780338858735309 0.22325348905496339 0 -0.16704053310387881 0.23901090035242301 0 -0.15246185251247979 0.21339152463049249 0 -0.14977921040672881 0.24030631234443989 0 -0.16704053310387881 0.23901090035242301 0 -0.15246185251247979 0.21339152463049249 0 -0.16704053310387881 0.23901090035242301 0 -0.17780338858735309 0.22325348905496339 0 -0.15246185251247979 0.21339152463049249 0 -0.17780338858735309 0.22325348905496339 0 -0.1841072037433403 0.20524246511309349 0 -0.15246185251247979 0.21339152463049249 0 -0.1841072037433403 0.20524246511309349 0 -0.16334250943956791 0.18828741689190071 0 -0.15246185251247979 0.21339152463049249 0 -0.1953301783162672 0.2209563791085184 0 -0.17780338858735309 0.22325348905496339 0 -0.1841072037433403 0.20524246511309349 0 -0.1841072037433403 0.20524246511309349 0 -0.16334250943956791 0.18828741689190071 0 -0.18125535484208649 0.18425405463222469 0 -0.1378831719210806 0.18777214890856189 0 -0.15246185251247979 0.21339152463049249 0 -0.16334250943956791 0.18828741689190071 0 -0.1378831719210806 0.18777214890856189 0 -0.15246185251247979 0.21339152463049249 0 -0.1378831719210806 0.18777214890856189 0 -0.12727419624483979 0.21068035279713149 0 -0.11137762115665301 0.19435930217078309 0 -0.1378831719210806 0.18777214890856189 0 -0.12727419624483979 0.21068035279713149 0 -0.15246185251247979 0.21339152463049249 0 -0.12727419624483979 0.21068035279713149 0 -0.15246185251247979 0.21339152463049249 0 -0.13723232508967539 0.22865604646278881 0 -0.15246185251247979 0.21339152463049249 0 -0.13723232508967539 0.22865604646278881 0 -0.14977921040672881 0.24030631234443989 0 -0.12727419624483979 0.21068035279713149 0 -0.13723232508967539 0.22865604646278881 0 -0.1171493527512643 0.23046234241768129 0 -0.13723232508967539 0.22865604646278881 0 -0.1394970135330646 0.24843970012419911 0 -0.1171493527512643 0.23046234241768129 0 -0.1394970135330646 0.24843970012419911 0 -0.1171493527512643 0.23046234241768129 0 -0.1394970135330646 0.24843970012419911 0 -0.1212353466615667 0.24712127301656889 0 -0.1171493527512643 0.23046234241768129 0 -0.13723232508967539 0.22865604646278881 0 -0.1394970135330646 0.24843970012419911 0 -0.14977921040672881 0.24030631234443989 0 -0.15940029187245869 0.25150970070557682 0 -0.1394970135330646 0.24843970012419911 0 -0.14977921040672881 0.24030631234443989 0 -0.1767506969879773 0.14287202781861641 0 -0.176244856501376 0.16601650576945309 0 -0.15116286331869019 0.1545631807844545 0 -0.1607497922328017 0.1326564153135171 0 -0.1767506969879773 0.14287202781861641 0 -0.15116286331869019 0.1545631807844545 0 -0.1758420291915638 0.12315875155015581 0 -0.1607497922328017 0.1326564153135171 0 -0.1767506969879773 0.14287202781861641 0 -0.1758420291915638 0.12315875155015581 0 -0.19878641820461279 0.12752343115374851 0 -0.1767506969879773 0.14287202781861641 0 -0.19771822247881921 0.15331388234036961 0 -0.1767506969879773 0.14287202781861641 0 -0.176244856501376 0.16601650576945309 0 -0.201326849684062 0.17746983075445169 0 -0.176244856501376 0.16601650576945309 0 -0.18125535484208649 0.18425405463222469 0 -0.16334250943956791 0.18828741689190071 0 -0.176244856501376 0.16601650576945309 0 -0.18125535484208649 0.18425405463222469 0 -0.16334250943956791 0.18828741689190071 0 -0.176244856501376 0.16601650576945309 0 -0.1460443134409731 0.17177600470678381 0 -0.176244856501376 0.16601650576945309 0 -0.15116286331869019 0.1545631807844545 0 -0.176244856501376 0.16601650576945309 0 -0.1460443134409731 0.17177600470678381 0 -0.15116286331869019 0.1545631807844545 0 -0.1460443134409731 0.17177600470678381 0 -0.13670978269071621 0.15643496836942061 0 -0.15116286331869019 0.1545631807844545 0 -0.16334250943956791 0.18828741689190071 0 -0.1378831719210806 0.18777214890856189 0 -0.1460443134409731 0.17177600470678381 0 -0.1378831719210806 0.18777214890856189 0 -0.1233044913296813 0.16215277318663121 0 -0.1378831719210806 0.18777214890856189 0 -0.1233044913296813 0.16215277318663121 0 -0.1169900252858686 0.17545647819228641 0 -0.1378831719210806 0.18777214890856189 0 -0.1460443134409731 0.17177600470678381 0 -0.1233044913296813 0.16215277318663121 0 -0.1460443134409731 0.17177600470678381 0 -0.13670978269071621 0.15643496836942061 0 -0.1233044913296813 0.16215277318663121 0 -0.13670978269071621 0.15643496836942061 0 -0.12753461310079761 0.15422337150207391 0 -0.1233044913296813 0.16215277318663121 0 -0.12753461310079761 0.15422337150207391 0 -0.1260808701360043 0.14310985579945629 0 -0.1223230386863217 0.15876235431807059 0 -0.13670978269071621 0.15643496836942061 0 -0.1260808701360043 0.14310985579945629 0 -0.15116286331869019 0.1545631807844545 0 -0.13670978269071621 0.15643496836942061 0 -0.12753461310079761 0.15422337150207391 0 -0.1260808701360043 0.14310985579945629 0 -0.1260808701360043 0.14310985579945629 0 -0.15116286331869019 0.1545631807844545 0 -0.14342078234017019 0.13280238705102479 0 -0.1260808701360043 0.14310985579945629 0 -0.15116286331869019 0.1545631807844545 0 -0.1607497922328017 0.1326564153135171 0 -0.15116286331869019 0.1545631807844545 0 -0.14342078234017019 0.13280238705102479 0 -0.15502268142011241 0.1163004960991699 0 -0.1607497922328017 0.1326564153135171 0 -0.14342078234017019 0.13280238705102479 0 -0.13265029832436931 0.1157462110049866 0 -0.1260808701360043 0.14310985579945629 0 -0.14342078234017019 0.13280238705102479 0 -0.13265029832436931 0.1157462110049866 0 -0.1260808701360043 0.14310985579945629 0 -0.13265029832436931 0.1157462110049866 0 -0.1155753559535027 0.13590560061354451 0 -0.13265029832436931 0.1157462110049866 0 -0.1260808701360043 0.14310985579945629 0 -0.1155753559535027 0.13590560061354451 0 -0.13265029832436931 0.1157462110049866 0 -0.1155753559535027 0.13590560061354451 0 -0.1165899066661884 0.12551154269904771 0 -0.1260808701360043 0.14310985579945629 0 -0.1159866588732362 0.13850048200616741 0 -0.1155753559535027 0.13590560061354451 0 -0.1159866588732362 0.13850048200616741 0 -0.1155753559535027 0.13590560061354451 0 -0.1110314156691366 0.13770273004752359 0 -0.1159866588732362 0.13850048200616741 0 -0.1110314156691366 0.13770273004752359 0 -0.1135204383462412 0.14105168592253359 0 -0.1155753559535027 0.13590560061354451 0 -0.1110314156691366 0.13770273004752359 0 -0.11115826379562339 0.13157199946334269 0 -0.1155753559535027 0.13590560061354451 0 -0.1165899066661884 0.12551154269904771 0 -0.11115826379562339 0.13157199946334269 0 -0.1165899066661884 0.12551154269904771 0 -0.11115826379562339 0.13157199946334269 0 -0.1076272147797287 0.12606701929095329 0 -0.1076272147797287 0.12606701929095329 0 -0.1048599942641517 0.1329601579964324 0 -0.09570851142406786 0.1287161579349699 0 -0.11115826379562339 0.13157199946334269 0 -0.1076272147797287 0.12606701929095329 0 -0.1048599942641517 0.1329601579964324 0 -0.10574661371625391 0.13938878558210999 0 -0.1048599942641517 0.1329601579964324 0 -0.096056279618534982 0.1392084001283013 0 -0.1110314156691366 0.13770273004752359 0 -0.10574661371625391 0.13938878558210999 0 -0.1048599942641517 0.1329601579964324 0 -0.1110314156691366 0.13770273004752359 0 -0.11115826379562339 0.13157199946334269 0 -0.1048599942641517 0.1329601579964324 0 -0.1110314156691366 0.13770273004752359 0 -0.10574661371625391 0.13938878558210999 0 -0.1106535471597534 0.14424119245290201 0 -0.1048599942641517 0.1329601579964324 0 -0.096056279618534982 0.1392084001283013 0 -0.09570851142406786 0.1287161579349699 0 -0.096608393537242432 0.1510683759470583 0 -0.10731402359208191 0.15233433191730639 0 -0.099637672961352092 0.16141422659165749 0 -0.096056279618534982 0.1392084001283013 0 -0.096608393537242432 0.1510683759470583 0 -0.1032757715247733 0.1452482172055356 0 -0.10574661371625391 0.13938878558210999 0 -0.096056279618534982 0.1392084001283013 0 -0.1032757715247733 0.1452482172055356 0 -0.1032757715247733 0.1452482172055356 0 -0.10731402359208191 0.15233433191730639 0 -0.1106535471597534 0.14424119245290201 0 -0.10574661371625391 0.13938878558210999 0 -0.1032757715247733 0.1452482172055356 0 -0.1106535471597534 0.14424119245290201 0 -0.096608393537242432 0.1510683759470583 0 -0.1032757715247733 0.1452482172055356 0 -0.10731402359208191 0.15233433191730639 0 -0.10731402359208191 0.15233433191730639 0 -0.1101111380574234 0.15933521610281159 0 -0.1161006761993169 0.15630447934291181 0 -0.10731402359208191 0.15233433191730639 0 -0.1169705140173898 0.14931524021225351 0 -0.1161006761993169 0.15630447934291181 0 -0.1260808701360043 0.14310985579945629 0 -0.1223230386863217 0.15876235431807059 0 -0.1260808701360043 0.14310985579945629 0 -0.1169705140173898 0.14931524021225351 0 -0.1223230386863217 0.15876235431807059 0 -0.10731402359208191 0.15233433191730639 0 -0.1169705140173898 0.14931524021225351 0 -0.1106535471597534 0.14424119245290201 0 -0.1110314156691366 0.13770273004752359 0 -0.1106535471597534 0.14424119245290201 0 -0.1135204383462412 0.14105168592253359 0 -0.1169705140173898 0.14931524021225351 0 -0.1106535471597534 0.14424119245290201 0 -0.11641013168283849 0.14376233918354131 0 -0.1159866588732362 0.13850048200616741 0 -0.11641013168283849 0.14376233918354131 0 -0.1135204383462412 0.14105168592253359 0 -0.1106535471597534 0.14424119245290201 0 -0.11641013168283849 0.14376233918354131 0 -0.1135204383462412 0.14105168592253359 0 -0.1260808701360043 0.14310985579945629 0 -0.1159866588732362 0.13850048200616741 0 -0.1260808701360043 0.14310985579945629 0 -0.1159866588732362 0.13850048200616741 0 -0.11641013168283849 0.14376233918354131 0 -0.1260808701360043 0.14310985579945629 0 -0.1169705140173898 0.14931524021225351 0 -0.11641013168283849 0.14376233918354131 0 -0.1169705140173898 0.14931524021225351 0 -0.1223230386863217 0.15876235431807059 0 -0.1161006761993169 0.15630447934291181 0 -0.12753461310079761 0.15422337150207391 0 -0.1223230386863217 0.15876235431807059 0 -0.1233044913296813 0.16215277318663121 0 -0.11987162662396959 0.160634690321416 0 -0.1161006761993169 0.15630447934291181 0 -0.1163083704680144 0.1631485725807767 0 -0.1223230386863217 0.15876235431807059 0 -0.11987162662396959 0.160634690321416 0 -0.1161006761993169 0.15630447934291181 0 -0.11987162662396959 0.160634690321416 0 -0.1233044913296813 0.16215277318663121 0 -0.1163083704680144 0.1631485725807767 0 -0.1223230386863217 0.15876235431807059 0 -0.11987162662396959 0.160634690321416 0 -0.1233044913296813 0.16215277318663121 0 -0.1233044913296813 0.16215277318663121 0 -0.1163083704680144 0.1631485725807767 0 -0.1169900252858686 0.17545647819228641 0 -0.1100395324252576 0.1669788733543974 0 -0.1163083704680144 0.1631485725807767 0 -0.1169900252858686 0.17545647819228641 0 -0.1100395324252576 0.1669788733543974 0 -0.1101111380574234 0.15933521610281159 0 -0.1163083704680144 0.1631485725807767 0 -0.1101111380574234 0.15933521610281159 0 -0.1161006761993169 0.15630447934291181 0 -0.1163083704680144 0.1631485725807767 0 -0.1378831719210806 0.18777214890856189 0 -0.1169900252858686 0.17545647819228641 0 -0.11137762115665301 0.19435930217078309 0 -0.1169900252858686 0.17545647819228641 0 -0.1035199319567828 0.17706712781311179 0 -0.11137762115665301 0.19435930217078309 0 -0.1100395324252576 0.1669788733543974 0 -0.1169900252858686 0.17545647819228641 0 -0.1035199319567828 0.17706712781311179 0 -0.1035199319567828 0.17706712781311179 0 -0.086052343316150928 0.17484047191507651 0 -0.093641123917342917 0.1906519027229561 0 -0.1035199319567828 0.17706712781311179 0 -0.11137762115665301 0.19435930217078309 0 -0.093641123917342917 0.1906519027229561 0 -0.1100395324252576 0.1669788733543974 0 -0.1035199319567828 0.17706712781311179 0 -0.099637672961352092 0.16141422659165749 0 -0.1035199319567828 0.17706712781311179 0 -0.099637672961352092 0.16141422659165749 0 -0.086052343316150928 0.17484047191507651 0 -0.10731402359208191 0.15233433191730639 0 -0.1101111380574234 0.15933521610281159 0 -0.099637672961352092 0.16141422659165749 0 -0.1100395324252576 0.1669788733543974 0 -0.1101111380574234 0.15933521610281159 0 -0.099637672961352092 0.16141422659165749 0 -0.096608393537242432 0.1510683759470583 0 -0.099637672961352092 0.16141422659165749 0 -0.087382246271484887 0.15946602471094501 0 -0.099637672961352092 0.16141422659165749 0 -0.087382246271484887 0.15946602471094501 0 -0.086052343316150928 0.17484047191507651 0 -0.087382246271484887 0.15946602471094501 0 -0.086052343316150928 0.17484047191507651 0 -0.076602248331571962 0.1659804943070835 0 -0.086052343316150928 0.17484047191507651 0 -0.093641123917342917 0.1906519027229561 0 -0.072454031187663831 0.19450762700464569 0 -0.086052343316150928 0.17484047191507651 0 -0.067273538447059633 0.17376343621871529 0 -0.072454031187663831 0.19450762700464569 0 -0.067273538447059633 0.17376343621871529 0 -0.072454031187663831 0.19450762700464569 0 -0.050106370405863632 0.1765302692981279 0 -0.067273538447059633 0.17376343621871529 0 -0.067133044655147509 0.1565722724068071 0 -0.076602248331571962 0.1659804943070835 0 -0.086052343316150928 0.17484047191507651 0 -0.067273538447059633 0.17376343621871529 0 -0.076602248331571962 0.1659804943070835 0 -0.067273538447059633 0.17376343621871529 0 -0.067133044655147509 0.1565722724068071 0 -0.054096895786485202 0.16020302623842811 0 -0.067133044655147509 0.1565722724068071 0 -0.076602248331571962 0.1659804943070835 0 -0.07844344232208264 0.14309658057528099 0 -0.067133044655147509 0.1565722724068071 0 -0.07844344232208264 0.14309658057528099 0 -0.061427502843244088 0.13703761745348339 0 -0.07844344232208264 0.14309658057528099 0 -0.061427502843244088 0.13703761745348339 0 -0.079502936038915423 0.1224083709219053 0 -0.061427502843244088 0.13703761745348339 0 -0.079502936038915423 0.1224083709219053 0 -0.061427502843244088 0.13703761745348339 0 -0.059719743327675767 0.12445225524785559 0 -0.079502936038915423 0.1224083709219053 0 -0.09570851142406786 0.1287161579349699 0 -0.086847717246391079 0.13394417820420859 0 -0.079502936038915423 0.1224083709219053 0 -0.096056279618534982 0.1392084001283013 0 -0.086847717246391079 0.13394417820420859 0 -0.07844344232208264 0.14309658057528099 0 -0.086847717246391079 0.13394417820420859 0 -0.07844344232208264 0.14309658057528099 0 -0.079502936038915423 0.1224083709219053 0 -0.096056279618534982 0.1392084001283013 0 -0.09570851142406786 0.1287161579349699 0 -0.086847717246391079 0.13394417820420859 0 -0.087382246271484887 0.15946602471094501 0 -0.076602248331571962 0.1659804943070835 0 -0.07844344232208264 0.14309658057528099 0 -0.096608393537242432 0.1510683759470583 0 -0.087382246271484887 0.15946602471094501 0 -0.07844344232208264 0.14309658057528099 0 -0.096056279618534982 0.1392084001283013 0 -0.096608393537242432 0.1510683759470583 0 -0.07844344232208264 0.14309658057528099 0 -0.10927772608650881 0.25589295546539093 0 -0.096944804560050099 0.2381419304994993 0 -0.1212353466615667 0.24712127301656889 0 -0.096944804560050099 0.2381419304994993 0 -0.1212353466615667 0.24712127301656889 0 -0.1171493527512643 0.23046234241768129 0 -0.1171493527512643 0.23046234241768129 0 -0.094801691969464086 0.2124849847111635 0 -0.096944804560050099 0.2381419304994993 0 -0.1171493527512643 0.23046234241768129 0 -0.094801691969464086 0.2124849847111635 0 -0.12727419624483979 0.21068035279713149 0 -0.1171493527512643 0.23046234241768129 0 -0.094801691969464086 0.2124849847111635 0 -0.12727419624483979 0.21068035279713149 0 -0.094801691969464086 0.2124849847111635 0 -0.11137762115665301 0.19435930217078309 0 -0.094801691969464086 0.2124849847111635 0 -0.11137762115665301 0.19435930217078309 0 -0.093641123917342917 0.1906519027229561 0 -0.094801691969464086 0.2124849847111635 0 -0.093641123917342917 0.1906519027229561 0 -0.072454031187663831 0.19450762700464569 0 -0.072454031187663831 0.19450762700464569 0 -0.076882526928831754 0.22244316567485189 0 -0.056514027840037472 0.22186637810508461 0 -0.094801691969464086 0.2124849847111635 0 -0.072454031187663831 0.19450762700464569 0 -0.094801691969464086 0.2124849847111635 0 -0.072454031187663831 0.19450762700464569 0 -0.076882526928831754 0.22244316567485189 0 -0.096944804560050099 0.2381419304994993 0 -0.094801691969464086 0.2124849847111635 0 -0.076882526928831754 0.22244316567485189 0 -0.076882526928831754 0.22244316567485189 0 -0.058786697056558548 0.2404549184599114 0 -0.056514027840037472 0.22186637810508461 0 -0.059389090243463602 0.26295491142278721 0 -0.075864302924797899 0.24291815196878139 0 -0.058786697056558548 0.2404549184599114 0 -0.076882526928831754 0.22244316567485189 0 -0.075864302924797899 0.24291815196878139 0 -0.058786697056558548 0.2404549184599114 0 -0.081957731769234696 0.26156995996438498 0 -0.096944804560050099 0.2381419304994993 0 -0.075864302924797899 0.24291815196878139 0 -0.096944804560050099 0.2381419304994993 0 -0.076882526928831754 0.22244316567485189 0 -0.075864302924797899 0.24291815196878139 0 -0.040119759498235409 0.24558835577856419 0 -0.02519033278683119 0.22723625349092061 0 -0.040119759498235409 0.24558835577856419 0 -0.058786697056558548 0.2404549184599114 0 -0.056514027840037472 0.22186637810508461 0 -0.059389090243463602 0.26295491142278721 0 -0.040119759498235409 0.24558835577856419 0 -0.058786697056558548 0.2404549184599114 0 -0.040119759498235409 0.24558835577856419 0 -0.056514027840037472 0.22186637810508461 0 -0.039473587902369787 0.2156547343723472 0 -0.040119759498235409 0.24558835577856419 0 -0.039473587902369787 0.2156547343723472 0 -0.02519033278683119 0.22723625349092061 0 -0.039473587902369787 0.2156547343723472 0 -0.037405689902677383 0.19948293490882621 0 -0.025026448969029981 0.20417037906850841 0 -0.039473587902369787 0.2156547343723472 0 -0.052585268417407308 0.1955841048821787 0 -0.037405689902677383 0.19948293490882621 0 -0.072454031187663831 0.19450762700464569 0 -0.056514027840037472 0.22186637810508461 0 -0.052585268417407308 0.1955841048821787 0 -0.056514027840037472 0.22186637810508461 0 -0.039473587902369787 0.2156547343723472 0 -0.052585268417407308 0.1955841048821787 0 -0.072454031187663831 0.19450762700464569 0 -0.052585268417407308 0.1955841048821787 0 -0.050106370405863632 0.1765302692981279 0 -0.037405689902677383 0.19948293490882621 0 -0.025026448969029981 0.20417037906850841 0 -0.031330220582210529 0.18431621972502571 0 -0.052585268417407308 0.1955841048821787 0 -0.037405689902677383 0.19948293490882621 0 -0.031330220582210529 0.18431621972502571 0 -0.011227809096996961 0.19339677254087251 0 -0.025026448969029981 0.20417037906850841 0 -0.031330220582210529 0.18431621972502571 0 -0.011227809096996961 0.19339677254087251 0 -0.010260906075426931 0.208884151203277 0 0.0046685206359674911 0.19053204891562531 0 -0.010260906075426931 0.208884151203277 0 0.00031645475185905692 0.20460783281500519 0 0.0046685206359674911 0.19053204891562531 0 -0.010260906075426931 0.208884151203277 0 0.0046685206359674911 0.19053204891562531 0 -0.011227809096996961 0.19339677254087251 0 -0.010260906075426931 0.208884151203277 0 -0.025026448969029981 0.20417037906850841 0 -0.010260906075426931 0.208884151203277 0 -0.0037517266102965918 0.21310897092453279 0 0.00031645475185905692 0.20460783281500519 0 -0.0037517266102965918 0.21310897092453279 0 0.0027964224128251879 0.21851363684678099 0 0.00031645475185905692 0.20460783281500519 0 -0.010260906075426931 0.208884151203277 0 -0.0037517266102965918 0.21310897092453279 0 -0.007858877530443684 0.22043026283306791 0 -0.0037517266102965918 0.21310897092453279 0 -0.007858877530443684 0.22043026283306791 0 0.0027964224128251879 0.21851363684678099 0 -0.010260906075426931 0.208884151203277 0 -0.02519033278683119 0.22723625349092061 0 -0.039473587902369787 0.2156547343723472 0 -0.025026448969029981 0.20417037906850841 0 -0.02519033278683119 0.22723625349092061 0 -0.010260906075426931 0.208884151203277 0 -0.025026448969029981 0.20417037906850841 0 -0.02519033278683119 0.22723625349092061 0 -0.02519033278683119 0.22723625349092061 0 -0.0098617356543620437 0.23064317991134209 0 -0.01457910293094635 0.24190570529910241 0 -0.0039699976836732173 0.23127992369288189 0 -0.0013326871299239821 0.2440100841972129 0 0.0027964224128251879 0.21851363684678099 0 -0.010260906075426931 0.208884151203277 0 -0.02519033278683119 0.22723625349092061 0 -0.007858877530443684 0.22043026283306791 0 -0.02519033278683119 0.22723625349092061 0 -0.007858877530443684 0.22043026283306791 0 -0.0098617356543620437 0.23064317991134209 0 -0.007858877530443684 0.22043026283306791 0 -0.0043292845724760163 0.22550718122773661 0 0.0027964224128251879 0.21851363684678099 0 -0.0043292845724760163 0.22550718122773661 0 -0.0039699976836732173 0.23127992369288189 0 0.0027964224128251879 0.21851363684678099 0 -0.007858877530443684 0.22043026283306791 0 -0.0043292845724760163 0.22550718122773661 0 -0.0098617356543620437 0.23064317991134209 0 -0.0043292845724760163 0.22550718122773661 0 -0.0039699976836732173 0.23127992369288189 0 -0.0098617356543620437 0.23064317991134209 0 -0.0039699976836732173 0.23127992369288189 0 -0.0098617356543620437 0.23064317991134209 0 -0.0071227034744292296 0.23772553628133691 0 -0.0098617356543620437 0.23064317991134209 0 -0.01457910293094635 0.24190570529910241 0 -0.0071227034744292296 0.23772553628133691 0 -0.0039699976836732173 0.23127992369288189 0 -0.0071227034744292296 0.23772553628133691 0 -0.0013326871299239821 0.2440100841972129 0 -0.01457910293094635 0.24190570529910241 0 -0.0071227034744292296 0.23772553628133691 0 -0.0013326871299239821 0.2440100841972129 0 -0.012908066458149389 0.25558445017526649 0 -0.01457910293094635 0.24190570529910241 0 -0.0013326871299239821 0.2440100841972129 0 -0.02413567987462862 0.254854751671236 0 -0.040119759498235409 0.24558835577856419 0 -0.01457910293094635 0.24190570529910241 0 -0.040119759498235409 0.24558835577856419 0 -0.02519033278683119 0.22723625349092061 0 -0.01457910293094635 0.24190570529910241 0 -0.042385637149313107 0.1395230015713598 0 -0.029178065304103568 0.141909225594333 0 -0.025051530970950451 0.15459374789486399 0 -0.042385637149313107 0.1395230015713598 0 -0.025051530970950451 0.15459374789486399 0 -0.043352069647572752 0.1516668639850616 0 -0.042385637149313107 0.1395230015713598 0 -0.025051530970950451 0.15459374789486399 0 -0.042385637149313107 0.1395230015713598 0 -0.029178065304103568 0.141909225594333 0 -0.03101691273079546 0.13105369419525101 0 -0.043940371818659327 0.12584813926937441 0 -0.042385637149313107 0.1395230015713598 0 -0.03101691273079546 0.13105369419525101 0 -0.042385637149313107 0.1395230015713598 0 -0.061427502843244088 0.13703761745348339 0 -0.059719743327675767 0.12445225524785559 0 -0.043940371818659327 0.12584813926937441 0 -0.042385637149313107 0.1395230015713598 0 -0.059719743327675767 0.12445225524785559 0 -0.042385637149313107 0.1395230015713598 0 -0.059719743327675767 0.12445225524785559 0 -0.043352069647572752 0.1516668639850616 0 -0.042385637149313107 0.1395230015713598 0 -0.061427502843244088 0.13703761745348339 0 -0.067133044655147509 0.1565722724068071 0 -0.061427502843244088 0.13703761745348339 0 -0.054096895786485202 0.16020302623842811 0 -0.043352069647572752 0.1516668639850616 0 -0.061427502843244088 0.13703761745348339 0 -0.043352069647572752 0.1516668639850616 0 -0.061427502843244088 0.13703761745348339 0 -0.054096895786485202 0.16020302623842811 0 -0.054096895786485202 0.16020302623842811 0 -0.050106370405863632 0.1765302692981279 0 -0.040201742833593811 0.16460524215259581 0 -0.067273538447059633 0.17376343621871529 0 -0.054096895786485202 0.16020302623842811 0 -0.050106370405863632 0.1765302692981279 0 -0.072454031187663831 0.19450762700464569 0 -0.050106370405863632 0.1765302692981279 0 -0.050106370405863632 0.1765302692981279 0 -0.031330220582210529 0.18431621972502571 0 -0.040201742833593811 0.16460524215259581 0 -0.052585268417407308 0.1955841048821787 0 -0.050106370405863632 0.1765302692981279 0 -0.031330220582210529 0.18431621972502571 0 -0.031330220582210529 0.18431621972502571 0 -0.040201742833593811 0.16460524215259581 0 -0.025276636451909008 0.16629611051664911 0 -0.043352069647572752 0.1516668639850616 0 -0.040201742833593811 0.16460524215259581 0 -0.025276636451909008 0.16629611051664911 0 -0.043352069647572752 0.1516668639850616 0 -0.025276636451909008 0.16629611051664911 0 -0.043352069647572752 0.1516668639850616 0 -0.054096895786485202 0.16020302623842811 0 -0.040201742833593811 0.16460524215259581 0 -0.040201742833593811 0.16460524215259581 0 -0.025276636451909008 0.16629611051664911 0 -0.043352069647572752 0.1516668639850616 0 -0.025276636451909008 0.16629611051664911 0 -0.025051530970950451 0.15459374789486399 0 -0.025276636451909008 0.16629611051664911 0 -0.01172844153358441 0.15826994638010411 0 -0.025051530970950451 0.15459374789486399 0 -0.031330220582210529 0.18431621972502571 0 -0.025276636451909008 0.16629611051664911 0 -0.010304057907967 0.17841407971613241 0 -0.011227809096996961 0.19339677254087251 0 -0.031330220582210529 0.18431621972502571 0 -0.010304057907967 0.17841407971613241 0 -0.025276636451909008 0.16629611051664911 0 -0.010304057907967 0.17841407971613241 0 -0.011227809096996961 0.19339677254087251 0 -0.010304057907967 0.17841407971613241 0 0.0046685206359674911 0.19053204891562531 0 -0.010304057907967 0.17841407971613241 0 -0.002695042705477275 0.1688543839051147 0 0.001700843488244659 0.17899443909595469 0 -0.010304057907967 0.17841407971613241 0 0.0046685206359674911 0.19053204891562531 0 -0.010304057907967 0.17841407971613241 0 0.001700843488244659 0.17899443909595469 0 0.0046685206359674911 0.19053204891562531 0 -0.025276636451909008 0.16629611051664911 0 -0.010304057907967 0.17841407971613241 0 -0.002695042705477275 0.1688543839051147 0 -0.025276636451909008 0.16629611051664911 0 -0.01172844153358441 0.15826994638010411 0 -0.002695042705477275 0.1688543839051147 0 -0.025276636451909008 0.16629611051664911 0 -0.002695042705477275 0.1688543839051147 0 -0.01172844153358441 0.15826994638010411 0 -0.002695042705477275 0.1688543839051147 0 0.002447281075587289 0.15859584225139239 0 -0.002264481732614954 0.14391703284732979 0 -0.018258180365355269 0.14246645871585739 0 0.0016773685308098499 0.13615878938457629 0 -0.0056726514586842918 0.14967185014289799 0 -0.002264481732614954 0.14391703284732979 0 -0.018258180365355269 0.14246645871585739 0 -0.01172844153358441 0.15826994638010411 0 -0.0056726514586842918 0.14967185014289799 0 0.002447281075587289 0.15859584225139239 0 -0.0056726514586842918 0.14967185014289799 0 -0.002264481732614954 0.14391703284732979 0 0.0035707051155472831 0.14902291228329509 0 -0.0056726514586842918 0.14967185014289799 0 -0.014618888947486679 0.15088651813323159 0 -0.018258180365355269 0.14246645871585739 0 -0.01172844153358441 0.15826994638010411 0 -0.0056726514586842918 0.14967185014289799 0 -0.014618888947486679 0.15088651813323159 0 -0.01172844153358441 0.15826994638010411 0 -0.014618888947486679 0.15088651813323159 0 -0.025051530970950451 0.15459374789486399 0 -0.014618888947486679 0.15088651813323159 0 -0.018258180365355269 0.14246645871585739 0 -0.025051530970950451 0.15459374789486399 0 -0.018258180365355269 0.14246645871585739 0 -0.029178065304103568 0.141909225594333 0 -0.025051530970950451 0.15459374789486399 0 -0.018258180365355269 0.14246645871585739 0 -0.03101691273079546 0.13105369419525101 0 -0.01644519344376761 0.1166860925301008 0 -0.018258180365355269 0.14246645871585739 0 -0.029178065304103568 0.141909225594333 0 -0.03101691273079546 0.13105369419525101 0 -0.01644519344376761 0.1166860925301008 0 0.003975677116842046 0.12424887037839299 0 0.0016773685308098499 0.13615878938457629 0 -0.018258180365355269 0.14246645871585739 0 -0.01644519344376761 0.1166860925301008 0 0.0016773685308098499 0.13615878938457629 0 -0.01644519344376761 0.1166860925301008 0 0.0016773685308098499 0.13615878938457629 0 -0.018258180365355269 0.14246645871585739 0 0.0016773685308098499 0.13615878938457629 0 -0.01644519344376761 0.1166860925301008 0 0.0037982420006757961 0.1136080055384326 0 0.003975677116842046 0.12424887037839299 0 -0.005786755105077682 0.1021357483363054 0 -0.01644519344376761 0.1166860925301008 0 0.0037982420006757961 0.1136080055384326 0 -0.01644519344376761 0.1166860925301008 0 -0.034567755418345253 0.097213395675625314 0 -0.005786755105077682 0.1021357483363054 0 -0.01644519344376761 0.1166860925301008 0 -0.034567755418345253 0.097213395675625314 0 -0.005786755105077682 0.1021357483363054 0 -0.0113631844297388 0.086415912550956708 0 -0.034567755418345253 0.097213395675625314 0 -0.03101691273079546 0.13105369419525101 0 -0.01644519344376761 0.1166860925301008 0 -0.035685891687183523 0.11777520145510099 0 -0.01644519344376761 0.1166860925301008 0 -0.035685891687183523 0.11777520145510099 0 -0.034567755418345253 0.097213395675625314 0 -0.0048061077543468389 0.070439105137369007 0 -0.0113631844297388 0.086415912550956708 0 -0.027977206567803409 0.074958182042912283 0 -0.0048061077543468389 0.070439105137369007 0 -0.0113631844297388 0.086415912550956708 0 0.0034159293709873479 0.086052048497011729 0 -0.005786755105077682 0.1021357483363054 0 -0.0113631844297388 0.086415912550956708 0 0.0034159293709873479 0.086052048497011729 0 -0.0113631844297388 0.086415912550956708 0 -0.027977206567803409 0.074958182042912283 0 -0.034567755418345253 0.097213395675625314 0 -0.0048061077543468389 0.070439105137369007 0 -0.027977206567803409 0.074958182042912283 0 -0.021196662017305051 0.051775316866213207 0 -0.027977206567803409 0.074958182042912283 0 -0.052690317392922882 0.077740698821149798 0 -0.048283032031529727 0.058176443672047412 0 -0.052690317392922882 0.077740698821149798 0 -0.034567755418345253 0.097213395675625314 0 -0.027977206567803409 0.074958182042912283 0 -0.052690317392922882 0.077740698821149798 0 -0.034567755418345253 0.097213395675625314 0 -0.052690317392922882 0.077740698821149798 0 -0.054272801468395533 0.10058301128404851 0 -0.067528666987861641 0.097026631126356344 0 -0.052690317392922882 0.077740698821149798 0 -0.034567755418345253 0.097213395675625314 0 -0.054272801468395533 0.10058301128404851 0 -0.052690317392922882 0.077740698821149798 0 -0.070290652351338606 0.065697022104524327 0 -0.048283032031529727 0.058176443672047412 0 -0.035685891687183523 0.11777520145510099 0 -0.034567755418345253 0.097213395675625314 0 -0.049407673104630977 0.1139378205463233 0 -0.043940371818659327 0.12584813926937441 0 -0.035685891687183523 0.11777520145510099 0 -0.049407673104630977 0.1139378205463233 0 -0.043940371818659327 0.12584813926937441 0 -0.03101691273079546 0.13105369419525101 0 -0.035685891687183523 0.11777520145510099 0 -0.034567755418345253 0.097213395675625314 0 -0.054272801468395533 0.10058301128404851 0 -0.049407673104630977 0.1139378205463233 0 -0.054272801468395533 0.10058301128404851 0 -0.061596546878920473 0.10907624542578701 0 -0.067528666987861641 0.097026631126356344 0 -0.054272801468395533 0.10058301128404851 0 -0.061596546878920473 0.10907624542578701 0 -0.049407673104630977 0.1139378205463233 0 -0.061596546878920473 0.10907624542578701 0 -0.049407673104630977 0.1139378205463233 0 -0.059719743327675767 0.12445225524785559 0 -0.043940371818659327 0.12584813926937441 0 -0.049407673104630977 0.1139378205463233 0 -0.059719743327675767 0.12445225524785559 0 -0.061596546878920473 0.10907624542578701 0 -0.059719743327675767 0.12445225524785559 0 -0.077053849506038441 0.1093815089243514 0 -0.059719743327675767 0.12445225524785559 0 -0.077053849506038441 0.1093815089243514 0 -0.079502936038915423 0.1224083709219053 0 -0.059719743327675767 0.12445225524785559 0 -0.077053849506038441 0.1093815089243514 0 -0.077053849506038441 0.1093815089243514 0 -0.079502936038915423 0.1224083709219053 0 -0.097578369234587709 0.10777912439032809 0 -0.09570851142406786 0.1287161579349699 0 -0.079502936038915423 0.1224083709219053 0 -0.099853739851806733 0.1173846235507917 0 -0.079502936038915423 0.1224083709219053 0 -0.099853739851806733 0.1173846235507917 0 -0.097578369234587709 0.10777912439032809 0 -0.079502936038915423 0.1224083709219053 0 -0.097578369234587709 0.10777912439032809 0 -0.077053849506038441 0.1093815089243514 0 -0.097578369234587709 0.10777912439032809 0 -0.094387955684401281 0.094310762600847309 0 -0.077053849506038441 0.1093815089243514 0 -0.078782906720534729 0.096377861795787584 0 -0.094387955684401281 0.094310762600847309 0 -0.077053849506038441 0.1093815089243514 0 -0.094387955684401281 0.094310762600847309 0 -0.077053849506038441 0.1093815089243514 0 -0.078782906720534729 0.096377861795787584 0 -0.067528666987861641 0.097026631126356344 0 -0.061596546878920473 0.10907624542578701 0 -0.077053849506038441 0.1093815089243514 0 -0.067528666987861641 0.097026631126356344 0 -0.052690317392922882 0.077740698821149798 0 -0.067528666987861641 0.097026631126356344 0 -0.076161154703837552 0.084792544531595321 0 -0.078782906720534729 0.096377861795787584 0 -0.067528666987861641 0.097026631126356344 0 -0.076161154703837552 0.084792544531595321 0 -0.052690317392922882 0.077740698821149798 0 -0.076161154703837552 0.084792544531595321 0 -0.070290652351338606 0.065697022104524327 0 -0.076161154703837552 0.084792544531595321 0 -0.070290652351338606 0.065697022104524327 0 -0.089350126279372721 0.073043516836850647 0 -0.070290652351338606 0.065697022104524327 0 -0.089350126279372721 0.073043516836850647 0 -0.084312296874344106 0.051776271072854013 0 -0.089350126279372721 0.073043516836850647 0 -0.094387955684401281 0.094310762600847309 0 -0.078782906720534729 0.096377861795787584 0 -0.076161154703837552 0.084792544531595321 0 -0.094387955684401281 0.094310762600847309 0 -0.076161154703837552 0.084792544531595321 0 -0.089350126279372721 0.073043516836850647 0 -0.094387955684401281 0.094310762600847309 0 -0.10634352919103381 0.0839162597856183 0 -0.094387955684401281 0.094310762600847309 0 -0.10634352919103381 0.0839162597856183 0 -0.1183672833392774 0.090953737896455833 0 -0.094387955684401281 0.094310762600847309 0 -0.089350126279372721 0.073043516836850647 0 -0.10634352919103381 0.0839162597856183 0 -0.094387955684401281 0.094310762600847309 0 -0.089350126279372721 0.073043516836850647 0 -0.1066110194554499 0.067887302675746095 0 -0.099195091740373331 0.053135907179591872 0 -0.089350126279372721 0.073043516836850647 0 -0.10634352919103381 0.0839162597856183 0 -0.1066110194554499 0.067887302675746095 0 -0.1066110194554499 0.067887302675746095 0 -0.1207599071254775 0.073075643047433608 0 -0.1158026613426256 0.05573272984747428 0 -0.10634352919103381 0.0839162597856183 0 -0.1066110194554499 0.067887302675746095 0 -0.1207599071254775 0.073075643047433608 0 -0.1254106300938177 0.062366355819442602 0 -0.1207599071254775 0.073075643047433608 0 -0.1158026613426256 0.05573272984747428 0 -0.10634352919103381 0.0839162597856183 0 -0.1207599071254775 0.073075643047433608 0 -0.1183672833392774 0.090953737896455833 0 -0.1183672833392774 0.090953737896455833 0 -0.1227818931155536 0.10678728714420491 0 -0.1103500429400348 0.1099716019560488 0 -0.13265029832436931 0.1157462110049866 0 -0.1227818931155536 0.10678728714420491 0 -0.11599013370715031 0.1177692158298259 0 -0.13265029832436931 0.1157462110049866 0 -0.1165899066661884 0.12551154269904771 0 -0.11599013370715031 0.1177692158298259 0 -0.1165899066661884 0.12551154269904771 0 -0.1076272147797287 0.12606701929095329 0 -0.11599013370715031 0.1177692158298259 0 -0.1076272147797287 0.12606701929095329 0 -0.11599013370715031 0.1177692158298259 0 -0.1082618241687794 0.1183183538352405 0 -0.1227818931155536 0.10678728714420491 0 -0.11599013370715031 0.1177692158298259 0 -0.1103500429400348 0.1099716019560488 0 -0.11599013370715031 0.1177692158298259 0 -0.1103500429400348 0.1099716019560488 0 -0.1082618241687794 0.1183183538352405 0 -0.1103500429400348 0.1099716019560488 0 -0.1082618241687794 0.1183183538352405 0 -0.099853739851806733 0.1173846235507917 0 -0.1103500429400348 0.1099716019560488 0 -0.099853739851806733 0.1173846235507917 0 -0.097578369234587709 0.10777912439032809 0 -0.1076272147797287 0.12606701929095329 0 -0.1082618241687794 0.1183183538352405 0 -0.099853739851806733 0.1173846235507917 0 -0.1076272147797287 0.12606701929095329 0 -0.09570851142406786 0.1287161579349699 0 -0.099853739851806733 0.1173846235507917 0 -0.099853739851806733 0.1173846235507917 0 -0.097578369234587709 0.10777912439032809 0 -0.1183672833392774 0.090953737896455833 0 -0.1103500429400348 0.1099716019560488 0 -0.097578369234587709 0.10777912439032809 0 -0.1183672833392774 0.090953737896455833 0 -0.097578369234587709 0.10777912439032809 0 -0.1183672833392774 0.090953737896455833 0 -0.097578369234587709 0.10777912439032809 0 -0.094387955684401281 0.094310762600847309 0 -0.097578369234587709 0.10777912439032809 0 -0.094387955684401281 0.094310762600847309 0 -0.1002519851754196 0.028678565681531289 0 -0.10321282488444571 0.01521174730220533 0 -0.11080021075919751 0.026428088082117409 0 -0.1002519851754196 0.028678565681531289 0 -0.088039910488025175 0.031772522515348803 0 -0.09352711494755632 0.01872789181226827 0 -0.1002519851754196 0.028678565681531289 0 -0.10321282488444571 0.01521174730220533 0 -0.09352711494755632 0.01872789181226827 0 -0.10321282488444571 0.01521174730220533 0 -0.09352711494755632 0.01872789181226827 0 -0.091925484978052127 0.0076729448943159686 0 -0.1040507658014978 -0.001579024494705228 0 -0.10321282488444571 0.01521174730220533 0 -0.091925484978052127 0.0076729448943159686 0 -0.1040507658014978 -0.001579024494705228 0 -0.10321282488444571 0.01521174730220533 0 -0.118560811570255 0.01370660681160321 0 -0.1040507658014978 -0.001579024494705228 0 -0.089061345199120012 -0.0040227381768694406 0 -0.091925484978052127 0.0076729448943159686 0 -0.1040507658014978 -0.001579024494705228 0 -0.1298498211362587 -0.0047987804970502437 0 -0.118560811570255 0.01370660681160321 0 -0.1298498211362587 -0.0047987804970502437 0 -0.118560811570255 0.01370660681160321 0 -0.1040507658014978 -0.001579024494705228 0 -0.118560811570255 0.01370660681160321 0 -0.13546894445642599 0.031518506890723552 0 -0.118560811570255 0.01370660681160321 0 -0.11080021075919751 0.026428088082117409 0 -0.10321282488444571 0.01521174730220533 0 -0.118560811570255 0.01370660681160321 0 -0.11080021075919751 0.026428088082117409 0 -0.118560811570255 0.01370660681160321 0 -0.11080021075919751 0.026428088082117409 0 -0.11080021075919751 0.026428088082117409 0 -0.12287179881639709 0.044701360289824653 0 -0.10850701731281941 0.04083366948649475 0 -0.13546894445642599 0.031518506890723552 0 -0.11080021075919751 0.026428088082117409 0 -0.12287179881639709 0.044701360289824653 0 -0.1254106300938177 0.062366355819442602 0 -0.12287179881639709 0.044701360289824653 0 -0.1158026613426256 0.05573272984747428 0 -0.12287179881639709 0.044701360289824653 0 -0.1158026613426256 0.05573272984747428 0 -0.10850701731281941 0.04083366948649475 0 -0.1158026613426256 0.05573272984747428 0 -0.099195091740373331 0.053135907179591872 0 -0.10850701731281941 0.04083366948649475 0 -0.1066110194554499 0.067887302675746095 0 -0.1158026613426256 0.05573272984747428 0 -0.099195091740373331 0.053135907179591872 0 -0.1002519851754196 0.028678565681531289 0 -0.10850701731281941 0.04083366948649475 0 -0.097424832660473637 0.039097474890753207 0 -0.1002519851754196 0.028678565681531289 0 -0.11080021075919751 0.026428088082117409 0 -0.10850701731281941 0.04083366948649475 0 -0.099195091740373331 0.053135907179591872 0 -0.10850701731281941 0.04083366948649475 0 -0.097424832660473637 0.039097474890753207 0 -0.099195091740373331 0.053135907179591872 0 -0.097424832660473637 0.039097474890753207 0 -0.089649319846506356 0.041258240193481073 0 -0.1002519851754196 0.028678565681531289 0 -0.097424832660473637 0.039097474890753207 0 -0.088039910488025175 0.031772522515348803 0 -0.089649319846506356 0.041258240193481073 0 -0.084312296874344106 0.051776271072854013 0 -0.07927446746931549 0.030509025308857431 0 -0.097424832660473637 0.039097474890753207 0 -0.088039910488025175 0.031772522515348803 0 -0.089649319846506356 0.041258240193481073 0 -0.084312296874344106 0.051776271072854013 0 -0.071647180612436773 0.032509518826628343 0 -0.07927446746931549 0.030509025308857431 0 -0.084312296874344106 0.051776271072854013 0 -0.07927446746931549 0.030509025308857431 0 -0.088039910488025175 0.031772522515348803 0 -0.089649319846506356 0.041258240193481073 0 -0.07927446746931549 0.030509025308857431 0 -0.089350126279372721 0.073043516836850647 0 -0.084312296874344106 0.051776271072854013 0 -0.089350126279372721 0.073043516836850647 0 -0.099195091740373331 0.053135907179591872 0 -0.084312296874344106 0.051776271072854013 0 -0.099195091740373331 0.053135907179591872 0 -0.089649319846506356 0.041258240193481073 0 -0.084312296874344106 0.051776271072854013 0 -0.070290652351338606 0.065697022104524327 0 -0.084312296874344106 0.051776271072854013 0 -0.066220430393117563 0.047812946974796731 0 -0.066220430393117563 0.047812946974796731 0 -0.071647180612436773 0.032509518826628343 0 -0.065152648316688794 0.02587126519975997 0 -0.066220430393117563 0.047812946974796731 0 -0.065152648316688794 0.02587126519975997 0 -0.084312296874344106 0.051776271072854013 0 -0.066220430393117563 0.047812946974796731 0 -0.071647180612436773 0.032509518826628343 0 -0.071647180612436773 0.032509518826628343 0 -0.065152648316688794 0.02587126519975997 0 -0.070530707224299827 0.024987621425721591 0 -0.065152648316688794 0.02587126519975997 0 -0.069115897448021033 0.016173875026861462 0 -0.070530707224299827 0.024987621425721591 0 -0.069115897448021033 0.016173875026861462 0 -0.070530707224299827 0.024987621425721591 0 -0.076207102520052694 0.025395826649636591 0 -0.071647180612436773 0.032509518826628343 0 -0.070530707224299827 0.024987621425721591 0 -0.076207102520052694 0.025395826649636591 0 -0.071647180612436773 0.032509518826628343 0 -0.076207102520052694 0.025395826649636591 0 -0.07927446746931549 0.030509025308857431 0 -0.088039910488025175 0.031772522515348803 0 -0.081609111061759665 0.025377844971192189 0 -0.08566269891159986 0.022427529849199788 0 -0.088039910488025175 0.031772522515348803 0 -0.07927446746931549 0.030509025308857431 0 -0.081609111061759665 0.025377844971192189 0 -0.076207102520052694 0.025395826649636591 0 -0.07927446746931549 0.030509025308857431 0 -0.081609111061759665 0.025377844971192189 0 -0.076207102520052694 0.025395826649636591 0 -0.081609111061759665 0.025377844971192189 0 -0.079647426447734218 0.01580476606858398 0 -0.081609111061759665 0.025377844971192189 0 -0.079647426447734218 0.01580476606858398 0 -0.08566269891159986 0.022427529849199788 0 -0.079647426447734218 0.01580476606858398 0 -0.08566269891159986 0.022427529849199788 0 -0.086072626463464863 0.016192884353744691 0 -0.08566269891159986 0.022427529849199788 0 -0.09352711494755632 0.01872789181226827 0 -0.086072626463464863 0.016192884353744691 0 -0.088039910488025175 0.031772522515348803 0 -0.08566269891159986 0.022427529849199788 0 -0.09352711494755632 0.01872789181226827 0 -0.089061345199120012 -0.0040227381768694406 0 -0.091925484978052127 0.0076729448943159686 0 -0.081319832673894893 0.00074414630355820071 0 -0.09352711494755632 0.01872789181226827 0 -0.086072626463464863 0.016192884353744691 0 -0.091925484978052127 0.0076729448943159686 0 -0.086072626463464863 0.016192884353744691 0 -0.091925484978052127 0.0076729448943159686 0 -0.082825503348840687 0.0098637599636914493 0 -0.079647426447734218 0.01580476606858398 0 -0.082825503348840687 0.0098637599636914493 0 -0.077386926712576798 0.0053156545145882431 0 -0.079647426447734218 0.01580476606858398 0 -0.086072626463464863 0.016192884353744691 0 -0.082825503348840687 0.0098637599636914493 0 -0.091925484978052127 0.0076729448943159686 0 -0.082825503348840687 0.0098637599636914493 0 -0.081319832673894893 0.00074414630355820071 0 -0.082825503348840687 0.0098637599636914493 0 -0.081319832673894893 0.00074414630355820071 0 -0.077386926712576798 0.0053156545145882431 0 -0.065152648316688794 0.02587126519975997 0 -0.064084866240260011 0.0039295834247232327 0 -0.075263378336287004 -0.0024030342461067019 0 -0.081319832673894893 0.00074414630355820071 0 -0.077386926712576798 0.0053156545145882431 0 -0.076207102520052694 0.025395826649636591 0 -0.079647426447734218 0.01580476606858398 0 -0.069612093341940837 0.0036918641496617691 0 -0.065152648316688794 0.02587126519975997 0 -0.069115897448021033 0.016173875026861462 0 -0.064084866240260011 0.0039295834247232327 0 -0.076207102520052694 0.025395826649636591 0 -0.069612093341940837 0.0036918641496617691 0 -0.069115897448021033 0.016173875026861462 0 -0.076207102520052694 0.025395826649636591 0 -0.069612093341940837 0.0036918641496617691 0 -0.075263378336287004 -0.0024030342461067019 0 -0.077386926712576798 0.0053156545145882431 0 -0.069612093341940837 0.0036918641496617691 0 -0.079647426447734218 0.01580476606858398 0 -0.077386926712576798 0.0053156545145882431 0 -0.069612093341940837 0.0036918641496617691 0 -0.069115897448021033 0.016173875026861462 0 -0.064084866240260011 0.0039295834247232327 0 -0.069612093341940837 0.0036918641496617691 0 -0.065152648316688794 0.02587126519975997 0 -0.064084866240260011 0.0039295834247232327 0 -0.057196712224900671 0.01452306486772649 0 -0.052414124554305178 -0.0078839664005409798 0 -0.064084866240260011 0.0039295834247232327 0 -0.051286038802638267 0.005178949650765036 0 -0.051286038802638267 0.005178949650765036 0 -0.057196712224900671 0.01452306486772649 0 -0.04910556724428182 0.0156553667289888 0 -0.064084866240260011 0.0039295834247232327 0 -0.051286038802638267 0.005178949650765036 0 -0.057196712224900671 0.01452306486772649 0 -0.065152648316688794 0.02587126519975997 0 -0.057196712224900671 0.01452306486772649 0 -0.056354440520634451 0.02198015933439542 0 -0.065152648316688794 0.02587126519975997 0 -0.056354440520634451 0.02198015933439542 0 -0.050702925321778718 0.030219195829776731 0 -0.056354440520634451 0.02198015933439542 0 -0.050702925321778718 0.030219195829776731 0 -0.04910556724428182 0.0156553667289888 0 -0.057196712224900671 0.01452306486772649 0 -0.056354440520634451 0.02198015933439542 0 -0.04910556724428182 0.0156553667289888 0 -0.04910556724428182 0.0156553667289888 0 -0.038197356741854878 0.02421485655198153 0 -0.038340139037669051 0.0098304288233737672 0 -0.050702925321778718 0.030219195829776731 0 -0.04910556724428182 0.0156553667289888 0 -0.038197356741854878 0.02421485655198153 0 -0.038197356741854878 0.02421485655198153 0 -0.038340139037669051 0.0098304288233737672 0 -0.0264332548655931 0.01572184924481921 0 -0.041802564582363387 -0.0019099270240208279 0 -0.025442898259657121 -0.0016679544926971959 0 -0.038340139037669051 0.0098304288233737672 0 -0.041802564582363387 -0.0019099270240208279 0 -0.051286038802638267 0.005178949650765036 0 -0.038340139037669051 0.0098304288233737672 0 -0.051286038802638267 0.005178949650765036 0 -0.04910556724428182 0.0156553667289888 0 -0.038340139037669051 0.0098304288233737672 0 -0.048283032031529727 0.058176443672047412 0 -0.053601103037192413 0.042311684233660163 0 -0.039827175684252543 0.040903736549454679 0 -0.066220430393117563 0.047812946974796731 0 -0.048283032031529727 0.058176443672047412 0 -0.053601103037192413 0.042311684233660163 0 -0.070290652351338606 0.065697022104524327 0 -0.066220430393117563 0.047812946974796731 0 -0.048283032031529727 0.058176443672047412 0 -0.066220430393117563 0.047812946974796731 0 -0.065152648316688794 0.02587126519975997 0 -0.053601103037192413 0.042311684233660163 0 -0.065152648316688794 0.02587126519975997 0 -0.050702925321778718 0.030219195829776731 0 -0.053601103037192413 0.042311684233660163 0 -0.050702925321778718 0.030219195829776731 0 -0.053601103037192413 0.042311684233660163 0 -0.039827175684252543 0.040903736549454679 0 -0.050702925321778718 0.030219195829776731 0 -0.038197356741854878 0.02421485655198153 0 -0.039827175684252543 0.040903736549454679 0 -0.038197356741854878 0.02421485655198153 0 -0.039827175684252543 0.040903736549454679 0 -0.024775078297554098 0.032958562135475981 0 -0.048283032031529727 0.058176443672047412 0 -0.039827175684252543 0.040903736549454679 0 -0.021196662017305051 0.051775316866213207 0 -0.027977206567803409 0.074958182042912283 0 -0.048283032031529727 0.058176443672047412 0 -0.021196662017305051 0.051775316866213207 0 -0.021196662017305051 0.051775316866213207 0 -0.024775078297554098 0.032958562135475981 0 -0.0057012249101101092 0.03416712694259616 0 -0.039827175684252543 0.040903736549454679 0 -0.021196662017305051 0.051775316866213207 0 -0.024775078297554098 0.032958562135475981 0 -0.021196662017305051 0.051775316866213207 0 -0.0057012249101101092 0.03416712694259616 0 0.00082022712275166092 0.053972829480135633 0 -0.0048061077543468389 0.070439105137369007 0 -0.021196662017305051 0.051775316866213207 0 0.00082022712275166092 0.053972829480135633 0 -0.025442898259657121 -0.0016679544926971959 0 -0.038340139037669051 0.0098304288233737672 0 -0.0264332548655931 0.01572184924481921 0 -0.025442898259657121 -0.0016679544926971959 0 -0.0264332548655931 0.01572184924481921 0 -0.0072106955429384594 0.01297181303916195 0 -0.024775078297554098 0.032958562135475981 0 -0.0264332548655931 0.01572184924481921 0 -0.0072106955429384594 0.01297181303916195 0 -0.038197356741854878 0.02421485655198153 0 -0.024775078297554098 0.032958562135475981 0 -0.0264332548655931 0.01572184924481921 0 -0.024775078297554098 0.032958562135475981 0 -0.0057012249101101092 0.03416712694259616 0 -0.0072106955429384594 0.01297181303916195 0 -0.0072106955429384594 0.01297181303916195 0 0.0154885940259584 0.01438612972017971 0 0.016968052952430229 -0.0055066293572975837 0 -0.0057012249101101092 0.03416712694259616 0 0.0154885940259584 0.01438612972017971 0 0.017097908107159571 0.042622909391559813 0 -0.0057012249101101092 0.03416712694259616 0 -0.0072106955429384594 0.01297181303916195 0 0.0154885940259584 0.01438612972017971 0 0.0154885940259584 0.01438612972017971 0 0.017097908107159571 0.042622909391559813 0 0.0154885940259584 0.01438612972017971 0 0.031088966660306621 0.02445745915966142 0 0.017097908107159571 0.042622909391559813 0 0.0154885940259584 0.01438612972017971 0 0.03791704630969836 0.0058718258029147848 0 0.016968052952430229 -0.0055066293572975837 0 0.0154885940259584 0.01438612972017971 0 0.031088966660306621 0.02445745915966142 0 0.03791704630969836 0.0058718258029147848 0 0.00082022712275166092 0.053972829480135633 0 0.017097908107159571 0.042622909391559813 0 0.018707222188360739 0.070859689062939935 0 -0.0057012249101101092 0.03416712694259616 0 0.00082022712275166092 0.053972829480135633 0 0.017097908107159571 0.042622909391559813 0 0.031088966660306621 0.02445745915966142 0 0.017097908107159571 0.042622909391559813 0 0.038339904548908142 0.037790793950097948 0 0.017097908107159571 0.042622909391559813 0 0.03135831504008748 0.056784974516391383 0 0.038339904548908142 0.037790793950097948 0 0.017097908107159571 0.042622909391559813 0 0.018707222188360739 0.070859689062939935 0 0.017097908107159571 0.042622909391559813 0 0.03135831504008748 0.056784974516391383 0 0.018707222188360739 0.070859689062939935 0 0.03135831504008748 0.056784974516391383 0 0.038339904548908142 0.037790793950097948 0 0.048236051227362402 0.055140839252779753 0 0.038339904548908142 0.037790793950097948 0 0.051017997434507377 0.03208052807209423 0 0.048236051227362402 0.055140839252779753 0 0.062061613326078242 0.032771037580980072 0 0.048236051227362402 0.055140839252779753 0 0.062061613326078242 0.032771037580980072 0 0.048236051227362402 0.055140839252779753 0 0.0706493394497269 0.041657193065128273 0 0.051017997434507377 0.03208052807209423 0 0.062061613326078242 0.032771037580980072 0 0.048236051227362402 0.055140839252779753 0 0.048236051227362402 0.055140839252779753 0 0.071871754126590137 0.055872559685867851 0 0.061365995917808877 0.065678418007418707 0 0.031088966660306621 0.02445745915966142 0 0.03791704630969836 0.0058718258029147848 0 0.046601380309808663 0.021615636933554842 0 0.031088966660306621 0.02445745915966142 0 0.038339904548908142 0.037790793950097948 0 0.046601380309808663 0.021615636933554842 0 0.038339904548908142 0.037790793950097948 0 0.051017997434507377 0.03208052807209423 0 0.046601380309808663 0.021615636933554842 0 0.046601380309808663 0.021615636933554842 0 0.053667693492368412 0.022742050904652891 0 0.056619182275871059 0.011006214553565491 0 0.051017997434507377 0.03208052807209423 0 0.046601380309808663 0.021615636933554842 0 0.053667693492368412 0.022742050904652891 0 0.051017997434507377 0.03208052807209423 0 0.053667693492368412 0.022742050904652891 0 0.060432213949286571 0.026265824059397019 0 0.051017997434507377 0.03208052807209423 0 0.062061613326078242 0.032771037580980072 0 0.060432213949286571 0.026265824059397019 0 0.053667693492368412 0.022742050904652891 0 0.060432213949286571 0.026265824059397019 0 0.056619182275871059 0.011006214553565491 0 0.056619182275871059 0.011006214553565491 0 0.069432041904490233 0.0018834123004069429 0 0.053215618374595403 -0.0066217524001286436 0 0.03791704630969836 0.0058718258029147848 0 0.056619182275871059 0.011006214553565491 0 0.053215618374595403 -0.0066217524001286436 0 0.03791704630969836 0.0058718258029147848 0 0.046601380309808663 0.021615636933554842 0 0.056619182275871059 0.011006214553565491 0 0.060432213949286571 0.026265824059397019 0 0.056619182275871059 0.011006214553565491 0 0.069432041904490233 0.0018834123004069429 0 0.060432213949286571 0.026265824059397019 0 0.069432041904490233 0.0018834123004069429 0 0.060432213949286571 0.026265824059397019 0 0.069432041904490233 0.0018834123004069429 0 0.075887175424794034 0.01040123590918047 0 0.069432041904490233 0.0018834123004069429 0 0.075887175424794034 0.01040123590918047 0 0.081039187096109452 -0.0009049415825050502 0 0.075887175424794034 0.01040123590918047 0 0.090591093855318897 0.010055786361152119 0 0.081039187096109452 -0.0009049415825050502 0 0.075887175424794034 0.01040123590918047 0 0.090591093855318897 0.010055786361152119 0 0.085551448440749731 0.01828939391964295 0 0.090591093855318897 0.010055786361152119 0 0.090853754436256401 -0.0043661430246791939 0 0.081039187096109452 -0.0009049415825050502 0 0.085551448440749731 0.01828939391964295 0 0.081037266992762313 0.02711496125904931 0 0.097799731554052749 0.02594379614630132 0 0.075887175424794034 0.01040123590918047 0 0.085551448440749731 0.01828939391964295 0 0.081037266992762313 0.02711496125904931 0 0.090591093855318897 0.010055786361152119 0 0.085551448440749731 0.01828939391964295 0 0.097799731554052749 0.02594379614630132 0 0.062061613326078242 0.032771037580980072 0 0.075887175424794034 0.01040123590918047 0 0.075887175424794034 0.01040123590918047 0 0.081037266992762313 0.02711496125904931 0 0.073406423188661363 0.031202297605787119 0 0.062061613326078242 0.032771037580980072 0 0.075887175424794034 0.01040123590918047 0 0.073406423188661363 0.031202297605787119 0 0.062061613326078242 0.032771037580980072 0 0.060432213949286571 0.026265824059397019 0 0.075887175424794034 0.01040123590918047 0 0.062061613326078242 0.032771037580980072 0 0.073406423188661363 0.031202297605787119 0 0.0706493394497269 0.041657193065128273 0 0.0706493394497269 0.041657193065128273 0 0.071871754126590137 0.055872559685867851 0 0.081470010737900653 0.041735231477519667 0 0.073406423188661363 0.031202297605787119 0 0.0706493394497269 0.041657193065128273 0 0.081470010737900653 0.041735231477519667 0 0.048236051227362402 0.055140839252779753 0 0.0706493394497269 0.041657193065128273 0 0.071871754126590137 0.055872559685867851 0 0.071871754126590137 0.055872559685867851 0 0.082842778257239874 0.055108218659209798 0 0.08288021766646847 0.067823232050101018 0 0.071871754126590137 0.055872559685867851 0 0.082842778257239874 0.055108218659209798 0 0.081470010737900653 0.041735231477519667 0 0.082842778257239874 0.055108218659209798 0 0.081470010737900653 0.041735231477519667 0 0.094568122397378801 0.053757675372967967 0 0.082842778257239874 0.055108218659209798 0 0.094568122397378801 0.053757675372967967 0 0.08288021766646847 0.067823232050101018 0 0.081037266992762313 0.02711496125904931 0 0.081470010737900653 0.041735231477519667 0 0.097799731554052749 0.02594379614630132 0 0.081470010737900653 0.041735231477519667 0 0.094568122397378801 0.053757675372967967 0 0.097799731554052749 0.02594379614630132 0 0.081037266992762313 0.02711496125904931 0 0.073406423188661363 0.031202297605787119 0 0.081470010737900653 0.041735231477519667 0 0.10366257266090539 0.055317252533787782 0 0.097799731554052749 0.02594379614630132 0 0.094568122397378801 0.053757675372967967 0 0.10366257266090539 0.055317252533787782 0 0.097799731554052749 0.02594379614630132 0 0.10366257266090539 0.055317252533787782 0 0.1151773413216569 0.041497488304643067 0 0.097799731554052749 0.02594379614630132 0 0.10366257266090539 0.055317252533787782 0 0.1145438971872 0.056604011065278459 0 0.11522061873791389 0.06669624695784214 0 0.10366257266090539 0.055317252533787782 0 0.1145438971872 0.056604011065278459 0 0.1151773413216569 0.041497488304643067 0 0.1145438971872 0.056604011065278459 0 0.1151773413216569 0.041497488304643067 0 0.12523879298014851 0.056099992436855768 0 0.1145438971872 0.056604011065278459 0 0.11522061873791389 0.06669624695784214 0 0.12523879298014851 0.056099992436855768 0 0.1151773413216569 0.041497488304643067 0 0.11912791584579099 0.021890622206355469 0 0.13248259565266821 0.03576103258483844 0 0.1151773413216569 0.041497488304643067 0 0.13248259565266821 0.03576103258483844 0 0.12523879298014851 0.056099992436855768 0 0.1151773413216569 0.041497488304643067 0 0.11912791584579099 0.021890622206355469 0 0.097799731554052749 0.02594379614630132 0 0.11912791584579099 0.021890622206355469 0 0.10580923584085219 0.0047942544251321096 0 0.12560896974666211 0.006708581279863849 0 0.10580923584085219 0.0047942544251321096 0 0.12560896974666211 0.006708581279863849 0 0.1220979523598477 -0.0090119223756705939 0 0.090591093855318897 0.010055786361152119 0 0.10580923584085219 0.0047942544251321096 0 0.097799731554052749 0.02594379614630132 0 0.090591093855318897 0.010055786361152119 0 0.10580923584085219 0.0047942544251321096 0 0.090853754436256401 -0.0043661430246791939 0 0.11912791584579099 0.021890622206355469 0 0.10580923584085219 0.0047942544251321096 0 0.097799731554052749 0.02594379614630132 0 0.094027679770460643 0.1062123168125471 0 0.1075112862294976 0.111168701862237 0 0.109525413767758 0.084690708921274227 0 0.094027679770460643 0.1062123168125471 0 0.1075112862294976 0.111168701862237 0 0.094027679770460643 0.1062123168125471 0 0.093789836708853963 0.12929704753810031 0 0.094027679770460643 0.1062123168125471 0 0.1075112862294976 0.111168701862237 0 0.093789836708853963 0.12929704753810031 0 0.1075112862294976 0.111168701862237 0 0.093789836708853963 0.12929704753810031 0 0.1048278511764163 0.1246950360930037 0 0.1075112862294976 0.111168701862237 0 0.093789836708853963 0.12929704753810031 0 0.1048278511764163 0.1246950360930037 0 0.1075112862294976 0.111168701862237 0 0.10947178622924481 0.1206153626248964 0 0.1075112862294976 0.111168701862237 0 0.1153882548746023 0.11406416530876221 0 0.10947178622924481 0.1206153626248964 0 0.1153882548746023 0.11406416530876221 0 0.10947178622924481 0.1206153626248964 0 0.11034340567542041 0.13203392800150721 0 0.1075112862294976 0.111168701862237 0 0.1153882548746023 0.11406416530876221 0 0.1153882548746023 0.11406416530876221 0 0.109525413767758 0.084690708921274227 0 0.12674924125119019 0.095131724466652676 0 0.1153882548746023 0.11406416530876221 0 0.109525413767758 0.084690708921274227 0 0.1075112862294976 0.111168701862237 0 0.1153882548746023 0.11406416530876221 0 0.109525413767758 0.084690708921274227 0 0.109525413767758 0.084690708921274227 0 0.12329350323917471 0.079793773268369783 0 0.12674924125119019 0.095131724466652676 0 0.109525413767758 0.084690708921274227 0 0.12329350323917471 0.079793773268369783 0 0.11522061873791389 0.06669624695784214 0 0.10366257266090539 0.055317252533787782 0 0.109525413767758 0.084690708921274227 0 0.11522061873791389 0.06669624695784214 0 0.12329350323917471 0.079793773268369783 0 0.11522061873791389 0.06669624695784214 0 0.12523879298014851 0.056099992436855768 0 0.094568122397378801 0.053757675372967967 0 0.094297901083917016 0.079984996092757416 0 0.10366257266090539 0.055317252533787782 0 0.109525413767758 0.084690708921274227 0 0.094297901083917016 0.079984996092757416 0 0.10366257266090539 0.055317252533787782 0 0.109525413767758 0.084690708921274227 0 0.094568122397378801 0.053757675372967967 0 0.10366257266090539 0.055317252533787782 0 0.094297901083917016 0.079984996092757416 0 0.094027679770460643 0.1062123168125471 0 0.094297901083917016 0.079984996092757416 0 0.094027679770460643 0.1062123168125471 0 0.109525413767758 0.084690708921274227 0 0.094297901083917016 0.079984996092757416 0 0.094297901083917016 0.079984996092757416 0 0.080755308110948429 0.08710419747575085 0 0.08288021766646847 0.067823232050101018 0 0.094027679770460643 0.1062123168125471 0 0.094297901083917016 0.079984996092757416 0 0.080755308110948429 0.08710419747575085 0 0.080755308110948429 0.08710419747575085 0 0.08288021766646847 0.067823232050101018 0 0.071696679938656915 0.075197745232096491 0 0.094568122397378801 0.053757675372967967 0 0.094297901083917016 0.079984996092757416 0 0.08288021766646847 0.067823232050101018 0 0.071871754126590137 0.055872559685867851 0 0.071696679938656915 0.075197745232096491 0 0.061365995917808877 0.065678418007418707 0 0.071871754126590137 0.055872559685867851 0 0.08288021766646847 0.067823232050101018 0 0.071696679938656915 0.075197745232096491 0 0.080755308110948429 0.08710419747575085 0 0.071696679938656915 0.075197745232096491 0 0.061321087588035561 0.094189831210351752 0 0.063734118838740181 0.1084332882155499 0 0.077674383679248463 0.10020107401144859 0 0.061321087588035561 0.094189831210351752 0 0.077674383679248463 0.10020107401144859 0 0.061321087588035561 0.094189831210351752 0 0.080755308110948429 0.08710419747575085 0 0.077674383679248463 0.10020107401144859 0 0.061321087588035561 0.094189831210351752 0 0.094027679770460643 0.1062123168125471 0 0.077674383679248463 0.10020107401144859 0 0.094027679770460643 0.1062123168125471 0 0.077674383679248463 0.10020107401144859 0 0.085069705544260008 0.1147576652649285 0 0.094027679770460643 0.1062123168125471 0 0.080755308110948429 0.08710419747575085 0 0.077674383679248463 0.10020107401144859 0 0.077674383679248463 0.10020107401144859 0 0.085069705544260008 0.1147576652649285 0 0.074786922018476865 0.12332022269762009 0 0.085069705544260008 0.1147576652649285 0 0.074786922018476865 0.12332022269762009 0 0.093789836708853963 0.12929704753810031 0 0.094027679770460643 0.1062123168125471 0 0.085069705544260008 0.1147576652649285 0 0.093789836708853963 0.12929704753810031 0 0.063734118838740181 0.1084332882155499 0 0.077674383679248463 0.10020107401144859 0 0.074786922018476865 0.12332022269762009 0 0.063734118838740181 0.1084332882155499 0 0.074786922018476865 0.12332022269762009 0 0.055298505605409227 0.1191928957643154 0 0.063734118838740181 0.1084332882155499 0 0.055298505605409227 0.1191928957643154 0 0.041684337419309991 0.10544789397654609 0 0.061321087588035561 0.094189831210351752 0 0.041684337419309991 0.10544789397654609 0 0.044710353960349988 0.089901978082277983 0 0.063734118838740181 0.1084332882155499 0 0.061321087588035561 0.094189831210351752 0 0.041684337419309991 0.10544789397654609 0 0.041684337419309991 0.10544789397654609 0 0.044710353960349988 0.089901978082277983 0 0.0203165362695619 0.099096468734320042 0 0.055298505605409227 0.1191928957643154 0 0.031654163013473208 0.12419838417806479 0 0.030984310216932161 0.1268859823888922 0 0.055298505605409227 0.1191928957643154 0 0.041684337419309991 0.10544789397654609 0 0.031654163013473208 0.12419838417806479 0 0.055298505605409227 0.1191928957643154 0 0.030984310216932161 0.1268859823888922 0 0.048236051227362402 0.055140839252779753 0 0.061365995917808877 0.065678418007418707 0 0.053659498378626047 0.076502527858930733 0 0.071696679938656915 0.075197745232096491 0 0.061365995917808877 0.065678418007418707 0 0.053659498378626047 0.076502527858930733 0 0.061321087588035561 0.094189831210351752 0 0.053659498378626047 0.076502527858930733 0 0.044710353960349988 0.089901978082277983 0 0.071696679938656915 0.075197745232096491 0 0.061321087588035561 0.094189831210351752 0 0.053659498378626047 0.076502527858930733 0 0.044710353960349988 0.089901978082277983 0 0.034410489128646547 0.077510640924579433 0 0.0203165362695619 0.099096468734320042 0 0.053659498378626047 0.076502527858930733 0 0.044710353960349988 0.089901978082277983 0 0.034410489128646547 0.077510640924579433 0 0.048236051227362402 0.055140839252779753 0 0.053659498378626047 0.076502527858930733 0 0.034410489128646547 0.077510640924579433 0 0.03135831504008748 0.056784974516391383 0 0.048236051227362402 0.055140839252779753 0 0.034410489128646547 0.077510640924579433 0 0.048236051227362402 0.055140839252779753 0 0.034410489128646547 0.077510640924579433 0 0.03135831504008748 0.056784974516391383 0 0.034410489128646547 0.077510640924579433 0 0.018707222188360739 0.070859689062939935 0 0.018707222188360739 0.070859689062939935 0 0.0203165362695619 0.099096468734320042 0 0.034410489128646547 0.077510640924579433 0 0.018707222188360739 0.070859689062939935 0 0.0203165362695619 0.099096468734320042 0 0.018707222188360739 0.070859689062939935 0 0.0034159293709873479 0.086052048497011729 0 0.0203165362695619 0.099096468734320042 0 -0.0048061077543468389 0.070439105137369007 0 0.00082022712275166092 0.053972829480135633 0 0.018707222188360739 0.070859689062939935 0 -0.0048061077543468389 0.070439105137369007 0 0.018707222188360739 0.070859689062939935 0 0.0034159293709873479 0.086052048497011729 0 0.0203165362695619 0.099096468734320042 0 0.01326942902234274 0.1191617957887159 0 0.021925850350763079 0.12733324840570021 0 0.0203165362695619 0.099096468734320042 0 0.021925850350763079 0.12733324840570021 0 0.031654163013473208 0.12419838417806479 0 0.0203165362695619 0.099096468734320042 0 0.021925850350763079 0.12733324840570021 0 0.041684337419309991 0.10544789397654609 0 0.031654163013473208 0.12419838417806479 0 0.0203165362695619 0.099096468734320042 0 -0.005786755105077682 0.1021357483363054 0 0.0203165362695619 0.099096468734320042 0 0.0037982420006757961 0.1136080055384326 0 -0.005786755105077682 0.1021357483363054 0 0.0034159293709873479 0.086052048497011729 0 0.0203165362695619 0.099096468734320042 0 0.0203165362695619 0.099096468734320042 0 0.0037982420006757961 0.1136080055384326 0 0.01326942902234274 0.1191617957887159 0 0.01326942902234274 0.1191617957887159 0 0.003975677116842046 0.12424887037839299 0 0.016330839373870899 0.13152238588673401 0 0.0037982420006757961 0.1136080055384326 0 0.01326942902234274 0.1191617957887159 0 0.003975677116842046 0.12424887037839299 0 0.003975677116842046 0.12424887037839299 0 0.0016773685308098499 0.13615878938457629 0 0.016330839373870899 0.13152238588673401 0 0.0016773685308098499 0.13615878938457629 0 0.012463374415464169 0.13894043423984309 0 0.0073603495146076572 0.1422651537100221 0 0.0016773685308098499 0.13615878938457629 0 0.0073603495146076572 0.1422651537100221 0 0.0016773685308098499 0.13615878938457629 0 0.012463374415464169 0.13894043423984309 0 0.016330839373870899 0.13152238588673401 0 0.0016773685308098499 0.13615878938457629 0 0.016330839373870899 0.13152238588673401 0 0.01959924008859585 0.14000103303411021 0 0.030984310216932161 0.1268859823888922 0 0.02429155058548205 0.15373882066004099 0 0.01326942902234274 0.1191617957887159 0 0.016330839373870899 0.13152238588673401 0 0.021925850350763079 0.12733324840570021 0 0.016330839373870899 0.13152238588673401 0 0.021925850350763079 0.12733324840570021 0 0.030984310216932161 0.1268859823888922 0 0.030984310216932161 0.1268859823888922 0 0.02429155058548205 0.15373882066004099 0 0.016330839373870899 0.13152238588673401 0 0.01959924008859585 0.14000103303411021 0 0.030984310216932161 0.1268859823888922 0 0.030984310216932161 0.1268859823888922 0 0.02429155058548205 0.15373882066004099 0 0.036538370204107773 0.1410738728798272 0 0.012463374415464169 0.13894043423984309 0 0.016330839373870899 0.13152238588673401 0 0.01959924008859585 0.14000103303411021 0 0.031654163013473208 0.12419838417806479 0 0.021925850350763079 0.12733324840570021 0 0.030984310216932161 0.1268859823888922 0 0.016330839373870899 0.13152238588673401 0 0.030984310216932161 0.1268859823888922 0 0.01959924008859585 0.14000103303411021 0 0.02429155058548205 0.15373882066004099 0 0.012098054193893201 0.147717921186623 0 0.02429155058548205 0.15373882066004099 0 0.002447281075587289 0.15859584225139239 0 0.02429155058548205 0.15373882066004099 0 0.012098054193893201 0.147717921186623 0 0.002447281075587289 0.15859584225139239 0 0.012463374415464169 0.13894043423984309 0 0.012098054193893201 0.147717921186623 0 0.0073603495146076572 0.1422651537100221 0 0.012463374415464169 0.13894043423984309 0 0.01959924008859585 0.14000103303411021 0 0.012098054193893201 0.147717921186623 0 -0.002264481732614954 0.14391703284732979 0 0.0073603495146076572 0.1422651537100221 0 0.0035707051155472831 0.14902291228329509 0 -0.002264481732614954 0.14391703284732979 0 0.0016773685308098499 0.13615878938457629 0 0.0073603495146076572 0.1422651537100221 0 0.012098054193893201 0.147717921186623 0 0.0073603495146076572 0.1422651537100221 0 0.0035707051155472831 0.14902291228329509 0 -0.0056726514586842918 0.14967185014289799 0 0.0035707051155472831 0.14902291228329509 0 0.002447281075587289 0.15859584225139239 0 0.012098054193893201 0.147717921186623 0 0.0035707051155472831 0.14902291228329509 0 0.002447281075587289 0.15859584225139239 0 0.02429155058548205 0.15373882066004099 0 0.002447281075587289 0.15859584225139239 0 0.019886551040956109 0.17141265729356611 0 -0.002695042705477275 0.1688543839051147 0 0.019886551040956109 0.17141265729356611 0 -0.002695042705477275 0.1688543839051147 0 0.002447281075587289 0.15859584225139239 0 0.019886551040956109 0.17141265729356611 0 -0.002695042705477275 0.1688543839051147 0 0.001700843488244659 0.17899443909595469 0 0.019886551040956109 0.17141265729356611 0 0.001700843488244659 0.17899443909595469 0 0.0090153612330048163 0.1851886646848247 0 0.019886551040956109 0.17141265729356611 0 0.0090153612330048163 0.1851886646848247 0 0.019886551040956109 0.17141265729356611 0 0.01336667473699675 0.19757184925327331 0 0.001700843488244659 0.17899443909595469 0 0.0090153612330048163 0.1851886646848247 0 0.0046685206359674911 0.19053204891562531 0 0.019886551040956109 0.17141265729356611 0 0.035904273138914658 0.17322730831629529 0 0.032083854156780611 0.1903562657000456 0 0.019886551040956109 0.17141265729356611 0 0.01336667473699675 0.19757184925327331 0 0.032083854156780611 0.1903562657000456 0 0.019886551040956109 0.17141265729356611 0 0.01336667473699675 0.19757184925327331 0 0.019886551040956109 0.17141265729356611 0 0.035904273138914658 0.17322730831629529 0 0.02429155058548205 0.15373882066004099 0 0.019886551040956109 0.17141265729356611 0 0.03785067763635834 0.16032337750365461 0 0.02429155058548205 0.15373882066004099 0 0.019886551040956109 0.17141265729356611 0 0.019886551040956109 0.17141265729356611 0 0.03785067763635834 0.16032337750365461 0 0.035904273138914658 0.17322730831629529 0 0.03785067763635834 0.16032337750365461 0 0.055244483347234502 0.15962566027231501 0 0.044682849390523069 0.14920486366381611 0 0.03785067763635834 0.16032337750365461 0 0.046723591793645568 0.17024833296711539 0 0.055244483347234502 0.15962566027231501 0 0.03785067763635834 0.16032337750365461 0 0.046723591793645568 0.17024833296711539 0 0.035904273138914658 0.17322730831629529 0 0.035904273138914658 0.17322730831629529 0 0.046290388650539999 0.1825905480903843 0 0.032083854156780611 0.1903562657000456 0 0.046723591793645568 0.17024833296711539 0 0.035904273138914658 0.17322730831629529 0 0.046290388650539999 0.1825905480903843 0 0.046290388650539999 0.1825905480903843 0 0.058328136195180347 0.17547477065292791 0 0.057396666109122967 0.1875615344556599 0 0.046723591793645568 0.17024833296711539 0 0.046290388650539999 0.1825905480903843 0 0.058328136195180347 0.17547477065292791 0 0.058328136195180347 0.17547477065292791 0 0.057396666109122967 0.1875615344556599 0 0.067555676196732251 0.18334925184756029 0 0.046723591793645568 0.17024833296711539 0 0.058328136195180347 0.17547477065292791 0 0.055244483347234502 0.15962566027231501 0 0.058328136195180347 0.17547477065292791 0 0.055244483347234502 0.15962566027231501 0 0.071896791597892556 0.1578058601621472 0 0.055244483347234502 0.15962566027231501 0 0.044682849390523069 0.14920486366381611 0 0.065074148195564216 0.14467090666759169 0 0.046194770623493919 0.13446582480656011 0 0.044682849390523069 0.14920486366381611 0 0.065074148195564216 0.14467090666759169 0 0.044682849390523069 0.14920486366381611 0 0.065074148195564216 0.14467090666759169 0 0.055298505605409227 0.1191928957643154 0 0.046194770623493919 0.13446582480656011 0 0.065074148195564216 0.14467090666759169 0 0.055298505605409227 0.1191928957643154 0 0.030984310216932161 0.1268859823888922 0 0.046194770623493919 0.13446582480656011 0 0.031654163013473208 0.12419838417806479 0 0.030984310216932161 0.1268859823888922 0 0.030984310216932161 0.1268859823888922 0 0.046194770623493919 0.13446582480656011 0 0.036538370204107773 0.1410738728798272 0 0.02429155058548205 0.15373882066004099 0 0.036538370204107773 0.1410738728798272 0 0.044682849390523069 0.14920486366381611 0 0.02429155058548205 0.15373882066004099 0 0.03785067763635834 0.16032337750365461 0 0.044682849390523069 0.14920486366381611 0 0.02429155058548205 0.15373882066004099 0 0.044682849390523069 0.14920486366381611 0 0.046194770623493919 0.13446582480656011 0 0.036538370204107773 0.1410738728798272 0 0.044682849390523069 0.14920486366381611 0 0.027261641304813559 0.24569989792609159 0 0.030707659442560969 0.2385616499293382 0 0.034632610864773282 0.24667647745089169 0 0.027261641304813559 0.24569989792609159 0 0.022689756604529161 0.24162147821769989 0 0.02061560457113798 0.24665612200956499 0 0.027261641304813559 0.24569989792609159 0 0.024290800149747362 0.24991228813370259 0 0.02061560457113798 0.24665612200956499 0 0.027261641304813559 0.24569989792609159 0 0.034632610864773282 0.24667647745089169 0 0.030620267056269041 0.25203926005632138 0 0.027261641304813559 0.24569989792609159 0 0.024290800149747362 0.24991228813370259 0 0.030620267056269041 0.25203926005632138 0 0.030707659442560969 0.2385616499293382 0 0.023923228277159491 0.23596320649877101 0 0.022689756604529161 0.24162147821769989 0 0.027261641304813559 0.24569989792609159 0 0.030707659442560969 0.2385616499293382 0 0.022689756604529161 0.24162147821769989 0 0.023923228277159491 0.23596320649877101 0 0.022689756604529161 0.24162147821769989 0 0.016480846553993948 0.23790443574087741 0 0.023923228277159491 0.23596320649877101 0 0.016480846553993948 0.23790443574087741 0 0.019199554473345318 0.232699929826478 0 0.022689756604529161 0.24162147821769989 0 0.016480846553993948 0.23790443574087741 0 0.01597156606306389 0.24412056675895311 0 0.022689756604529161 0.24162147821769989 0 0.01597156606306389 0.24412056675895311 0 0.02061560457113798 0.24665612200956499 0 0.024290800149747362 0.24991228813370259 0 0.02061560457113798 0.24665612200956499 0 0.01755289935884061 0.25091945717398562 0 0.01597156606306389 0.24412056675895311 0 0.02061560457113798 0.24665612200956499 0 0.01755289935884061 0.25091945717398562 0 0.01597156606306389 0.24412056675895311 0 0.01176939038982756 0.24866185709121669 0 0.01755289935884061 0.25091945717398562 0 0.01176939038982756 0.24866185709121669 0 0.0088596826563128988 0.24232066433885349 0 0.0049666156689328854 0.25201108762944008 0 0.01597156606306389 0.24412056675895311 0 0.01176939038982756 0.24866185709121669 0 0.0088596826563128988 0.24232066433885349 0 -0.0013326871299239821 0.2440100841972129 0 0.002676573689700118 0.2404629091944166 0 0.0049666156689328854 0.25201108762944008 0 0.0088596826563128988 0.24232066433885349 0 0.002676573689700118 0.2404629091944166 0 0.0049666156689328854 0.25201108762944008 0 0.002676573689700118 0.2404629091944166 0 0.007697924375989906 0.2377816505688021 0 0.0086633378709710766 0.23184988734796791 0 0.0088596826563128988 0.24232066433885349 0 0.002676573689700118 0.2404629091944166 0 0.007697924375989906 0.2377816505688021 0 0.007697924375989906 0.2377816505688021 0 0.01059210328697553 0.2364931413939704 0 0.0086633378709710766 0.23184988734796791 0 0.0088596826563128988 0.24232066433885349 0 0.007697924375989906 0.2377816505688021 0 0.01059210328697553 0.2364931413939704 0 0.016480846553993948 0.23790443574087741 0 0.0088596826563128988 0.24232066433885349 0 0.01059210328697553 0.2364931413939704 0 0.016480846553993948 0.23790443574087741 0 0.01597156606306389 0.24412056675895311 0 0.0088596826563128988 0.24232066433885349 0 0.016480846553993948 0.23790443574087741 0 0.01059210328697553 0.2364931413939704 0 0.013856130012230921 0.23207371898329349 0 0.002676573689700118 0.2404629091944166 0 0.0080216242133283513 0.21901737922383979 0 0.002676573689700118 0.2404629091944166 0 0.0080216242133283513 0.21901737922383979 0 0.0027964224128251879 0.21851363684678099 0 -0.0013326871299239821 0.2440100841972129 0 0.0027964224128251879 0.21851363684678099 0 0.002676573689700118 0.2404629091944166 0 0.0086633378709710766 0.23184988734796791 0 0.0080216242133283513 0.21901737922383979 0 -0.0013326871299239821 0.2440100841972129 0 0.002676573689700118 0.2404629091944166 0 0.0027964224128251879 0.21851363684678099 0 0.013856130012230921 0.23207371898329349 0 0.01262654508457518 0.2260856050733536 0 0.017979276772480089 0.22670229497936031 0 0.013856130012230921 0.23207371898329349 0 0.0086633378709710766 0.23184988734796791 0 0.01262654508457518 0.2260856050733536 0 0.01059210328697553 0.2364931413939704 0 0.013856130012230921 0.23207371898329349 0 0.0086633378709710766 0.23184988734796791 0 0.0086633378709710766 0.23184988734796791 0 0.0080216242133283513 0.21901737922383979 0 0.01262654508457518 0.2260856050733536 0 0.0080216242133283513 0.21901737922383979 0 0.014622503997887649 0.2224324062041306 0 0.019862569921166969 0.2179243455399687 0 0.01262654508457518 0.2260856050733536 0 0.014622503997887649 0.2224324062041306 0 0.017979276772480089 0.22670229497936031 0 0.0080216242133283513 0.21901737922383979 0 0.01262654508457518 0.2260856050733536 0 0.014622503997887649 0.2224324062041306 0 0.026646689113698819 0.22848374483877029 0 0.019862569921166969 0.2179243455399687 0 0.036253453169878901 0.21609513001691291 0 0.017979276772480089 0.22670229497936031 0 0.026646689113698819 0.22848374483877029 0 0.019862569921166969 0.2179243455399687 0 0.014622503997887649 0.2224324062041306 0 0.017979276772480089 0.22670229497936031 0 0.019862569921166969 0.2179243455399687 0 0.017979276772480089 0.22670229497936031 0 0.019199554473345318 0.232699929826478 0 0.026646689113698819 0.22848374483877029 0 0.013856130012230921 0.23207371898329349 0 0.017979276772480089 0.22670229497936031 0 0.019199554473345318 0.232699929826478 0 0.016480846553993948 0.23790443574087741 0 0.013856130012230921 0.23207371898329349 0 0.019199554473345318 0.232699929826478 0 0.023923228277159491 0.23596320649877101 0 0.019199554473345318 0.232699929826478 0 0.026646689113698819 0.22848374483877029 0 0.030707659442560969 0.2385616499293382 0 0.023923228277159491 0.23596320649877101 0 0.026646689113698819 0.22848374483877029 0 0.01336667473699675 0.19757184925327331 0 0.036253453169878901 0.21609513001691291 0 0.019862569921166969 0.2179243455399687 0 0.01336667473699675 0.19757184925327331 0 0.036253453169878901 0.21609513001691291 0 0.0027964224128251879 0.21851363684678099 0 0.0069255319555743709 0.19301718949634911 0 0.0027964224128251879 0.21851363684678099 0 0.00031645475185905692 0.20460783281500519 0 0.0069255319555743709 0.19301718949634911 0 0.0080216242133283513 0.21901737922383979 0 0.01336667473699675 0.19757184925327331 0 0.0080216242133283513 0.21901737922383979 0 0.019862569921166969 0.2179243455399687 0 0.01336667473699675 0.19757184925327331 0 0.0080216242133283513 0.21901737922383979 0 0.0027964224128251879 0.21851363684678099 0 0.01336667473699675 0.19757184925327331 0 0.0027964224128251879 0.21851363684678099 0 0.01336667473699675 0.19757184925327331 0 0.0069255319555743709 0.19301718949634911 0 0.00031645475185905692 0.20460783281500519 0 0.0069255319555743709 0.19301718949634911 0 0.0046685206359674911 0.19053204891562531 0 0.0090153612330048163 0.1851886646848247 0 0.0046685206359674911 0.19053204891562531 0 0.01336667473699675 0.19757184925327331 0 0.0069255319555743709 0.19301718949634911 0 0.0046685206359674911 0.19053204891562531 0 0.01336667473699675 0.19757184925327331 0 0.0046685206359674911 0.19053204891562531 0 0.0090153612330048163 0.1851886646848247 0 0.01336667473699675 0.19757184925327331 0 0.0046685206359674911 0.19053204891562531 0 0.01336667473699675 0.19757184925327331 0 0.032083854156780611 0.1903562657000456 0 0.036253453169878901 0.21609513001691291 0 0.046290388650539999 0.1825905480903843 0 0.032083854156780611 0.1903562657000456 0 0.048749103553650558 0.19742978352350921 0 0.032083854156780611 0.1903562657000456 0 0.048749103553650558 0.19742978352350921 0 0.036253453169878901 0.21609513001691291 0 0.046290388650539999 0.1825905480903843 0 0.057396666109122967 0.1875615344556599 0 0.048749103553650558 0.19742978352350921 0 0.057396666109122967 0.1875615344556599 0 0.048749103553650558 0.19742978352350921 0 0.066060025949511658 0.19896331816391791 0 0.048749103553650558 0.19742978352350921 0 0.058522535113253733 0.21414322467889099 0 0.066060025949511658 0.19896331816391791 0 0.048749103553650558 0.19742978352350921 0 0.058522535113253733 0.21414322467889099 0 0.036253453169878901 0.21609513001691291 0 0.036253453169878901 0.21609513001691291 0 0.040952861771247663 0.2333973255928638 0 0.059140231602749949 0.234618410780566 0 0.026646689113698819 0.22848374483877029 0 0.036253453169878901 0.21609513001691291 0 0.040952861771247663 0.2333973255928638 0 0.030707659442560969 0.2385616499293382 0 0.026646689113698819 0.22848374483877029 0 0.040952861771247663 0.2333973255928638 0 0.058522535113253733 0.21414322467889099 0 0.036253453169878901 0.21609513001691291 0 0.059140231602749949 0.234618410780566 0 0.036253453169878901 0.21609513001691291 0 0.059140231602749949 0.234618410780566 0 0.058522535113253733 0.21414322467889099 0 0.059140231602749949 0.234618410780566 0 0.069751822317716192 0.22296720636611961 0 0.040952861771247663 0.2333973255928638 0 0.059140231602749949 0.234618410780566 0 0.052613808076478891 0.2434546204835597 0 0.052613808076478891 0.2434546204835597 0 0.074954462641709033 0.2420869019885217 0 0.051468126718987102 0.25901657198532452 0 0.059140231602749949 0.234618410780566 0 0.052613808076478891 0.2434546204835597 0 0.074954462641709033 0.2420869019885217 0 0.052613808076478891 0.2434546204835597 0 0.047756098919273543 0.24973941259952079 0 0.041411066804906048 0.2418690999545616 0 0.047756098919273543 0.24973941259952079 0 0.040830736556503398 0.24937498861815549 0 0.041411066804906048 0.2418690999545616 0 0.040952861771247663 0.2333973255928638 0 0.052613808076478891 0.2434546204835597 0 0.041411066804906048 0.2418690999545616 0 0.030707659442560969 0.2385616499293382 0 0.040952861771247663 0.2333973255928638 0 0.041411066804906048 0.2418690999545616 0 0.030707659442560969 0.2385616499293382 0 0.041411066804906048 0.2418690999545616 0 0.034632610864773282 0.24667647745089169 0 0.040830736556503398 0.24937498861815549 0 0.041411066804906048 0.2418690999545616 0 0.034632610864773282 0.24667647745089169 0 0.074954462641709033 0.2420869019885217 0 0.080384638287753649 0.23284736914771689 0 0.082566296508081907 0.25452805415220869 0 0.080384638287753649 0.23284736914771689 0 0.082566296508081907 0.25452805415220869 0 0.091209372625800311 0.2425776804286586 0 0.080384638287753649 0.23284736914771689 0 0.1017848352622673 0.23012076978793591 0 0.091209372625800311 0.2425776804286586 0 0.080384638287753649 0.23284736914771689 0 0.082566296508081907 0.25452805415220869 0 0.091209372625800311 0.2425776804286586 0 0.082566296508081907 0.25452805415220869 0 0.1022344060505356 0.25168928064805512 0 0.059140231602749949 0.234618410780566 0 0.074954462641709033 0.2420869019885217 0 0.070241573093400608 0.23310163110851739 0 0.074954462641709033 0.2420869019885217 0 0.070241573093400608 0.23310163110851739 0 0.080384638287753649 0.23284736914771689 0 0.070241573093400608 0.23310163110851739 0 0.069751822317716192 0.22296720636611961 0 0.080384638287753649 0.23284736914771689 0 0.069751822317716192 0.22296720636611961 0 0.080384638287753649 0.23284736914771689 0 0.078202980067427763 0.21116668414322479 0 0.059140231602749949 0.234618410780566 0 0.070241573093400608 0.23310163110851739 0 0.069751822317716192 0.22296720636611961 0 0.080384638287753649 0.23284736914771689 0 0.090074116850792987 0.21725945683493139 0 0.1017848352622673 0.23012076978793591 0 0.080384638287753649 0.23284736914771689 0 0.078202980067427763 0.21116668414322479 0 0.080384638287753649 0.23284736914771689 0 0.078202980067427763 0.21116668414322479 0 0.090074116850792987 0.21725945683493139 0 0.078202980067427763 0.21116668414322479 0 0.090074116850792987 0.21725945683493139 0 0.086071816711861843 0.19603985675308369 0 0.090074116850792987 0.21725945683493139 0 0.086071816711861843 0.19603985675308369 0 0.10458795722699139 0.20873046165860709 0 0.058522535113253733 0.21414322467889099 0 0.078202980067427763 0.21116668414322479 0 0.066060025949511658 0.19896331816391791 0 0.058522535113253733 0.21414322467889099 0 0.069751822317716192 0.22296720636611961 0 0.078202980067427763 0.21116668414322479 0 0.086071816711861843 0.19603985675308369 0 0.067555676196732251 0.18334925184756029 0 0.078202980067427763 0.21116668414322479 0 0.066060025949511658 0.19896331816391791 0 0.086071816711861843 0.19603985675308369 0 0.066060025949511658 0.19896331816391791 0 0.086071816711861843 0.19603985675308369 0 0.067555676196732251 0.18334925184756029 0 0.057396666109122967 0.1875615344556599 0 0.066060025949511658 0.19896331816391791 0 0.067555676196732251 0.18334925184756029 0 0.086071816711861843 0.19603985675308369 0 0.084725355437235472 0.18172705532250491 0 0.098611249451756533 0.18701653933338699 0 0.086071816711861843 0.19603985675308369 0 0.10458795722699139 0.20873046165860709 0 0.098611249451756533 0.18701653933338699 0 0.1098680504008621 0.19322235167746701 0 0.10458795722699139 0.20873046165860709 0 0.098611249451756533 0.18701653933338699 0 0.086071816711861843 0.19603985675308369 0 0.10458795722699139 0.20873046165860709 0 0.1098680504008621 0.19322235167746701 0 0.098611249451756533 0.18701653933338699 0 0.1111722436326467 0.18344546753901561 0 0.1098680504008621 0.19322235167746701 0 0.1243123515941479 0.193839325887115 0 0.1111722436326467 0.18344546753901561 0 0.1098680504008621 0.19322235167746701 0 0.1243123515941479 0.193839325887115 0 0.10458795722699139 0.20873046165860709 0 0.1243123515941479 0.193839325887115 0 0.1231040977421208 0.2214210665641308 0 0.10458795722699139 0.20873046165860709 0 0.1231040977421208 0.2214210665641308 0 0.1243123515941479 0.193839325887115 0 0.10458795722699139 0.20873046165860709 0 0.1231040977421208 0.2214210665641308 0 0.090074116850792987 0.21725945683493139 0 0.10458795722699139 0.20873046165860709 0 0.1017848352622673 0.23012076978793591 0 0.1017848352622673 0.23012076978793591 0 0.1231040977421208 0.2214210665641308 0 0.11225646366197831 0.2380204060360058 0 0.10458795722699139 0.20873046165860709 0 0.1017848352622673 0.23012076978793591 0 0.1231040977421208 0.2214210665641308 0 0.11225646366197831 0.2380204060360058 0 0.1219025155929893 0.24885050714390139 0 0.1022344060505356 0.25168928064805512 0 0.1231040977421208 0.2214210665641308 0 0.11225646366197831 0.2380204060360058 0 0.1219025155929893 0.24885050714390139 0 0.1231040977421208 0.2214210665641308 0 0.1219025155929893 0.24885050714390139 0 0.1017848352622673 0.23012076978793591 0 0.11225646366197831 0.2380204060360058 0 0.1022344060505356 0.25168928064805512 0 0.091209372625800311 0.2425776804286586 0 0.1017848352622673 0.23012076978793591 0 0.1022344060505356 0.25168928064805512 0 0.085465447000605294 0.140136949671367 0 0.071896791597892556 0.1578058601621472 0 0.093532491751192937 0.15427460631668469 0 0.085465447000605294 0.140136949671367 0 0.084198772741305522 0.15954525930820551 0 0.085465447000605294 0.140136949671367 0 0.071896791597892556 0.1578058601621472 0 0.084198772741305522 0.15954525930820551 0 0.093532491751192937 0.15427460631668469 0 0.093697010032122913 0.13830668112626701 0 0.093532491751192937 0.15427460631668469 0 0.093697010032122913 0.13830668112626701 0 0.085465447000605294 0.140136949671367 0 0.085465447000605294 0.140136949671367 0 0.093789836708853963 0.12929704753810031 0 0.093697010032122913 0.13830668112626701 0 0.085465447000605294 0.140136949671367 0 0.074786922018476865 0.12332022269762009 0 0.085465447000605294 0.140136949671367 0 0.093789836708853963 0.12929704753810031 0 0.093697010032122913 0.13830668112626701 0 0.085465447000605294 0.140136949671367 0 0.093789836708853963 0.12929704753810031 0 0.093697010032122913 0.13830668112626701 0 0.093789836708853963 0.12929704753810031 0 0.074786922018476865 0.12332022269762009 0 0.055298505605409227 0.1191928957643154 0 0.065074148195564216 0.14467090666759169 0 0.074786922018476865 0.12332022269762009 0 0.085465447000605294 0.140136949671367 0 0.065074148195564216 0.14467090666759169 0 0.085465447000605294 0.140136949671367 0 0.065074148195564216 0.14467090666759169 0 0.071896791597892556 0.1578058601621472 0 0.055244483347234502 0.15962566027231501 0 0.065074148195564216 0.14467090666759169 0 0.071896791597892556 0.1578058601621472 0 0.085465447000605294 0.140136949671367 0 0.065074148195564216 0.14467090666759169 0 0.058328136195180347 0.17547477065292791 0 0.071896791597892556 0.1578058601621472 0 0.058328136195180347 0.17547477065292791 0 0.071896791597892556 0.1578058601621472 0 0.06895016633634217 0.17215424495850659 0 0.071896791597892556 0.1578058601621472 0 0.06895016633634217 0.17215424495850659 0 0.078020061355563525 0.17198709717139121 0 0.071896791597892556 0.1578058601621472 0 0.078020061355563525 0.17198709717139121 0 0.084198772741305522 0.15954525930820551 0 0.067555676196732251 0.18334925184756029 0 0.078020061355563525 0.17198709717139121 0 0.084725355437235472 0.18172705532250491 0 0.058328136195180347 0.17547477065292791 0 0.067555676196732251 0.18334925184756029 0 0.06895016633634217 0.17215424495850659 0 0.067555676196732251 0.18334925184756029 0 0.06895016633634217 0.17215424495850659 0 0.078020061355563525 0.17198709717139121 0 0.086071816711861843 0.19603985675308369 0 0.067555676196732251 0.18334925184756029 0 0.084725355437235472 0.18172705532250491 0 0.084725355437235472 0.18172705532250491 0 0.093367973470263127 0.1702425315071022 0 0.098611249451756533 0.18701653933338699 0 0.078020061355563525 0.17198709717139121 0 0.084725355437235472 0.18172705532250491 0 0.093367973470263127 0.1702425315071022 0 0.093532491751192937 0.15427460631668469 0 0.084198772741305522 0.15954525930820551 0 0.093367973470263127 0.1702425315071022 0 0.093532491751192937 0.15427460631668469 0 0.093367973470263127 0.1702425315071022 0 0.078020061355563525 0.17198709717139121 0 0.084198772741305522 0.15954525930820551 0 0.093367973470263127 0.1702425315071022 0 0.093532491751192937 0.15427460631668469 0 0.093367973470263127 0.1702425315071022 0 0.1019344602159587 0.1592056360866877 0 0.093367973470263127 0.1702425315071022 0 0.1019344602159587 0.1592056360866877 0 0.10505552873112529 0.17218059155548179 0 0.1019344602159587 0.1592056360866877 0 0.10505552873112529 0.17218059155548179 0 0.1098177854916725 0.16179067173179601 0 0.1019344602159587 0.1592056360866877 0 0.1098177854916725 0.16179067173179601 0 0.10906107104521071 0.15030786939663929 0 0.093367973470263127 0.1702425315071022 0 0.098611249451756533 0.18701653933338699 0 0.10505552873112529 0.17218059155548179 0 0.098611249451756533 0.18701653933338699 0 0.10505552873112529 0.17218059155548179 0 0.1111722436326467 0.18344546753901561 0 0.1243123515941479 0.193839325887115 0 0.1111722436326467 0.18344546753901561 0 0.1154728550478777 0.1736688268788642 0 0.1243123515941479 0.193839325887115 0 0.1154728550478777 0.1736688268788642 0 0.1257949527334695 0.1662028264329132 0 0.10505552873112529 0.17218059155548179 0 0.1111722436326467 0.18344546753901561 0 0.1154728550478777 0.1736688268788642 0 0.1098177854916725 0.16179067173179601 0 0.1176051041472051 0.16375076496365179 0 0.1168717692718297 0.15527318327168271 0 0.1154728550478777 0.1736688268788642 0 0.1098177854916725 0.16179067173179601 0 0.1176051041472051 0.16375076496365179 0 0.10505552873112529 0.17218059155548179 0 0.1154728550478777 0.1736688268788642 0 0.1098177854916725 0.16179067173179601 0 0.1154728550478777 0.1736688268788642 0 0.1176051041472051 0.16375076496365179 0 0.1257949527334695 0.1662028264329132 0 0.1176051041472051 0.16375076496365179 0 0.1168717692718297 0.15527318327168271 0 0.1257949527334695 0.1662028264329132 0 0.121045063189671 0.14240537553541749 0 0.1257949527334695 0.1662028264329132 0 0.121045063189671 0.14240537553541749 0 0.1168717692718297 0.15527318327168271 0 0.1257949527334695 0.1662028264329132 0 0.121045063189671 0.14240537553541749 0 0.10906107104521071 0.15030786939663929 0 0.1084325883134111 0.1415761213839056 0 0.121045063189671 0.14240537553541749 0 0.1168717692718297 0.15527318327168271 0 0.10906107104521071 0.15030786939663929 0 0.1098177854916725 0.16179067173179601 0 0.1168717692718297 0.15527318327168271 0 0.10906107104521071 0.15030786939663929 0 0.1019344602159587 0.1592056360866877 0 0.10906107104521071 0.15030786939663929 0 0.1007719108062877 0.14643754601242229 0 0.093532491751192937 0.15427460631668469 0 0.093697010032122913 0.13830668112626701 0 0.1007719108062877 0.14643754601242229 0 0.1084325883134111 0.1415761213839056 0 0.1007719108062877 0.14643754601242229 0 0.1009414908504658 0.1366958879735416 0 0.10906107104521071 0.15030786939663929 0 0.1084325883134111 0.1415761213839056 0 0.1007719108062877 0.14643754601242229 0 0.093532491751192937 0.15427460631668469 0 0.1019344602159587 0.1592056360866877 0 0.1007719108062877 0.14643754601242229 0 0.1048278511764163 0.1246950360930037 0 0.093789836708853963 0.12929704753810031 0 0.10247564610278929 0.1306804749015382 0 0.093789836708853963 0.12929704753810031 0 0.1009414908504658 0.1366958879735416 0 0.10247564610278929 0.1306804749015382 0 0.093697010032122913 0.13830668112626701 0 0.1007719108062877 0.14643754601242229 0 0.1009414908504658 0.1366958879735416 0 0.093697010032122913 0.13830668112626701 0 0.093789836708853963 0.12929704753810031 0 0.1009414908504658 0.1366958879735416 0 0.093697010032122913 0.13830668112626701 0 0.1009414908504658 0.1366958879735416 0 0.1009414908504658 0.1366958879735416 0 0.10247564610278929 0.1306804749015382 0 0.11034340567542041 0.13203392800150721 0 0.1084325883134111 0.1415761213839056 0 0.1009414908504658 0.1366958879735416 0 0.11034340567542041 0.13203392800150721 0 0.1048278511764163 0.1246950360930037 0 0.10247564610278929 0.1306804749015382 0 0.11034340567542041 0.13203392800150721 0 0.1048278511764163 0.1246950360930037 0 0.10947178622924481 0.1206153626248964 0 0.11034340567542041 0.13203392800150721 0 0.1153882548746023 0.11406416530876221 0 0.121045063189671 0.14240537553541749 0 0.1153882548746023 0.11406416530876221 0 0.121045063189671 0.14240537553541749 0 0.11034340567542041 0.13203392800150721 0 0.121045063189671 0.14240537553541749 0 0.1084325883134111 0.1415761213839056 0 0.11034340567542041 0.13203392800150721 0 0.1153882548746023 0.11406416530876221 0 0.121045063189671 0.14240537553541749 0 0.13906236907489311 0.1227664384019148 0 0.121045063189671 0.14240537553541749 0 0.13897463752010211 0.14508159544353089 0 0.13906236907489311 0.1227664384019148 0 0.15260564061004869 0.14225197185914179 0 0.13897463752010211 0.14508159544353089 0 0.13906236907489311 0.1227664384019148 0 0.16273648327518531 0.1314687114950632 0 0.13906236907489311 0.1227664384019148 0 0.15260564061004869 0.14225197185914179 0 0.16273648327518531 0.1314687114950632 0 0.13906236907489311 0.1227664384019148 0 0.13897463752010211 0.14508159544353089 0 0.13924061392386669 0.16177109700138201 0 0.15244214987015381 0.15764036786257951 0 0.15260564061004869 0.14225197185914179 0 0.13897463752010211 0.14508159544353089 0 0.15244214987015381 0.15764036786257951 0 0.13897463752010211 0.14508159544353089 0 0.13069460588402049 0.1551950480954879 0 0.13924061392386669 0.16177109700138201 0 0.121045063189671 0.14240537553541749 0 0.13069460588402049 0.1551950480954879 0 0.1257949527334695 0.1662028264329132 0 0.121045063189671 0.14240537553541749 0 0.13897463752010211 0.14508159544353089 0 0.13069460588402049 0.1551950480954879 0 0.13069460588402049 0.1551950480954879 0 0.1257949527334695 0.1662028264329132 0 0.12670187150473131 0.17074658576207449 0 0.13069460588402049 0.1551950480954879 0 0.12670187150473131 0.17074658576207449 0 0.1330594356036679 0.1658970303902694 0 0.1257949527334695 0.1662028264329132 0 0.12670187150473131 0.17074658576207449 0 0.12670187150473131 0.17074658576207449 0 0.1330594356036679 0.1658970303902694 0 0.1323341379997689 0.17192255538606641 0 0.1330594356036679 0.1658970303902694 0 0.13776171984299421 0.17165380931755311 0 0.13924061392386669 0.16177109700138201 0 0.1330594356036679 0.1658970303902694 0 0.13776171984299421 0.17165380931755311 0 0.1323341379997689 0.17192255538606641 0 0.13069460588402049 0.1551950480954879 0 0.1330594356036679 0.1658970303902694 0 0.13924061392386669 0.16177109700138201 0 0.1243123515941479 0.193839325887115 0 0.1257949527334695 0.1662028264329132 0 0.1243123515941479 0.193839325887115 0 0.1257949527334695 0.1662028264329132 0 0.12670187150473131 0.17074658576207449 0 0.1243123515941479 0.193839325887115 0 0.12670187150473131 0.17074658576207449 0 0.13311092199079599 0.179304755928267 0 0.1243123515941479 0.193839325887115 0 0.13311092199079599 0.179304755928267 0 0.1385944332656239 0.18851320392121201 0 0.12670187150473131 0.17074658576207449 0 0.1323341379997689 0.17192255538606641 0 0.13311092199079599 0.179304755928267 0 0.13776171984299421 0.17165380931755311 0 0.1323341379997689 0.17192255538606641 0 0.13311092199079599 0.179304755928267 0 0.13776171984299421 0.17165380931755311 0 0.13311092199079599 0.179304755928267 0 0.1407958343267082 0.17943586016441981 0 0.13311092199079599 0.179304755928267 0 0.1407958343267082 0.17943586016441981 0 0.1385944332656239 0.18851320392121201 0 0.1407958343267082 0.17943586016441981 0 0.15141053822044581 0.18379196436971909 0 0.1385944332656239 0.18851320392121201 0 0.13776171984299421 0.17165380931755311 0 0.14677119149207771 0.1744811770230246 0 0.1407958343267082 0.17943586016441981 0 0.14677119149207771 0.1744811770230246 0 0.1407958343267082 0.17943586016441981 0 0.15141053822044581 0.18379196436971909 0 0.14677119149207771 0.1744811770230246 0 0.15141053822044581 0.18379196436971909 0 0.1580949609427208 0.17165432552870999 0 0.13924061392386669 0.16177109700138201 0 0.1478901436383272 0.1665364436250879 0 0.15244214987015381 0.15764036786257951 0 0.13776171984299421 0.17165380931755311 0 0.14677119149207771 0.1744811770230246 0 0.1478901436383272 0.1665364436250879 0 0.13776171984299421 0.17165380931755311 0 0.13924061392386669 0.16177109700138201 0 0.1478901436383272 0.1665364436250879 0 0.1478901436383272 0.1665364436250879 0 0.15244214987015381 0.15764036786257951 0 0.1580949609427208 0.17165432552870999 0 0.14677119149207771 0.1744811770230246 0 0.1478901436383272 0.1665364436250879 0 0.1580949609427208 0.17165432552870999 0 0.15244214987015381 0.15764036786257951 0 0.1580949609427208 0.17165432552870999 0 0.1705311652785173 0.162275404348284 0 0.1580949609427208 0.17165432552870999 0 0.1705311652785173 0.162275404348284 0 0.17331782646427821 0.17667828387464221 0 0.15141053822044581 0.18379196436971909 0 0.1580949609427208 0.17165432552870999 0 0.16284174584777561 0.1837216987194524 0 0.1580949609427208 0.17165432552870999 0 0.16284174584777561 0.1837216987194524 0 0.17331782646427821 0.17667828387464221 0 0.16284174584777561 0.1837216987194524 0 0.17331782646427821 0.17667828387464221 0 0.1716392238361715 0.19113846516824501 0 0.17331782646427821 0.17667828387464221 0 0.18714835759454709 0.16347294619108471 0 0.19216593691983519 0.1768058713270042 0 0.17331782646427821 0.17667828387464221 0 0.1824998808124676 0.18740474587459269 0 0.19216593691983519 0.1768058713270042 0 0.17331782646427821 0.17667828387464221 0 0.1824998808124676 0.18740474587459269 0 0.1716392238361715 0.19113846516824501 0 0.1705311652785173 0.162275404348284 0 0.17331782646427821 0.17667828387464221 0 0.18714835759454709 0.16347294619108471 0 0.1705311652785173 0.162275404348284 0 0.18714835759454709 0.16347294619108471 0 0.17788486364965689 0.15345524451187831 0 0.17788486364965689 0.15345524451187831 0 0.18641059747547761 0.14017098458821159 0 0.16744933425008579 0.14790164291993299 0 0.18714835759454709 0.16347294619108471 0 0.17788486364965689 0.15345524451187831 0 0.18641059747547761 0.14017098458821159 0 0.1705311652785173 0.162275404348284 0 0.17788486364965689 0.15345524451187831 0 0.16744933425008579 0.14790164291993299 0 0.18641059747547761 0.14017098458821159 0 0.16273648327518531 0.1314687114950632 0 0.16744933425008579 0.14790164291993299 0 0.18641059747547761 0.14017098458821159 0 0.16273648327518531 0.1314687114950632 0 0.18641059747547761 0.14017098458821159 0 0.16273648327518531 0.1314687114950632 0 0.18063658850208941 0.1222018208015781 0 0.15260564061004869 0.14225197185914179 0 0.16273648327518531 0.1314687114950632 0 0.16744933425008579 0.14790164291993299 0 0.15244214987015381 0.15764036786257951 0 0.1705311652785173 0.162275404348284 0 0.16744933425008579 0.14790164291993299 0 0.15260564061004869 0.14225197185914179 0 0.15244214987015381 0.15764036786257951 0 0.16744933425008579 0.14790164291993299 0 0.14841999981244011 0.24598989314608569 0 0.16495436147956929 0.24313395428324219 0 0.14756195463473851 0.25660888721814562 0 0.1453957694702718 0.2366993476051733 0 0.14841999981244011 0.24598989314608569 0 0.16495436147956929 0.24313395428324219 0 0.1453957694702718 0.2366993476051733 0 0.14841999981244011 0.24598989314608569 0 0.1373641731739291 0.2466188669460305 0 0.14841999981244011 0.24598989314608569 0 0.1373641731739291 0.2466188669460305 0 0.14756195463473851 0.25660888721814562 0 0.1231040977421208 0.2214210665641308 0 0.1219025155929893 0.24885050714390139 0 0.1373641731739291 0.2466188669460305 0 0.1231040977421208 0.2214210665641308 0 0.1453957694702718 0.2366993476051733 0 0.1373641731739291 0.2466188669460305 0 0.1219025155929893 0.24885050714390139 0 0.1373641731739291 0.2466188669460305 0 0.1284580452948508 0.2539548874784826 0 0.1219025155929893 0.24885050714390139 0 0.1373641731739291 0.2466188669460305 0 0.1231040977421208 0.2214210665641308 0 0.1453957694702718 0.2366993476051733 0 0.1231040977421208 0.2214210665641308 0 0.1453957694702718 0.2366993476051733 0 0.13950358619624789 0.21914796877724771 0 0.1453957694702718 0.2366993476051733 0 0.13950358619624789 0.21914796877724771 0 0.15159091170175509 0.2229768601916127 0 0.1453957694702718 0.2366993476051733 0 0.15159091170175509 0.2229768601916127 0 0.15911866440325101 0.23018255136906701 0 0.13950358619624789 0.21914796877724771 0 0.1468243922787168 0.2126032835285632 0 0.13715289885609741 0.20268105904268191 0 0.1538196875527717 0.20339321717172709 0 0.1468243922787168 0.2126032835285632 0 0.13715289885609741 0.20268105904268191 0 0.15159091170175509 0.2229768601916127 0 0.1468243922787168 0.2126032835285632 0 0.15893098085338661 0.2159783628073447 0 0.1538196875527717 0.20339321717172709 0 0.1468243922787168 0.2126032835285632 0 0.15893098085338661 0.2159783628073447 0 0.13950358619624789 0.21914796877724771 0 0.15159091170175509 0.2229768601916127 0 0.1468243922787168 0.2126032835285632 0 0.1243123515941479 0.193839325887115 0 0.1231040977421208 0.2214210665641308 0 0.13715289885609741 0.20268105904268191 0 0.1231040977421208 0.2214210665641308 0 0.13950358619624789 0.21914796877724771 0 0.13715289885609741 0.20268105904268191 0 0.1243123515941479 0.193839325887115 0 0.13715289885609741 0.20268105904268191 0 0.1385944332656239 0.18851320392121201 0 0.1538196875527717 0.20339321717172709 0 0.13715289885609741 0.20268105904268191 0 0.14789321851577211 0.1933302167554089 0 0.15141053822044581 0.18379196436971909 0 0.1385944332656239 0.18851320392121201 0 0.14789321851577211 0.1933302167554089 0 0.13715289885609741 0.20268105904268191 0 0.1385944332656239 0.18851320392121201 0 0.14789321851577211 0.1933302167554089 0 0.1538196875527717 0.20339321717172709 0 0.14789321851577211 0.1933302167554089 0 0.16066887199559729 0.1958998291161661 0 0.15141053822044581 0.18379196436971909 0 0.14789321851577211 0.1933302167554089 0 0.16066887199559729 0.1958998291161661 0 0.15141053822044581 0.18379196436971909 0 0.16284174584777561 0.1837216987194524 0 0.16066887199559729 0.1958998291161661 0 0.1538196875527717 0.20339321717172709 0 0.16066887199559729 0.1958998291161661 0 0.1635660525138872 0.20737352700595391 0 0.16066887199559729 0.1958998291161661 0 0.17115537350844731 0.20223481159817741 0 0.1635660525138872 0.20737352700595391 0 0.16066887199559729 0.1958998291161661 0 0.17115537350844731 0.20223481159817741 0 0.1716392238361715 0.19113846516824501 0 0.16284174584777561 0.1837216987194524 0 0.16066887199559729 0.1958998291161661 0 0.1716392238361715 0.19113846516824501 0 0.1824998808124676 0.18740474587459269 0 0.1716392238361715 0.19113846516824501 0 0.18343074710820839 0.1990984870967854 0 0.1824998808124676 0.18740474587459269 0 0.18343074710820839 0.1990984870967854 0 0.19414787287845681 0.19257932130767311 0 0.17115537350844731 0.20223481159817741 0 0.18343074710820839 0.1990984870967854 0 0.17878965500851049 0.2069060666508418 0 0.17115537350844731 0.20223481159817741 0 0.1716392238361715 0.19113846516824501 0 0.18343074710820839 0.1990984870967854 0 0.17115537350844731 0.20223481159817741 0 0.17878965500851049 0.2069060666508418 0 0.17114326185613021 0.21180817906591631 0 0.17878965500851049 0.2069060666508418 0 0.17050407426528399 0.22168745630865841 0 0.18941669305145559 0.2118156755556172 0 0.17050407426528399 0.22168745630865841 0 0.18941669305145559 0.2118156755556172 0 0.18343074710820839 0.1990984870967854 0 0.17878965500851049 0.2069060666508418 0 0.18941669305145559 0.2118156755556172 0 0.17878965500851049 0.2069060666508418 0 0.17114326185613021 0.21180817906591631 0 0.17050407426528399 0.22168745630865841 0 0.1690607739116391 0.21830842311276921 0 0.17114326185613021 0.21180817906591631 0 0.17050407426528399 0.22168745630865841 0 0.1690607739116391 0.21830842311276921 0 0.16567813931699041 0.21492676227639221 0 0.17114326185613021 0.21180817906591631 0 0.1690607739116391 0.21830842311276921 0 0.16567813931699041 0.21492676227639221 0 0.165687465722689 0.21941823688210871 0 0.16567813931699041 0.21492676227639221 0 0.17114326185613021 0.21180817906591631 0 0.1635660525138872 0.20737352700595391 0 0.17115537350844731 0.20223481159817741 0 0.17114326185613021 0.21180817906591631 0 0.1635660525138872 0.20737352700595391 0 0.1538196875527717 0.20339321717172709 0 0.1635660525138872 0.20737352700595391 0 0.15893098085338661 0.2159783628073447 0 0.16567813931699041 0.21492676227639221 0 0.1635660525138872 0.20737352700595391 0 0.15893098085338661 0.2159783628073447 0 0.16567813931699041 0.21492676227639221 0 0.15893098085338661 0.2159783628073447 0 0.165687465722689 0.21941823688210871 0 0.17050407426528399 0.22168745630865841 0 0.16495436147956929 0.24313395428324219 0 0.17050407426528399 0.22168745630865841 0 0.17677061413745171 0.23151088051427701 0 0.16495436147956929 0.24313395428324219 0 0.15911866440325101 0.23018255136906701 0 0.17050407426528399 0.22168745630865841 0 0.16495436147956929 0.24313395428324219 0 0.15159091170175509 0.2229768601916127 0 0.16304714654251759 0.2235705335852427 0 0.15911866440325101 0.23018255136906701 0 0.15159091170175509 0.2229768601916127 0 0.15893098085338661 0.2159783628073447 0 0.16304714654251759 0.2235705335852427 0 0.15893098085338661 0.2159783628073447 0 0.16304714654251759 0.2235705335852427 0 0.165687465722689 0.21941823688210871 0 0.16304714654251759 0.2235705335852427 0 0.15911866440325101 0.23018255136906701 0 0.17050407426528399 0.22168745630865841 0 0.16304714654251759 0.2235705335852427 0 0.165687465722689 0.21941823688210871 0 0.17050407426528399 0.22168745630865841 0 0.1690607739116391 0.21830842311276921 0 0.165687465722689 0.21941823688210871 0 0.17050407426528399 0.22168745630865841 0 0.18125619125848541 0.22358100731271141 0 0.1871789623895064 0.22930277733948129 0 0.18941669305145559 0.2118156755556172 0 0.17050407426528399 0.22168745630865841 0 0.18125619125848541 0.22358100731271141 0 0.17677061413745171 0.23151088051427701 0 0.17050407426528399 0.22168745630865841 0 0.18125619125848541 0.22358100731271141 0 0.18941669305145559 0.2118156755556172 0 0.18125619125848541 0.22358100731271141 0 0.1871789623895064 0.22930277733948129 0 0.17677061413745171 0.23151088051427701 0 0.17677061413745171 0.23151088051427701 0 0.18747895914208321 0.24658507463693399 0 0.16495436147956929 0.24313395428324219 0 0.1871789623895064 0.22930277733948129 0 0.17677061413745171 0.23151088051427701 0 0.18747895914208321 0.24658507463693399 0 0.1453957694702718 0.2366993476051733 0 0.15911866440325101 0.23018255136906701 0 0.16495436147956929 0.24313395428324219 0 0.21357589973139521 0.2389859068199098 0 0.20304268401216791 0.24453791653587251 0 0.20429097075905381 0.2268641368391954 0 0.21357589973139521 0.2389859068199098 0 0.2280432279698949 0.2361189219699116 0 0.2133163608751413 0.25366976302363331 0 0.21357589973139521 0.2389859068199098 0 0.20304268401216791 0.24453791653587251 0 0.2133163608751413 0.25366976302363331 0 0.18747895914208321 0.24658507463693399 0 0.20304268401216791 0.24453791653587251 0 0.20429097075905381 0.2268641368391954 0 0.18747895914208321 0.24658507463693399 0 0.20304268401216791 0.24453791653587251 0 0.19655122955316559 0.25658470135968953 0 0.18747895914208321 0.24658507463693399 0 0.20429097075905381 0.2268641368391954 0 0.1871789623895064 0.22930277733948129 0 0.18747895914208321 0.24658507463693399 0 0.20429097075905381 0.2268641368391954 0 0.1871789623895064 0.22930277733948129 0 0.20429097075905381 0.2268641368391954 0 0.18941669305145559 0.2118156755556172 0 0.21357589973139521 0.2389859068199098 0 0.20429097075905381 0.2268641368391954 0 0.21515357807933569 0.22767304411394679 0 0.21357589973139521 0.2389859068199098 0 0.21515357807933569 0.22767304411394679 0 0.2241007133088683 0.2338858808217833 0 0.20429097075905381 0.2268641368391954 0 0.21515357807933569 0.22767304411394679 0 0.2188838069631022 0.21884714181694409 0 0.20429097075905381 0.2268641368391954 0 0.20717489064738329 0.2019366552697644 0 0.22110298237602441 0.20714319904145681 0 0.20429097075905381 0.2268641368391954 0 0.22110298237602441 0.20714319904145681 0 0.2188838069631022 0.21884714181694409 0 0.20429097075905381 0.2268641368391954 0 0.22110298237602441 0.20714319904145681 0 0.18941669305145559 0.2118156755556172 0 0.20717489064738329 0.2019366552697644 0 0.20429097075905381 0.2268641368391954 0 0.18941669305145559 0.2118156755556172 0 0.20717489064738329 0.2019366552697644 0 0.18343074710820839 0.1990984870967854 0 0.18941669305145559 0.2118156755556172 0 0.19414787287845681 0.19257932130767311 0 0.18941669305145559 0.2118156755556172 0 0.19414787287845681 0.19257932130767311 0 0.20717489064738329 0.2019366552697644 0 0.19414787287845681 0.19257932130767311 0 0.20717489064738329 0.2019366552697644 0 0.2055773265476539 0.18700622847540141 0 0.20717489064738329 0.2019366552697644 0 0.22493308824330921 0.19205763498390829 0 0.20717489064738329 0.2019366552697644 0 0.22493308824330921 0.19205763498390829 0 0.22110298237602441 0.20714319904145681 0 0.20717489064738329 0.2019366552697644 0 0.22493308824330921 0.19205763498390829 0 0.2055773265476539 0.18700622847540141 0 0.22493308824330921 0.19205763498390829 0 0.22944586087340571 0.21056341668449191 0 0.22493308824330921 0.19205763498390829 0 0.23268628502431399 0.19997008768222449 0 0.24106241271185661 0.19598382103654441 0 0.22493308824330921 0.19205763498390829 0 0.23268628502431399 0.19997008768222449 0 0.22944586087340571 0.21056341668449191 0 0.24106241271185661 0.19598382103654441 0 0.24871958878640721 0.17882502395312869 0 0.2526890803729952 0.19142810259802881 0 0.22493308824330921 0.19205763498390829 0 0.24106241271185661 0.19598382103654441 0 0.24871958878640721 0.17882502395312869 0 0.24106241271185661 0.19598382103654441 0 0.23844857160378319 0.20627015990966219 0 0.24779516383791281 0.2050925541604558 0 0.24106241271185661 0.19598382103654441 0 0.24779516383791281 0.2050925541604558 0 0.2526890803729952 0.19142810259802881 0 0.23268628502431399 0.19997008768222449 0 0.24106241271185661 0.19598382103654441 0 0.23844857160378319 0.20627015990966219 0 0.23844857160378319 0.20627015990966219 0 0.24126429594045831 0.21510053384250941 0 0.22944586087340571 0.21056341668449191 0 0.24779516383791281 0.2050925541604558 0 0.24126429594045831 0.21510053384250941 0 0.25066998091423348 0.22130983604972601 0 0.23844857160378319 0.20627015990966219 0 0.24779516383791281 0.2050925541604558 0 0.24126429594045831 0.21510053384250941 0 0.24126429594045831 0.21510053384250941 0 0.22944586087340571 0.21056341668449191 0 0.2365056626010934 0.22108945042572489 0 0.22493308824330921 0.19205763498390829 0 0.22944586087340571 0.21056341668449191 0 0.22110298237602441 0.20714319904145681 0 0.23268628502431399 0.19997008768222449 0 0.23844857160378319 0.20627015990966219 0 0.22944586087340571 0.21056341668449191 0 0.22944586087340571 0.21056341668449191 0 0.22110298237602441 0.20714319904145681 0 0.2188838069631022 0.21884714181694409 0 0.22944586087340571 0.21056341668449191 0 0.2188838069631022 0.21884714181694409 0 0.22442564272769139 0.2219919124056294 0 0.22944586087340571 0.21056341668449191 0 0.23395863350350229 0.22906919838507539 0 0.2365056626010934 0.22108945042572489 0 0.22944586087340571 0.21056341668449191 0 0.22442564272769139 0.2219919124056294 0 0.23395863350350229 0.22906919838507539 0 0.22944586087340571 0.21056341668449191 0 0.23395863350350229 0.22906919838507539 0 0.21515357807933569 0.22767304411394679 0 0.2188838069631022 0.21884714181694409 0 0.22442564272769139 0.2219919124056294 0 0.21515357807933569 0.22767304411394679 0 0.22442564272769139 0.2219919124056294 0 0.2225055743817892 0.22836790531388021 0 0.21515357807933569 0.22767304411394679 0 0.2225055743817892 0.22836790531388021 0 0.2241007133088683 0.2338858808217833 0 0.22442564272769139 0.2219919124056294 0 0.2225055743817892 0.22836790531388021 0 0.2263423634112616 0.22992078391416121 0 0.2241007133088683 0.2338858808217833 0 0.2263423634112616 0.22992078391416121 0 0.2280432279698949 0.2361189219699116 0 0.2225055743817892 0.22836790531388021 0 0.2241007133088683 0.2338858808217833 0 0.2263423634112616 0.22992078391416121 0 0.22442564272769139 0.2219919124056294 0 0.2263423634112616 0.22992078391416121 0 0.23395863350350229 0.22906919838507539 0 0.2263423634112616 0.22992078391416121 0 0.23395863350350229 0.22906919838507539 0 0.2280432279698949 0.2361189219699116 0 0.23395863350350229 0.22906919838507539 0 0.2280432279698949 0.2361189219699116 0 0.23395863350350229 0.22906919838507539 0 0.2365056626010934 0.22108945042572489 0 0.236004108335886 0.2266314902539715 0 0.24126429594045831 0.21510053384250941 0 0.2365056626010934 0.22108945042572489 0 0.241855414352215 0.22408261296257651 0 0.241855414352215 0.22408261296257651 0 0.2387033203443166 0.24215680057318811 0 0.25066998091423348 0.22130983604972601 0 0.241855414352215 0.22408261296257651 0 0.236004108335886 0.2266314902539715 0 0.2387033203443166 0.24215680057318811 0 0.2387033203443166 0.24215680057318811 0 0.25240133874791232 0.23730826949522729 0 0.25066998091423348 0.22130983604972601 0 0.2387033203443166 0.24215680057318811 0 0.25066998091423348 0.22130983604972601 0 0.2365056626010934 0.22108945042572489 0 0.241855414352215 0.22408261296257651 0 0.236004108335886 0.2266314902539715 0 0.24126429594045831 0.21510053384250941 0 0.241855414352215 0.22408261296257651 0 0.25066998091423348 0.22130983604972601 0 0.23395863350350229 0.22906919838507539 0 0.236004108335886 0.2266314902539715 0 0.23690123738983451 0.2411361004019312 0 0.23395863350350229 0.22906919838507539 0 0.236004108335886 0.2266314902539715 0 0.23395863350350229 0.22906919838507539 0 0.23690123738983451 0.2411361004019312 0 0.236004108335886 0.2266314902539715 0 0.23690123738983451 0.2411361004019312 0 0.2387033203443166 0.24215680057318811 0 0.2387033203443166 0.24215680057318811 0 0.23761323412964511 0.24405582566143441 0 0.25385477390433608 0.25073858711362512 0 0.23690123738983451 0.2411361004019312 0 0.2387033203443166 0.24215680057318811 0 0.2387033203443166 0.24215680057318811 0 0.25385477390433608 0.25073858711362512 0 0.2387033203443166 0.24215680057318811 0 0.25385477390433608 0.25073858711362512 0 0.25240133874791232 0.23730826949522729 0 0.23690123738983451 0.2411361004019312 0 0.23761323412964511 0.24405582566143441 0 0.2287056799536307 0.2472771396693518 0 0.23690123738983451 0.2411361004019312 0 0.2387033203443166 0.24215680057318811 0 0.23761323412964511 0.24405582566143441 0 0.23690123738983451 0.2411361004019312 0 0.23761323412964511 0.24405582566143441 0 0.2387033203443166 0.24215680057318811 0 0.23761323412964511 0.24405582566143441 0 0.2287056799536307 0.2472771396693518 0 0.2280432279698949 0.2361189219699116 0 0.2133163608751413 0.25366976302363331 0 0.2280432279698949 0.2361189219699116 0 0.2133163608751413 0.25366976302363331 0 0.23690123738983451 0.2411361004019312 0 0.2287056799536307 0.2472771396693518 0 0.2280432279698949 0.2361189219699116 0 0.23395863350350229 0.22906919838507539 0 0.23690123738983451 0.2411361004019312 0 0.2280432279698949 0.2361189219699116 0 0.23690123738983451 0.2411361004019312 0 0.2280432279698949 0.2361189219699116 0 0.21357589973139521 0.2389859068199098 0 0.2241007133088683 0.2338858808217833 0 0.2280432279698949 0.2361189219699116 0 0.2241007133088683 0.2338858808217833 0 0.2280432279698949 0.2361189219699116 0 0.21008471167576989 0.14887325768136001 0 0.20613937125333009 0.12758016958481069 0 0.21943275010737559 0.13384751484621529 0 0.20613937125333009 0.12758016958481069 0 0.21943275010737559 0.13384751484621529 0 0.22728676055648159 0.1205298767290605 0 0.18641059747547761 0.14017098458821159 0 0.20613937125333009 0.12758016958481069 0 0.18063658850208941 0.1222018208015781 0 0.18641059747547761 0.14017098458821159 0 0.21008471167576989 0.14887325768136001 0 0.20613937125333009 0.12758016958481069 0 0.18641059747547761 0.14017098458821159 0 0.21008471167576989 0.14887325768136001 0 0.18641059747547761 0.14017098458821159 0 0.21008471167576989 0.14887325768136001 0 0.20052354484652579 0.16067588573630151 0 0.18714835759454709 0.16347294619108471 0 0.18641059747547761 0.14017098458821159 0 0.20052354484652579 0.16067588573630151 0 0.18714835759454709 0.16347294619108471 0 0.20052354484652579 0.16067588573630151 0 0.19216593691983519 0.1768058713270042 0 0.20052354484652579 0.16067588573630151 0 0.19216593691983519 0.1768058713270042 0 0.20857091514573339 0.17470421923448859 0 0.19414787287845681 0.19257932130767311 0 0.19216593691983519 0.1768058713270042 0 0.2055773265476539 0.18700622847540141 0 0.19216593691983519 0.1768058713270042 0 0.20857091514573339 0.17470421923448859 0 0.2055773265476539 0.18700622847540141 0 0.1824998808124676 0.18740474587459269 0 0.19414787287845681 0.19257932130767311 0 0.19216593691983519 0.1768058713270042 0 0.22493308824330921 0.19205763498390829 0 0.20857091514573339 0.17470421923448859 0 0.21786682136423971 0.1630805951414917 0 0.22493308824330921 0.19205763498390829 0 0.20857091514573339 0.17470421923448859 0 0.2055773265476539 0.18700622847540141 0 0.20052354484652579 0.16067588573630151 0 0.20857091514573339 0.17470421923448859 0 0.21786682136423971 0.1630805951414917 0 0.21008471167576989 0.14887325768136001 0 0.20052354484652579 0.16067588573630151 0 0.21786682136423971 0.1630805951414917 0 0.21008471167576989 0.14887325768136001 0 0.21786682136423971 0.1630805951414917 0 0.23375882587606209 0.15757553077450839 0 0.21786682136423971 0.1630805951414917 0 0.23375882587606209 0.15757553077450839 0 0.23277825146456491 0.1728432242801928 0 0.22493308824330921 0.19205763498390829 0 0.21786682136423971 0.1630805951414917 0 0.23277825146456491 0.1728432242801928 0 0.22493308824330921 0.19205763498390829 0 0.21786682136423971 0.1630805951414917 0 0.23277825146456491 0.1728432242801928 0 0.24871958878640721 0.17882502395312869 0 0.24317240155084721 0.16888039571887159 0 0.22493308824330921 0.19205763498390829 0 0.23277825146456491 0.1728432242801928 0 0.24871958878640721 0.17882502395312869 0 0.22493308824330921 0.19205763498390829 0 0.24871958878640721 0.17882502395312869 0 0.23375882587606209 0.15757553077450839 0 0.25743294007635642 0.16627780386765151 0 0.23375882587606209 0.15757553077450839 0 0.24317240155084721 0.16888039571887159 0 0.25743294007635642 0.16627780386765151 0 0.23375882587606209 0.15757553077450839 0 0.23277825146456491 0.1728432242801928 0 0.24317240155084721 0.16888039571887159 0 0.24871958878640721 0.17882502395312869 0 0.24317240155084721 0.16888039571887159 0 0.25743294007635642 0.16627780386765151 0 0.23375882587606209 0.15757553077450839 0 0.23422015694392079 0.13840675538963021 0 0.25265512053379718 0.14367997959783621 0 0.23375882587606209 0.15757553077450839 0 0.25265512053379718 0.14367997959783621 0 0.25743294007635642 0.16627780386765151 0 0.21008471167576989 0.14887325768136001 0 0.23375882587606209 0.15757553077450839 0 0.23422015694392079 0.13840675538963021 0 0.21008471167576989 0.14887325768136001 0 0.23375882587606209 0.15757553077450839 0 0.21008471167576989 0.14887325768136001 0 0.21943275010737559 0.13384751484621529 0 0.23422015694392079 0.13840675538963021 0 0.21943275010737559 0.13384751484621529 0 0.23422015694392079 0.13840675538963021 0 0.22728676055648159 0.1205298767290605 0 0.23422015694392079 0.13840675538963021 0 0.24787730099122759 0.12108215532802311 0 0.22728676055648159 0.1205298767290605 0 0.23422015694392079 0.13840675538963021 0 0.24787730099122759 0.12108215532802311 0 0.25265512053379718 0.14367997959783621 0 0.24787730099122759 0.12108215532802311 0 0.23581646669735529 0.1099542142368379 0 0.22728676055648159 0.1205298767290605 0 0.24787730099122759 0.12108215532802311 0 0.23581646669735529 0.1099542142368379 0 0.24309948144865809 0.098484331058209945 0 0.24787730099122759 0.12108215532802311 0 0.24309948144865809 0.098484331058209945 0 0.24787730099122759 0.12108215532802311 0 0.2460722061837026 0.1058391773427578 0 0.25290807087844891 0.1105670184983297 0 0.24220815039204899 0.094268570625236053 0 0.24309948144865809 0.098484331058209945 0 0.25290807087844891 0.1105670184983297 0 0.24220815039204899 0.094268570625236053 0 0.25290807087844891 0.1105670184983297 0 0.24220815039204899 0.094268570625236053 0 0.25063733322697929 0.089584501491996815 0 0.25290807087844891 0.1105670184983297 0 0.24787730099122759 0.12108215532802311 0 0.24309948144865809 0.098484331058209945 0 0.2460722061837026 0.1058391773427578 0 0.24220815039204899 0.094268570625236053 0 0.24309948144865809 0.098484331058209945 0 0.24309948144865809 0.098484331058209945 0 0.2460722061837026 0.1058391773427578 0 0.25290807087844891 0.1105670184983297 0 0.24309948144865809 0.098484331058209945 0 0.2460722061837026 0.1058391773427578 0 0.23581646669735529 0.1099542142368379 0 0.24309948144865809 0.098484331058209945 0 0.23421162738047999 0.098337851349328723 0 0.24309948144865809 0.098484331058209945 0 0.23421162738047999 0.098337851349328723 0 0.2400937798509388 0.091047896406912771 0 0.24220815039204899 0.094268570625236053 0 0.24309948144865809 0.098484331058209945 0 0.2400937798509388 0.091047896406912771 0 0.24309948144865809 0.098484331058209945 0 0.2400937798509388 0.091047896406912771 0 0.23421162738047999 0.098337851349328723 0 0.22592936437933209 0.10296001303970161 0 0.22611904452611661 0.08924280200498115 0 0.23581646669735529 0.1099542142368379 0 0.23421162738047999 0.098337851349328723 0 0.22592936437933209 0.10296001303970161 0 0.22592936437933209 0.10296001303970161 0 0.2171764954410946 0.098730601544123303 0 0.22611904452611661 0.08924280200498115 0 0.23581646669735529 0.1099542142368379 0 0.22592936437933209 0.10296001303970161 0 0.22728676055648159 0.1205298767290605 0 0.22592936437933209 0.10296001303970161 0 0.22728676055648159 0.1205298767290605 0 0.21277432586583589 0.10899856851871199 0 0.20613937125333009 0.12758016958481069 0 0.22728676055648159 0.1205298767290605 0 0.21277432586583589 0.10899856851871199 0 0.20613937125333009 0.12758016958481069 0 0.21277432586583589 0.10899856851871199 0 0.19409589706477179 0.10990438100858201 0 0.21277432586583589 0.10899856851871199 0 0.20401329141316141 0.09772707970014316 0 0.19409589706477179 0.10990438100858201 0 0.22592936437933209 0.10296001303970161 0 0.21277432586583589 0.10899856851871199 0 0.2171764954410946 0.098730601544123303 0 0.21277432586583589 0.10899856851871199 0 0.2171764954410946 0.098730601544123303 0 0.20401329141316141 0.09772707970014316 0 0.2171764954410946 0.098730601544123303 0 0.20401329141316141 0.09772707970014316 0 0.21417903384012851 0.089681784001596584 0 0.20401329141316141 0.09772707970014316 0 0.19096039417364299 0.098610421150748889 0 0.19409589706477179 0.10990438100858201 0 0.19096039417364299 0.098610421150748889 0 0.19409589706477179 0.10990438100858201 0 0.17832079561210681 0.1023419505714787 0 0.20401329141316141 0.09772707970014316 0 0.19096039417364299 0.098610421150748889 0 0.1958997496665307 0.091007368849309045 0 0.20613937125333009 0.12758016958481069 0 0.19409589706477179 0.10990438100858201 0 0.18063658850208941 0.1222018208015781 0 0.20459465663306389 0.075413199534706252 0 0.19824815423876949 0.059229312269490519 0 0.1924545530562965 0.070544739750980884 0 0.20459465663306389 0.075413199534706252 0 0.19824815423876949 0.059229312269490519 0 0.1924545530562965 0.070544739750980884 0 0.19402745569700611 0.080591506542501384 0 0.20459465663306389 0.075413199534706252 0 0.1924545530562965 0.070544739750980884 0 0.19824815423876949 0.059229312269490519 0 0.18478247490018221 0.062070269908806742 0 0.1924545530562965 0.070544739750980884 0 0.19402745569700611 0.080591506542501384 0 0.18062002381246081 0.075419410499399542 0 0.19402745569700611 0.080591506542501384 0 0.1958997496665307 0.091007368849309045 0 0.18488559605944721 0.08935672582496075 0 0.19096039417364299 0.098610421150748889 0 0.1958997496665307 0.091007368849309045 0 0.18488559605944721 0.08935672582496075 0 0.20401329141316141 0.09772707970014316 0 0.1958997496665307 0.091007368849309045 0 0.20421382331402699 0.085799132928294913 0 0.19402745569700611 0.080591506542501384 0 0.20421382331402699 0.085799132928294913 0 0.20459465663306389 0.075413199534706252 0 0.19402745569700611 0.080591506542501384 0 0.1958997496665307 0.091007368849309045 0 0.20421382331402699 0.085799132928294913 0 0.20421382331402699 0.085799132928294913 0 0.21075845836444521 0.080825323338209187 0 0.21417903384012851 0.089681784001596584 0 0.20421382331402699 0.085799132928294913 0 0.21075845836444521 0.080825323338209187 0 0.20459465663306389 0.075413199534706252 0 0.20401329141316141 0.09772707970014316 0 0.20421382331402699 0.085799132928294913 0 0.21417903384012851 0.089681784001596584 0 0.21075845836444521 0.080825323338209187 0 0.21910817798694171 0.077707441660714527 0 0.2190538601915408 0.083629530281715062 0 0.21075845836444521 0.080825323338209187 0 0.21417903384012851 0.089681784001596584 0 0.2190538601915408 0.083629530281715062 0 0.21075845836444521 0.080825323338209187 0 0.21076989402921281 0.072834512564188353 0 0.21910817798694171 0.077707441660714527 0 0.20459465663306389 0.075413199534706252 0 0.2079370251637194 0.063574959316656507 0 0.19824815423876949 0.059229312269490519 0 0.20459465663306389 0.075413199534706252 0 0.21076989402921281 0.072834512564188353 0 0.2079370251637194 0.063574959316656507 0 0.21075845836444521 0.080825323338209187 0 0.20459465663306389 0.075413199534706252 0 0.21076989402921281 0.072834512564188353 0 0.21076989402921281 0.072834512564188353 0 0.2079370251637194 0.063574959316656507 0 0.21750422472257089 0.060693232679560033 0 0.21076989402921281 0.072834512564188353 0 0.2317763506173883 0.070469666349413873 0 0.21750422472257089 0.060693232679560033 0 0.21076989402921281 0.072834512564188353 0 0.2317763506173883 0.070469666349413873 0 0.21076989402921281 0.072834512564188353 0 0.21910817798694171 0.077707441660714527 0 0.2317763506173883 0.070469666349413873 0 0.21910817798694171 0.077707441660714527 0 0.2317763506173883 0.070469666349413873 0 0.2251045862400721 0.080690300403073859 0 0.2317763506173883 0.070469666349413873 0 0.2251045862400721 0.080690300403073859 0 0.23469541112399639 0.082824935179524009 0 0.2317763506173883 0.070469666349413873 0 0.23705084509663371 0.069875878994001078 0 0.2342600999007072 0.056676391454240527 0 0.2171764954410946 0.098730601544123303 0 0.21417903384012851 0.089681784001596584 0 0.22611904452611661 0.08924280200498115 0 0.21417903384012851 0.089681784001596584 0 0.22611904452611661 0.08924280200498115 0 0.2190538601915408 0.083629530281715062 0 0.22611904452611661 0.08924280200498115 0 0.2190538601915408 0.083629530281715062 0 0.2251045862400721 0.080690300403073859 0 0.21910817798694171 0.077707441660714527 0 0.2190538601915408 0.083629530281715062 0 0.2251045862400721 0.080690300403073859 0 0.22611904452611661 0.08924280200498115 0 0.2251045862400721 0.080690300403073859 0 0.23469541112399639 0.082824935179524009 0 0.23421162738047999 0.098337851349328723 0 0.22611904452611661 0.08924280200498115 0 0.2400937798509388 0.091047896406912771 0 0.22611904452611661 0.08924280200498115 0 0.2400937798509388 0.091047896406912771 0 0.23469541112399639 0.082824935179524009 0 0.24836659557551041 0.068601984485663847 0 0.25063733322697929 0.089584501491996815 0 0.2317763506173883 0.070469666349413873 0 0.2400937798509388 0.091047896406912771 0 0.2317763506173883 0.070469666349413873 0 0.2400937798509388 0.091047896406912771 0 0.23469541112399639 0.082824935179524009 0 0.24220815039204899 0.094268570625236053 0 0.23705084509663371 0.069875878994001078 0 0.24220815039204899 0.094268570625236053 0 0.2400937798509388 0.091047896406912771 0 0.23705084509663371 0.069875878994001078 0 0.24220815039204899 0.094268570625236053 0 0.23705084509663371 0.069875878994001078 0 0.25063733322697929 0.089584501491996815 0 0.2400937798509388 0.091047896406912771 0 0.23469541112399639 0.082824935179524009 0 0.24220815039204899 0.094268570625236053 0 0.2400937798509388 0.091047896406912771 0 0.2317763506173883 0.070469666349413873 0 0.2400937798509388 0.091047896406912771 0 0.23705084509663371 0.069875878994001078 0 0.23705084509663371 0.069875878994001078 0 0.24836659557551041 0.068601984485663847 0 0.25063733322697929 0.089584501491996815 0 0.23705084509663371 0.069875878994001078 0 0.24157699383920739 0.061928356184381868 0 0.2342600999007072 0.056676391454240527 0 0.23705084509663371 0.069875878994001078 0 0.2342600999007072 0.056676391454240527 0 0.2317763506173883 0.070469666349413873 0 0.23705084509663371 0.069875878994001078 0 0.23705084509663371 0.069875878994001078 0 0.24836659557551041 0.068601984485663847 0 0.24157699383920739 0.061928356184381868 0 0.23705084509663371 0.069875878994001078 0 0.24836659557551041 0.068601984485663847 0 0.24836659557551041 0.068601984485663847 0 0.24663043478397831 0.052559169803622047 0 0.24663043478397831 0.052559169803622047 0 0.24489427399244509 0.036516355121580267 0 0.25457971593027778 0.051664262690178549 0 0.24836659557551041 0.068601984485663847 0 0.24663043478397831 0.052559169803622047 0 0.25457971593027778 0.051664262690178549 0 0.24836659557551041 0.068601984485663847 0 0.24157699383920739 0.061928356184381868 0 0.24663043478397831 0.052559169803622047 0 0.24157699383920739 0.061928356184381868 0 0.24663043478397831 0.052559169803622047 0 0.2342600999007072 0.056676391454240527 0 0.24663043478397831 0.052559169803622047 0 0.23633761963771999 0.046039545131455403 0 0.2342600999007072 0.056676391454240527 0 0.24663043478397831 0.052559169803622047 0 0.24489427399244509 0.036516355121580267 0 0.24489427399244509 0.036516355121580267 0 0.25457971593027778 0.051664262690178549 0 0.24663043478397831 0.052559169803622047 0 0.24489427399244509 0.036516355121580267 0 0.23633761963771999 0.046039545131455403 0 0.24489427399244509 0.036516355121580267 0 0.24404331518253539 0.028653158028272011 0 0.24489427399244509 0.036516355121580267 0 0.23348855382062619 0.037137802650285608 0 0.2388387810225383 0.027045641407193649 0 0.24489427399244509 0.036516355121580267 0 0.2388387810225383 0.027045641407193649 0 0.24489427399244509 0.036516355121580267 0 0.23633761963771999 0.046039545131455403 0 0.23348855382062619 0.037137802650285608 0 0.23633761963771999 0.046039545131455403 0 0.23348855382062619 0.037137802650285608 0 0.22241473569084411 0.047308006627548013 0 0.2239596225888108 0.032505262246022348 0 0.22241473569084411 0.047308006627548013 0 0.213053120764299 0.0241463469056824 0 0.23348855382062619 0.037137802650285608 0 0.2239596225888108 0.032505262246022348 0 0.2388387810225383 0.027045641407193649 0 0.23348855382062619 0.037137802650285608 0 0.2239596225888108 0.032505262246022348 0 0.22241473569084411 0.047308006627548013 0 0.2317763506173883 0.070469666349413873 0 0.22241473569084411 0.047308006627548013 0 0.21750422472257089 0.060693232679560033 0 0.2317763506173883 0.070469666349413873 0 0.22241473569084411 0.047308006627548013 0 0.2342600999007072 0.056676391454240527 0 0.2317763506173883 0.070469666349413873 0 0.22241473569084411 0.047308006627548013 0 0.23633761963771999 0.046039545131455403 0 0.22241473569084411 0.047308006627548013 0 0.2342600999007072 0.056676391454240527 0 0.24309806245284821 0.019918647697235219 0 0.25553208938618721 -0.0013776190420226519 0 0.2398563832727337 -0.01003575433678397 0 0.24309806245284821 0.019918647697235219 0 0.23215501359869661 0.016592314465984841 0 0.2398563832727337 -0.01003575433678397 0 0.24309806245284821 0.019918647697235219 0 0.2398563832727337 -0.01003575433678397 0 0.24309806245284821 0.019918647697235219 0 0.2388387810225383 0.027045641407193649 0 0.23215501359869661 0.016592314465984841 0 0.24309806245284821 0.019918647697235219 0 0.23215501359869661 0.016592314465984841 0 0.2388387810225383 0.027045641407193649 0 0.23215501359869661 0.016592314465984841 0 0.24309806245284821 0.019918647697235219 0 0.24404331518253539 0.028653158028272011 0 0.24489427399244509 0.036516355121580267 0 0.24404331518253539 0.028653158028272011 0 0.2388387810225383 0.027045641407193649 0 0.24309806245284821 0.019918647697235219 0 0.24404331518253539 0.028653158028272011 0 0.2388387810225383 0.027045641407193649 0 0.24404331518253539 0.028653158028272011 0 0.2388387810225383 0.027045641407193649 0 0.2239596225888108 0.032505262246022348 0 0.2388387810225383 0.027045641407193649 0 0.2186571888052094 0.020812183439209219 0 0.2388387810225383 0.027045641407193649 0 0.23215501359869661 0.016592314465984841 0 0.2186571888052094 0.020812183439209219 0 0.2388387810225383 0.027045641407193649 0 0.2186571888052094 0.020812183439209219 0 0.23215501359869661 0.016592314465984841 0 0.2223875119791916 0.0013160666026401609 0 0.20412664092080501 0.0080725948979577054 0 0.23215501359869661 0.016592314465984841 0 0.2223875119791916 0.0013160666026401609 0 0.2398563832727337 -0.01003575433678397 0 0.23215501359869661 0.016592314465984841 0 0.2223875119791916 0.0013160666026401609 0 0.23215501359869661 0.016592314465984841 0 0.20412664092080501 0.0080725948979577054 0 0.2186571888052094 0.020812183439209219 0 0.20412664092080501 0.0080725948979577054 0 0.2186571888052094 0.020812183439209219 0 0.19847559658787919 0.01457872547122915 0 0.2223875119791916 0.0013160666026401609 0 0.20412664092080501 0.0080725948979577054 0 0.20249880444610649 -0.0077151405049489634 0 0.23215501359869661 0.016592314465984841 0 0.20412664092080501 0.0080725948979577054 0 0.2186571888052094 0.020812183439209219 0 0.19847559658787919 0.01457872547122915 0 0.2186571888052094 0.020812183439209219 0 0.213053120764299 0.0241463469056824 0 0.19847559658787919 0.01457872547122915 0 0.213053120764299 0.0241463469056824 0 0.20220346301487521 0.02478802704286286 0 0.19847559658787919 0.01457872547122915 0 0.2239596225888108 0.032505262246022348 0 0.2186571888052094 0.020812183439209219 0 0.213053120764299 0.0241463469056824 0 0.213053120764299 0.0241463469056824 0 0.20220346301487521 0.02478802704286286 0 0.20639753079222001 0.034814822251558547 0 0.20220346301487521 0.02478802704286286 0 0.19847559658787919 0.01457872547122915 0 0.1850978281075161 0.025695346253758539 0 0.20220346301487521 0.02478802704286286 0 0.19611385417724059 0.032854012414500741 0 0.1850978281075161 0.025695346253758539 0 0.20220346301487521 0.02478802704286286 0 0.20639753079222001 0.034814822251558547 0 0.19611385417724059 0.032854012414500741 0 0.20412664092080501 0.0080725948979577054 0 0.19847559658787919 0.01457872547122915 0 0.17829400437055029 0.0083452675032448694 0 0.20412664092080501 0.0080725948979577054 0 0.176098268242915 -0.00044712467007468202 0 0.19847559658787919 0.01457872547122915 0 0.17829400437055029 0.0083452675032448694 0 0.2079370251637194 0.063574959316656507 0 0.20856819619497979 0.049704539535337461 0 0.19824815423876949 0.059229312269490519 0 0.2079370251637194 0.063574959316656507 0 0.20856819619497979 0.049704539535337461 0 0.21750422472257089 0.060693232679560033 0 0.22241473569084411 0.047308006627548013 0 0.20856819619497979 0.049704539535337461 0 0.21750422472257089 0.060693232679560033 0 0.22241473569084411 0.047308006627548013 0 0.20856819619497979 0.049704539535337461 0 0.21260839586058569 0.038993428830031603 0 0.22241473569084411 0.047308006627548013 0 0.213053120764299 0.0241463469056824 0 0.22241473569084411 0.047308006627548013 0 0.213053120764299 0.0241463469056824 0 0.21260839586058569 0.038993428830031603 0 0.213053120764299 0.0241463469056824 0 0.21260839586058569 0.038993428830031603 0 0.20639753079222001 0.034814822251558547 0 0.20856819619497979 0.049704539535337461 0 0.21260839586058569 0.038993428830031603 0 0.20639753079222001 0.034814822251558547 0 0.19611385417724059 0.032854012414500741 0 0.19190165184447511 0.043045425004274877 0 0.1850978281075161 0.025695346253758539 0 0.19190165184447511 0.043045425004274877 0 0.1850978281075161 0.025695346253758539 0 0.20856819619497979 0.049704539535337461 0 0.20639753079222001 0.034814822251558547 0 0.19190165184447511 0.043045425004274877 0 0.20639753079222001 0.034814822251558547 0 0.19190165184447511 0.043045425004274877 0 0.20639753079222001 0.034814822251558547 0 0.19611385417724059 0.032854012414500741 0 0.19190165184447511 0.043045425004274877 0 0.19190165184447511 0.043045425004274877 0 0.19824815423876949 0.059229312269490519 0 0.20856819619497979 0.049704539535337461 0 0.19190165184447511 0.043045425004274877 0 0.19824815423876949 0.059229312269490519 0 0.19190165184447511 0.043045425004274877 0 0.19824815423876949 0.059229312269490519 0 0.18478247490018221 0.062070269908806742 0 0.19190165184447511 0.043045425004274877 0 0.1756678420095294 0.052262806054174167 0 0.19190165184447511 0.043045425004274877 0 0.18478247490018221 0.062070269908806742 0 0.1756678420095294 0.052262806054174167 0 0.18478247490018221 0.062070269908806742 0 0.1756678420095294 0.052262806054174167 0 0.1709017051045994 0.06702563535082591 0 0.19190165184447511 0.043045425004274877 0 0.17746540207523001 0.036569201694493431 0 0.1850978281075161 0.025695346253758539 0 0.19190165184447511 0.043045425004274877 0 0.1756678420095294 0.052262806054174167 0 0.17746540207523001 0.036569201694493431 0 0.1756678420095294 0.052262806054174167 0 0.17746540207523001 0.036569201694493431 0 0.16252521118751409 0.032954869513934899 0 0.16252521118751409 0.032954869513934899 0 0.15943403217458371 0.061480187104073367 0 0.1756678420095294 0.052262806054174167 0 0.15943403217458371 0.061480187104073367 0 0.1756678420095294 0.052262806054174167 0 0.15943403217458371 0.061480187104073367 0 0.1709017051045994 0.06702563535082591 0 0.1756678420095294 0.052262806054174167 0 0.16252521118751409 0.032954869513934899 0 0.15943403217458371 0.061480187104073367 0 0.17829400437055029 0.0083452675032448694 0 0.17286122327448711 0.01145727422694821 0 0.1850978281075161 0.025695346253758539 0 0.20412664092080501 0.0080725948979577054 0 0.17829400437055029 0.0083452675032448694 0 0.176098268242915 -0.00044712467007468202 0 0.17558552507299821 0.001438514635507832 0 0.17406280812854291 0.007038384297765184 0 0.1722977414487197 -0.001602362002945532 0 0.17558552507299821 0.001438514635507832 0 0.17829400437055029 0.0083452675032448694 0 0.176098268242915 -0.00044712467007468202 0 0.17558552507299821 0.001438514635507832 0 0.176098268242915 -0.00044712467007468202 0 0.1746766099161994 -0.00087926286104425154 0 0.17558552507299821 0.001438514635507832 0 0.1746766099161994 -0.00087926286104425154 0 0.17558552507299821 0.001438514635507832 0 0.17406280812854291 0.007038384297765184 0 0.17406280812854291 0.007038384297765184 0 0.17829400437055029 0.0083452675032448694 0 0.17558552507299821 0.001438514635507832 0 0.17406280812854291 0.007038384297765184 0 0.17829400437055029 0.0083452675032448694 0 0.17558552507299821 0.001438514635507832 0 0.17829400437055029 0.0083452675032448694 0 0.17558552507299821 0.001438514635507832 0 0.176098268242915 -0.00044712467007468202 0 0.17406280812854291 0.007038384297765184 0 0.17286122327448711 0.01145727422694821 0 0.17406280812854291 0.007038384297765184 0 0.17829400437055029 0.0083452675032448694 0 0.17286122327448711 0.01145727422694821 0 0.17829400437055029 0.0083452675032448694 0 0.1850978281075161 0.025695346253758539 0 0.19847559658787919 0.01457872547122915 0 0.17829400437055029 0.0083452675032448694 0 0.1850978281075161 0.025695346253758539 0 0.17286122327448711 0.01145727422694821 0 0.17269006161936279 0.02248790123953574 0 0.1850978281075161 0.025695346253758539 0 0.17746540207523001 0.036569201694493431 0 0.17269006161936279 0.02248790123953574 0 0.1850978281075161 0.025695346253758539 0 0.16252521118751409 0.032954869513934899 0 0.16561639020045121 0.0044295519237971476 0 0.16252521118751409 0.032954869513934899 0 0.17269006161936279 0.02248790123953574 0 0.16561639020045121 0.0044295519237971476 0 0.16252521118751409 0.032954869513934899 0 0.16561639020045121 0.0044295519237971476 0 0.15186748624587329 0.010489784815424039 0 0.17746540207523001 0.036569201694493431 0 0.16252521118751409 0.032954869513934899 0 0.17269006161936279 0.02248790123953574 0 0.17286122327448711 0.01145727422694821 0 0.17269006161936279 0.02248790123953574 0 0.16561639020045121 0.0044295519237971476 0 0.17406280812854291 0.007038384297765184 0 0.17286122327448711 0.01145727422694821 0 0.16561639020045121 0.0044295519237971476 0 0.17406280812854291 0.007038384297765184 0 0.16561639020045121 0.0044295519237971476 0 0.17406280812854291 0.007038384297765184 0 0.16561639020045121 0.0044295519237971476 0 0.1722977414487197 -0.001602362002945532 0 0.16561639020045121 0.0044295519237971476 0 0.14393099360992739 -0.0022683838342123751 0 0.15186748624587329 0.010489784815424039 0 0.13820679463129781 0.016746324375313041 0 0.14393099360992739 -0.0022683838342123751 0 0.13820679463129781 0.016746324375313041 0 0.14393099360992739 -0.0022683838342123751 0 0.16561639020045121 0.0044295519237971476 0 0.15186748624587329 0.010489784815424039 0 0.14393099360992739 -0.0022683838342123751 0 0.16252521118751409 0.032954869513934899 0 0.15186748624587329 0.010489784815424039 0 0.13820679463129781 0.016746324375313041 0 0.16252521118751409 0.032954869513934899 0 0.13820679463129781 0.016746324375313041 0 0.13248259565266821 0.03576103258483844 0 0.13820679463129781 0.016746324375313041 0 0.13248259565266821 0.03576103258483844 0 0.11912791584579099 0.021890622206355469 0 0.13820679463129781 0.016746324375313041 0 0.13248259565266821 0.03576103258483844 0 0.11912791584579099 0.021890622206355469 0 0.13820679463129781 0.016746324375313041 0 0.12560896974666211 0.006708581279863849 0 0.13820679463129781 0.016746324375313041 0 0.12560896974666211 0.006708581279863849 0 0.14393099360992739 -0.0022683838342123751 0 0.16252521118751409 0.032954869513934899 0 0.15943403217458371 0.061480187104073367 0 0.1433705203251576 0.051845868149007483 0 0.16252521118751409 0.032954869513934899 0 0.1433705203251576 0.051845868149007483 0 0.13248259565266821 0.03576103258483844 0 0.1433705203251576 0.051845868149007483 0 0.12523879298014851 0.056099992436855768 0 0.13683844314533219 0.074309717340481612 0 0.1433705203251576 0.051845868149007483 0 0.13248259565266821 0.03576103258483844 0 0.12523879298014851 0.056099992436855768 0 0.12329350323917471 0.079793773268369783 0 0.12523879298014851 0.056099992436855768 0 0.13683844314533219 0.074309717340481612 0 0.15943403217458371 0.061480187104073367 0 0.13683844314533219 0.074309717340481612 0 0.15943403217458371 0.061480187104073367 0 0.13683844314533219 0.074309717340481612 0 0.1583746129684519 0.071256479318011351 0 0.15943403217458371 0.061480187104073367 0 0.1433705203251576 0.051845868149007483 0 0.13683844314533219 0.074309717340481612 0 0.13683844314533219 0.074309717340481612 0 0.154678264892778 0.084578290061213993 0 0.1583746129684519 0.071256479318011351 0 0.13683844314533219 0.074309717340481612 0 0.154678264892778 0.084578290061213993 0 0.1401354701707771 0.089503908978955368 0 0.154678264892778 0.084578290061213993 0 0.1401354701707771 0.089503908978955368 0 0.1532046989080543 0.098276999814770186 0 0.12329350323917471 0.079793773268369783 0 0.13683844314533219 0.074309717340481612 0 0.1401354701707771 0.089503908978955368 0 0.12329350323917471 0.079793773268369783 0 0.1401354701707771 0.089503908978955368 0 0.12674924125119019 0.095131724466652676 0 0.1401354701707771 0.089503908978955368 0 0.13909979735648559 0.1058596695021239 0 0.12674924125119019 0.095131724466652676 0 0.1153882548746023 0.11406416530876221 0 0.13909979735648559 0.1058596695021239 0 0.12674924125119019 0.095131724466652676 0 0.1153882548746023 0.11406416530876221 0 0.13906236907489311 0.1227664384019148 0 0.1153882548746023 0.11406416530876221 0 0.13909979735648559 0.1058596695021239 0 0.13906236907489311 0.1227664384019148 0 0.13909979735648559 0.1058596695021239 0 0.13906236907489311 0.1227664384019148 0 0.1598214820157797 0.11192352955611209 0 0.16273648327518531 0.1314687114950632 0 0.13906236907489311 0.1227664384019148 0 0.1598214820157797 0.11192352955611209 0 0.1401354701707771 0.089503908978955368 0 0.13909979735648559 0.1058596695021239 0 0.1532046989080543 0.098276999814770186 0 0.13909979735648559 0.1058596695021239 0 0.1532046989080543 0.098276999814770186 0 0.1598214820157797 0.11192352955611209 0 0.16455060433720689 0.09763484161442354 0 0.1598214820157797 0.11192352955611209 0 0.17832079561210681 0.1023419505714787 0 0.1532046989080543 0.098276999814770186 0 0.16455060433720689 0.09763484161442354 0 0.1598214820157797 0.11192352955611209 0 0.16455060433720689 0.09763484161442354 0 0.17832079561210681 0.1023419505714787 0 0.1706918368688376 0.086812397436691599 0 0.16273648327518531 0.1314687114950632 0 0.1598214820157797 0.11192352955611209 0 0.18063658850208941 0.1222018208015781 0 0.19409589706477179 0.10990438100858201 0 0.18063658850208941 0.1222018208015781 0 0.17832079561210681 0.1023419505714787 0 0.1598214820157797 0.11192352955611209 0 0.18063658850208941 0.1222018208015781 0 0.17832079561210681 0.1023419505714787 0 0.19096039417364299 0.098610421150748889 0 0.17832079561210681 0.1023419505714787 0 0.18488559605944721 0.08935672582496075 0 0.17832079561210681 0.1023419505714787 0 0.18488559605944721 0.08935672582496075 0 0.1706918368688376 0.086812397436691599 0 0.18488559605944721 0.08935672582496075 0 0.18062002381246081 0.075419410499399542 0 0.1706918368688376 0.086812397436691599 0 0.18062002381246081 0.075419410499399542 0 0.16678245524026131 0.076499402251521464 0 0.1706918368688376 0.086812397436691599 0 0.19402745569700611 0.080591506542501384 0 0.18488559605944721 0.08935672582496075 0 0.18062002381246081 0.075419410499399542 0 0.1924545530562965 0.070544739750980884 0 0.18478247490018221 0.062070269908806742 0 0.18062002381246081 0.075419410499399542 0 0.18478247490018221 0.062070269908806742 0 0.18062002381246081 0.075419410499399542 0 0.1709017051045994 0.06702563535082591 0 0.18062002381246081 0.075419410499399542 0 0.16678245524026131 0.076499402251521464 0 0.1709017051045994 0.06702563535082591 0 0.16678245524026131 0.076499402251521464 0 0.1709017051045994 0.06702563535082591 0 0.1583746129684519 0.071256479318011351 0 0.15943403217458371 0.061480187104073367 0 0.1709017051045994 0.06702563535082591 0 0.1583746129684519 0.071256479318011351 0 0.15943403217458371 0.061480187104073367 0 0.1583746129684519 0.071256479318011351 0 0.154678264892778 0.084578290061213993 0 0.16678245524026131 0.076499402251521464 0 0.1583746129684519 0.071256479318011351 0 0.154678264892778 0.084578290061213993 0 0.16455060433720689 0.09763484161442354 0 0.1706918368688376 0.086812397436691599 0 0.154678264892778 0.084578290061213993 0 0.16678245524026131 0.076499402251521464 0 0.1706918368688376 0.086812397436691599 0 0.154678264892778 0.084578290061213993 0 0.1532046989080543 0.098276999814770186 0 0.16455060433720689 0.09763484161442354 0 0.1114679018772977 0.47555343694205993 0 0.090380744060808066 0.45874755149091923 0 0.089592392725499681 0.48272292135831341 0 0.1035357884030581 0.5 0 0.1114679018772977 0.47555343694205993 0 0.089592392725499681 0.48272292135831341 0 0.1035357884030581 0.5 0 0.1182714907461903 0.49136800726342761 0 0.1114679018772977 0.47555343694205993 0 0.1182714907461903 0.49136800726342761 0 0.1114679018772977 0.47555343694205993 0 0.13255505969378639 0.49235932239320163 0 0.1035357884030581 0.5 0 0.1182714907461903 0.49136800726342761 0 0.13190281240286289 0.50000000000000122 0 0.1114679018772977 0.47555343694205993 0 0.13255505969378639 0.49235932239320163 0 0.1114679018772977 0.47555343694205993 0 0.1175752565903728 0.45915556117090839 0 0.13453873743299979 0.46912175239158371 0 0.1175752565903728 0.45915556117090839 0 0.1106178521503243 0.4434495837530355 0 0.13652241517221581 0.44588418238996608 0 0.1106178521503243 0.4434495837530355 0 0.1220147220059139 0.43030719654274052 0 0.13652241517221581 0.44588418238996608 0 0.1106178521503243 0.4434495837530355 0 0.090380744060808066 0.45874755149091923 0 0.089147498321931806 0.43888527543225841 0 0.1114679018772977 0.47555343694205993 0 0.1175752565903728 0.45915556117090839 0 0.090380744060808066 0.45874755149091923 0 0.1114679018772977 0.47555343694205993 0 0.090380744060808066 0.45874755149091923 0 0.1175752565903728 0.45915556117090839 0 0.1106178521503243 0.4434495837530355 0 0.090380744060808066 0.45874755149091923 0 0.090380744060808066 0.45874755149091923 0 0.089147498321931806 0.43888527543225841 0 0.069290140376546641 0.45154881743898218 0 0.089147498321931806 0.43888527543225841 0 0.069290140376546641 0.45154881743898218 0 0.070104708433487165 0.43310573751409859 0 0.069290140376546641 0.45154881743898218 0 0.050080943101297418 0.44007535669375653 0 0.070104708433487165 0.43310573751409859 0 0.090380744060808066 0.45874755149091923 0 0.069290140376546641 0.45154881743898218 0 0.065375215768867262 0.47652014296315948 0 0.090380744060808066 0.45874755149091923 0 0.065375215768867262 0.47652014296315948 0 0.089592392725499681 0.48272292135831341 0 0.1035357884030581 0.5 0 0.089592392725499681 0.48272292135831341 0 0.075168764403253263 0.5 0 0.065375215768867262 0.47652014296315948 0 0.089592392725499681 0.48272292135831341 0 0.075168764403253263 0.5 0 0.065375215768867262 0.47652014296315948 0 0.034206523404504502 0.47883775367945769 0 0.046801740403448373 0.5 0 0.065375215768867262 0.47652014296315948 0 0.075168764403253263 0.5 0 0.046801740403448373 0.5 0 0.065375215768867262 0.47652014296315948 0 0.034206523404504502 0.47883775367945769 0 0.050651732572888138 0.46195884053970132 0 0.034206523404504502 0.47883775367945769 0 0.046801740403448373 0.5 0 0.018434716403643529 0.5 0 -0.0083367107648278493 0.47804354545789629 0 0.018434716403643529 0.5 0 0.01145499106498408 0.46472717460465918 0 0.034206523404504502 0.47883775367945769 0 0.018434716403643529 0.5 0 0.01145499106498408 0.46472717460465918 0 -0.0099323075961611496 0.5 0 -0.0083367107648278493 0.47804354545789629 0 0.018434716403643529 0.5 0 -0.0014214974804462269 0.44051859902314672 0 0.01145499106498408 0.46472717460465918 0 0.02325775338752914 0.43922092676102148 0 0.034206523404504502 0.47883775367945769 0 0.01145499106498408 0.46472717460465918 0 0.032452651645717472 0.45800111441104119 0 0.01145499106498408 0.46472717460465918 0 0.02325775338752914 0.43922092676102148 0 0.032452651645717472 0.45800111441104119 0 0.02325775338752914 0.43922092676102148 0 0.032452651645717472 0.45800111441104119 0 0.050080943101297418 0.44007535669375653 0 0.034206523404504502 0.47883775367945769 0 0.032452651645717472 0.45800111441104119 0 0.050651732572888138 0.46195884053970132 0 0.032452651645717472 0.45800111441104119 0 0.050651732572888138 0.46195884053970132 0 0.050080943101297418 0.44007535669375653 0 0.069290140376546641 0.45154881743898218 0 0.065375215768867262 0.47652014296315948 0 0.050651732572888138 0.46195884053970132 0 0.069290140376546641 0.45154881743898218 0 0.050651732572888138 0.46195884053970132 0 0.050080943101297418 0.44007535669375653 0 0.050080943101297418 0.44007535669375653 0 0.062409819885690977 0.41645711764782811 0 0.070104708433487165 0.43310573751409859 0 0.050080943101297418 0.44007535669375653 0 0.062409819885690977 0.41645711764782811 0 0.040771906895470111 0.41867635780762541 0 0.062409819885690977 0.41645711764782811 0 0.040771906895470111 0.41867635780762541 0 0.058286060403411048 0.3981317888542294 0 0.040771906895470111 0.41867635780762541 0 0.058286060403411048 0.3981317888542294 0 0.02325775338752914 0.43922092676102148 0 0.040771906895470111 0.41867635780762541 0 0.02325775338752914 0.43922092676102148 0 0.050080943101297418 0.44007535669375653 0 0.040771906895470111 0.41867635780762541 0 0.02325775338752914 0.43922092676102148 0 0.040771906895470111 0.41867635780762541 0 0.015146202786797401 0.4172473016814966 0 0.040771906895470111 0.41867635780762541 0 0.015146202786797401 0.4172473016814966 0 0.031509671571401512 0.39178157989334078 0 -0.0097128342867564173 0.41684450137468382 0 0.015146202786797401 0.4172473016814966 0 0.0064722166335862566 0.39644184522916132 0 -0.0097128342867564173 0.41684450137468382 0 -0.0014214974804462269 0.44051859902314672 0 0.015146202786797401 0.4172473016814966 0 -0.0014214974804462269 0.44051859902314672 0 0.02325775338752914 0.43922092676102148 0 0.015146202786797401 0.4172473016814966 0 -0.0014469214343290631 0.38164885239551077 0 0.0064722166335862566 0.39644184522916132 0 0.01812645066153017 0.37165638286868391 0 0.015146202786797401 0.4172473016814966 0 0.0064722166335862566 0.39644184522916132 0 0.031509671571401512 0.39178157989334078 0 0.0064722166335862566 0.39644184522916132 0 0.031509671571401512 0.39178157989334078 0 0.01812645066153017 0.37165638286868391 0 0.031509671571401512 0.39178157989334078 0 0.033014453288406027 0.37086781174826239 0 0.01812645066153017 0.37165638286868391 0 0.031509671571401512 0.39178157989334078 0 0.058286060403411048 0.3981317888542294 0 0.048926510809889683 0.37241516112478418 0 0.031509671571401512 0.39178157989334078 0 0.048926510809889683 0.37241516112478418 0 0.033014453288406027 0.37086781174826239 0 0.040771906895470111 0.41867635780762541 0 0.031509671571401512 0.39178157989334078 0 0.058286060403411048 0.3981317888542294 0 0.058286060403411048 0.3981317888542294 0 0.063597182622615572 0.3685903354090434 0 0.048926510809889683 0.37241516112478418 0 0.058286060403411048 0.3981317888542294 0 0.075800213911351971 0.37758721990083333 0 0.058286060403411048 0.3981317888542294 0 0.075800213911351971 0.37758721990083333 0 0.063597182622615572 0.3685903354090434 0 0.075800213911351971 0.37758721990083333 0 0.083545588957323169 0.39021264911705722 0 0.072870840405950252 0.40040809525284859 0 0.075800213911351971 0.37758721990083333 0 0.083545588957323169 0.39021264911705722 0 0.093170608208021533 0.37435013923606081 0 0.083545588957323169 0.39021264911705722 0 0.072870840405950252 0.40040809525284859 0 0.080751753334416393 0.41288962520541439 0 0.083545588957323169 0.39021264911705722 0 0.080751753334416393 0.41288962520541439 0 0.1035469982471133 0.40232345871580971 0 0.058286060403411048 0.3981317888542294 0 0.075800213911351971 0.37758721990083333 0 0.072870840405950252 0.40040809525284859 0 0.062409819885690977 0.41645711764782811 0 0.058286060403411048 0.3981317888542294 0 0.072870840405950252 0.40040809525284859 0 0.062409819885690977 0.41645711764782811 0 0.070104708433487165 0.43310573751409859 0 0.080751753334416393 0.41288962520541439 0 0.062409819885690977 0.41645711764782811 0 0.072870840405950252 0.40040809525284859 0 0.080751753334416393 0.41288962520541439 0 0.089147498321931806 0.43888527543225841 0 0.080751753334416393 0.41288962520541439 0 0.10451148276187799 0.42427844177847629 0 0.089147498321931806 0.43888527543225841 0 0.070104708433487165 0.43310573751409859 0 0.080751753334416393 0.41288962520541439 0 0.080751753334416393 0.41288962520541439 0 0.10451148276187799 0.42427844177847629 0 0.1035469982471133 0.40232345871580971 0 0.10451148276187799 0.42427844177847629 0 0.1199157670337196 0.41527716240387608 0 0.1035469982471133 0.40232345871580971 0 0.1106178521503243 0.4434495837530355 0 0.089147498321931806 0.43888527543225841 0 0.10451148276187799 0.42427844177847629 0 0.1106178521503243 0.4434495837530355 0 0.10451148276187799 0.42427844177847629 0 0.1220147220059139 0.43030719654274052 0 0.10451148276187799 0.42427844177847629 0 0.1220147220059139 0.43030719654274052 0 0.1199157670337196 0.41527716240387608 0 0.109003721466569 0.38042652565336937 0 0.1035469982471133 0.40232345871580971 0 0.1303225307147719 0.39762133201488681 0 0.1199157670337196 0.41527716240387608 0 0.1035469982471133 0.40232345871580971 0 0.1303225307147719 0.39762133201488681 0 0.109003721466569 0.38042652565336937 0 0.13446185397581251 0.37064040218967581 0 0.1303225307147719 0.39762133201488681 0 0.109003721466569 0.38042652565336937 0 0.13446185397581251 0.37064040218967581 0 0.083545588957323169 0.39021264911705722 0 0.109003721466569 0.38042652565336937 0 0.083545588957323169 0.39021264911705722 0 0.109003721466569 0.38042652565336937 0 0.093170608208021533 0.37435013923606081 0 0.083545588957323169 0.39021264911705722 0 0.109003721466569 0.38042652565336937 0 0.1035469982471133 0.40232345871580971 0 0.1055789423934734 0.34551029896197599 0 0.11082852092723371 0.3364980819940413 0 0.093314367419292887 0.35704265094743731 0 0.1055789423934734 0.34551029896197599 0 0.10421760753440019 0.36308099307493358 0 0.093314367419292887 0.35704265094743731 0 0.11082852092723371 0.3364980819940413 0 0.093314367419292887 0.35704265094743731 0 0.11082852092723371 0.3364980819940413 0 0.095681915737604636 0.33772203470258422 0 0.093314367419292887 0.35704265094743731 0 0.109003721466569 0.38042652565336937 0 0.10421760753440019 0.36308099307493358 0 0.093170608208021533 0.37435013923606081 0 0.10421760753440019 0.36308099307493358 0 0.093314367419292887 0.35704265094743731 0 0.093170608208021533 0.37435013923606081 0 0.109003721466569 0.38042652565336937 0 0.10421760753440019 0.36308099307493358 0 0.1200203981846439 0.35807535057582479 0 0.109003721466569 0.38042652565336937 0 0.1200203981846439 0.35807535057582479 0 0.13446185397581251 0.37064040218967581 0 0.1055789423934734 0.34551029896197599 0 0.10421760753440019 0.36308099307493358 0 0.1200203981846439 0.35807535057582479 0 0.1055789423934734 0.34551029896197599 0 0.1200203981846439 0.35807535057582479 0 0.1055789423934734 0.34551029896197599 0 0.1200203981846439 0.35807535057582479 0 0.1148553115694142 0.34597792176665432 0 0.1200203981846439 0.35807535057582479 0 0.1148553115694142 0.34597792176665432 0 0.12299338477230561 0.3438279555347753 0 0.12299338477230561 0.3438279555347753 0 0.11082852092723371 0.3364980819940413 0 0.1272326982138251 0.33200954742109617 0 0.11082852092723371 0.3364980819940413 0 0.128342674435175 0.31595351304064562 0 0.1272326982138251 0.33200954742109617 0 0.1148553115694142 0.34597792176665432 0 0.12299338477230561 0.3438279555347753 0 0.11082852092723371 0.3364980819940413 0 0.1055789423934734 0.34551029896197599 0 0.1148553115694142 0.34597792176665432 0 0.11082852092723371 0.3364980819940413 0 0.10771690946250941 0.32241259033443559 0 0.1119089700534909 0.30287863560863881 0 0.128342674435175 0.31595351304064562 0 0.11082852092723371 0.3364980819940413 0 0.10771690946250941 0.32241259033443559 0 0.128342674435175 0.31595351304064562 0 0.10771690946250941 0.32241259033443559 0 0.128342674435175 0.31595351304064562 0 0.11082852092723371 0.3364980819940413 0 0.128342674435175 0.31595351304064562 0 0.10771690946250941 0.32241259033443559 0 0.087091144489843592 0.32887166762822528 0 0.096525338941037847 0.30903682376336539 0 0.10771690946250941 0.32241259033443559 0 0.087091144489843592 0.32887166762822528 0 0.10771690946250941 0.32241259033443559 0 0.095681915737604636 0.33772203470258422 0 0.087091144489843592 0.32887166762822528 0 0.11082852092723371 0.3364980819940413 0 0.10771690946250941 0.32241259033443559 0 0.095681915737604636 0.33772203470258422 0 0.095681915737604636 0.33772203470258422 0 0.087091144489843592 0.32887166762822528 0 0.081098313388132545 0.3439710766308105 0 0.087091144489843592 0.32887166762822528 0 0.071702155167948881 0.33103602881007249 0 0.081098313388132545 0.3439710766308105 0 0.087091144489843592 0.32887166762822528 0 0.079157432204573663 0.31308071928520881 0 0.071702155167948881 0.33103602881007249 0 0.087091144489843592 0.32887166762822528 0 0.079157432204573663 0.31308071928520881 0 0.096525338941037847 0.30903682376336539 0 0.071702155167948881 0.33103602881007249 0 0.057087577013304067 0.33300182515964472 0 0.062191094941482963 0.31699759973241581 0 0.079157432204573663 0.31308071928520881 0 0.071702155167948881 0.33103602881007249 0 0.062191094941482963 0.31699759973241581 0 0.071702155167948881 0.33103602881007249 0 0.063587368970356467 0.35029328442413021 0 0.081098313388132545 0.3439710766308105 0 0.071702155167948881 0.33103602881007249 0 0.063587368970356467 0.35029328442413021 0 0.057087577013304067 0.33300182515964472 0 0.063587368970356467 0.35029328442413021 0 0.081098313388132545 0.3439710766308105 0 0.075151553862552067 0.3594597346580452 0 0.093314367419292887 0.35704265094743731 0 0.081098313388132545 0.3439710766308105 0 0.075151553862552067 0.3594597346580452 0 0.095681915737604636 0.33772203470258422 0 0.093314367419292887 0.35704265094743731 0 0.081098313388132545 0.3439710766308105 0 0.075800213911351971 0.37758721990083333 0 0.093314367419292887 0.35704265094743731 0 0.075800213911351971 0.37758721990083333 0 0.093314367419292887 0.35704265094743731 0 0.093170608208021533 0.37435013923606081 0 0.075800213911351971 0.37758721990083333 0 0.093314367419292887 0.35704265094743731 0 0.075151553862552067 0.3594597346580452 0 0.075800213911351971 0.37758721990083333 0 0.063597182622615572 0.3685903354090434 0 0.075151553862552067 0.3594597346580452 0 0.063587368970356467 0.35029328442413021 0 0.063597182622615572 0.3685903354090434 0 0.075151553862552067 0.3594597346580452 0 0.063587368970356467 0.35029328442413021 0 0.063597182622615572 0.3685903354090434 0 0.048926510809889683 0.37241516112478418 0 0.063587368970356467 0.35029328442413021 0 0.048926510809889683 0.37241516112478418 0 0.048697213608681067 0.34469808426469178 0 0.048926510809889683 0.37241516112478418 0 0.048697213608681067 0.34469808426469178 0 0.032508868561624008 0.35253093733834329 0 0.048926510809889683 0.37241516112478418 0 0.032508868561624008 0.35253093733834329 0 0.033014453288406027 0.37086781174826239 0 0.032508868561624008 0.35253093733834329 0 0.033014453288406027 0.37086781174826239 0 0.01812645066153017 0.37165638286868391 0 0.032508868561624008 0.35253093733834329 0 0.01812645066153017 0.37165638286868391 0 0.0097021146896513356 0.35957085831733793 0 0.032508868561624008 0.35253093733834329 0 0.012828837109675219 0.34589688876144931 0 0.0097021146896513356 0.35957085831733793 0 -0.0055851820357215674 0.34968689729223862 0 0.012828837109675219 0.34589688876144931 0 0.0097021146896513356 0.35957085831733793 0 -0.0034838820815913372 0.36744886831743617 0 -0.0055851820357215674 0.34968689729223862 0 0.0097021146896513356 0.35957085831733793 0 -0.0034838820815913372 0.36744886831743617 0 0.01812645066153017 0.37165638286868391 0 0.0097021146896513356 0.35957085831733793 0 -0.0034838820815913372 0.36744886831743617 0 0.01812645066153017 0.37165638286868391 0 -0.0034838820815913372 0.36744886831743617 0 -0.0014469214343290631 0.38164885239551077 0 0.01812645066153017 0.37165638286868391 0 -0.01092720094023128 0.31700858863921799 0 0.01006068730028371 0.31638405784929963 0 0.0035349958629163568 0.33250778778836237 0 0.01006068730028371 0.31638405784929963 0 0.0035349958629163568 0.33250778778836237 0 0.022049836325534221 0.3318132173795777 0 0.012828837109675219 0.34589688876144931 0 0.0035349958629163568 0.33250778778836237 0 0.022049836325534221 0.3318132173795777 0 -0.0055851820357215674 0.34968689729223862 0 0.012828837109675219 0.34589688876144931 0 0.0035349958629163568 0.33250778778836237 0 0.032508868561624008 0.35253093733834329 0 0.012828837109675219 0.34589688876144931 0 0.022049836325534221 0.3318132173795777 0 0.01006068730028371 0.31638405784929963 0 0.022049836325534221 0.3318132173795777 0 0.028540930057711082 0.31484876476342433 0 0.022049836325534221 0.3318132173795777 0 0.028540930057711082 0.31484876476342433 0 0.042375074668281547 0.32787004669796987 0 0.028540930057711082 0.31484876476342433 0 0.042375074668281547 0.32787004669796987 0 0.047218294387370699 0.30419562369656028 0 0.048697213608681067 0.34469808426469178 0 0.032508868561624008 0.35253093733834329 0 0.042375074668281547 0.32787004669796987 0 0.032508868561624008 0.35253093733834329 0 0.022049836325534221 0.3318132173795777 0 0.042375074668281547 0.32787004669796987 0 0.063587368970356467 0.35029328442413021 0 0.048697213608681067 0.34469808426469178 0 0.057087577013304067 0.33300182515964472 0 0.048697213608681067 0.34469808426469178 0 0.042375074668281547 0.32787004669796987 0 0.057087577013304067 0.33300182515964472 0 0.042375074668281547 0.32787004669796987 0 0.062191094941482963 0.31699759973241581 0 0.047218294387370699 0.30419562369656028 0 0.042375074668281547 0.32787004669796987 0 0.057087577013304067 0.33300182515964472 0 0.062191094941482963 0.31699759973241581 0 0.062191094941482963 0.31699759973241581 0 0.047218294387370699 0.30419562369656028 0 0.069772193016478051 0.29836080324935199 0 0.057134818055213261 0.28559230467768509 0 0.039683236338569877 0.2863800386901017 0 0.050657523718058331 0.2732833102326187 0 0.047218294387370699 0.30419562369656028 0 0.057134818055213261 0.28559230467768509 0 0.039683236338569877 0.2863800386901017 0 0.047218294387370699 0.30419562369656028 0 0.057134818055213261 0.28559230467768509 0 0.069772193016478051 0.29836080324935199 0 0.047218294387370699 0.30419562369656028 0 0.039683236338569877 0.2863800386901017 0 0.030701457623918751 0.29860194286490199 0 0.028540930057711082 0.31484876476342433 0 0.047218294387370699 0.30419562369656028 0 0.030701457623918751 0.29860194286490199 0 0.01006068730028371 0.31638405784929963 0 0.028540930057711082 0.31484876476342433 0 0.017487695152871571 0.30271595863869061 0 0.028540930057711082 0.31484876476342433 0 0.030701457623918751 0.29860194286490199 0 0.017487695152871571 0.30271595863869061 0 0.039683236338569877 0.2863800386901017 0 0.030701457623918751 0.29860194286490199 0 0.01458673096357435 0.28560181121613271 0 0.030701457623918751 0.29860194286490199 0 0.017487695152871571 0.30271595863869061 0 0.01458673096357435 0.28560181121613271 0 0.039683236338569877 0.2863800386901017 0 0.01458673096357435 0.28560181121613271 0 0.033027428841281008 0.27230919160072892 0 -0.0038539669141323262 0.29889443083153638 0 0.017487695152871571 0.30271595863869061 0 0.01458673096357435 0.28560181121613271 0 -0.0038539669141323262 0.29889443083153638 0 0.01458673096357435 0.28560181121613271 0 -0.0038539669141323262 0.29889443083153638 0 -0.0043575086169384998 0.28349943520809301 0 0.01458673096357435 0.28560181121613271 0 -0.0038539669141323262 0.29889443083153638 0 0.01006068730028371 0.31638405784929963 0 0.017487695152871571 0.30271595863869061 0 -0.0054617966726731469 0.26950653154764481 0 0.0049666156689328854 0.25201108762944008 0 0.0076037112374945769 0.26639349024927222 0 0.0076037112374945769 0.26639349024927222 0 0.02034898745465423 0.2660459195719147 0 0.015906097211442888 0.2586699930856689 0 0.01149618820198753 0.25393750955485128 0 0.0076037112374945769 0.26639349024927222 0 0.015906097211442888 0.2586699930856689 0 0.01149618820198753 0.25393750955485128 0 0.015906097211442888 0.2586699930856689 0 0.01755289935884061 0.25091945717398562 0 0.01149618820198753 0.25393750955485128 0 0.0049666156689328854 0.25201108762944008 0 0.0076037112374945769 0.26639349024927222 0 0.01176939038982756 0.24866185709121669 0 0.01149618820198753 0.25393750955485128 0 0.01755289935884061 0.25091945717398562 0 0.01176939038982756 0.24866185709121669 0 0.01149618820198753 0.25393750955485128 0 0.0049666156689328854 0.25201108762944008 0 0.01458673096357435 0.28560181121613271 0 0.0076037112374945769 0.26639349024927222 0 0.02034898745465423 0.2660459195719147 0 -0.0043575086169384998 0.28349943520809301 0 0.01458673096357435 0.28560181121613271 0 0.0076037112374945769 0.26639349024927222 0 0.01458673096357435 0.28560181121613271 0 0.02034898745465423 0.2660459195719147 0 0.033027428841281008 0.27230919160072892 0 0.01458673096357435 0.28560181121613271 0 0.033027428841281008 0.27230919160072892 0 0.02034898745465423 0.2660459195719147 0 0.029340184457745781 0.25921726972117221 0 0.033027428841281008 0.27230919160072892 0 0.02034898745465423 0.2660459195719147 0 0.029340184457745781 0.25921726972117221 0 0.022528699804237488 0.25605358887832103 0 0.02034898745465423 0.2660459195719147 0 0.015906097211442888 0.2586699930856689 0 0.022528699804237488 0.25605358887832103 0 0.015906097211442888 0.2586699930856689 0 0.01755289935884061 0.25091945717398562 0 0.022528699804237488 0.25605358887832103 0 0.024290800149747362 0.24991228813370259 0 0.01755289935884061 0.25091945717398562 0 0.022528699804237488 0.25605358887832103 0 0.024290800149747362 0.24991228813370259 0 0.022528699804237488 0.25605358887832103 0 0.030620267056269041 0.25203926005632138 0 0.029340184457745781 0.25921726972117221 0 0.022528699804237488 0.25605358887832103 0 0.030620267056269041 0.25203926005632138 0 0.034632610864773282 0.24667647745089169 0 0.030620267056269041 0.25203926005632138 0 0.036555271351775123 0.25429512735811682 0 0.046818939976420157 0.25968760689654208 0 0.033027428841281008 0.27230919160072892 0 0.051468126718987102 0.25901657198532452 0 0.040830736556503398 0.24937498861815549 0 0.034632610864773282 0.24667647745089169 0 0.036555271351775123 0.25429512735811682 0 0.029340184457745781 0.25921726972117221 0 0.030620267056269041 0.25203926005632138 0 0.036555271351775123 0.25429512735811682 0 0.029340184457745781 0.25921726972117221 0 0.036555271351775123 0.25429512735811682 0 0.037896149177118893 0.26190065492692233 0 0.029340184457745781 0.25921726972117221 0 0.037896149177118893 0.26190065492692233 0 0.033027428841281008 0.27230919160072892 0 0.036555271351775123 0.25429512735811682 0 0.037896149177118893 0.26190065492692233 0 0.041267248836775787 0.25754455372731699 0 0.037896149177118893 0.26190065492692233 0 0.046818939976420157 0.25968760689654208 0 0.033027428841281008 0.27230919160072892 0 0.037896149177118893 0.26190065492692233 0 0.046818939976420157 0.25968760689654208 0 0.041267248836775787 0.25754455372731699 0 0.046818939976420157 0.25968760689654208 0 0.043798634841788968 0.25429482572768658 0 0.041267248836775787 0.25754455372731699 0 0.046818939976420157 0.25968760689654208 0 0.043798634841788968 0.25429482572768658 0 0.047460450114117439 0.25568460430226841 0 0.047756098919273543 0.24973941259952079 0 0.040830736556503398 0.24937498861815549 0 0.043798634841788968 0.25429482572768658 0 0.047756098919273543 0.24973941259952079 0 0.043798634841788968 0.25429482572768658 0 0.047460450114117439 0.25568460430226841 0 0.040830736556503398 0.24937498861815549 0 0.036555271351775123 0.25429512735811682 0 0.043798634841788968 0.25429482572768658 0 0.036555271351775123 0.25429512735811682 0 0.043798634841788968 0.25429482572768658 0 0.041267248836775787 0.25754455372731699 0 0.033027428841281008 0.27230919160072892 0 0.051468126718987102 0.25901657198532452 0 0.039683236338569877 0.2863800386901017 0 0.033027428841281008 0.27230919160072892 0 0.050657523718058331 0.2732833102326187 0 0.033027428841281008 0.27230919160072892 0 0.050657523718058331 0.2732833102326187 0 0.051468126718987102 0.25901657198532452 0 0.050657523718058331 0.2732833102326187 0 0.062441135448793421 0.27367797497213509 0 0.060527716172890607 0.26377435120092579 0 0.057134818055213261 0.28559230467768509 0 0.050657523718058331 0.2732833102326187 0 0.062441135448793421 0.27367797497213509 0 0.047756098919273543 0.24973941259952079 0 0.047460450114117439 0.25568460430226841 0 0.051468126718987102 0.25901657198532452 0 0.052613808076478891 0.2434546204835597 0 0.047756098919273543 0.24973941259952079 0 0.051468126718987102 0.25901657198532452 0 0.050657523718058331 0.2732833102326187 0 0.051468126718987102 0.25901657198532452 0 0.060527716172890607 0.26377435120092579 0 0.046818939976420157 0.25968760689654208 0 0.047460450114117439 0.25568460430226841 0 0.051468126718987102 0.25901657198532452 0 0.046818939976420157 0.25968760689654208 0 0.051468126718987102 0.25901657198532452 0 0.051468126718987102 0.25901657198532452 0 0.067017211613534439 0.25677231306876608 0 0.051468126718987102 0.25901657198532452 0 0.060527716172890607 0.26377435120092579 0 0.067017211613534439 0.25677231306876608 0 0.074954462641709033 0.2420869019885217 0 0.051468126718987102 0.25901657198532452 0 0.074954462641709033 0.2420869019885217 0 0.051468126718987102 0.25901657198532452 0 0.067017211613534439 0.25677231306876608 0 0.060527716172890607 0.26377435120092579 0 0.067017211613534439 0.25677231306876608 0 0.072839565210578244 0.26702249546937967 0 0.067017211613534439 0.25677231306876608 0 0.082566296508081907 0.25452805415220869 0 0.072839565210578244 0.26702249546937967 0 0.074954462641709033 0.2420869019885217 0 0.067017211613534439 0.25677231306876608 0 0.082566296508081907 0.25452805415220869 0 0.067017211613534439 0.25677231306876608 0 0.082566296508081907 0.25452805415220869 0 0.082566296508081907 0.25452805415220869 0 0.084619902549949555 0.27493619384260198 0 0.072839565210578244 0.26702249546937967 0 0.082566296508081907 0.25452805415220869 0 0.1022344060505356 0.25168928064805512 0 0.082566296508081907 0.25452805415220869 0 0.1022344060505356 0.25168928064805512 0 0.094734049265221665 0.26401465998740098 0 0.082566296508081907 0.25452805415220869 0 0.084619902549949555 0.27493619384260198 0 0.094734049265221665 0.26401465998740098 0 0.082566296508081907 0.25452805415220869 0 0.084619902549949555 0.27493619384260198 0 0.084619902549949555 0.27493619384260198 0 0.094734049265221665 0.26401465998740098 0 0.098419758526093817 0.27894234807586971 0 0.084619902549949555 0.27493619384260198 0 0.072839565210578244 0.26702249546937967 0 0.071776520003559996 0.2821598827381504 0 0.062441135448793421 0.27367797497213509 0 0.060527716172890607 0.26377435120092579 0 0.072839565210578244 0.26702249546937967 0 0.057134818055213261 0.28559230467768509 0 0.062441135448793421 0.27367797497213509 0 0.071776520003559996 0.2821598827381504 0 0.062441135448793421 0.27367797497213509 0 0.072839565210578244 0.26702249546937967 0 0.071776520003559996 0.2821598827381504 0 0.071776520003559996 0.2821598827381504 0 0.069772193016478051 0.29836080324935199 0 0.086673508591819548 0.29534433353299511 0 0.057134818055213261 0.28559230467768509 0 0.071776520003559996 0.2821598827381504 0 0.069772193016478051 0.29836080324935199 0 0.079157432204573663 0.31308071928520881 0 0.062191094941482963 0.31699759973241581 0 0.069772193016478051 0.29836080324935199 0 0.079157432204573663 0.31308071928520881 0 0.086673508591819548 0.29534433353299511 0 0.096525338941037847 0.30903682376336539 0 0.079157432204573663 0.31308071928520881 0 0.069772193016478051 0.29836080324935199 0 0.086673508591819548 0.29534433353299511 0 0.084619902549949555 0.27493619384260198 0 0.086673508591819548 0.29534433353299511 0 0.084619902549949555 0.27493619384260198 0 0.086673508591819548 0.29534433353299511 0 0.098419758526093817 0.27894234807586971 0 0.084619902549949555 0.27493619384260198 0 0.071776520003559996 0.2821598827381504 0 0.086673508591819548 0.29534433353299511 0 0.086673508591819548 0.29534433353299511 0 0.1017594735965475 0.29302808154855292 0 0.098419758526093817 0.27894234807586971 0 0.1017594735965475 0.29302808154855292 0 0.1119089700534909 0.30287863560863881 0 0.1135482975373619 0.28311799117896669 0 0.1017594735965475 0.29302808154855292 0 0.1135482975373619 0.28311799117896669 0 0.098419758526093817 0.27894234807586971 0 0.1017594735965475 0.29302808154855292 0 0.096525338941037847 0.30903682376336539 0 0.1119089700534909 0.30287863560863881 0 0.086673508591819548 0.29534433353299511 0 0.1017594735965475 0.29302808154855292 0 0.096525338941037847 0.30903682376336539 0 0.10771690946250941 0.32241259033443559 0 0.096525338941037847 0.30903682376336539 0 0.1119089700534909 0.30287863560863881 0 0.1119089700534909 0.30287863560863881 0 0.1241899156070783 0.29409495860996338 0 0.128342674435175 0.31595351304064562 0 0.1119089700534909 0.30287863560863881 0 0.1135482975373619 0.28311799117896669 0 0.1241899156070783 0.29409495860996338 0 0.1135482975373619 0.28311799117896669 0 0.1241899156070783 0.29409495860996338 0 0.1249800438661675 0.28143689303102393 0 0.1135482975373619 0.28311799117896669 0 0.12053387929961799 0.27136495864282828 0 0.110065803016772 0.26406425077165618 0 0.1135482975373619 0.28311799117896669 0 0.1249800438661675 0.28143689303102393 0 0.12053387929961799 0.27136495864282828 0 0.12053387929961799 0.27136495864282828 0 0.1198566985405289 0.26330873621382839 0 0.110065803016772 0.26406425077165618 0 0.12053387929961799 0.27136495864282828 0 0.1198566985405289 0.26330873621382839 0 0.1271974135624625 0.26272741757947371 0 0.1219025155929893 0.24885050714390139 0 0.1022344060505356 0.25168928064805512 0 0.121629698283263 0.25507831786135571 0 0.110065803016772 0.26406425077165618 0 0.1022344060505356 0.25168928064805512 0 0.1219025155929893 0.24885050714390139 0 0.121629698283263 0.25507831786135571 0 0.1022344060505356 0.25168928064805512 0 0.1198566985405289 0.26330873621382839 0 0.121629698283263 0.25507831786135571 0 0.1271974135624625 0.26272741757947371 0 0.1219025155929893 0.24885050714390139 0 0.121629698283263 0.25507831786135571 0 0.1284580452948508 0.2539548874784826 0 0.1219025155929893 0.24885050714390139 0 0.121629698283263 0.25507831786135571 0 0.1198566985405289 0.26330873621382839 0 0.121629698283263 0.25507831786135571 0 0.110065803016772 0.26406425077165618 0 0.110065803016772 0.26406425077165618 0 0.1022344060505356 0.25168928064805512 0 0.094734049265221665 0.26401465998740098 0 0.110065803016772 0.26406425077165618 0 0.094734049265221665 0.26401465998740098 0 0.098419758526093817 0.27894234807586971 0 0.1135482975373619 0.28311799117896669 0 0.110065803016772 0.26406425077165618 0 0.098419758526093817 0.27894234807586971 0 0.14619673076064049 0.27251205395286582 0 0.13730361621725931 0.28507106383653891 0 0.15385493590814109 0.28602695023241032 0 0.14619673076064049 0.27251205395286582 0 0.15385493590814109 0.28602695023241032 0 0.15940464869385471 0.26458045225782612 0 0.14619673076064049 0.27251205395286582 0 0.14756195463473851 0.25660888721814562 0 0.13773803104248031 0.2650651929995424 0 0.14619673076064049 0.27251205395286582 0 0.14756195463473851 0.25660888721814562 0 0.15940464869385471 0.26458045225782612 0 0.14756195463473851 0.25660888721814562 0 0.13773803104248031 0.2650651929995424 0 0.13536872621932389 0.25662732512662489 0 0.13773803104248031 0.2650651929995424 0 0.13536872621932389 0.25662732512662489 0 0.1271974135624625 0.26272741757947371 0 0.1373641731739291 0.2466188669460305 0 0.13536872621932389 0.25662732512662489 0 0.1284580452948508 0.2539548874784826 0 0.1373641731739291 0.2466188669460305 0 0.14756195463473851 0.25660888721814562 0 0.13536872621932389 0.25662732512662489 0 0.13536872621932389 0.25662732512662489 0 0.1284580452948508 0.2539548874784826 0 0.1271974135624625 0.26272741757947371 0 0.121629698283263 0.25507831786135571 0 0.1284580452948508 0.2539548874784826 0 0.1271974135624625 0.26272741757947371 0 0.12053387929961799 0.27136495864282828 0 0.1271974135624625 0.26272741757947371 0 0.13202838592280619 0.27431236634399292 0 0.13773803104248031 0.2650651929995424 0 0.1271974135624625 0.26272741757947371 0 0.13202838592280619 0.27431236634399292 0 0.14619673076064049 0.27251205395286582 0 0.13773803104248031 0.2650651929995424 0 0.13202838592280619 0.27431236634399292 0 0.14619673076064049 0.27251205395286582 0 0.13202838592280619 0.27431236634399292 0 0.13730361621725931 0.28507106383653891 0 0.1249800438661675 0.28143689303102393 0 0.12053387929961799 0.27136495864282828 0 0.13202838592280619 0.27431236634399292 0 0.1249800438661675 0.28143689303102393 0 0.13202838592280619 0.27431236634399292 0 0.13730361621725931 0.28507106383653891 0 0.1241899156070783 0.29409495860996338 0 0.13730361621725931 0.28507106383653891 0 0.14109880517165829 0.30099023163652822 0 0.1241899156070783 0.29409495860996338 0 0.1249800438661675 0.28143689303102393 0 0.13730361621725931 0.28507106383653891 0 0.14767765257122289 0.30989865309145359 0 0.14109880517165829 0.30099023163652822 0 0.128342674435175 0.31595351304064562 0 0.1241899156070783 0.29409495860996338 0 0.14109880517165829 0.30099023163652822 0 0.128342674435175 0.31595351304064562 0 0.14109880517165829 0.30099023163652822 0 0.128342674435175 0.31595351304064562 0 0.14767765257122289 0.30989865309145359 0 0.14109880517165829 0.30099023163652822 0 0.15385493590814109 0.28602695023241032 0 0.14767765257122289 0.30989865309145359 0 0.15385493590814109 0.28602695023241032 0 0.14767765257122289 0.30989865309145359 0 0.15385493590814109 0.28602695023241032 0 0.16087133344286739 0.29623127867303423 0 0.13730361621725931 0.28507106383653891 0 0.14109880517165829 0.30099023163652822 0 0.15385493590814109 0.28602695023241032 0 0.14109880517165829 0.30099023163652822 0 0.15385493590814109 0.28602695023241032 0 0.15385493590814109 0.28602695023241032 0 0.16087133344286739 0.29623127867303423 0 0.16966076243524239 0.28680897780889669 0 0.16087133344286739 0.29623127867303423 0 0.16966076243524239 0.28680897780889669 0 0.17229198285686381 0.30219053355937647 0 0.14767765257122289 0.30989865309145359 0 0.17229198285686381 0.30219053355937647 0 0.16270309405552799 0.31550039055900692 0 0.14767765257122289 0.30989865309145359 0 0.16087133344286739 0.29623127867303423 0 0.17229198285686381 0.30219053355937647 0 0.14767765257122289 0.30989865309145359 0 0.17229198285686381 0.30219053355937647 0 0.17229198285686381 0.30219053355937647 0 0.1762348608278079 0.31640457381110021 0 0.16270309405552799 0.31550039055900692 0 0.17229198285686381 0.30219053355937647 0 0.1874339591587216 0.30772389377420373 0 0.19690631314250501 0.29448241402730008 0 0.17229198285686381 0.30219053355937647 0 0.19690631314250501 0.29448241402730008 0 0.17229198285686381 0.30219053355937647 0 0.1874339591587216 0.30772389377420373 0 0.1762348608278079 0.31640457381110021 0 0.17229198285686381 0.30219053355937647 0 0.1825887101364897 0.29028964358604198 0 0.19690631314250501 0.29448241402730008 0 0.16966076243524239 0.28680897780889669 0 0.1825887101364897 0.29028964358604198 0 0.1805183143022536 0.27619475441109231 0 0.16966076243524239 0.28680897780889669 0 0.17229198285686381 0.30219053355937647 0 0.1825887101364897 0.29028964358604198 0 0.16966076243524239 0.28680897780889669 0 0.1805183143022536 0.27619475441109231 0 0.17066694752511261 0.26630601243467261 0 0.1825887101364897 0.29028964358604198 0 0.1805183143022536 0.27619475441109231 0 0.19858949378038759 0.27122060407735482 0 0.1805183143022536 0.27619475441109231 0 0.18250896685768739 0.26487982641104019 0 0.19858949378038759 0.27122060407735482 0 0.1805183143022536 0.27619475441109231 0 0.17066694752511261 0.26630601243467261 0 0.18250896685768739 0.26487982641104019 0 0.15385493590814109 0.28602695023241032 0 0.15940464869385471 0.26458045225782612 0 0.15385493590814109 0.28602695023241032 0 0.16966076243524239 0.28680897780889669 0 0.17066694752511261 0.26630601243467261 0 0.15385493590814109 0.28602695023241032 0 0.17066694752511261 0.26630601243467261 0 0.15940464869385471 0.26458045225782612 0 0.15385493590814109 0.28602695023241032 0 0.17066694752511261 0.26630601243467261 0 0.16495436147956929 0.24313395428324219 0 0.15940464869385471 0.26458045225782612 0 0.16495436147956929 0.24313395428324219 0 0.14756195463473851 0.25660888721814562 0 0.15940464869385471 0.26458045225782612 0 0.16495436147956929 0.24313395428324219 0 0.17066694752511261 0.26630601243467261 0 0.15940464869385471 0.26458045225782612 0 0.18747895914208321 0.24658507463693399 0 0.16495436147956929 0.24313395428324219 0 0.17066694752511261 0.26630601243467261 0 0.18747895914208321 0.24658507463693399 0 0.17066694752511261 0.26630601243467261 0 0.18250896685768739 0.26487982641104019 0 0.18747895914208321 0.24658507463693399 0 0.17066694752511261 0.26630601243467261 0 0.19655122955316559 0.25658470135968953 0 0.19858949378038759 0.27122060407735482 0 0.2133163608751413 0.25366976302363331 0 0.18747895914208321 0.24658507463693399 0 0.18250896685768739 0.26487982641104019 0 0.19655122955316559 0.25658470135968953 0 0.18250896685768739 0.26487982641104019 0 0.19655122955316559 0.25658470135968953 0 0.19858949378038759 0.27122060407735482 0 0.18250896685768739 0.26487982641104019 0 0.19858949378038759 0.27122060407735482 0 0.1825887101364897 0.29028964358604198 0 0.19858949378038759 0.27122060407735482 0 0.19858949378038759 0.27122060407735482 0 0.21769544467763291 0.27875434891826389 0 0.20210846678495581 0.28316703117946151 0 0.19858949378038759 0.27122060407735482 0 0.21769544467763291 0.27875434891826389 0 0.19858949378038759 0.27122060407735482 0 0.21583653556754989 0.26615433651301412 0 0.21769544467763291 0.27875434891826389 0 0.19858949378038759 0.27122060407735482 0 0.21583653556754989 0.26615433651301412 0 0.2133163608751413 0.25366976302363331 0 0.19858949378038759 0.27122060407735482 0 0.2133163608751413 0.25366976302363331 0 0.20304268401216791 0.24453791653587251 0 0.19655122955316559 0.25658470135968953 0 0.2133163608751413 0.25366976302363331 0 0.23761323412964511 0.24405582566143441 0 0.22765433940363861 0.26140508728984901 0 0.23761323412964511 0.24405582566143441 0 0.2287056799536307 0.2472771396693518 0 0.22765433940363861 0.26140508728984901 0 0.2287056799536307 0.2472771396693518 0 0.2133163608751413 0.25366976302363331 0 0.22765433940363861 0.26140508728984901 0 0.21583653556754989 0.26615433651301412 0 0.2133163608751413 0.25366976302363331 0 0.22765433940363861 0.26140508728984901 0 0.21769544467763291 0.27875434891826389 0 0.22765433940363861 0.26140508728984901 0 0.2315427630171229 0.27426874983071958 0 0.21769544467763291 0.27875434891826389 0 0.22765433940363861 0.26140508728984901 0 0.21583653556754989 0.26615433651301412 0 0.21769544467763291 0.27875434891826389 0 0.22765433940363861 0.26140508728984901 0 0.21769544467763291 0.27875434891826389 0 0.2315427630171229 0.27426874983071958 0 0.23649021898514239 0.28616539245839712 0 0.22765433940363861 0.26140508728984901 0 0.2315427630171229 0.27426874983071958 0 0.24460047411485919 0.27270879545511417 0 0.2315427630171229 0.27426874983071958 0 0.24460047411485919 0.27270879545511417 0 0.23649021898514239 0.28616539245839712 0 0.24460047411485919 0.27270879545511417 0 0.2496942229676696 0.28281520722170478 0 0.23649021898514239 0.28616539245839712 0 0.23761323412964511 0.24405582566143441 0 0.22765433940363861 0.26140508728984901 0 0.24460047411485919 0.27270879545511417 0 0.23761323412964511 0.24405582566143441 0 0.24460047411485919 0.27270879545511417 0 0.25385477390433608 0.25073858711362512 0 0.23761323412964511 0.24405582566143441 0 0.24460047411485919 0.27270879545511417 0 0.2415215326339322 0.29806779789407112 0 0.2462292584674991 0.31236720123075778 0 0.25528499329265092 0.29357643599853311 0 0.2415215326339322 0.29806779789407112 0 0.2462292584674991 0.31236720123075778 0 0.2311089409655307 0.30488105140941169 0 0.2496942229676696 0.28281520722170478 0 0.23649021898514239 0.28616539245839712 0 0.25528499329265092 0.29357643599853311 0 0.23649021898514239 0.28616539245839712 0 0.25528499329265092 0.29357643599853311 0 0.2415215326339322 0.29806779789407112 0 0.23649021898514239 0.28616539245839712 0 0.25528499329265092 0.29357643599853311 0 0.2415215326339322 0.29806779789407112 0 0.23649021898514239 0.28616539245839712 0 0.2304782464987733 0.29487676245431999 0 0.21769544467763291 0.27875434891826389 0 0.23649021898514239 0.28616539245839712 0 0.23649021898514239 0.28616539245839712 0 0.2304782464987733 0.29487676245431999 0 0.22152064342814609 0.28677429449522363 0 0.21769544467763291 0.27875434891826389 0 0.23649021898514239 0.28616539245839712 0 0.22152064342814609 0.28677429449522363 0 0.2304782464987733 0.29487676245431999 0 0.22152064342814609 0.28677429449522363 0 0.22174989648111509 0.2984952760144966 0 0.2415215326339322 0.29806779789407112 0 0.2304782464987733 0.29487676245431999 0 0.2311089409655307 0.30488105140941169 0 0.2304782464987733 0.29487676245431999 0 0.22174989648111509 0.2984952760144966 0 0.2311089409655307 0.30488105140941169 0 0.22174989648111509 0.2984952760144966 0 0.2311089409655307 0.30488105140941169 0 0.21611330025871761 0.31291997852556869 0 0.22174989648111509 0.2984952760144966 0 0.21140904262782639 0.29975778453634461 0 0.21611330025871761 0.31291997852556869 0 0.21140904262782639 0.29975778453634461 0 0.19690631314250501 0.29448241402730008 0 0.2012011134412004 0.30824884534714381 0 0.21140904262782639 0.29975778453634461 0 0.2012011134412004 0.30824884534714381 0 0.21611330025871761 0.31291997852556869 0 0.22152064342814609 0.28677429449522363 0 0.2145104948782095 0.28430280874877928 0 0.19690631314250501 0.29448241402730008 0 0.22152064342814609 0.28677429449522363 0 0.21140904262782639 0.29975778453634461 0 0.19690631314250501 0.29448241402730008 0 0.22152064342814609 0.28677429449522363 0 0.19690631314250501 0.29448241402730008 0 0.2145104948782095 0.28430280874877928 0 0.20210846678495581 0.28316703117946151 0 0.19690631314250501 0.29448241402730008 0 0.21769544467763291 0.27875434891826389 0 0.22152064342814609 0.28677429449522363 0 0.2145104948782095 0.28430280874877928 0 0.21769544467763291 0.27875434891826389 0 0.2145104948782095 0.28430280874877928 0 0.20210846678495581 0.28316703117946151 0 0.21769544467763291 0.27875434891826389 0 0.2145104948782095 0.28430280874877928 0 0.22152064342814609 0.28677429449522363 0 0.22174989648111509 0.2984952760144966 0 0.21140904262782639 0.29975778453634461 0 0.1825887101364897 0.29028964358604198 0 0.19858949378038759 0.27122060407735482 0 0.20210846678495581 0.28316703117946151 0 0.1825887101364897 0.29028964358604198 0 0.20210846678495581 0.28316703117946151 0 0.19690631314250501 0.29448241402730008 0 0.1874339591587216 0.30772389377420373 0 0.19690631314250501 0.29448241402730008 0 0.2012011134412004 0.30824884534714381 0 0.1874339591587216 0.30772389377420373 0 0.2012011134412004 0.30824884534714381 0 0.19053552552523079 0.31729310212609813 0 0.19053552552523079 0.31729310212609813 0 0.2011425553810999 0.32266652657739059 0 0.1850859914492268 0.33157237925976618 0 0.2012011134412004 0.30824884534714381 0 0.19053552552523079 0.31729310212609813 0 0.2011425553810999 0.32266652657739059 0 0.2114956062257119 0.34102857539465448 0 0.18581768880907951 0.35089918432633022 0 0.1850859914492268 0.33157237925976618 0 0.2011425553810999 0.32266652657739059 0 0.2114956062257119 0.34102857539465448 0 0.1850859914492268 0.33157237925976618 0 0.2011425553810999 0.32266652657739059 0 0.2114956062257119 0.34102857539465448 0 0.21611330025871761 0.31291997852556869 0 0.2114956062257119 0.34102857539465448 0 0.21611330025871761 0.31291997852556869 0 0.2284241259119614 0.32047095460467512 0 0.2012011134412004 0.30824884534714381 0 0.2011425553810999 0.32266652657739059 0 0.21611330025871761 0.31291997852556869 0 0.2311089409655307 0.30488105140941169 0 0.21611330025871761 0.31291997852556869 0 0.2284241259119614 0.32047095460467512 0 0.2114956062257119 0.34102857539465448 0 0.23405567093682439 0.33762755058280658 0 0.224104882967289 0.34814535807609648 0 0.2114956062257119 0.34102857539465448 0 0.2371735236423454 0.33115796646298168 0 0.2114956062257119 0.34102857539465448 0 0.23405567093682439 0.33762755058280658 0 0.2371735236423454 0.33115796646298168 0 0.2114956062257119 0.34102857539465448 0 0.2284241259119614 0.32047095460467512 0 0.2371735236423454 0.33115796646298168 0 0.2371735236423454 0.33115796646298168 0 0.24080458859047549 0.33811479648585308 0 0.2480649833585952 0.33223542728828143 0 0.23405567093682439 0.33762755058280658 0 0.2371735236423454 0.33115796646298168 0 0.23405567093682439 0.33762755058280658 0 0.2371735236423454 0.33115796646298168 0 0.24080458859047549 0.33811479648585308 0 0.23405567093682439 0.33762755058280658 0 0.24080458859047549 0.33811479648585308 0 0.23768086811268291 0.35317875484295141 0 0.24080458859047549 0.33811479648585308 0 0.249620961284303 0.34373780941268323 0 0.2480649833585952 0.33223542728828143 0 0.2371735236423454 0.33115796646298168 0 0.2480649833585952 0.33223542728828143 0 0.24947861457289011 0.32304523978306371 0 0.2462292584674991 0.31236720123075778 0 0.2371735236423454 0.33115796646298168 0 0.24947861457289011 0.32304523978306371 0 0.2462292584674991 0.31236720123075778 0 0.2371735236423454 0.33115796646298168 0 0.2462292584674991 0.31236720123075778 0 0.2284241259119614 0.32047095460467512 0 0.2371735236423454 0.33115796646298168 0 0.2462292584674991 0.31236720123075778 0 0.2311089409655307 0.30488105140941169 0 0.2284241259119614 0.32047095460467512 0 0.23768086811268291 0.35317875484295141 0 0.23327204959140169 0.37354671024376762 0 0.25386926945956889 0.37450253246903831 0 0.249620961284303 0.34373780941268323 0 0.23768086811268291 0.35317875484295141 0 0.25847728971070272 0.35550736348294792 0 0.24080458859047549 0.33811479648585308 0 0.249620961284303 0.34373780941268323 0 0.23768086811268291 0.35317875484295141 0 0.23768086811268291 0.35317875484295141 0 0.224104882967289 0.34814535807609648 0 0.21907412902505299 0.36175397473718279 0 0.23405567093682439 0.33762755058280658 0 0.23768086811268291 0.35317875484295141 0 0.224104882967289 0.34814535807609648 0 0.23768086811268291 0.35317875484295141 0 0.23327204959140169 0.37354671024376762 0 0.21907412902505299 0.36175397473718279 0 0.23327204959140169 0.37354671024376762 0 0.21907412902505299 0.36175397473718279 0 0.21456689665610029 0.38471599976217069 0 0.21907412902505299 0.36175397473718279 0 0.20063907077114759 0.36447709882612972 0 0.21456689665610029 0.38471599976217069 0 0.2114956062257119 0.34102857539465448 0 0.224104882967289 0.34814535807609648 0 0.21907412902505299 0.36175397473718279 0 0.2114956062257119 0.34102857539465448 0 0.21907412902505299 0.36175397473718279 0 0.20063907077114759 0.36447709882612972 0 0.2114956062257119 0.34102857539465448 0 0.20063907077114759 0.36447709882612972 0 0.18581768880907951 0.35089918432633022 0 0.2114956062257119 0.34102857539465448 0 0.18581768880907951 0.35089918432633022 0 0.20063907077114759 0.36447709882612972 0 0.18581768880907951 0.35089918432633022 0 0.18525723928818211 0.38016532790989738 0 0.16013977139244709 0.36076979325800601 0 0.18581768880907951 0.35089918432633022 0 0.18525723928818211 0.38016532790989738 0 0.16013977139244709 0.36076979325800601 0 0.18581768880907951 0.35089918432633022 0 0.1657395624235381 0.34339393254914807 0 0.16013977139244709 0.36076979325800601 0 0.1657395624235381 0.34339393254914807 0 0.15017684593783079 0.34648731869653021 0 0.16013977139244709 0.36076979325800601 0 0.18581768880907951 0.35089918432633022 0 0.18581768880907951 0.35089918432633022 0 0.1850859914492268 0.33157237925976618 0 0.1657395624235381 0.34339393254914807 0 0.1850859914492268 0.33157237925976618 0 0.16547257210623409 0.32784722173933228 0 0.1657395624235381 0.34339393254914807 0 0.1850859914492268 0.33157237925976618 0 0.1762348608278079 0.31640457381110021 0 0.16547257210623409 0.32784722173933228 0 0.1874339591587216 0.30772389377420373 0 0.19053552552523079 0.31729310212609813 0 0.1762348608278079 0.31640457381110021 0 0.19053552552523079 0.31729310212609813 0 0.1850859914492268 0.33157237925976618 0 0.1762348608278079 0.31640457381110021 0 0.1762348608278079 0.31640457381110021 0 0.16547257210623409 0.32784722173933228 0 0.16270309405552799 0.31550039055900692 0 0.16547257210623409 0.32784722173933228 0 0.16270309405552799 0.31550039055900692 0 0.1533143835205529 0.32162743469551103 0 0.16547257210623409 0.32784722173933228 0 0.15256234829411019 0.33430011743969962 0 0.1533143835205529 0.32162743469551103 0 0.16547257210623409 0.32784722173933228 0 0.1657395624235381 0.34339393254914807 0 0.15256234829411019 0.33430011743969962 0 0.1657395624235381 0.34339393254914807 0 0.15256234829411019 0.33430011743969962 0 0.15017684593783079 0.34648731869653021 0 0.15256234829411019 0.33430011743969962 0 0.14525284620293519 0.32733995334653287 0 0.13786973798507199 0.33752923705715088 0 0.15256234829411019 0.33430011743969962 0 0.13786973798507199 0.33752923705715088 0 0.15017684593783079 0.34648731869653021 0 0.14767765257122289 0.30989865309145359 0 0.16270309405552799 0.31550039055900692 0 0.1533143835205529 0.32162743469551103 0 0.14767765257122289 0.30989865309145359 0 0.1533143835205529 0.32162743469551103 0 0.14581835505834359 0.31708378534672388 0 0.15256234829411019 0.33430011743969962 0 0.1533143835205529 0.32162743469551103 0 0.14525284620293519 0.32733995334653287 0 0.14525284620293519 0.32733995334653287 0 0.14581835505834359 0.31708378534672388 0 0.13669940615659751 0.32615919219357881 0 0.1533143835205529 0.32162743469551103 0 0.14525284620293519 0.32733995334653287 0 0.14581835505834359 0.31708378534672388 0 0.14767765257122289 0.30989865309145359 0 0.14581835505834359 0.31708378534672388 0 0.13669940615659751 0.32615919219357881 0 0.128342674435175 0.31595351304064562 0 0.1272326982138251 0.33200954742109617 0 0.14767765257122289 0.30989865309145359 0 0.128342674435175 0.31595351304064562 0 0.14581835505834359 0.31708378534672388 0 0.13669940615659751 0.32615919219357881 0 0.128342674435175 0.31595351304064562 0 0.14767765257122289 0.30989865309145359 0 0.14581835505834359 0.31708378534672388 0 0.128342674435175 0.31595351304064562 0 0.14525284620293519 0.32733995334653287 0 0.13669940615659751 0.32615919219357881 0 0.13786973798507199 0.33752923705715088 0 0.13669940615659751 0.32615919219357881 0 0.13786973798507199 0.33752923705715088 0 0.1272326982138251 0.33200954742109617 0 0.12299338477230561 0.3438279555347753 0 0.13786973798507199 0.33752923705715088 0 0.1272326982138251 0.33200954742109617 0 0.12299338477230561 0.3438279555347753 0 0.13786973798507199 0.33752923705715088 0 0.1354092407481009 0.35496997488433668 0 0.1200203981846439 0.35807535057582479 0 0.12299338477230561 0.3438279555347753 0 0.1354092407481009 0.35496997488433668 0 0.1200203981846439 0.35807535057582479 0 0.1354092407481009 0.35496997488433668 0 0.13446185397581251 0.37064040218967581 0 0.1200203981846439 0.35807535057582479 0 0.13446185397581251 0.37064040218967581 0 0.16013977139244709 0.36076979325800601 0 0.13446185397581251 0.37064040218967581 0 0.16013977139244709 0.36076979325800601 0 0.1354092407481009 0.35496997488433668 0 0.13446185397581251 0.37064040218967581 0 0.16013977139244709 0.36076979325800601 0 0.13446185397581251 0.37064040218967581 0 0.15570150196764421 0.38912034473400409 0 0.13786973798507199 0.33752923705715088 0 0.1354092407481009 0.35496997488433668 0 0.15017684593783079 0.34648731869653021 0 0.16013977139244709 0.36076979325800601 0 0.1354092407481009 0.35496997488433668 0 0.15017684593783079 0.34648731869653021 0 0.15570150196764421 0.38912034473400409 0 0.1303225307147719 0.39762133201488681 0 0.1561318049118737 0.41128269751317792 0 0.13446185397581251 0.37064040218967581 0 0.15570150196764421 0.38912034473400409 0 0.13446185397581251 0.37064040218967581 0 0.15570150196764421 0.38912034473400409 0 0.1303225307147719 0.39762133201488681 0 0.1199157670337196 0.41527716240387608 0 0.1303225307147719 0.39762133201488681 0 0.13850609291143179 0.42264661238834839 0 0.13850609291143179 0.42264661238834839 0 0.13652241517221581 0.44588418238996608 0 0.1220147220059139 0.43030719654274052 0 0.13850609291143179 0.42264661238834839 0 0.13652241517221581 0.44588418238996608 0 0.1220147220059139 0.43030719654274052 0 0.1199157670337196 0.41527716240387608 0 0.13850609291143179 0.42264661238834839 0 0.13850609291143179 0.42264661238834839 0 0.1611212852114744 0.4391597101265392 0 0.13652241517221581 0.44588418238996608 0 0.13850609291143179 0.42264661238834839 0 0.1561318049118737 0.41128269751317792 0 0.1611212852114744 0.4391597101265392 0 0.1303225307147719 0.39762133201488681 0 0.13850609291143179 0.42264661238834839 0 0.1561318049118737 0.41128269751317792 0 0.1561318049118737 0.41128269751317792 0 0.17873594701515591 0.42698317243020067 0 0.17694114995947399 0.40760028727833469 0 0.1561318049118737 0.41128269751317792 0 0.17873594701515591 0.42698317243020067 0 0.1611212852114744 0.4391597101265392 0 0.17873594701515591 0.42698317243020067 0 0.17694114995947399 0.40760028727833469 0 0.19818079795130381 0.42608022982266519 0 0.15570150196764421 0.38912034473400409 0 0.17694114995947399 0.40760028727833469 0 0.18525723928818211 0.38016532790989738 0 0.17694114995947399 0.40760028727833469 0 0.18525723928818211 0.38016532790989738 0 0.19938467800422471 0.40341927619460638 0 0.15570150196764421 0.38912034473400409 0 0.17694114995947399 0.40760028727833469 0 0.15570150196764421 0.38912034473400409 0 0.1561318049118737 0.41128269751317792 0 0.17694114995947399 0.40760028727833469 0 0.16013977139244709 0.36076979325800601 0 0.15570150196764421 0.38912034473400409 0 0.18525723928818211 0.38016532790989738 0 0.20063907077114759 0.36447709882612972 0 0.18525723928818211 0.38016532790989738 0 0.21456689665610029 0.38471599976217069 0 0.18525723928818211 0.38016532790989738 0 0.19938467800422471 0.40341927619460638 0 0.21456689665610029 0.38471599976217069 0 0.19938467800422471 0.40341927619460638 0 0.21456689665610029 0.38471599976217069 0 0.2260572237627648 0.41531393616722539 0 0.23327204959140169 0.37354671024376762 0 0.21456689665610029 0.38471599976217069 0 0.2411690847036034 0.39358228940749468 0 0.21456689665610029 0.38471599976217069 0 0.2411690847036034 0.39358228940749468 0 0.2260572237627648 0.41531393616722539 0 0.23327204959140169 0.37354671024376762 0 0.2411690847036034 0.39358228940749468 0 0.25386926945956889 0.37450253246903831 0 0.2260572237627648 0.41531393616722539 0 0.24178471189718781 0.43890365396743353 0 0.2607506978584187 0.42078334106954163 0 0.2411690847036034 0.39358228940749468 0 0.2260572237627648 0.41531393616722539 0 0.2607506978584187 0.42078334106954163 0 0.2260572237627648 0.41531393616722539 0 0.21942044594313359 0.44456017236699591 0 0.24178471189718781 0.43890365396743353 0 0.19818079795130381 0.42608022982266519 0 0.21942044594313359 0.44456017236699591 0 0.2260572237627648 0.41531393616722539 0 0.19818079795130381 0.42608022982266519 0 0.21942044594313359 0.44456017236699591 0 0.19938467800422471 0.40341927619460638 0 0.2260572237627648 0.41531393616722539 0 0.19818079795130381 0.42608022982266519 0 0.17694114995947399 0.40760028727833469 0 0.19938467800422471 0.40341927619460638 0 0.19818079795130381 0.42608022982266519 0 0.17694114995947399 0.40760028727833469 0 0.19818079795130381 0.42608022982266519 0 0.17873594701515591 0.42698317243020067 0 0.19818079795130381 0.42608022982266519 0 0.19046895079069931 0.44641635362359339 0 0.19818079795130381 0.42608022982266519 0 0.19046895079069931 0.44641635362359339 0 0.21942044594313359 0.44456017236699591 0 0.19931795676904551 0.46858144288010928 0 0.21942044594313359 0.44456017236699591 0 0.22093528444214999 0.47672591081275689 0 0.19046895079069931 0.44641635362359339 0 0.19931795676904551 0.46858144288010928 0 0.17301647624820499 0.46070295539517431 0 0.19046895079069931 0.44641635362359339 0 0.19931795676904551 0.46858144288010928 0 0.21942044594313359 0.44456017236699591 0 0.21942044594313359 0.44456017236699591 0 0.24066009393496329 0.46304011491132641 0 0.22093528444214999 0.47672591081275689 0 0.21942044594313359 0.44456017236699591 0 0.24066009393496329 0.46304011491132641 0 0.24178471189718781 0.43890365396743353 0 0.21942044594313359 0.44456017236699591 0 0.24066009393496329 0.46304011491132641 0 0.24066009393496329 0.46304011491132641 0 0.24178471189718781 0.43890365396743353 0 0.26203509798665858 0.4508207053220783 0 0.2409316324203665 0.48417373471811048 0 0.22674050901788029 0.5 0 0.25493994946824972 0.5 0 0.24066009393496329 0.46304011491132641 0 0.2409316324203665 0.48417373471811048 0 0.26189974192679311 0.4815200574556569 0 0.24066009393496329 0.46304011491132641 0 0.2409316324203665 0.48417373471811048 0 0.22093528444214999 0.47672591081275689 0 0.2409316324203665 0.48417373471811048 0 0.22093528444214999 0.47672591081275689 0 0.22674050901788029 0.5 0 0.19931795676904551 0.46858144288010928 0 0.19854106856751111 0.5 0 0.1809604166266523 0.48152363136575038 0 0.22093528444214999 0.47672591081275689 0 0.22674050901788029 0.5 0 0.19854106856751111 0.5 0 0.19931795676904551 0.46858144288010928 0 0.22093528444214999 0.47672591081275689 0 0.19854106856751111 0.5 0 0.17034162811714201 0.5 0 0.1809604166266523 0.48152363136575038 0 0.14862721242564439 0.48202787005698672 0 0.19854106856751111 0.5 0 0.17034162811714201 0.5 0 0.1809604166266523 0.48152363136575038 0 0.1809604166266523 0.48152363136575038 0 0.17301647624820499 0.46070295539517431 0 0.14862721242564439 0.48202787005698672 0 0.19931795676904551 0.46858144288010928 0 0.1809604166266523 0.48152363136575038 0 0.17301647624820499 0.46070295539517431 0 0.19046895079069931 0.44641635362359339 0 0.17301647624820499 0.46070295539517431 0 0.1611212852114744 0.4391597101265392 0 0.17873594701515591 0.42698317243020067 0 0.19046895079069931 0.44641635362359339 0 0.1611212852114744 0.4391597101265392 0 0.17301647624820499 0.46070295539517431 0 0.1611212852114744 0.4391597101265392 0 0.1507652252981079 0.45937929407205003 0 0.17301647624820499 0.46070295539517431 0 0.1507652252981079 0.45937929407205003 0 0.14862721242564439 0.48202787005698672 0 0.1611212852114744 0.4391597101265392 0 0.1507652252981079 0.45937929407205003 0 0.13652241517221581 0.44588418238996608 0 0.1507652252981079 0.45937929407205003 0 0.13652241517221581 0.44588418238996608 0 0.13453873743299979 0.46912175239158371 0 0.1175752565903728 0.45915556117090839 0 0.13652241517221581 0.44588418238996608 0 0.13453873743299979 0.46912175239158371 0 0.13652241517221581 0.44588418238996608 0 0.13453873743299979 0.46912175239158371 0 0.13453873743299979 0.46912175239158371 0 0.13255505969378639 0.49235932239320163 0 0.13453873743299979 0.46912175239158371 0 0.13255505969378639 0.49235932239320163 0 0.14862721242564439 0.48202787005698672 0 0.1114679018772977 0.47555343694205993 0 0.13453873743299979 0.46912175239158371 0 0.13255505969378639 0.49235932239320163 0 0.1182714907461903 0.49136800726342761 0 0.13255505969378639 0.49235932239320163 0 0.13190281240286289 0.50000000000000122 0 0.13255505969378639 0.49235932239320163 0 0.13190281240286289 0.50000000000000122 0 0.13255505969378639 0.49235932239320163 0 0.13190281240286289 0.50000000000000122 0 0.14214218766677289 0.49999999999999811 0 0.13255505969378639 0.49235932239320163 0 0.14214218766677289 0.49999999999999811 0 0.17034162811714201 0.5 0 0.14214218766677289 0.49999999999999811 0 0.14862721242564439 0.48202787005698672 0 0.13255505969378639 0.49235932239320163 0 0.14214218766677289 0.49999999999999811 0 0.14862721242564439 0.48202787005698672 0 0.1507652252981079 0.45937929407205003 0 0.13453873743299979 0.46912175239158371 0 0.14862721242564439 0.48202787005698672 0 0.35274725679684221 0.47698716891364612 0 0.36192479878912981 0.5 0 0.33566299583229292 0.5 0 0.36192479878912981 0.5 0 0.37020084236087869 0.48063985997197989 0 0.38818660174596659 0.5 0 0.35274725679684221 0.47698716891364612 0 0.36192479878912981 0.5 0 0.37020084236087869 0.48063985997197989 0 0.35274725679684221 0.47698716891364612 0 0.37020084236087869 0.48063985997197989 0 0.37356167752634828 0.46354925384752149 0 0.35274725679684221 0.47698716891364612 0 0.37356167752634828 0.46354925384752149 0 0.35772877659554858 0.45318810944357762 0 0.37356167752634828 0.46354925384752149 0 0.35772877659554858 0.45318810944357762 0 0.37917480584603569 0.44411689363633972 0 0.35772877659554858 0.45318810944357762 0 0.36642014701590297 0.43611284969802128 0 0.37917480584603569 0.44411689363633972 0 0.35772877659554858 0.45318810944357762 0 0.34647911066622522 0.43653112039468739 0 0.36642014701590297 0.43611284969802128 0 0.35772877659554858 0.45318810944357762 0 0.33665840413134002 0.45813729584373558 0 0.34647911066622522 0.43653112039468739 0 0.35274725679684221 0.47698716891364612 0 0.35772877659554858 0.45318810944357762 0 0.33665840413134002 0.45813729584373558 0 0.33665840413134002 0.45813729584373558 0 0.32630417559921532 0.4340558582791379 0 0.34647911066622522 0.43653112039468739 0 0.31644952709898599 0.45048471943637192 0 0.30597258156795121 0.43279369224202768 0 0.32630417559921532 0.4340558582791379 0 0.33665840413134002 0.45813729584373558 0 0.31644952709898599 0.45048471943637192 0 0.32630417559921532 0.4340558582791379 0 0.33665840413134002 0.45813729584373558 0 0.31644952709898599 0.45048471943637192 0 0.31498328288904742 0.47078576688924079 0 0.31498328288904742 0.47078576688924079 0 0.33202933529426032 0.48114598099502037 0 0.30940119287545592 0.5 0 0.33665840413134002 0.45813729584373558 0 0.31498328288904742 0.47078576688924079 0 0.33202933529426032 0.48114598099502037 0 0.35274725679684221 0.47698716891364612 0 0.33665840413134002 0.45813729584373558 0 0.33202933529426032 0.48114598099502037 0 0.35274725679684221 0.47698716891364612 0 0.33202933529426032 0.48114598099502037 0 0.33566299583229292 0.5 0 0.33202933529426032 0.48114598099502037 0 0.33566299583229292 0.5 0 0.30940119287545592 0.5 0 0.31498328288904742 0.47078576688924079 0 0.30940119287545592 0.5 0 0.29349310271981022 0.47929219921048261 0 0.31498328288904742 0.47078576688924079 0 0.29349310271981022 0.47929219921048261 0 0.29832919130737579 0.45665098392771758 0 0.30940119287545592 0.5 0 0.29349310271981022 0.47929219921048261 0 0.28313938991861898 0.49999999999999201 0 0.29349310271981022 0.47929219921048261 0 0.26189974192679311 0.4815200574556569 0 0.28016785937236838 0.46254052667813461 0 0.28313938991861898 0.49999999999999201 0 0.26189974192679311 0.4815200574556569 0 0.29349310271981022 0.47929219921048261 0 0.28313938991861898 0.49999999999999201 0 0.26189974192679311 0.4815200574556569 0 0.28313938991861898 0.49999999999999201 0 0.26189974192679311 0.4815200574556569 0 0.25493994946824972 0.5 0 0.24066009393496329 0.46304011491132641 0 0.26189974192679311 0.4815200574556569 0 0.2409316324203665 0.48417373471811048 0 0.26189974192679311 0.4815200574556569 0 0.25493994946824972 0.5 0 0.24066009393496329 0.46304011491132641 0 0.26189974192679311 0.4815200574556569 0 0.26203509798665858 0.4508207053220783 0 0.26189974192679311 0.4815200574556569 0 0.26203509798665858 0.4508207053220783 0 0.28016785937236838 0.46254052667813461 0 0.26203509798665858 0.4508207053220783 0 0.28016785937236838 0.46254052667813461 0 0.28341115117950672 0.43992506330394471 0 0.28016785937236838 0.46254052667813461 0 0.28341115117950672 0.43992506330394471 0 0.29832919130737579 0.45665098392771758 0 0.28341115117950672 0.43992506330394471 0 0.29832919130737579 0.45665098392771758 0 0.30597258156795121 0.43279369224202768 0 0.29349310271981022 0.47929219921048261 0 0.28016785937236838 0.46254052667813461 0 0.29832919130737579 0.45665098392771758 0 0.31644952709898599 0.45048471943637192 0 0.31498328288904742 0.47078576688924079 0 0.29832919130737579 0.45665098392771758 0 0.29832919130737579 0.45665098392771758 0 0.30597258156795121 0.43279369224202768 0 0.31644952709898599 0.45048471943637192 0 0.29832919130737579 0.45665098392771758 0 0.30597258156795121 0.43279369224202768 0 0.30597258156795121 0.43279369224202768 0 0.31361597182852657 0.40893640055633779 0 0.30597258156795121 0.43279369224202768 0 0.28624634586536468 0.41614356086411458 0 0.31361597182852657 0.40893640055633779 0 0.28624634586536468 0.41614356086411458 0 0.28883282565023333 0.39429887469272051 0 0.31361597182852657 0.40893640055633779 0 0.28341115117950672 0.43992506330394471 0 0.30597258156795121 0.43279369224202768 0 0.28624634586536468 0.41614356086411458 0 0.26203509798665858 0.4508207053220783 0 0.28341115117950672 0.43992506330394471 0 0.2607506978584187 0.42078334106954163 0 0.28341115117950672 0.43992506330394471 0 0.28624634586536468 0.41614356086411458 0 0.2607506978584187 0.42078334106954163 0 0.28624634586536468 0.41614356086411458 0 0.2607506978584187 0.42078334106954163 0 0.26528765862489379 0.39663698510024209 0 0.24178471189718781 0.43890365396743353 0 0.26203509798665858 0.4508207053220783 0 0.2607506978584187 0.42078334106954163 0 0.2411690847036034 0.39358228940749468 0 0.26528765862489379 0.39663698510024209 0 0.25386926945956889 0.37450253246903831 0 0.26528765862489379 0.39663698510024209 0 0.27354555641997108 0.38137746070727407 0 0.25386926945956889 0.37450253246903831 0 0.2411690847036034 0.39358228940749468 0 0.2607506978584187 0.42078334106954163 0 0.26528765862489379 0.39663698510024209 0 0.26528765862489379 0.39663698510024209 0 0.27354555641997108 0.38137746070727407 0 0.28883282565023333 0.39429887469272051 0 0.28624634586536468 0.41614356086411458 0 0.26528765862489379 0.39663698510024209 0 0.28883282565023333 0.39429887469272051 0 0.27354555641997108 0.38137746070727407 0 0.29171256601362622 0.3758710661573626 0 0.28883282565023333 0.39429887469272051 0 0.29171256601362622 0.3758710661573626 0 0.28883282565023333 0.39429887469272051 0 0.30484909385029441 0.38704257496441868 0 0.28883282565023333 0.39429887469272051 0 0.30484909385029441 0.38704257496441868 0 0.31361597182852657 0.40893640055633779 0 0.30484909385029441 0.38704257496441868 0 0.32125936208910372 0.38507910887064828 0 0.30882474366998242 0.3710274245450243 0 0.29171256601362622 0.3758710661573626 0 0.30484909385029441 0.38704257496441868 0 0.30882474366998242 0.3710274245450243 0 0.32125936208910372 0.38507910887064828 0 0.30882474366998242 0.3710274245450243 0 0.32125936208910372 0.38507910887064828 0 0.31838384881779569 0.37237986129416217 0 0.30882474366998242 0.3710274245450243 0 0.32125936208910372 0.38507910887064828 0 0.33152748582509711 0.38067405351469541 0 0.32607324401993809 0.37005355326650652 0 0.32125936208910372 0.38507910887064828 0 0.32607324401993809 0.37005355326650652 0 0.31838384881779569 0.37237986129416217 0 0.32125936208910372 0.38507910887064828 0 0.32607324401993809 0.37005355326650652 0 0.33152748582509711 0.38067405351469541 0 0.34844240134729909 0.38740480882323203 0 0.33091248160050302 0.36883142216385217 0 0.32125936208910372 0.38507910887064828 0 0.33152748582509711 0.38067405351469541 0 0.33631295706470388 0.40209035581310559 0 0.33152748582509711 0.38067405351469541 0 0.33631295706470388 0.40209035581310559 0 0.34844240134729909 0.38740480882323203 0 0.34844240134729909 0.38740480882323203 0 0.34284933408192492 0.37079032965646708 0 0.33091248160050302 0.36883142216385217 0 0.34844240134729909 0.38740480882323203 0 0.33091248160050302 0.36883142216385217 0 0.32125936208910372 0.38507910887064828 0 0.33631295706470388 0.40209035581310559 0 0.32125936208910372 0.38507910887064828 0 0.31361597182852657 0.40893640055633779 0 0.30484909385029441 0.38704257496441868 0 0.32125936208910372 0.38507910887064828 0 0.31361597182852657 0.40893640055633779 0 0.32125936208910372 0.38507910887064828 0 0.33631295706470388 0.40209035581310559 0 0.31361597182852657 0.40893640055633779 0 0.31361597182852657 0.40893640055633779 0 0.32630417559921532 0.4340558582791379 0 0.33515385564758288 0.41828230613362222 0 0.30597258156795121 0.43279369224202768 0 0.31361597182852657 0.40893640055633779 0 0.32630417559921532 0.4340558582791379 0 0.32630417559921532 0.4340558582791379 0 0.33515385564758288 0.41828230613362222 0 0.34647911066622522 0.43653112039468739 0 0.33631295706470388 0.40209035581310559 0 0.31361597182852657 0.40893640055633779 0 0.33515385564758288 0.41828230613362222 0 0.33631295706470388 0.40209035581310559 0 0.33515385564758288 0.41828230613362222 0 0.35136655204030343 0.41910160275556341 0 0.33631295706470388 0.40209035581310559 0 0.35136655204030343 0.41910160275556341 0 0.33631295706470388 0.40209035581310559 0 0.35136655204030343 0.41910160275556341 0 0.35052355788660039 0.40364374071862819 0 0.35136655204030343 0.41910160275556341 0 0.36597232109409528 0.40597819548261188 0 0.35052355788660039 0.40364374071862819 0 0.35136655204030343 0.41910160275556341 0 0.36642014701590297 0.43611284969802128 0 0.33515385564758288 0.41828230613362222 0 0.35136655204030343 0.41910160275556341 0 0.34647911066622522 0.43653112039468739 0 0.35136655204030343 0.41910160275556341 0 0.34647911066622522 0.43653112039468739 0 0.36642014701590297 0.43611284969802128 0 0.35136655204030343 0.41910160275556341 0 0.36642014701590297 0.43611284969802128 0 0.37556270256806162 0.4218884688082305 0 0.36642014701590297 0.43611284969802128 0 0.37556270256806162 0.4218884688082305 0 0.37917480584603569 0.44411689363633972 0 0.35136655204030343 0.41910160275556341 0 0.36597232109409528 0.40597819548261188 0 0.37556270256806162 0.4218884688082305 0 0.36597232109409528 0.40597819548261188 0 0.36820698285887038 0.37845457935418608 0 0.38392596367209292 0.40402250385332761 0 0.36597232109409528 0.40597819548261188 0 0.36820698285887038 0.37845457935418608 0 0.34844240134729909 0.38740480882323203 0 0.36820698285887038 0.37845457935418608 0 0.34844240134729909 0.38740480882323203 0 0.3516120954139515 0.36806823292802282 0 0.34844240134729909 0.38740480882323203 0 0.3516120954139515 0.36806823292802282 0 0.34284933408192492 0.37079032965646708 0 0.33631295706470388 0.40209035581310559 0 0.34844240134729909 0.38740480882323203 0 0.35052355788660039 0.40364374071862819 0 0.36597232109409528 0.40597819548261188 0 0.34844240134729909 0.38740480882323203 0 0.36597232109409528 0.40597819548261188 0 0.34844240134729909 0.38740480882323203 0 0.35052355788660039 0.40364374071862819 0 0.3517204681402491 0.35312415672560882 0 0.36025116311319361 0.34190103749555067 0 0.34197912928100038 0.34367868180267641 0 0.3517204681402491 0.35312415672560882 0 0.36186418421291472 0.35967057494486582 0 0.36025116311319361 0.34190103749555067 0 0.3517204681402491 0.35312415672560882 0 0.34197912928100038 0.34367868180267641 0 0.3404303579659459 0.35885685471076129 0 0.3516120954139515 0.36806823292802282 0 0.3404303579659459 0.35885685471076129 0 0.34284933408192492 0.37079032965646708 0 0.3517204681402491 0.35312415672560882 0 0.3516120954139515 0.36806823292802282 0 0.3404303579659459 0.35885685471076129 0 0.3517204681402491 0.35312415672560882 0 0.3516120954139515 0.36806823292802282 0 0.36186418421291472 0.35967057494486582 0 0.36820698285887038 0.37845457935418608 0 0.36186418421291472 0.35967057494486582 0 0.37753021153830879 0.35680486822096058 0 0.36820698285887038 0.37845457935418608 0 0.3516120954139515 0.36806823292802282 0 0.36186418421291472 0.35967057494486582 0 0.36186418421291472 0.35967057494486582 0 0.36025116311319361 0.34190103749555067 0 0.37753021153830879 0.35680486822096058 0 0.36025116311319361 0.34190103749555067 0 0.37164152641948639 0.32753970478894878 0 0.37753021153830879 0.35680486822096058 0 0.36025116311319361 0.34190103749555067 0 0.37164152641948639 0.32753970478894878 0 0.34853109224293621 0.32814051534772493 0 0.37164152641948639 0.32753970478894878 0 0.35120317602703821 0.30867567864985851 0 0.37710471776824561 0.30669925670428372 0 0.34853109224293621 0.32814051534772493 0 0.33243594084016032 0.31759334640830172 0 0.35120317602703821 0.30867567864985851 0 0.37164152641948639 0.32753970478894878 0 0.34853109224293621 0.32814051534772493 0 0.35120317602703821 0.30867567864985851 0 0.36025116311319361 0.34190103749555067 0 0.34853109224293621 0.32814051534772493 0 0.34197912928100038 0.34367868180267641 0 0.34853109224293621 0.32814051534772493 0 0.34197912928100038 0.34367868180267641 0 0.33425656002374421 0.33210897891450403 0 0.34197912928100038 0.34367868180267641 0 0.33425656002374421 0.33210897891450403 0 0.32790393061644307 0.34251929785041241 0 0.34853109224293621 0.32814051534772493 0 0.33425656002374421 0.33210897891450403 0 0.33243594084016032 0.31759334640830172 0 0.33425656002374421 0.33210897891450403 0 0.33243594084016032 0.31759334640830172 0 0.32043270713818078 0.3286130531634045 0 0.32043270713818078 0.3286130531634045 0 0.30384496660594862 0.32481245939688907 0 0.31444374595026731 0.3075756701527001 0 0.33243594084016032 0.31759334640830172 0 0.32043270713818078 0.3286130531634045 0 0.31444374595026731 0.3075756701527001 0 0.32790393061644307 0.34251929785041241 0 0.32043270713818078 0.3286130531634045 0 0.31146784528685179 0.34071414555915941 0 0.33425656002374421 0.33210897891450403 0 0.32790393061644307 0.34251929785041241 0 0.32043270713818078 0.3286130531634045 0 0.32790393061644307 0.34251929785041241 0 0.31338256185370689 0.35025803550447232 0 0.3305015513791203 0.35291665521112142 0 0.31338256185370689 0.35025803550447232 0 0.3305015513791203 0.35291665521112142 0 0.33091248160050302 0.36883142216385217 0 0.32790393061644307 0.34251929785041241 0 0.3032257102308184 0.353180376056621 0 0.32790393061644307 0.34251929785041241 0 0.31338256185370689 0.35025803550447232 0 0.3032257102308184 0.353180376056621 0 0.32790393061644307 0.34251929785041241 0 0.3032257102308184 0.353180376056621 0 0.31146784528685179 0.34071414555915941 0 0.31338256185370689 0.35025803550447232 0 0.31737804549215892 0.36335935849446988 0 0.30784023729950538 0.35896018696399762 0 0.34197912928100038 0.34367868180267641 0 0.32790393061644307 0.34251929785041241 0 0.3305015513791203 0.35291665521112142 0 0.34197912928100038 0.34367868180267641 0 0.3305015513791203 0.35291665521112142 0 0.3404303579659459 0.35885685471076129 0 0.3305015513791203 0.35291665521112142 0 0.3404303579659459 0.35885685471076129 0 0.33091248160050302 0.36883142216385217 0 0.3404303579659459 0.35885685471076129 0 0.34284933408192492 0.37079032965646708 0 0.33091248160050302 0.36883142216385217 0 0.33152748582509711 0.38067405351469541 0 0.33091248160050302 0.36883142216385217 0 0.32607324401993809 0.37005355326650652 0 0.33091248160050302 0.36883142216385217 0 0.32607324401993809 0.37005355326650652 0 0.31737804549215892 0.36335935849446988 0 0.31338256185370689 0.35025803550447232 0 0.33091248160050302 0.36883142216385217 0 0.31737804549215892 0.36335935849446988 0 0.31338256185370689 0.35025803550447232 0 0.33091248160050302 0.36883142216385217 0 0.32607324401993809 0.37005355326650652 0 0.31737804549215892 0.36335935849446988 0 0.31838384881779569 0.37237986129416217 0 0.31737804549215892 0.36335935849446988 0 0.31838384881779569 0.37237986129416217 0 0.30882474366998242 0.3710274245450243 0 0.29171256601362622 0.3758710661573626 0 0.30882474366998242 0.3710274245450243 0 0.29608345293319599 0.35626585638822428 0 0.31737804549215892 0.36335935849446988 0 0.30882474366998242 0.3710274245450243 0 0.30784023729950538 0.35896018696399762 0 0.30882474366998242 0.3710274245450243 0 0.29608345293319599 0.35626585638822428 0 0.30882474366998242 0.3710274245450243 0 0.30784023729950538 0.35896018696399762 0 0.29608345293319599 0.35626585638822428 0 0.3032257102308184 0.353180376056621 0 0.30190176133335511 0.34499168483593912 0 0.31146784528685179 0.34071414555915941 0 0.31338256185370689 0.35025803550447232 0 0.30784023729950538 0.35896018696399762 0 0.3032257102308184 0.353180376056621 0 0.30784023729950538 0.35896018696399762 0 0.3032257102308184 0.353180376056621 0 0.29608345293319599 0.35626585638822428 0 0.3032257102308184 0.353180376056621 0 0.29343285983336248 0.34777377534721993 0 0.29608345293319599 0.35626585638822428 0 0.3032257102308184 0.353180376056621 0 0.29608345293319599 0.35626585638822428 0 0.3032257102308184 0.353180376056621 0 0.30190176133335511 0.34499168483593912 0 0.29343285983336248 0.34777377534721993 0 0.29343285983336248 0.34777377534721993 0 0.28441849822785481 0.34579751910743262 0 0.27854748984519367 0.36384145426282971 0 0.29343285983336248 0.34777377534721993 0 0.29608345293319599 0.35626585638822428 0 0.27854748984519367 0.36384145426282971 0 0.29343285983336248 0.34777377534721993 0 0.28441849822785481 0.34579751910743262 0 0.29160035375211762 0.34066052035316541 0 0.27354555641997108 0.38137746070727407 0 0.29171256601362622 0.3758710661573626 0 0.27854748984519367 0.36384145426282971 0 0.29608345293319599 0.35626585638822428 0 0.27854748984519367 0.36384145426282971 0 0.29171256601362622 0.3758710661573626 0 0.29608345293319599 0.35626585638822428 0 0.27854748984519367 0.36384145426282971 0 0.27354555641997108 0.38137746070727407 0 0.27854748984519367 0.36384145426282971 0 0.25386926945956889 0.37450253246903831 0 0.27854748984519367 0.36384145426282971 0 0.25386926945956889 0.37450253246903831 0 0.27854748984519367 0.36384145426282971 0 0.27380930131559239 0.34991388858769717 0 0.25847728971070272 0.35550736348294792 0 0.28441849822785481 0.34579751910743262 0 0.27854748984519367 0.36384145426282971 0 0.27380930131559239 0.34991388858769717 0 0.28441849822785481 0.34579751910743262 0 0.27380930131559239 0.34991388858769717 0 0.27699352690106632 0.33878878926000161 0 0.27380930131559239 0.34991388858769717 0 0.26683625678594419 0.34347664513288612 0 0.27699352690106632 0.33878878926000161 0 0.27380930131559239 0.34991388858769717 0 0.25847728971070272 0.35550736348294792 0 0.26683625678594419 0.34347664513288612 0 0.25847728971070272 0.35550736348294792 0 0.25831813309197221 0.34401217220405961 0 0.26683625678594419 0.34347664513288612 0 0.249620961284303 0.34373780941268323 0 0.25847728971070272 0.35550736348294792 0 0.25831813309197221 0.34401217220405961 0 0.27854748984519367 0.36384145426282971 0 0.25847728971070272 0.35550736348294792 0 0.25386926945956889 0.37450253246903831 0 0.23768086811268291 0.35317875484295141 0 0.25847728971070272 0.35550736348294792 0 0.25386926945956889 0.37450253246903831 0 0.26064630980341619 0.32380531809086183 0 0.2573088658314675 0.32856796527994192 0 0.26224517203378273 0.33009364105053213 0 0.26064630980341619 0.32380531809086183 0 0.26224517203378273 0.33009364105053213 0 0.26617268167571478 0.32510280996075641 0 0.26064630980341619 0.32380531809086183 0 0.26617268167571478 0.32510280996075641 0 0.26565906075122159 0.31853765645722598 0 0.26064630980341619 0.32380531809086183 0 0.25668864322046442 0.31829681127364873 0 0.26565906075122159 0.31853765645722598 0 0.26873582993919398 0.31270583820200187 0 0.26565906075122159 0.31853765645722598 0 0.26158738425029499 0.30945609654793638 0 0.25668864322046442 0.31829681127364873 0 0.26565906075122159 0.31853765645722598 0 0.26158738425029499 0.30945609654793638 0 0.2462292584674991 0.31236720123075778 0 0.24947861457289011 0.32304523978306371 0 0.25668864322046442 0.31829681127364873 0 0.2462292584674991 0.31236720123075778 0 0.25668864322046442 0.31829681127364873 0 0.26158738425029499 0.30945609654793638 0 0.24947861457289011 0.32304523978306371 0 0.25668864322046442 0.31829681127364873 0 0.25543875109255659 0.3242325771149705 0 0.26064630980341619 0.32380531809086183 0 0.25668864322046442 0.31829681127364873 0 0.25543875109255659 0.3242325771149705 0 0.25543875109255659 0.3242325771149705 0 0.25316257425336069 0.33006332487080869 0 0.2573088658314675 0.32856796527994192 0 0.26064630980341619 0.32380531809086183 0 0.25543875109255659 0.3242325771149705 0 0.2573088658314675 0.32856796527994192 0 0.24947861457289011 0.32304523978306371 0 0.25543875109255659 0.3242325771149705 0 0.25316257425336069 0.33006332487080869 0 0.2480649833585952 0.33223542728828143 0 0.24947861457289011 0.32304523978306371 0 0.25316257425336069 0.33006332487080869 0 0.2480649833585952 0.33223542728828143 0 0.25316257425336069 0.33006332487080869 0 0.25547354558526242 0.33592822636584468 0 0.25316257425336069 0.33006332487080869 0 0.25547354558526242 0.33592822636584468 0 0.2573088658314675 0.32856796527994192 0 0.249620961284303 0.34373780941268323 0 0.2480649833585952 0.33223542728828143 0 0.25547354558526242 0.33592822636584468 0 0.249620961284303 0.34373780941268323 0 0.25831813309197221 0.34401217220405961 0 0.25547354558526242 0.33592822636584468 0 0.25831813309197221 0.34401217220405961 0 0.25547354558526242 0.33592822636584468 0 0.26351484185526147 0.3358147721417335 0 0.25831813309197221 0.34401217220405961 0 0.26351484185526147 0.3358147721417335 0 0.26683625678594419 0.34347664513288612 0 0.25547354558526242 0.33592822636584468 0 0.26351484185526147 0.3358147721417335 0 0.26224517203378273 0.33009364105053213 0 0.26351484185526147 0.3358147721417335 0 0.26224517203378273 0.33009364105053213 0 0.27035478745157432 0.33134275446405442 0 0.25547354558526242 0.33592822636584468 0 0.2573088658314675 0.32856796527994192 0 0.26224517203378273 0.33009364105053213 0 0.26224517203378273 0.33009364105053213 0 0.27035478745157432 0.33134275446405442 0 0.26617268167571478 0.32510280996075641 0 0.27035478745157432 0.33134275446405442 0 0.26683625678594419 0.34347664513288612 0 0.27699352690106632 0.33878878926000161 0 0.26351484185526147 0.3358147721417335 0 0.27035478745157432 0.33134275446405442 0 0.26683625678594419 0.34347664513288612 0 0.27699352690106632 0.33878878926000161 0 0.27651050075479572 0.3286628368113178 0 0.28814509431703622 0.33246025561042758 0 0.27035478745157432 0.33134275446405442 0 0.27699352690106632 0.33878878926000161 0 0.27651050075479572 0.3286628368113178 0 0.27651050075479572 0.3286628368113178 0 0.27498352209464733 0.3145529480339222 0 0.27651050075479572 0.3286628368113178 0 0.27498352209464733 0.3145529480339222 0 0.28208362376266799 0.32120140113065138 0 0.27651050075479572 0.3286628368113178 0 0.27035083604828358 0.32424550313672013 0 0.27305714960811128 0.31758145799024567 0 0.27035478745157432 0.33134275446405442 0 0.27651050075479572 0.3286628368113178 0 0.27035083604828358 0.32424550313672013 0 0.27035083604828358 0.32424550313672013 0 0.26617268167571478 0.32510280996075641 0 0.26565906075122159 0.31853765645722598 0 0.27035478745157432 0.33134275446405442 0 0.27035083604828358 0.32424550313672013 0 0.26617268167571478 0.32510280996075641 0 0.26873582993919398 0.31270583820200187 0 0.26565906075122159 0.31853765645722598 0 0.27305714960811128 0.31758145799024567 0 0.27035083604828358 0.32424550313672013 0 0.26565906075122159 0.31853765645722598 0 0.27305714960811128 0.31758145799024567 0 0.26873582993919398 0.31270583820200187 0 0.27305714960811128 0.31758145799024567 0 0.27498352209464733 0.3145529480339222 0 0.27651050075479572 0.3286628368113178 0 0.27305714960811128 0.31758145799024567 0 0.27498352209464733 0.3145529480339222 0 0.27498352209464733 0.3145529480339222 0 0.28208362376266799 0.32120140113065138 0 0.28651776341667429 0.3118350231005565 0 0.27305714960811128 0.31758145799024567 0 0.27498352209464733 0.3145529480339222 0 0.28208362376266799 0.32120140113065138 0 0.2911120961403057 0.31946217018475709 0 0.28651776341667429 0.3118350231005565 0 0.2911120961403057 0.31946217018475709 0 0.28814509431703622 0.33246025561042758 0 0.30384496660594862 0.32481245939688907 0 0.27651050075479572 0.3286628368113178 0 0.28208362376266799 0.32120140113065138 0 0.28814509431703622 0.33246025561042758 0 0.28208362376266799 0.32120140113065138 0 0.2911120961403057 0.31946217018475709 0 0.28814509431703622 0.33246025561042758 0 0.2911120961403057 0.31946217018475709 0 0.29730394029611729 0.308463197604394 0 0.28651776341667429 0.3118350231005565 0 0.28441849822785481 0.34579751910743262 0 0.28814509431703622 0.33246025561042758 0 0.29160035375211762 0.34066052035316541 0 0.28441849822785481 0.34579751910743262 0 0.27699352690106632 0.33878878926000161 0 0.28814509431703622 0.33246025561042758 0 0.28814509431703622 0.33246025561042758 0 0.29160035375211762 0.34066052035316541 0 0.29948062998238772 0.33829844238075618 0 0.29343285983336248 0.34777377534721993 0 0.29160035375211762 0.34066052035316541 0 0.29948062998238772 0.33829844238075618 0 0.29948062998238772 0.33829844238075618 0 0.31146784528685179 0.34071414555915941 0 0.30384496660594862 0.32481245939688907 0 0.32043270713818078 0.3286130531634045 0 0.31146784528685179 0.34071414555915941 0 0.30384496660594862 0.32481245939688907 0 0.28814509431703622 0.33246025561042758 0 0.29948062998238772 0.33829844238075618 0 0.30384496660594862 0.32481245939688907 0 0.30190176133335511 0.34499168483593912 0 0.29343285983336248 0.34777377534721993 0 0.29948062998238772 0.33829844238075618 0 0.30190176133335511 0.34499168483593912 0 0.29948062998238772 0.33829844238075618 0 0.31146784528685179 0.34071414555915941 0 0.30384496660594862 0.32481245939688907 0 0.29730394029611729 0.308463197604394 0 0.31444374595026731 0.3075756701527001 0 0.2911120961403057 0.31946217018475709 0 0.30384496660594862 0.32481245939688907 0 0.29730394029611729 0.308463197604394 0 0.29730394029611729 0.308463197604394 0 0.30288618256959282 0.29259124235370643 0 0.31444374595026731 0.3075756701527001 0 0.30288618256959282 0.29259124235370643 0 0.31775108351114267 0.28692947055560208 0 0.31444374595026731 0.3075756701527001 0 0.30288618256959282 0.29259124235370643 0 0.29922774748461778 0.27643784906419261 0 0.31775108351114267 0.28692947055560208 0 0.29922774748461778 0.27643784906419261 0 0.31775108351114267 0.28692947055560208 0 0.30288618256959282 0.29259124235370643 0 0.28710563478963302 0.29549539854905771 0 0.29922774748461778 0.27643784906419261 0 0.28710563478963302 0.29549539854905771 0 0.28539471734345251 0.28205093636543771 0 0.29922774748461778 0.27643784906419261 0 0.28710563478963302 0.29549539854905771 0 0.29922774748461778 0.27643784906419261 0 0.28710563478963302 0.29549539854905771 0 0.28539471734345251 0.28205093636543771 0 0.27882767692645583 0.2931921795920055 0 0.27498352209464733 0.3145529480339222 0 0.28710563478963302 0.29549539854905771 0 0.28651776341667429 0.3118350231005565 0 0.29730394029611729 0.308463197604394 0 0.28710563478963302 0.29549539854905771 0 0.28651776341667429 0.3118350231005565 0 0.29730394029611729 0.308463197604394 0 0.30288618256959282 0.29259124235370643 0 0.28710563478963302 0.29549539854905771 0 0.27498352209464733 0.3145529480339222 0 0.28710563478963302 0.29549539854905771 0 0.27762277740849473 0.30238453807861748 0 0.27498352209464733 0.3145529480339222 0 0.27349030688049919 0.30075504689610122 0 0.27498352209464733 0.3145529480339222 0 0.28710563478963302 0.29549539854905771 0 0.27498352209464733 0.3145529480339222 0 0.27349030688049919 0.30075504689610122 0 0.27762277740849473 0.30238453807861748 0 0.26873582993919398 0.31270583820200187 0 0.27498352209464733 0.3145529480339222 0 0.27349030688049919 0.30075504689610122 0 0.26873582993919398 0.31270583820200187 0 0.27349030688049919 0.30075504689610122 0 0.26158738425029499 0.30945609654793638 0 0.28710563478963302 0.29549539854905771 0 0.27762277740849473 0.30238453807861748 0 0.27882767692645583 0.2931921795920055 0 0.27349030688049919 0.30075504689610122 0 0.27762277740849473 0.30238453807861748 0 0.27882767692645583 0.2931921795920055 0 0.27349030688049919 0.30075504689610122 0 0.27762277740849473 0.30238453807861748 0 0.27349030688049919 0.30075504689610122 0 0.27150386227194939 0.28239951042355832 0 0.27349030688049919 0.30075504689610122 0 0.27882767692645583 0.2931921795920055 0 0.27150386227194939 0.28239951042355832 0 0.27349030688049919 0.30075504689610122 0 0.27150386227194939 0.28239951042355832 0 0.26429113027200202 0.28866316648519041 0 0.28539471734345251 0.28205093636543771 0 0.27882767692645583 0.2931921795920055 0 0.27150386227194939 0.28239951042355832 0 0.27150386227194939 0.28239951042355832 0 0.26429113027200202 0.28866316648519041 0 0.26240120547802598 0.27881020497477488 0 0.27349030688049919 0.30075504689610122 0 0.26429113027200202 0.28866316648519041 0 0.25528499329265092 0.29357643599853311 0 0.25528499329265092 0.29357643599853311 0 0.26240120547802598 0.27881020497477488 0 0.26429113027200202 0.28866316648519041 0 0.25528499329265092 0.29357643599853311 0 0.26240120547802598 0.27881020497477488 0 0.2496942229676696 0.28281520722170478 0 0.25528499329265092 0.29357643599853311 0 0.26240120547802598 0.27881020497477488 0 0.2462292584674991 0.31236720123075778 0 0.25528499329265092 0.29357643599853311 0 0.26158738425029499 0.30945609654793638 0 0.2462292584674991 0.31236720123075778 0 0.25528499329265092 0.29357643599853311 0 0.27349030688049919 0.30075504689610122 0 0.25528499329265092 0.29357643599853311 0 0.26158738425029499 0.30945609654793638 0 0.27349030688049919 0.30075504689610122 0 0.25528499329265092 0.29357643599853311 0 0.24460047411485919 0.27270879545511417 0 0.2598760197249958 0.26512438702971841 0 0.25385477390433608 0.25073858711362512 0 0.2598760197249958 0.26512438702971841 0 0.25385477390433608 0.25073858711362512 0 0.26900622746435671 0.25932037365406052 0 0.25385477390433608 0.25073858711362512 0 0.26900622746435671 0.25932037365406052 0 0.24460047411485919 0.27270879545511417 0 0.2598760197249958 0.26512438702971841 0 0.26240120547802598 0.27881020497477488 0 0.24460047411485919 0.27270879545511417 0 0.2496942229676696 0.28281520722170478 0 0.26240120547802598 0.27881020497477488 0 0.2598760197249958 0.26512438702971841 0 0.26240120547802598 0.27881020497477488 0 0.26951741766339887 0.26404397395101559 0 0.26240120547802598 0.27881020497477488 0 0.26951741766339887 0.26404397395101559 0 0.27150386227194939 0.28239951042355832 0 0.26240120547802598 0.27881020497477488 0 0.26951741766339887 0.26404397395101559 0 0.27150386227194939 0.28239951042355832 0 0.26951741766339887 0.26404397395101559 0 0.27150386227194939 0.28239951042355832 0 0.26951741766339887 0.26404397395101559 0 0.28521191783079669 0.2684992801473734 0 0.28539471734345251 0.28205093636543771 0 0.27150386227194939 0.28239951042355832 0 0.28521191783079669 0.2684992801473734 0 0.27119608817697738 0.26056071123055119 0 0.28046064116166453 0.2413366456546425 0 0.27119608817697738 0.26056071123055119 0 0.26951741766339887 0.26404397395101559 0 0.28521191783079669 0.2684992801473734 0 0.27119608817697738 0.26056071123055119 0 0.2851102832333075 0.25714651131951488 0 0.28046064116166453 0.2413366456546425 0 0.27119608817697738 0.26056071123055119 0 0.26900622746435671 0.25932037365406052 0 0.28046064116166453 0.2413366456546425 0 0.27119608817697738 0.26056071123055119 0 0.2851102832333075 0.25714651131951488 0 0.28521191783079669 0.2684992801473734 0 0.27119608817697738 0.26056071123055119 0 0.28521191783079669 0.2684992801473734 0 0.2598760197249958 0.26512438702971841 0 0.26900622746435671 0.25932037365406052 0 0.26951741766339887 0.26404397395101559 0 0.27119608817697738 0.26056071123055119 0 0.26951741766339887 0.26404397395101559 0 0.27119608817697738 0.26056071123055119 0 0.26900622746435671 0.25932037365406052 0 0.26951741766339887 0.26404397395101559 0 0.27119608817697738 0.26056071123055119 0 0.26900622746435671 0.25932037365406052 0 0.26900622746435671 0.25932037365406052 0 0.26951741766339887 0.26404397395101559 0 0.2851102832333075 0.25714651131951488 0 0.29678721232981631 0.25191443877972741 0 0.28046064116166453 0.2413366456546425 0 0.2851102832333075 0.25714651131951488 0 0.29631017864448728 0.26524691128556871 0 0.28521191783079669 0.2684992801473734 0 0.2851102832333075 0.25714651131951488 0 0.29631017864448728 0.26524691128556871 0 0.29678721232981631 0.25191443877972741 0 0.28521191783079669 0.2684992801473734 0 0.29922774748461778 0.27643784906419261 0 0.29631017864448728 0.26524691128556871 0 0.28521191783079669 0.2684992801473734 0 0.29922774748461778 0.27643784906419261 0 0.28539471734345251 0.28205093636543771 0 0.28521191783079669 0.2684992801473734 0 0.29922774748461778 0.27643784906419261 0 0.29922774748461778 0.27643784906419261 0 0.31573513129965558 0.2727462747234885 0 0.31775108351114267 0.28692947055560208 0 0.29922774748461778 0.27643784906419261 0 0.30768267818832018 0.26314559017077921 0 0.31573513129965558 0.2727462747234885 0 0.29922774748461778 0.27643784906419261 0 0.30768267818832018 0.26314559017077921 0 0.29631017864448728 0.26524691128556871 0 0.29922774748461778 0.27643784906419261 0 0.30768267818832018 0.26314559017077921 0 0.29678721232981631 0.25191443877972741 0 0.30768267818832018 0.26314559017077921 0 0.31613760889202158 0.24985333127736531 0 0.29631017864448728 0.26524691128556871 0 0.29678721232981631 0.25191443877972741 0 0.30768267818832018 0.26314559017077921 0 0.30768267818832018 0.26314559017077921 0 0.31613760889202158 0.24985333127736531 0 0.32244204156087841 0.26319858302206273 0 0.33267406909819208 0.25332912475091363 0 0.31613760889202158 0.24985333127736531 0 0.30768267818832018 0.26314559017077921 0 0.32244204156087841 0.26319858302206273 0 0.31613760889202158 0.24985333127736531 0 0.33267406909819208 0.25332912475091363 0 0.34791963164634537 0.25884687602428208 0 0.34537901864450649 0.24169610408394809 0 0.33267406909819208 0.25332912475091363 0 0.33299584217686939 0.27139008630898048 0 0.34791963164634537 0.25884687602428208 0 0.32244204156087841 0.26319858302206273 0 0.33267406909819208 0.25332912475091363 0 0.33299584217686939 0.27139008630898048 0 0.33299584217686939 0.27139008630898048 0 0.34078514241227398 0.28840598026756542 0 0.35164962805920541 0.27499676417311658 0 0.33299584217686939 0.27139008630898048 0 0.31573513129965558 0.2727462747234885 0 0.31775108351114267 0.28692947055560208 0 0.32244204156087841 0.26319858302206273 0 0.33299584217686939 0.27139008630898048 0 0.31573513129965558 0.2727462747234885 0 0.30768267818832018 0.26314559017077921 0 0.32244204156087841 0.26319858302206273 0 0.31573513129965558 0.2727462747234885 0 0.33243594084016032 0.31759334640830172 0 0.31444374595026731 0.3075756701527001 0 0.33132381774817649 0.30183602920680558 0 0.31775108351114267 0.28692947055560208 0 0.31444374595026731 0.3075756701527001 0 0.33132381774817649 0.30183602920680558 0 0.33243594084016032 0.31759334640830172 0 0.33132381774817649 0.30183602920680558 0 0.35120317602703821 0.30867567864985851 0 0.33132381774817649 0.30183602920680558 0 0.34078514241227398 0.28840598026756542 0 0.35120317602703821 0.30867567864985851 0 0.31775108351114267 0.28692947055560208 0 0.33132381774817649 0.30183602920680558 0 0.34078514241227398 0.28840598026756542 0 0.33299584217686939 0.27139008630898048 0 0.31775108351114267 0.28692947055560208 0 0.34078514241227398 0.28840598026756542 0 0.34078514241227398 0.28840598026756542 0 0.3649345734150648 0.2865337767831091 0 0.35164962805920541 0.27499676417311658 0 0.34078514241227398 0.28840598026756542 0 0.35120317602703821 0.30867567864985851 0 0.3649345734150648 0.2865337767831091 0 0.35120317602703821 0.30867567864985851 0 0.3649345734150648 0.2865337767831091 0 0.37710471776824561 0.30669925670428372 0 0.3649345734150648 0.2865337767831091 0 0.36499980450387559 0.26568896888983229 0 0.38414847298431631 0.27123179689787102 0 0.3649345734150648 0.2865337767831091 0 0.36499980450387559 0.26568896888983229 0 0.35164962805920541 0.27499676417311658 0 0.36499980450387559 0.26568896888983229 0 0.38051310320780951 0.25297030194586873 0 0.36185578605882929 0.24709094405239959 0 0.36499980450387559 0.26568896888983229 0 0.34791963164634537 0.25884687602428208 0 0.36185578605882929 0.24709094405239959 0 0.36499980450387559 0.26568896888983229 0 0.34791963164634537 0.25884687602428208 0 0.35164962805920541 0.27499676417311658 0 0.33299584217686939 0.27139008630898048 0 0.34791963164634537 0.25884687602428208 0 0.35164962805920541 0.27499676417311658 0 0.38414847298431631 0.27123179689787102 0 0.38633292762422111 0.28900183535915452 0 0.4072875506491811 0.27697730403857213 0 0.40082287850574599 0.25621859437068972 0 0.38414847298431631 0.27123179689787102 0 0.4072875506491811 0.27697730403857213 0 0.36499980450387559 0.26568896888983229 0 0.38051310320780951 0.25297030194586873 0 0.38414847298431631 0.27123179689787102 0 0.40082287850574599 0.25621859437068972 0 0.38051310320780951 0.25297030194586873 0 0.38414847298431631 0.27123179689787102 0 0.3649345734150648 0.2865337767831091 0 0.38414847298431631 0.27123179689787102 0 0.38633292762422111 0.28900183535915452 0 0.3649345734150648 0.2865337767831091 0 0.38633292762422111 0.28900183535915452 0 0.37710471776824561 0.30669925670428372 0 0.37710471776824561 0.30669925670428372 0 0.40232973392454691 0.30371909076188619 0 0.39181568879121431 0.32134919900271158 0 0.38633292762422111 0.28900183535915452 0 0.37710471776824561 0.30669925670428372 0 0.40232973392454691 0.30371909076188619 0 0.38633292762422111 0.28900183535915452 0 0.40232973392454691 0.30371909076188619 0 0.4072875506491811 0.27697730403857213 0 0.40232973392454691 0.30371909076188619 0 0.42065422274367831 0.28932695794652857 0 0.4072875506491811 0.27697730403857213 0 0.40232973392454691 0.30371909076188619 0 0.42065422274367831 0.28932695794652857 0 0.42503666366245701 0.31424161697734537 0 0.42065422274367831 0.28932695794652857 0 0.44214098451101941 0.29373427242517602 0 0.42503666366245701 0.31424161697734537 0 0.42065422274367831 0.28932695794652857 0 0.42961879210360843 0.27598441964289022 0 0.44214098451101941 0.29373427242517602 0 0.42961879210360843 0.27598441964289022 0 0.42782889154107612 0.25533539845400482 0 0.44826472989149319 0.27057440875637451 0 0.42065422274367831 0.28932695794652857 0 0.42961879210360843 0.27598441964289022 0 0.4072875506491811 0.27697730403857213 0 0.42961879210360843 0.27598441964289022 0 0.4072875506491811 0.27697730403857213 0 0.42782889154107612 0.25533539845400482 0 0.40082287850574599 0.25621859437068972 0 0.42782889154107612 0.25533539845400482 0 0.41366690408933199 0.24065356243361821 0 0.40082287850574599 0.25621859437068972 0 0.4072875506491811 0.27697730403857213 0 0.42782889154107612 0.25533539845400482 0 0.42782889154107612 0.25533539845400482 0 0.45897269939270707 0.25639659969192341 0 0.45389835390168393 0.23849574072483909 0 0.42782889154107612 0.25533539845400482 0 0.44826472989149319 0.27057440875637451 0 0.45897269939270707 0.25639659969192341 0 0.42961879210360843 0.27598441964289022 0 0.44826472989149319 0.27057440875637451 0 0.44214098451101941 0.29373427242517602 0 0.44826472989149319 0.27057440875637451 0 0.47479080729824669 0.27245039859652881 0 0.46181537369966152 0.28731425471434868 0 0.44826472989149319 0.27057440875637451 0 0.45897269939270707 0.25639659969192341 0 0.47479080729824669 0.27245039859652881 0 0.47479080729824669 0.27245039859652881 0 0.50000000000000022 0.25544206070103809 0 0.4769491769508421 0.24696890071293859 0 0.45897269939270707 0.25639659969192341 0 0.47479080729824669 0.27245039859652881 0 0.4769491769508421 0.24696890071293859 0 0.47479080729824669 0.27245039859652881 0 0.5 0.2810585693538673 0 0.50000000000000022 0.25544206070103809 0 0.50000000000000022 0.25544206070103809 0 0.4769491769508421 0.24696890071293859 0 0.5 0.30667507800669652 0 0.48028541008392639 0.29375354016572491 0 0.48311341159195981 0.31271251872156952 0 0.47479080729824669 0.27245039859652881 0 0.5 0.2810585693538673 0 0.48028541008392639 0.29375354016572491 0 0.5 0.2810585693538673 0 0.5 0.30667507800669652 0 0.48028541008392639 0.29375354016572491 0 0.47479080729824669 0.27245039859652881 0 0.48028541008392639 0.29375354016572491 0 0.46181537369966152 0.28731425471434868 0 0.48028541008392639 0.29375354016572491 0 0.46359493671362201 0.30605865362793988 0 0.48311341159195981 0.31271251872156952 0 0.48028541008392639 0.29375354016572491 0 0.46359493671362201 0.30605865362793988 0 0.46181537369966152 0.28731425471434868 0 0.46359493671362201 0.30605865362793988 0 0.46181537369966152 0.28731425471434868 0 0.44214098451101941 0.29373427242517602 0 0.44826472989149319 0.27057440875637451 0 0.46181537369966152 0.28731425471434868 0 0.44214098451101941 0.29373427242517602 0 0.46359493671362201 0.30605865362793988 0 0.44214098451101941 0.29373427242517602 0 0.44664545097175012 0.31940094904050842 0 0.44214098451101941 0.29373427242517602 0 0.44664545097175012 0.31940094904050842 0 0.42503666366245701 0.31424161697734537 0 0.44664545097175012 0.31940094904050842 0 0.44683042569001308 0.34024378694452823 0 0.42782288365872861 0.33914555217755421 0 0.44664545097175012 0.31940094904050842 0 0.44683042569001308 0.34024378694452823 0 0.47136513563577831 0.32816642748827612 0 0.44683042569001308 0.34024378694452823 0 0.47136513563577831 0.32816642748827612 0 0.46523846942971098 0.35034887081032601 0 0.46359493671362201 0.30605865362793988 0 0.44664545097175012 0.31940094904050842 0 0.47136513563577831 0.32816642748827612 0 0.46359493671362201 0.30605865362793988 0 0.48311341159195981 0.31271251872156952 0 0.47136513563577831 0.32816642748827612 0 0.47136513563577831 0.32816642748827612 0 0.48327404065303681 0.34757609293570302 0 0.46523846942971098 0.35034887081032601 0 0.47136513563577831 0.32816642748827612 0 0.5 0.33229158665952557 0 0.48327404065303681 0.34757609293570302 0 0.5 0.30667507800669652 0 0.48311341159195981 0.31271251872156952 0 0.5 0.33229158665952557 0 0.48311341159195981 0.31271251872156952 0 0.47136513563577831 0.32816642748827612 0 0.5 0.33229158665952557 0 0.5 0.35790809531235468 0 0.48327404065303681 0.34757609293570302 0 0.47388232156608567 0.37411798830755799 0 0.5 0.35790809531235468 0 0.47388232156608567 0.37411798830755799 0 0.5 0.38352460396518367 0 0.5 0.33229158665952557 0 0.5 0.35790809531235468 0 0.48327404065303681 0.34757609293570302 0 0.48327404065303681 0.34757609293570302 0 0.47388232156608567 0.37411798830755799 0 0.46523846942971098 0.35034887081032601 0 0.47388232156608567 0.37411798830755799 0 0.46523846942971098 0.35034887081032601 0 0.44789828528683667 0.36411631032532721 0 0.44683042569001308 0.34024378694452823 0 0.46523846942971098 0.35034887081032601 0 0.44789828528683667 0.36411631032532721 0 0.44683042569001308 0.34024378694452823 0 0.44789828528683667 0.36411631032532721 0 0.44683042569001308 0.34024378694452823 0 0.44789828528683667 0.36411631032532721 0 0.42782288365872861 0.33914555217755421 0 0.44789828528683667 0.36411631032532721 0 0.42768697566721031 0.37167901224894001 0 0.44896614488366038 0.38798883370612641 0 0.44789828528683667 0.36411631032532721 0 0.42768697566721031 0.37167901224894001 0 0.42782288365872861 0.33914555217755421 0 0.42768697566721031 0.37167901224894001 0 0.4134385041172286 0.35244965928619848 0 0.42782288365872861 0.33914555217755421 0 0.42768697566721031 0.37167901224894001 0 0.4134385041172286 0.35244965928619848 0 0.4041921749066264 0.36790901708306978 0 0.44664545097175012 0.31940094904050842 0 0.42782288365872861 0.33914555217755421 0 0.42503666366245701 0.31424161697734537 0 0.42782288365872861 0.33914555217755421 0 0.42503666366245701 0.31424161697734537 0 0.41005829074918948 0.32887208056272049 0 0.40232973392454691 0.30371909076188619 0 0.42503666366245701 0.31424161697734537 0 0.41005829074918948 0.32887208056272049 0 0.4134385041172286 0.35244965928619848 0 0.42782288365872861 0.33914555217755421 0 0.41005829074918948 0.32887208056272049 0 0.41005829074918948 0.32887208056272049 0 0.39464750494937151 0.34244117323357948 0 0.39181568879121431 0.32134919900271158 0 0.4134385041172286 0.35244965928619848 0 0.41005829074918948 0.32887208056272049 0 0.39464750494937151 0.34244117323357948 0 0.40232973392454691 0.30371909076188619 0 0.41005829074918948 0.32887208056272049 0 0.39181568879121431 0.32134919900271158 0 0.37164152641948639 0.32753970478894878 0 0.37710471776824561 0.30669925670428372 0 0.39181568879121431 0.32134919900271158 0 0.37164152641948639 0.32753970478894878 0 0.39464750494937151 0.34244117323357948 0 0.37753021153830879 0.35680486822096058 0 0.37164152641948639 0.32753970478894878 0 0.39464750494937151 0.34244117323357948 0 0.39181568879121431 0.32134919900271158 0 0.36820698285887038 0.37845457935418608 0 0.37753021153830879 0.35680486822096058 0 0.38956779064328978 0.3822573652636464 0 0.37753021153830879 0.35680486822096058 0 0.4041921749066264 0.36790901708306978 0 0.38956779064328978 0.3822573652636464 0 0.37753021153830879 0.35680486822096058 0 0.38956779064328978 0.3822573652636464 0 0.39464750494937151 0.34244117323357948 0 0.37753021153830879 0.35680486822096058 0 0.4041921749066264 0.36790901708306978 0 0.4134385041172286 0.35244965928619848 0 0.39464750494937151 0.34244117323357948 0 0.4041921749066264 0.36790901708306978 0 0.38956779064328978 0.3822573652636464 0 0.40160536974827082 0.40770986230633222 0 0.41363790593375138 0.38902683673345229 0 0.38956779064328978 0.3822573652636464 0 0.38392596367209292 0.40402250385332761 0 0.40160536974827082 0.40770986230633222 0 0.38956779064328978 0.3822573652636464 0 0.40160536974827082 0.40770986230633222 0 0.4041921749066264 0.36790901708306978 0 0.38956779064328978 0.3822573652636464 0 0.41363790593375138 0.38902683673345229 0 0.36820698285887038 0.37845457935418608 0 0.38956779064328978 0.3822573652636464 0 0.38392596367209292 0.40402250385332761 0 0.38392596367209292 0.40402250385332761 0 0.37556270256806162 0.4218884688082305 0 0.39548384188546493 0.42617778839279241 0 0.36597232109409528 0.40597819548261188 0 0.38392596367209292 0.40402250385332761 0 0.37556270256806162 0.4218884688082305 0 0.37556270256806162 0.4218884688082305 0 0.39548384188546493 0.42617778839279241 0 0.37917480584603569 0.44411689363633972 0 0.39548384188546493 0.42617778839279241 0 0.41364294885325181 0.43316235934901792 0 0.4050209097250706 0.44031230340179678 0 0.39548384188546493 0.42617778839279241 0 0.40160536974827082 0.40770986230633222 0 0.41364294885325181 0.43316235934901792 0 0.39548384188546493 0.42617778839279241 0 0.4050209097250706 0.44031230340179678 0 0.3947393065828313 0.44488803136690119 0 0.38392596367209292 0.40402250385332761 0 0.39548384188546493 0.42617778839279241 0 0.40160536974827082 0.40770986230633222 0 0.40160536974827082 0.40770986230633222 0 0.41820660351636191 0.42150678984995349 0 0.42182234864088342 0.40792330740481592 0 0.40160536974827082 0.40770986230633222 0 0.41364294885325181 0.43316235934901792 0 0.40160536974827082 0.40770986230633222 0 0.41820660351636191 0.42150678984995349 0 0.41364294885325181 0.43316235934901792 0 0.41820660351636191 0.42150678984995349 0 0.41364294885325181 0.43316235934901792 0 0.41981015317003828 0.4332348649800829 0 0.41364294885325181 0.43316235934901792 0 0.41981015317003828 0.4332348649800829 0 0.41632054844636912 0.44490380081358621 0 0.41981015317003828 0.4332348649800829 0 0.42821059077455143 0.42891643075219082 0 0.43720732138734608 0.43973392909579251 0 0.41820660351636191 0.42150678984995349 0 0.42821059077455143 0.42891643075219082 0 0.42708030810189901 0.41997585015593097 0 0.41820660351636191 0.42150678984995349 0 0.41981015317003828 0.4332348649800829 0 0.42821059077455143 0.42891643075219082 0 0.42821059077455143 0.42891643075219082 0 0.43651542134896221 0.42753684761349398 0 0.42708030810189901 0.41997585015593097 0 0.42821059077455143 0.42891643075219082 0 0.43651542134896221 0.42753684761349398 0 0.43720732138734608 0.43973392909579251 0 0.42182234864088342 0.40792330740481592 0 0.42708030810189901 0.41997585015593097 0 0.4349588414213213 0.41268207782916749 0 0.41820660351636191 0.42150678984995349 0 0.42182234864088342 0.40792330740481592 0 0.42708030810189901 0.41997585015593097 0 0.43651542134896221 0.42753684761349398 0 0.42708030810189901 0.41997585015593097 0 0.4349588414213213 0.41268207782916749 0 0.42182234864088342 0.40792330740481592 0 0.43285103683788478 0.39686023750157112 0 0.41363790593375138 0.38902683673345229 0 0.42182234864088342 0.40792330740481592 0 0.4349588414213213 0.41268207782916749 0 0.43285103683788478 0.39686023750157112 0 0.40160536974827082 0.40770986230633222 0 0.42182234864088342 0.40792330740481592 0 0.41363790593375138 0.38902683673345229 0 0.42768697566721031 0.37167901224894001 0 0.4041921749066264 0.36790901708306978 0 0.41363790593375138 0.38902683673345229 0 0.42768697566721031 0.37167901224894001 0 0.43285103683788478 0.39686023750157112 0 0.41363790593375138 0.38902683673345229 0 0.42768697566721031 0.37167901224894001 0 0.43285103683788478 0.39686023750157112 0 0.44896614488366038 0.38798883370612641 0 0.44789828528683667 0.36411631032532721 0 0.44896614488366038 0.38798883370612641 0 0.44896614488366038 0.38798883370612641 0 0.45003400448048247 0.41186135708692539 0 0.43285103683788478 0.39686023750157112 0 0.44896614488366038 0.38798883370612641 0 0.45003400448048247 0.41186135708692539 0 0.4660795823690953 0.39536850513881922 0 0.47501700224024029 0.41050123485246898 0 0.45003400448048247 0.41186135708692539 0 0.44896614488366038 0.38798883370612641 0 0.4660795823690953 0.39536850513881922 0 0.45003400448048247 0.41186135708692539 0 0.47388232156608567 0.37411798830755799 0 0.44789828528683667 0.36411631032532721 0 0.44896614488366038 0.38798883370612641 0 0.47388232156608567 0.37411798830755799 0 0.44896614488366038 0.38798883370612641 0 0.4660795823690953 0.39536850513881922 0 0.47388232156608567 0.37411798830755799 0 0.4660795823690953 0.39536850513881922 0 0.48262790102404879 0.39293474679812618 0 0.4660795823690953 0.39536850513881922 0 0.48262790102404879 0.39293474679812618 0 0.47501700224024029 0.41050123485246898 0 0.48262790102404879 0.39293474679812618 0 0.5 0.38352460396518367 0 0.49999999999999828 0.40914111261801278 0 0.48262790102404879 0.39293474679812618 0 0.49999999999999828 0.40914111261801278 0 0.47501700224024029 0.41050123485246898 0 0.47388232156608567 0.37411798830755799 0 0.48262790102404879 0.39293474679812618 0 0.5 0.38352460396518367 0 0.49999999999999828 0.40914111261801278 0 0.47352908206705641 0.43814246891355779 0 0.5 0.46232957026417493 0 0.49999999999999828 0.40914111261801278 0 0.47501700224024029 0.41050123485246898 0 0.49999999999999828 0.40914111261801278 0 0.47501700224024029 0.41050123485246898 0 0.47352908206705641 0.43814246891355779 0 0.47501700224024029 0.41050123485246898 0 0.46241260512962451 0.42388350507400402 0 0.47352908206705641 0.43814246891355779 0 0.46241260512962451 0.42388350507400402 0 0.45107033173071909 0.43502895944306369 0 0.47352908206705641 0.43814246891355779 0 0.46241260512962451 0.42388350507400402 0 0.45003400448048247 0.41186135708692539 0 0.45107033173071909 0.43502895944306369 0 0.47501700224024029 0.41050123485246898 0 0.45003400448048247 0.41186135708692539 0 0.47501700224024029 0.41050123485246898 0 0.46241260512962451 0.42388350507400402 0 0.45003400448048247 0.41186135708692539 0 0.4349588414213213 0.41268207782916749 0 0.43285103683788478 0.39686023750157112 0 0.45003400448048247 0.41186135708692539 0 0.4349588414213213 0.41268207782916749 0 0.45003400448048247 0.41186135708692539 0 0.44314464974537121 0.42177731049316258 0 0.43651542134896221 0.42753684761349398 0 0.4349588414213213 0.41268207782916749 0 0.44314464974537121 0.42177731049316258 0 0.4349588414213213 0.41268207782916749 0 0.45003400448048247 0.41186135708692539 0 0.45003400448048247 0.41186135708692539 0 0.45107033173071909 0.43502895944306369 0 0.45003400448048247 0.41186135708692539 0 0.44314464974537121 0.42177731049316258 0 0.45107033173071909 0.43502895944306369 0 0.43651542134896221 0.42753684761349398 0 0.44314464974537121 0.42177731049316258 0 0.45107033173071909 0.43502895944306369 0 0.43651542134896221 0.42753684761349398 0 0.45107033173071909 0.43502895944306369 0 0.43720732138734608 0.43973392909579251 0 0.45210665898095409 0.45819656179920198 0 0.43553077231885151 0.45548990998672162 0 0.43720732138734608 0.43973392909579251 0 0.45107033173071909 0.43502895944306369 0 0.45210665898095409 0.45819656179920198 0 0.43720732138734608 0.43973392909579251 0 0.45107033173071909 0.43502895944306369 0 0.45210665898095409 0.45819656179920198 0 0.45210665898095409 0.45819656179920198 0 0.47352908206705641 0.43814246891355779 0 0.47257345774109588 0.46953184547090238 0 0.4512513914676648 0.47774495499336028 0 0.4340233080014006 0.47079228469521678 0 0.43553077231885151 0.45548990998672162 0 0.4512513914676648 0.47774495499336028 0 0.43553077231885151 0.45548990998672162 0 0.45210665898095409 0.45819656179920198 0 0.4512513914676648 0.47774495499336028 0 0.43553077231885151 0.45548990998672162 0 0.45210665898095409 0.45819656179920198 0 0.47257345774109588 0.46953184547090238 0 0.4512513914676648 0.47774495499336028 0 0.45107033173071909 0.43502895944306369 0 0.45210665898095409 0.45819656179920198 0 0.47352908206705641 0.43814246891355779 0 0.47352908206705641 0.43814246891355779 0 0.5 0.46232957026417493 0 0.47257345774109588 0.46953184547090238 0 0.5 0.5 0 0.48488636708939342 0.48296535393376933 0 0.46697201061647758 0.49999999999999922 0 0.5 0.46232957026417493 0 0.5 0.5 0 0.48488636708939342 0.48296535393376933 0 0.5 0.46232957026417493 0 0.48488636708939342 0.48296535393376933 0 0.47257345774109588 0.46953184547090238 0 0.48488636708939342 0.48296535393376933 0 0.47257345774109588 0.46953184547090238 0 0.46697201061647758 0.49999999999999922 0 0.46697201061647758 0.49999999999999922 0 0.4512513914676648 0.47774495499336028 0 0.47257345774109588 0.46953184547090238 0 0.46697201061647758 0.49999999999999922 0 0.4512513914676648 0.47774495499336028 0 0.4512513914676648 0.47774495499336028 0 0.43567557071462071 0.48399136800222647 0 0.4340233080014006 0.47079228469521678 0 0.46697201061647758 0.49999999999999922 0 0.4512513914676648 0.47774495499336028 0 0.44071020765964058 0.5 0 0.4512513914676648 0.47774495499336028 0 0.44071020765964058 0.5 0 0.43567557071462071 0.48399136800222647 0 0.44071020765964058 0.5 0 0.41444840470280359 0.5 0 0.43567557071462071 0.48399136800222647 0 0.41444840470280359 0.5 0 0.42270168646877682 0.4733470176141692 0 0.43567557071462071 0.48399136800222647 0 0.41444840470280359 0.5 0 0.40625637034849482 0.48177220787751818 0 0.42270168646877682 0.4733470176141692 0 0.40625637034849482 0.48177220787751818 0 0.41293223981012972 0.465074066806766 0 0.40024359601508702 0.46784207981387338 0 0.40625637034849482 0.48177220787751818 0 0.42270168646877682 0.4733470176141692 0 0.41293223981012972 0.465074066806766 0 0.42270168646877682 0.4733470176141692 0 0.4340233080014006 0.47079228469521678 0 0.42495711903708933 0.46338817287960632 0 0.42270168646877682 0.4733470176141692 0 0.43567557071462071 0.48399136800222647 0 0.4340233080014006 0.47079228469521678 0 0.4340233080014006 0.47079228469521678 0 0.43553077231885151 0.45548990998672162 0 0.42495711903708933 0.46338817287960632 0 0.43553077231885151 0.45548990998672162 0 0.42495711903708933 0.46338817287960632 0 0.41842369909158261 0.45424265490817312 0 0.41981015317003828 0.4332348649800829 0 0.43553077231885151 0.45548990998672162 0 0.41632054844636912 0.44490380081358621 0 0.43553077231885151 0.45548990998672162 0 0.41632054844636912 0.44490380081358621 0 0.41842369909158261 0.45424265490817312 0 0.41981015317003828 0.4332348649800829 0 0.43553077231885151 0.45548990998672162 0 0.41981015317003828 0.4332348649800829 0 0.43553077231885151 0.45548990998672162 0 0.43720732138734608 0.43973392909579251 0 0.41632054844636912 0.44490380081358621 0 0.41842369909158261 0.45424265490817312 0 0.40505430832876488 0.45289010239204103 0 0.41632054844636912 0.44490380081358621 0 0.4050209097250706 0.44031230340179678 0 0.40505430832876488 0.45289010239204103 0 0.41364294885325181 0.43316235934901792 0 0.41632054844636912 0.44490380081358621 0 0.4050209097250706 0.44031230340179678 0 0.42270168646877682 0.4733470176141692 0 0.42495711903708933 0.46338817287960632 0 0.41293223981012972 0.465074066806766 0 0.42495711903708933 0.46338817287960632 0 0.41842369909158261 0.45424265490817312 0 0.41293223981012972 0.465074066806766 0 0.41842369909158261 0.45424265490817312 0 0.41293223981012972 0.465074066806766 0 0.40505430832876488 0.45289010239204103 0 0.40024359601508702 0.46784207981387338 0 0.39015130827873279 0.45842455228446061 0 0.38792848377713002 0.47562195207405999 0 0.41293223981012972 0.465074066806766 0 0.40024359601508702 0.46784207981387338 0 0.40505430832876488 0.45289010239204103 0 0.40024359601508702 0.46784207981387338 0 0.40505430832876488 0.45289010239204103 0 0.39015130827873279 0.45842455228446061 0 0.4050209097250706 0.44031230340179678 0 0.40505430832876488 0.45289010239204103 0 0.3947393065828313 0.44488803136690119 0 0.40505430832876488 0.45289010239204103 0 0.3947393065828313 0.44488803136690119 0 0.39015130827873279 0.45842455228446061 0 0.39548384188546493 0.42617778839279241 0 0.3947393065828313 0.44488803136690119 0 0.37917480584603569 0.44411689363633972 0 0.3947393065828313 0.44488803136690119 0 0.37917480584603569 0.44411689363633972 0 0.39015130827873279 0.45842455228446061 0 0.37356167752634828 0.46354925384752149 0 0.39015130827873279 0.45842455228446061 0 0.38792848377713002 0.47562195207405999 0 0.37356167752634828 0.46354925384752149 0 0.37917480584603569 0.44411689363633972 0 0.39015130827873279 0.45842455228446061 0 0.37020084236087869 0.48063985997197989 0 0.37356167752634828 0.46354925384752149 0 0.38792848377713002 0.47562195207405999 0 0.37020084236087869 0.48063985997197989 0 0.38792848377713002 0.47562195207405999 0 0.38818660174596659 0.5 0 0.40625637034849482 0.48177220787751818 0 0.38792848377713002 0.47562195207405999 0 0.38818660174596659 0.5 0 0.41444840470280359 0.5 0 0.40625637034849482 0.48177220787751818 0 0.38818660174596659 0.5 0 0.40625637034849482 0.48177220787751818 0 0.40024359601508702 0.46784207981387338 0 0.38792848377713002 0.47562195207405999 0 0.33772013429238129 0.086121066524289691 0 0.33931649704206451 0.10199923987147171 0 0.34851619148770269 0.0898919667796345 0 0.33772013429238129 0.086121066524289691 0 0.33210438310523899 0.069982922825308436 0 0.3247862568916533 0.085336465530306577 0 0.33772013429238129 0.086121066524289691 0 0.3247862568916533 0.085336465530306577 0 0.33185756689846579 0.094536689216183772 0 0.33772013429238129 0.086121066524289691 0 0.34851619148770269 0.0898919667796345 0 0.3444200950130889 0.077231404911806745 0 0.33772013429238129 0.086121066524289691 0 0.33210438310523899 0.069982922825308436 0 0.3444200950130889 0.077231404911806745 0 0.33210438310523899 0.069982922825308436 0 0.34519753817341631 0.066429546622580327 0 0.3444200950130889 0.077231404911806745 0 0.33210438310523899 0.069982922825308436 0 0.34519753817341631 0.066429546622580327 0 0.33999737026772481 0.0582903423886348 0 0.33210438310523899 0.069982922825308436 0 0.31435782631708159 0.068431255724152873 0 0.33053354179030242 0.055367263951870728 0 0.33210438310523899 0.069982922825308436 0 0.31435782631708159 0.068431255724152873 0 0.3247862568916533 0.085336465530306577 0 0.31435782631708159 0.068431255724152873 0 0.3247862568916533 0.085336465530306577 0 0.3106362378611941 0.089751399496086195 0 0.3247862568916533 0.085336465530306577 0 0.32282754483044601 0.1014859546566978 0 0.3106362378611941 0.089751399496086195 0 0.32282754483044601 0.1014859546566978 0 0.3106362378611941 0.089751399496086195 0 0.30633490262158541 0.1056329812185114 0 0.3247862568916533 0.085336465530306577 0 0.32282754483044601 0.1014859546566978 0 0.33185756689846579 0.094536689216183772 0 0.32282754483044601 0.1014859546566978 0 0.31625523348058021 0.1170330033090547 0 0.30633490262158541 0.1056329812185114 0 0.31625523348058021 0.1170330033090547 0 0.33025387619282298 0.1125215435517069 0 0.33149279061469139 0.12922168060830291 0 0.32282754483044601 0.1014859546566978 0 0.31625523348058021 0.1170330033090547 0 0.33025387619282298 0.1125215435517069 0 0.34116200848025641 0.1197823189016945 0 0.33025387619282298 0.1125215435517069 0 0.33931649704206451 0.10199923987147171 0 0.34116200848025641 0.1197823189016945 0 0.33025387619282298 0.1125215435517069 0 0.33149279061469139 0.12922168060830291 0 0.34116200848025641 0.1197823189016945 0 0.33931649704206451 0.10199923987147171 0 0.34859754464828768 0.1094131051405192 0 0.33772013429238129 0.086121066524289691 0 0.33185756689846579 0.094536689216183772 0 0.33931649704206451 0.10199923987147171 0 0.32282754483044601 0.1014859546566978 0 0.33025387619282298 0.1125215435517069 0 0.33931649704206451 0.10199923987147171 0 0.32282754483044601 0.1014859546566978 0 0.33185756689846579 0.094536689216183772 0 0.33931649704206451 0.10199923987147171 0 0.33931649704206451 0.10199923987147171 0 0.35411702721773269 0.100703080928884 0 0.34851619148770269 0.0898919667796345 0 0.33931649704206451 0.10199923987147171 0 0.35411702721773269 0.100703080928884 0 0.34859754464828768 0.1094131051405192 0 0.35411702721773269 0.100703080928884 0 0.34859754464828768 0.1094131051405192 0 0.35979464585309739 0.1151677808600263 0 0.34116200848025641 0.1197823189016945 0 0.34859754464828768 0.1094131051405192 0 0.35979464585309739 0.1151677808600263 0 0.34116200848025641 0.1197823189016945 0 0.35979464585309739 0.1151677808600263 0 0.35173563038094768 0.13128267348098291 0 0.35979464585309739 0.1151677808600263 0 0.37283405624565152 0.106739526300412 0 0.37804506337923638 0.123351556189174 0 0.35979464585309739 0.1151677808600263 0 0.3642596388746322 0.12913497688095929 0 0.37804506337923638 0.123351556189174 0 0.36426019607720661 0.1011028215501542 0 0.37367232113742599 0.092921950275697343 0 0.36088292993212512 0.089981769385751448 0 0.35411702721773269 0.100703080928884 0 0.36426019607720661 0.1011028215501542 0 0.36088292993212512 0.089981769385751448 0 0.35411702721773269 0.100703080928884 0 0.35979464585309739 0.1151677808600263 0 0.36426019607720661 0.1011028215501542 0 0.35979464585309739 0.1151677808600263 0 0.36426019607720661 0.1011028215501542 0 0.37283405624565152 0.106739526300412 0 0.36426019607720661 0.1011028215501542 0 0.37283405624565152 0.106739526300412 0 0.37367232113742599 0.092921950275697343 0 0.37367232113742599 0.092921950275697343 0 0.36661049975044091 0.078574524508050178 0 0.38308787105973963 0.083809170753784995 0 0.36661049975044091 0.078574524508050178 0 0.36088292993212512 0.089981769385751448 0 0.3546946495486486 0.081205615715927507 0 0.37367232113742599 0.092921950275697343 0 0.36661049975044091 0.078574524508050178 0 0.36088292993212512 0.089981769385751448 0 0.35411702721773269 0.100703080928884 0 0.36088292993212512 0.089981769385751448 0 0.34851619148770269 0.0898919667796345 0 0.36088292993212512 0.089981769385751448 0 0.3546946495486486 0.081205615715927507 0 0.34851619148770269 0.0898919667796345 0 0.3546946495486486 0.081205615715927507 0 0.34851619148770269 0.0898919667796345 0 0.3444200950130889 0.077231404911806745 0 0.34519753817341631 0.066429546622580327 0 0.35973449963422233 0.064386519785831015 0 0.33999737026772481 0.0582903423886348 0 0.34519753817341631 0.066429546622580327 0 0.3444200950130889 0.077231404911806745 0 0.35188618121216092 0.072339855595070029 0 0.3546946495486486 0.081205615715927507 0 0.3444200950130889 0.077231404911806745 0 0.35188618121216092 0.072339855595070029 0 0.36661049975044091 0.078574524508050178 0 0.3546946495486486 0.081205615715927507 0 0.35188618121216092 0.072339855595070029 0 0.34519753817341631 0.066429546622580327 0 0.35188618121216092 0.072339855595070029 0 0.35973449963422233 0.064386519785831015 0 0.35973449963422233 0.064386519785831015 0 0.3794716290007209 0.070482697183023968 0 0.36661049975044091 0.078574524508050178 0 0.35973449963422233 0.064386519785831015 0 0.3794716290007209 0.070482697183023968 0 0.36661049975044091 0.078574524508050178 0 0.35188618121216092 0.072339855595070029 0 0.35973449963422233 0.064386519785831015 0 0.37055757530509642 0.051213893441877843 0 0.36149680035412962 0.040258164072582148 0 0.35241168422124819 0.051909891639362403 0 0.35973449963422233 0.064386519785831015 0 0.37055757530509642 0.051213893441877843 0 0.3794716290007209 0.070482697183023968 0 0.35973449963422233 0.064386519785831015 0 0.37055757530509642 0.051213893441877843 0 0.35241168422124819 0.051909891639362403 0 0.37055757530509642 0.051213893441877843 0 0.37255180160143669 0.032136223495383677 0 0.38181173906570032 0.043343788707958547 0 0.37255180160143669 0.032136223495383677 0 0.36149680035412962 0.040258164072582148 0 0.356158842115395 0.028658299092554219 0 0.37055757530509642 0.051213893441877843 0 0.37255180160143669 0.032136223495383677 0 0.36149680035412962 0.040258164072582148 0 0.34762805817416947 0.0415612210748528 0 0.356158842115395 0.028658299092554219 0 0.3404089460561518 0.028295683060670412 0 0.36149680035412962 0.040258164072582148 0 0.34762805817416947 0.0415612210748528 0 0.35241168422124819 0.051909891639362403 0 0.36149680035412962 0.040258164072582148 0 0.34762805817416947 0.0415612210748528 0 0.356158842115395 0.028658299092554219 0 0.35973449963422233 0.064386519785831015 0 0.33999737026772481 0.0582903423886348 0 0.34762805817416947 0.0415612210748528 0 0.35241168422124819 0.051909891639362403 0 0.33554427660600172 0.051320444600129508 0 0.35973449963422233 0.064386519785831015 0 0.35241168422124819 0.051909891639362403 0 0.33999737026772481 0.0582903423886348 0 0.36538956622190838 0.015313518595041349 0 0.37662375727886832 -0.00024753458288838111 0 0.35735570167929498 -0.0015424610238180139 0 0.36538956622190838 0.015313518595041349 0 0.38273570213103453 0.016594143913516018 0 0.37662375727886832 -0.00024753458288838111 0 0.37255180160143669 0.032136223495383677 0 0.36538956622190838 0.015313518595041349 0 0.38273570213103453 0.016594143913516018 0 0.37255180160143669 0.032136223495383677 0 0.36538956622190838 0.015313518595041349 0 0.356158842115395 0.028658299092554219 0 0.36538956622190838 0.015313518595041349 0 0.356158842115395 0.028658299092554219 0 0.34947788028457422 0.014384984256794971 0 0.356158842115395 0.028658299092554219 0 0.34947788028457422 0.014384984256794971 0 0.3404089460561518 0.028295683060670412 0 0.34947788028457422 0.014384984256794971 0 0.33363381008414938 0.001659448493005145 0 0.35735570167929498 -0.0015424610238180139 0 0.36538956622190838 0.015313518595041349 0 0.34947788028457422 0.014384984256794971 0 0.35735570167929498 -0.0015424610238180139 0 0.34947788028457422 0.014384984256794971 0 0.33363381008414938 0.001659448493005145 0 0.3404089460561518 0.028295683060670412 0 0.33363381008414938 0.001659448493005145 0 0.3404089460561518 0.028295683060670412 0 0.32255989383868627 0.030997534818824252 0 0.32255989383868627 0.030997534818824252 0 0.30957551107137132 0.01067462503751886 0 0.33363381008414938 0.001659448493005145 0 0.32255989383868627 0.030997534818824252 0 0.30957551107137132 0.01067462503751886 0 0.33363381008414938 0.001659448493005145 0 0.30957551107137132 0.01067462503751886 0 0.31447786496183561 -0.01142934291039299 0 0.35241168422124819 0.051909891639362403 0 0.33554427660600172 0.051320444600129508 0 0.33999737026772481 0.0582903423886348 0 0.33554427660600172 0.051320444600129508 0 0.33053354179030242 0.055367263951870728 0 0.33554427660600172 0.051320444600129508 0 0.33053354179030242 0.055367263951870728 0 0.33999737026772481 0.0582903423886348 0 0.33210438310523899 0.069982922825308436 0 0.33053354179030242 0.055367263951870728 0 0.33999737026772481 0.0582903423886348 0 0.33053354179030242 0.055367263951870728 0 0.33999737026772481 0.0582903423886348 0 0.34519753817341631 0.066429546622580327 0 0.33999737026772481 0.0582903423886348 0 0.33554427660600172 0.051320444600129508 0 0.33999737026772481 0.0582903423886348 0 0.32255989383868627 0.030997534818824252 0 0.33554427660600172 0.051320444600129508 0 0.33053354179030242 0.055367263951870728 0 0.34762805817416947 0.0415612210748528 0 0.33554427660600172 0.051320444600129508 0 0.3404089460561518 0.028295683060670412 0 0.32255989383868627 0.030997534818824252 0 0.33554427660600172 0.051320444600129508 0 0.32255989383868627 0.030997534818824252 0 0.33554427660600172 0.051320444600129508 0 0.34762805817416947 0.0415612210748528 0 0.3404089460561518 0.028295683060670412 0 0.33554427660600172 0.051320444600129508 0 0.32255989383868627 0.030997534818824252 0 0.33053354179030242 0.055367263951870728 0 0.3102530395768846 0.049103255802484973 0 0.31435782631708159 0.068431255724152873 0 0.33053354179030242 0.055367263951870728 0 0.3102530395768846 0.049103255802484973 0 0.33053354179030242 0.055367263951870728 0 0.3102530395768846 0.049103255802484973 0 0.31435782631708159 0.068431255724152873 0 0.33053354179030242 0.055367263951870728 0 0.30149537322772152 0.061063043738080747 0 0.3102530395768846 0.049103255802484973 0 0.28997253736346579 0.042839247653102382 0 0.31435782631708159 0.068431255724152873 0 0.30149537322772152 0.061063043738080747 0 0.3102530395768846 0.049103255802484973 0 0.3102530395768846 0.049103255802484973 0 0.28997253736346579 0.042839247653102382 0 0.30052722790507419 0.029924912446765348 0 0.32255989383868627 0.030997534818824252 0 0.3102530395768846 0.049103255802484973 0 0.30052722790507419 0.029924912446765348 0 0.3102530395768846 0.049103255802484973 0 0.28997253736346579 0.042839247653102382 0 0.28997253736346579 0.042839247653102382 0 0.28269954903755068 0.031956219912226552 0 0.30052722790507419 0.029924912446765348 0 0.30149537322772152 0.061063043738080747 0 0.28997253736346579 0.042839247653102382 0 0.28701875407111771 0.06425063611200979 0 0.28997253736346579 0.042839247653102382 0 0.26938901686427358 0.066235341011004645 0 0.28701875407111771 0.06425063611200979 0 0.30957551107137132 0.01067462503751886 0 0.2965911283040561 -0.0096482847437866018 0 0.30957551107137132 0.01067462503751886 0 0.28810283654248708 0.01397859145643513 0 0.2965911283040561 -0.0096482847437866018 0 0.30957551107137132 0.01067462503751886 0 0.30052722790507419 0.029924912446765348 0 0.28810283654248708 0.01397859145643513 0 0.32255989383868627 0.030997534818824252 0 0.30957551107137132 0.01067462503751886 0 0.30052722790507419 0.029924912446765348 0 0.28269954903755068 0.031956219912226552 0 0.28810283654248708 0.01397859145643513 0 0.27861828277736023 0.020963790481346278 0 0.28269954903755068 0.031956219912226552 0 0.30052722790507419 0.029924912446765348 0 0.28810283654248708 0.01397859145643513 0 0.28810283654248708 0.01397859145643513 0 0.28120811288942799 0.0009092087759984659 0 0.2965911283040561 -0.0096482847437866018 0 0.28810283654248708 0.01397859145643513 0 0.26997261146140628 0.0091118082000288519 0 0.27861828277736023 0.020963790481346278 0 0.28810283654248708 0.01397859145643513 0 0.28120811288942799 0.0009092087759984659 0 0.26997261146140628 0.0091118082000288519 0 0.28120811288942799 0.0009092087759984659 0 0.26997261146140628 0.0091118082000288519 0 0.27016587524976238 -0.0098052798086835161 0 0.26997261146140628 0.0091118082000288519 0 0.26977934767304979 0.02802889620874115 0 0.26997261146140628 0.0091118082000288519 0 0.27861828277736023 0.020963790481346278 0 0.26977934767304979 0.02802889620874115 0 0.28269954903755068 0.031956219912226552 0 0.27861828277736023 0.020963790481346278 0 0.26977934767304979 0.02802889620874115 0 0.28269954903755068 0.031956219912226552 0 0.26977934767304979 0.02802889620874115 0 0.24404331518253539 0.028653158028272011 0 0.26977934767304979 0.02802889620874115 0 0.26969203515004753 0.036575239503717979 0 0.24309806245284821 0.019918647697235219 0 0.24404331518253539 0.028653158028272011 0 0.26977934767304979 0.02802889620874115 0 0.24309806245284821 0.019918647697235219 0 0.26977934767304979 0.02802889620874115 0 0.24309806245284821 0.019918647697235219 0 0.26997261146140628 0.0091118082000288519 0 0.26977934767304979 0.02802889620874115 0 0.24309806245284821 0.019918647697235219 0 0.26997261146140628 0.0091118082000288519 0 0.25553208938618721 -0.0013776190420226519 0 0.26969203515004753 0.036575239503717979 0 0.26938901686427358 0.066235341011004645 0 0.28997253736346579 0.042839247653102382 0 0.26969203515004753 0.036575239503717979 0 0.26938901686427358 0.066235341011004645 0 0.28997253736346579 0.042839247653102382 0 0.28269954903755068 0.031956219912226552 0 0.26969203515004753 0.036575239503717979 0 0.28997253736346579 0.042839247653102382 0 0.26969203515004753 0.036575239503717979 0 0.28269954903755068 0.031956219912226552 0 0.26977934767304979 0.02802889620874115 0 0.26969203515004753 0.036575239503717979 0 0.26977934767304979 0.02802889620874115 0 0.26969203515004753 0.036575239503717979 0 0.24404331518253539 0.028653158028272011 0 0.26969203515004753 0.036575239503717979 0 0.24489427399244509 0.036516355121580267 0 0.26969203515004753 0.036575239503717979 0 0.25457971593027778 0.051664262690178549 0 0.24489427399244509 0.036516355121580267 0 0.24404331518253539 0.028653158028272011 0 0.26969203515004753 0.036575239503717979 0 0.26969203515004753 0.036575239503717979 0 0.25457971593027778 0.051664262690178549 0 0.26938901686427358 0.066235341011004645 0 0.24836659557551041 0.068601984485663847 0 0.25457971593027778 0.051664262690178549 0 0.26426515786811122 0.066812170258776366 0 0.25457971593027778 0.051664262690178549 0 0.26426515786811122 0.066812170258776366 0 0.26938901686427358 0.066235341011004645 0 0.25457971593027778 0.051664262690178549 0 0.26426515786811122 0.066812170258776366 0 0.24836659557551041 0.068601984485663847 0 0.26426515786811122 0.066812170258776366 0 0.24836659557551041 0.068601984485663847 0 0.25843159624638667 0.076800327423531184 0 0.26426515786811122 0.066812170258776366 0 0.25843159624638667 0.076800327423531184 0 0.26426515786811122 0.066812170258776366 0 0.26930263368442781 0.074690718138615553 0 0.24836659557551041 0.068601984485663847 0 0.25843159624638667 0.076800327423531184 0 0.25063733322697929 0.089584501491996815 0 0.25063733322697929 0.089584501491996815 0 0.26144214969543461 0.085518737175968584 0 0.26024212187303658 0.096830060048104211 0 0.25843159624638667 0.076800327423531184 0 0.25063733322697929 0.089584501491996815 0 0.26144214969543461 0.085518737175968584 0 0.25843159624638667 0.076800327423531184 0 0.26144214969543461 0.085518737175968584 0 0.26930263368442781 0.074690718138615553 0 0.26144214969543461 0.085518737175968584 0 0.26910418822657639 0.094114999443572933 0 0.26024212187303658 0.096830060048104211 0 0.26930263368442781 0.074690718138615553 0 0.26910418822657639 0.094114999443572933 0 0.26144214969543461 0.085518737175968584 0 0.26930263368442781 0.074690718138615553 0 0.26910418822657639 0.094114999443572933 0 0.26930263368442781 0.074690718138615553 0 0.28200639537063471 0.094559239268710377 0 0.26910418822657639 0.094114999443572933 0 0.26930263368442781 0.074690718138615553 0 0.28187110067693832 0.076947252346682204 0 0.28200639537063471 0.094559239268710377 0 0.26930263368442781 0.074690718138615553 0 0.28200639537063471 0.094559239268710377 0 0.26938901686427358 0.066235341011004645 0 0.28701875407111771 0.06425063611200979 0 0.28187110067693832 0.076947252346682204 0 0.26938901686427358 0.066235341011004645 0 0.28701875407111771 0.06425063611200979 0 0.26426515786811122 0.066812170258776366 0 0.26938901686427358 0.066235341011004645 0 0.26930263368442781 0.074690718138615553 0 0.26426515786811122 0.066812170258776366 0 0.26938901686427358 0.066235341011004645 0 0.26426515786811122 0.066812170258776366 0 0.26930263368442781 0.074690718138615553 0 0.26938901686427358 0.066235341011004645 0 0.26930263368442781 0.074690718138615553 0 0.26938901686427358 0.066235341011004645 0 0.26930263368442781 0.074690718138615553 0 0.28187110067693832 0.076947252346682204 0 0.30149537322772152 0.061063043738080747 0 0.28701875407111771 0.06425063611200979 0 0.29818211084385721 0.081495247496430417 0 0.28701875407111771 0.06425063611200979 0 0.28187110067693832 0.076947252346682204 0 0.29818211084385721 0.081495247496430417 0 0.29818211084385721 0.081495247496430417 0 0.29732878566254101 0.096126492350418091 0 0.28200639537063471 0.094559239268710377 0 0.28187110067693832 0.076947252346682204 0 0.29818211084385721 0.081495247496430417 0 0.28200639537063471 0.094559239268710377 0 0.29818211084385721 0.081495247496430417 0 0.28200639537063471 0.094559239268710377 0 0.31435782631708159 0.068431255724152873 0 0.29818211084385721 0.081495247496430417 0 0.3106362378611941 0.089751399496086195 0 0.29818211084385721 0.081495247496430417 0 0.3106362378611941 0.089751399496086195 0 0.29732878566254101 0.096126492350418091 0 0.31435782631708159 0.068431255724152873 0 0.30149537322772152 0.061063043738080747 0 0.29818211084385721 0.081495247496430417 0 0.31435782631708159 0.068431255724152873 0 0.29818211084385721 0.081495247496430417 0 0.29853447177000791 0.1204089397977529 0 0.30633490262158541 0.1056329812185114 0 0.29027043357032151 0.10748408953323151 0 0.31625523348058021 0.1170330033090547 0 0.29853447177000791 0.1204089397977529 0 0.30633490262158541 0.1056329812185114 0 0.31625523348058021 0.1170330033090547 0 0.29853447177000791 0.1204089397977529 0 0.31116814883381722 0.13210865994830309 0 0.30633490262158541 0.1056329812185114 0 0.29732878566254101 0.096126492350418091 0 0.29027043357032151 0.10748408953323151 0 0.3106362378611941 0.089751399496086195 0 0.30633490262158541 0.1056329812185114 0 0.29732878566254101 0.096126492350418091 0 0.29732878566254101 0.096126492350418091 0 0.29027043357032151 0.10748408953323151 0 0.28200639537063471 0.094559239268710377 0 0.29027043357032151 0.10748408953323151 0 0.28200639537063471 0.094559239268710377 0 0.29027043357032151 0.10748408953323151 0 0.28200639537063471 0.094559239268710377 0 0.27884773730066431 0.1074953294088777 0 0.29027043357032151 0.10748408953323151 0 0.28501847659859691 0.1210690079136085 0 0.27884773730066431 0.1074953294088777 0 0.29853447177000791 0.1204089397977529 0 0.29027043357032151 0.10748408953323151 0 0.29853447177000791 0.1204089397977529 0 0.29027043357032151 0.10748408953323151 0 0.28501847659859691 0.1210690079136085 0 0.28501847659859691 0.1210690079136085 0 0.27132455610947148 0.11756150609730021 0 0.27658909274552163 0.12643033849827121 0 0.28501847659859691 0.1210690079136085 0 0.27132455610947148 0.11756150609730021 0 0.27884773730066431 0.1074953294088777 0 0.27132455610947148 0.11756150609730021 0 0.27884773730066431 0.1074953294088777 0 0.26711886733774431 0.10436504363065301 0 0.28200639537063471 0.094559239268710377 0 0.27551467600211949 0.099802146054412316 0 0.27884773730066431 0.1074953294088777 0 0.28200639537063471 0.094559239268710377 0 0.27551467600211949 0.099802146054412316 0 0.26910418822657639 0.094114999443572933 0 0.28200639537063471 0.094559239268710377 0 0.27551467600211949 0.099802146054412316 0 0.27551467600211949 0.099802146054412316 0 0.27884773730066431 0.1074953294088777 0 0.26711886733774431 0.10436504363065301 0 0.27551467600211949 0.099802146054412316 0 0.26711886733774431 0.10436504363065301 0 0.26910418822657639 0.094114999443572933 0 0.25063733322697929 0.089584501491996815 0 0.25290807087844891 0.1105670184983297 0 0.25063733322697929 0.089584501491996815 0 0.26024212187303658 0.096830060048104211 0 0.25290807087844891 0.1105670184983297 0 0.26711886733774431 0.10436504363065301 0 0.26910418822657639 0.094114999443572933 0 0.26024212187303658 0.096830060048104211 0 0.26711886733774431 0.10436504363065301 0 0.26024212187303658 0.096830060048104211 0 0.25290807087844891 0.1105670184983297 0 0.24787730099122759 0.12108215532802311 0 0.25290807087844891 0.1105670184983297 0 0.25595375210727112 0.13871032168366321 0 0.27132455610947148 0.11756150609730021 0 0.26711886733774431 0.10436504363065301 0 0.25290807087844891 0.1105670184983297 0 0.25290807087844891 0.1105670184983297 0 0.26697450441162518 0.13199344255373949 0 0.25290807087844891 0.1105670184983297 0 0.25595375210727112 0.13871032168366321 0 0.27132455610947148 0.11756150609730021 0 0.25290807087844891 0.1105670184983297 0 0.26697450441162518 0.13199344255373949 0 0.25290807087844891 0.1105670184983297 0 0.25595375210727112 0.13871032168366321 0 0.26697450441162518 0.13199344255373949 0 0.24787730099122759 0.12108215532802311 0 0.25595375210727112 0.13871032168366321 0 0.25265512053379718 0.14367997959783621 0 0.24787730099122759 0.12108215532802311 0 0.25265512053379718 0.14367997959783621 0 0.25595375210727112 0.13871032168366321 0 0.26697450441162518 0.13199344255373949 0 0.26678532972220842 0.15053055182016919 0 0.26697450441162518 0.13199344255373949 0 0.28104093794480117 0.15341986660914961 0 0.28303883386239298 0.13509739742843649 0 0.26697450441162518 0.13199344255373949 0 0.27658909274552163 0.12643033849827121 0 0.28303883386239298 0.13509739742843649 0 0.27132455610947148 0.11756150609730021 0 0.26697450441162518 0.13199344255373949 0 0.27658909274552163 0.12643033849827121 0 0.26697450441162518 0.13199344255373949 0 0.28104093794480117 0.15341986660914961 0 0.26678532972220842 0.15053055182016919 0 0.26697450441162518 0.13199344255373949 0 0.28104093794480117 0.15341986660914961 0 0.28104093794480117 0.15341986660914961 0 0.26678532972220842 0.15053055182016919 0 0.27453566768634652 0.16348310327194529 0 0.25595375210727112 0.13871032168366321 0 0.25265512053379718 0.14367997959783621 0 0.25899943333608588 0.1668536248689976 0 0.25595375210727112 0.13871032168366321 0 0.25899943333608588 0.1668536248689976 0 0.25265512053379718 0.14367997959783621 0 0.25743294007635642 0.16627780386765151 0 0.25595375210727112 0.13871032168366321 0 0.26678532972220842 0.15053055182016919 0 0.25899943333608588 0.1668536248689976 0 0.25265512053379718 0.14367997959783621 0 0.25743294007635642 0.16627780386765151 0 0.25899943333608588 0.1668536248689976 0 0.25743294007635642 0.16627780386765151 0 0.25899943333608588 0.1668536248689976 0 0.26051435061398209 0.180852061687931 0 0.25743294007635642 0.16627780386765151 0 0.25899943333608588 0.1668536248689976 0 0.24871958878640721 0.17882502395312869 0 0.26051435061398209 0.180852061687931 0 0.2526890803729952 0.19142810259802881 0 0.24871958878640721 0.17882502395312869 0 0.25743294007635642 0.16627780386765151 0 0.26051435061398209 0.180852061687931 0 0.25899943333608588 0.1668536248689976 0 0.26051435061398209 0.180852061687931 0 0.25743294007635642 0.16627780386765151 0 0.26051435061398209 0.180852061687931 0 0.26051435061398209 0.180852061687931 0 0.27793392159972929 0.17381367779242529 0 0.26411581278396451 0.19788602634617281 0 0.25899943333608588 0.1668536248689976 0 0.26051435061398209 0.180852061687931 0 0.27793392159972929 0.17381367779242529 0 0.27793392159972929 0.17381367779242529 0 0.26411581278396451 0.19788602634617281 0 0.27793392159972929 0.17381367779242529 0 0.2790280827048961 0.17190755389017001 0 0.25899943333608588 0.1668536248689976 0 0.27793392159972929 0.17381367779242529 0 0.25899943333608588 0.1668536248689976 0 0.27793392159972929 0.17381367779242529 0 0.27453566768634652 0.16348310327194529 0 0.26678532972220842 0.15053055182016919 0 0.25899943333608588 0.1668536248689976 0 0.27453566768634652 0.16348310327194529 0 0.27793392159972929 0.17381367779242529 0 0.2790280827048961 0.17190755389017001 0 0.27453566768634652 0.16348310327194529 0 0.2790280827048961 0.17190755389017001 0 0.27453566768634652 0.16348310327194529 0 0.28342630081035991 0.16437334465075609 0 0.28104093794480117 0.15341986660914961 0 0.27453566768634652 0.16348310327194529 0 0.28342630081035991 0.16437334465075609 0 0.28104093794480117 0.15341986660914961 0 0.28342630081035991 0.16437334465075609 0 0.29192533090341738 0.16041924356349829 0 0.28342630081035991 0.16437334465075609 0 0.28793887083558162 0.17183962505896239 0 0.29192533090341738 0.16041924356349829 0 0.2790280827048961 0.17190755389017001 0 0.28342630081035991 0.16437334465075609 0 0.28793887083558162 0.17183962505896239 0 0.28793887083558162 0.17183962505896239 0 0.29192533090341738 0.16041924356349829 0 0.3014804645439092 0.16903010522303311 0 0.27793392159972929 0.17381367779242529 0 0.29282911119050981 0.1792889410481722 0 0.28002824636069179 0.1915278342725304 0 0.27793392159972929 0.17381367779242529 0 0.28793887083558162 0.17183962505896239 0 0.29282911119050981 0.1792889410481722 0 0.27793392159972929 0.17381367779242529 0 0.29282911119050981 0.1792889410481722 0 0.27793392159972929 0.17381367779242529 0 0.2790280827048961 0.17190755389017001 0 0.28793887083558162 0.17183962505896239 0 0.28793887083558162 0.17183962505896239 0 0.29282911119050981 0.1792889410481722 0 0.3014804645439092 0.16903010522303311 0 0.29282911119050981 0.1792889410481722 0 0.3077243007812907 0.18476420430391791 0 0.29171735056467141 0.1921830640826481 0 0.3077243007812907 0.18476420430391791 0 0.3014804645439092 0.16903010522303311 0 0.31763627165380059 0.16419673835551721 0 0.29282911119050981 0.1792889410481722 0 0.3077243007812907 0.18476420430391791 0 0.3014804645439092 0.16903010522303311 0 0.29282911119050981 0.1792889410481722 0 0.3077243007812907 0.18476420430391791 0 0.3014804645439092 0.16903010522303311 0 0.30408292701778761 0.14869189742280431 0 0.31763627165380059 0.16419673835551721 0 0.29192533090341738 0.16041924356349829 0 0.3014804645439092 0.16903010522303311 0 0.30408292701778761 0.14869189742280431 0 0.30408292701778761 0.14869189742280431 0 0.29553757075344461 0.13388241550023891 0 0.2913825664380652 0.1459185904905278 0 0.29853447177000791 0.1204089397977529 0 0.31116814883381722 0.13210865994830309 0 0.29553757075344461 0.13388241550023891 0 0.30408292701778761 0.14869189742280431 0 0.31116814883381722 0.13210865994830309 0 0.29553757075344461 0.13388241550023891 0 0.29553757075344461 0.13388241550023891 0 0.28303883386239298 0.13509739742843649 0 0.2913825664380652 0.1459185904905278 0 0.29853447177000791 0.1204089397977529 0 0.28501847659859691 0.1210690079136085 0 0.29553757075344461 0.13388241550023891 0 0.28501847659859691 0.1210690079136085 0 0.29553757075344461 0.13388241550023891 0 0.28303883386239298 0.13509739742843649 0 0.28501847659859691 0.1210690079136085 0 0.27658909274552163 0.12643033849827121 0 0.28303883386239298 0.13509739742843649 0 0.28104093794480117 0.15341986660914961 0 0.28303883386239298 0.13509739742843649 0 0.2913825664380652 0.1459185904905278 0 0.28104093794480117 0.15341986660914961 0 0.29192533090341738 0.16041924356349829 0 0.2913825664380652 0.1459185904905278 0 0.29192533090341738 0.16041924356349829 0 0.30408292701778761 0.14869189742280431 0 0.2913825664380652 0.1459185904905278 0 0.26900622746435671 0.25932037365406052 0 0.28046064116166453 0.2413366456546425 0 0.27234013230671089 0.23678488505315071 0 0.26900622746435671 0.25932037365406052 0 0.26637727982876308 0.2350278542443702 0 0.26900622746435671 0.25932037365406052 0 0.26637727982876308 0.2350278542443702 0 0.27234013230671089 0.23678488505315071 0 0.25385477390433608 0.25073858711362512 0 0.26637727982876308 0.2350278542443702 0 0.25240133874791232 0.23730826949522729 0 0.25385477390433608 0.25073858711362512 0 0.26900622746435671 0.25932037365406052 0 0.26637727982876308 0.2350278542443702 0 0.26637727982876308 0.2350278542443702 0 0.26374833219316729 0.21073533483468029 0 0.26637727982876308 0.2350278542443702 0 0.25066998091423348 0.22130983604972601 0 0.26137988784843191 0.21126269042671819 0 0.26637727982876308 0.2350278542443702 0 0.26137988784843191 0.21126269042671819 0 0.26374833219316729 0.21073533483468029 0 0.26637727982876308 0.2350278542443702 0 0.25240133874791232 0.23730826949522729 0 0.25066998091423348 0.22130983604972601 0 0.26637727982876308 0.2350278542443702 0 0.27234013230671089 0.23678488505315071 0 0.2666938555074958 0.21007948738156759 0 0.27234013230671089 0.23678488505315071 0 0.2784123248882972 0.22335951982205671 0 0.2666938555074958 0.21007948738156759 0 0.28046064116166453 0.2413366456546425 0 0.27234013230671089 0.23678488505315071 0 0.2784123248882972 0.22335951982205671 0 0.27234013230671089 0.23678488505315071 0 0.2666938555074958 0.21007948738156759 0 0.2666938555074958 0.21007948738156759 0 0.27343269685423183 0.20228543950819311 0 0.28284180131926412 0.2064840009421908 0 0.2784123248882972 0.22335951982205671 0 0.2666938555074958 0.21007948738156759 0 0.28284180131926412 0.2064840009421908 0 0.2666938555074958 0.21007948738156759 0 0.28284180131926412 0.2064840009421908 0 0.2666938555074958 0.21007948738156759 0 0.26411581278396451 0.19788602634617281 0 0.27343269685423183 0.20228543950819311 0 0.25066998091423348 0.22130983604972601 0 0.26137988784843191 0.21126269042671819 0 0.26263664148415028 0.20046287152626421 0 0.26637727982876308 0.2350278542443702 0 0.2666938555074958 0.21007948738156759 0 0.26374833219316729 0.21073533483468029 0 0.24779516383791281 0.2050925541604558 0 0.25066998091423348 0.22130983604972601 0 0.26263664148415028 0.20046287152626421 0 0.25066998091423348 0.22130983604972601 0 0.26263664148415028 0.20046287152626421 0 0.26137988784843191 0.21126269042671819 0 0.26374833219316729 0.21073533483468029 0 0.26137988784843191 0.21126269042671819 0 0.26374833219316729 0.21073533483468029 0 0.26263664148415028 0.20046287152626421 0 0.2666938555074958 0.21007948738156759 0 0.26374833219316729 0.21073533483468029 0 0.26263664148415028 0.20046287152626421 0 0.2666938555074958 0.21007948738156759 0 0.26411581278396451 0.19788602634617281 0 0.26374833219316729 0.21073533483468029 0 0.26263664148415028 0.20046287152626421 0 0.2666938555074958 0.21007948738156759 0 0.26374833219316729 0.21073533483468029 0 0.26051435061398209 0.180852061687931 0 0.26263664148415028 0.20046287152626421 0 0.26051435061398209 0.180852061687931 0 0.26263664148415028 0.20046287152626421 0 0.26411581278396451 0.19788602634617281 0 0.26051435061398209 0.180852061687931 0 0.26263664148415028 0.20046287152626421 0 0.2526890803729952 0.19142810259802881 0 0.2666938555074958 0.21007948738156759 0 0.26263664148415028 0.20046287152626421 0 0.26411581278396451 0.19788602634617281 0 0.26051435061398209 0.180852061687931 0 0.26411581278396451 0.19788602634617281 0 0.26263664148415028 0.20046287152626421 0 0.26411581278396451 0.19788602634617281 0 0.24779516383791281 0.2050925541604558 0 0.26263664148415028 0.20046287152626421 0 0.2526890803729952 0.19142810259802881 0 0.26411581278396451 0.19788602634617281 0 0.27343269685423183 0.20228543950819311 0 0.28002824636069179 0.1915278342725304 0 0.27793392159972929 0.17381367779242529 0 0.26411581278396451 0.19788602634617281 0 0.28002824636069179 0.1915278342725304 0 0.27343269685423183 0.20228543950819311 0 0.28002824636069179 0.1915278342725304 0 0.28284180131926412 0.2064840009421908 0 0.29171735056467141 0.1921830640826481 0 0.29898974713103421 0.20288851450282289 0 0.28284180131926412 0.2064840009421908 0 0.29282911119050981 0.1792889410481722 0 0.28002824636069179 0.1915278342725304 0 0.29171735056467141 0.1921830640826481 0 0.28002824636069179 0.1915278342725304 0 0.29171735056467141 0.1921830640826481 0 0.28284180131926412 0.2064840009421908 0 0.3077243007812907 0.18476420430391791 0 0.29171735056467141 0.1921830640826481 0 0.29898974713103421 0.20288851450282289 0 0.3077243007812907 0.18476420430391791 0 0.29898974713103421 0.20288851450282289 0 0.31706275705467418 0.19886439509737519 0 0.3077243007812907 0.18476420430391791 0 0.29898974713103421 0.20288851450282289 0 0.29898974713103421 0.20288851450282289 0 0.31706275705467418 0.19886439509737519 0 0.29898974713103421 0.20288851450282289 0 0.31238380942631938 0.2086479899681197 0 0.31706275705467418 0.19886439509737519 0 0.29898974713103421 0.20288851450282289 0 0.30314046316089738 0.2170881780112566 0 0.28972519414635128 0.22211258007873369 0 0.29898974713103421 0.20288851450282289 0 0.31238380942631938 0.2086479899681197 0 0.30314046316089738 0.2170881780112566 0 0.29898974713103421 0.20288851450282289 0 0.28972519414635128 0.22211258007873369 0 0.29898974713103421 0.20288851450282289 0 0.28284180131926412 0.2064840009421908 0 0.29898974713103421 0.20288851450282289 0 0.28284180131926412 0.2064840009421908 0 0.28972519414635128 0.22211258007873369 0 0.2784123248882972 0.22335951982205671 0 0.28284180131926412 0.2064840009421908 0 0.28972519414635128 0.22211258007873369 0 0.28046064116166453 0.2413366456546425 0 0.28972519414635128 0.22211258007873369 0 0.30266394566338539 0.23623760469382399 0 0.28046064116166453 0.2413366456546425 0 0.28972519414635128 0.22211258007873369 0 0.28046064116166453 0.2413366456546425 0 0.2784123248882972 0.22335951982205671 0 0.28972519414635128 0.22211258007873369 0 0.30314046316089738 0.2170881780112566 0 0.28972519414635128 0.22211258007873369 0 0.30266394566338539 0.23623760469382399 0 0.30314046316089738 0.2170881780112566 0 0.30266394566338539 0.23623760469382399 0 0.31566359736160271 0.22864762283876969 0 0.30266394566338539 0.23623760469382399 0 0.31518495284644688 0.23785665599750949 0 0.31566359736160271 0.22864762283876969 0 0.29678721232981631 0.25191443877972741 0 0.30266394566338539 0.23623760469382399 0 0.31613760889202158 0.24985333127736531 0 0.30266394566338539 0.23623760469382399 0 0.31613760889202158 0.24985333127736531 0 0.31518495284644688 0.23785665599750949 0 0.29678721232981631 0.25191443877972741 0 0.28046064116166453 0.2413366456546425 0 0.30266394566338539 0.23623760469382399 0 0.32817251362834621 0.23566603331383279 0 0.34410531201216638 0.22744451705197979 0 0.34537901864450649 0.24169610408394809 0 0.33267406909819208 0.25332912475091363 0 0.32817251362834621 0.23566603331383279 0 0.34537901864450649 0.24169610408394809 0 0.33267406909819208 0.25332912475091363 0 0.32817251362834621 0.23566603331383279 0 0.31613760889202158 0.24985333127736531 0 0.32817251362834621 0.23566603331383279 0 0.31613760889202158 0.24985333127736531 0 0.31518495284644688 0.23785665599750949 0 0.30314046316089738 0.2170881780112566 0 0.31566359736160271 0.22864762283876969 0 0.33034227035866759 0.21575087226102199 0 0.32817251362834621 0.23566603331383279 0 0.31566359736160271 0.22864762283876969 0 0.33034227035866759 0.21575087226102199 0 0.32817251362834621 0.23566603331383279 0 0.31518495284644688 0.23785665599750949 0 0.31566359736160271 0.22864762283876969 0 0.32817251362834621 0.23566603331383279 0 0.33034227035866759 0.21575087226102199 0 0.34410531201216638 0.22744451705197979 0 0.33034227035866759 0.21575087226102199 0 0.33513576697831549 0.1948402756919328 0 0.34532789892856769 0.2064880965794961 0 0.30314046316089738 0.2170881780112566 0 0.33034227035866759 0.21575087226102199 0 0.31238380942631938 0.2086479899681197 0 0.33034227035866759 0.21575087226102199 0 0.31706275705467418 0.19886439509737519 0 0.33034227035866759 0.21575087226102199 0 0.31706275705467418 0.19886439509737519 0 0.33513576697831549 0.1948402756919328 0 0.31238380942631938 0.2086479899681197 0 0.30314046316089738 0.2170881780112566 0 0.33034227035866759 0.21575087226102199 0 0.3077243007812907 0.18476420430391791 0 0.31706275705467418 0.19886439509737519 0 0.33513576697831549 0.1948402756919328 0 0.31706275705467418 0.19886439509737519 0 0.33513576697831549 0.1948402756919328 0 0.3077243007812907 0.18476420430391791 0 0.33513576697831549 0.1948402756919328 0 0.33513576697831549 0.1948402756919328 0 0.34971035396282679 0.19159511185046879 0 0.33513576697831549 0.1948402756919328 0 0.35994082586626269 0.20395826822623611 0 0.34532789892856769 0.2064880965794961 0 0.33513576697831549 0.1948402756919328 0 0.35994082586626269 0.20395826822623611 0 0.33513576697831549 0.1948402756919328 0 0.34971035396282679 0.19159511185046879 0 0.35192526665491619 0.18382502179262139 0 0.33513576697831549 0.1948402756919328 0 0.34971035396282679 0.19159511185046879 0 0.35994082586626269 0.20395826822623611 0 0.34971035396282679 0.19159511185046879 0 0.36298102394592829 0.19352630431705889 0 0.35994082586626269 0.20395826822623611 0 0.34971035396282679 0.19159511185046879 0 0.36298102394592829 0.19352630431705889 0 0.35192526665491619 0.18382502179262139 0 0.36298102394592829 0.19352630431705889 0 0.37491260142441801 0.19865405020716831 0 0.37864704623623519 0.18609701059483769 0 0.36298102394592829 0.19352630431705889 0 0.35192526665491619 0.18382502179262139 0 0.37864704623623519 0.18609701059483769 0 0.36298102394592829 0.19352630431705889 0 0.37491260142441801 0.19865405020716831 0 0.35994082586626269 0.20395826822623611 0 0.35994082586626269 0.20395826822623611 0 0.35754407755643758 0.21441356651078741 0 0.38474588475420729 0.21307626076054631 0 0.35754407755643758 0.21441356651078741 0 0.38474588475420729 0.21307626076054631 0 0.35994082586626269 0.20395826822623611 0 0.38474588475420729 0.21307626076054631 0 0.37491260142441801 0.19865405020716831 0 0.35994082586626269 0.20395826822623611 0 0.38474588475420729 0.21307626076054631 0 0.33034227035866759 0.21575087226102199 0 0.35754407755643758 0.21441356651078741 0 0.33034227035866759 0.21575087226102199 0 0.35754407755643758 0.21441356651078741 0 0.34532789892856769 0.2064880965794961 0 0.35994082586626269 0.20395826822623611 0 0.35754407755643758 0.21441356651078741 0 0.34532789892856769 0.2064880965794961 0 0.33034227035866759 0.21575087226102199 0 0.35754407755643758 0.21441356651078741 0 0.34410531201216638 0.22744451705197979 0 0.35754407755643758 0.21441356651078741 0 0.34410531201216638 0.22744451705197979 0 0.36125773421505097 0.2298028337698598 0 0.34410531201216638 0.22744451705197979 0 0.36125773421505097 0.2298028337698598 0 0.34537901864450649 0.24169610408394809 0 0.35754407755643758 0.21441356651078741 0 0.36125773421505097 0.2298028337698598 0 0.38474588475420729 0.21307626076054631 0 0.36125773421505097 0.2298028337698598 0 0.37595268492756329 0.23620634627300111 0 0.38474588475420729 0.21307626076054631 0 0.38051310320780951 0.25297030194586873 0 0.36185578605882929 0.24709094405239959 0 0.37595268492756329 0.23620634627300111 0 0.36125773421505097 0.2298028337698598 0 0.36185578605882929 0.24709094405239959 0 0.37595268492756329 0.23620634627300111 0 0.34791963164634537 0.25884687602428208 0 0.36185578605882929 0.24709094405239959 0 0.34537901864450649 0.24169610408394809 0 0.36125773421505097 0.2298028337698598 0 0.36185578605882929 0.24709094405239959 0 0.34537901864450649 0.24169610408394809 0 0.32754824252631359 0.14362927240711779 0 0.34042871461805579 0.16154646516654511 0 0.34600595468348572 0.14588800794342449 0 0.34116200848025641 0.1197823189016945 0 0.33149279061469139 0.12922168060830291 0 0.35173563038094768 0.13128267348098291 0 0.33149279061469139 0.12922168060830291 0 0.34600595468348572 0.14588800794342449 0 0.35173563038094768 0.13128267348098291 0 0.33149279061469139 0.12922168060830291 0 0.32754824252631359 0.14362927240711779 0 0.34600595468348572 0.14588800794342449 0 0.31116814883381722 0.13210865994830309 0 0.33149279061469139 0.12922168060830291 0 0.32754824252631359 0.14362927240711779 0 0.31625523348058021 0.1170330033090547 0 0.31116814883381722 0.13210865994830309 0 0.33149279061469139 0.12922168060830291 0 0.30408292701778761 0.14869189742280431 0 0.32754824252631359 0.14362927240711779 0 0.31763627165380059 0.16419673835551721 0 0.30408292701778761 0.14869189742280431 0 0.31116814883381722 0.13210865994830309 0 0.32754824252631359 0.14362927240711779 0 0.32754824252631359 0.14362927240711779 0 0.31763627165380059 0.16419673835551721 0 0.31763627165380059 0.16419673835551721 0 0.32520348707359731 0.18155303299040521 0 0.32956639912540592 0.16675203079245801 0 0.32754824252631359 0.14362927240711779 0 0.31763627165380059 0.16419673835551721 0 0.32956639912540592 0.16675203079245801 0 0.3077243007812907 0.18476420430391791 0 0.31763627165380059 0.16419673835551721 0 0.32520348707359731 0.18155303299040521 0 0.3077243007812907 0.18476420430391791 0 0.31763627165380059 0.16419673835551721 0 0.3077243007812907 0.18476420430391791 0 0.33513576697831549 0.1948402756919328 0 0.32520348707359731 0.18155303299040521 0 0.33513576697831549 0.1948402756919328 0 0.32520348707359731 0.18155303299040521 0 0.35192526665491619 0.18382502179262139 0 0.32520348707359731 0.18155303299040521 0 0.35192526665491619 0.18382502179262139 0 0.32520348707359731 0.18155303299040521 0 0.33946619570428338 0.1729380532176151 0 0.35192526665491619 0.18382502179262139 0 0.32520348707359731 0.18155303299040521 0 0.33946619570428338 0.1729380532176151 0 0.32956639912540592 0.16675203079245801 0 0.32754824252631359 0.14362927240711779 0 0.32956639912540592 0.16675203079245801 0 0.34042871461805579 0.16154646516654511 0 0.33946619570428338 0.1729380532176151 0 0.32956639912540592 0.16675203079245801 0 0.34042871461805579 0.16154646516654511 0 0.33946619570428338 0.1729380532176151 0 0.34042871461805579 0.16154646516654511 0 0.35020711104944191 0.17101371534604581 0 0.34042871461805579 0.16154646516654511 0 0.35020711104944191 0.17101371534604581 0 0.35300355180507959 0.15789856361143881 0 0.35020711104944191 0.17101371534604581 0 0.35300355180507959 0.15789856361143881 0 0.3609127627891674 0.1643067326075244 0 0.35020711104944191 0.17101371534604581 0 0.36330470278373062 0.17416349297938941 0 0.3609127627891674 0.1643067326075244 0 0.33946619570428338 0.1729380532176151 0 0.35020711104944191 0.17101371534604581 0 0.35192526665491619 0.18382502179262139 0 0.35020711104944191 0.17101371534604581 0 0.35192526665491619 0.18382502179262139 0 0.36330470278373062 0.17416349297938941 0 0.36330470278373062 0.17416349297938941 0 0.37483132718889189 0.16557498455591729 0 0.37864704623623519 0.18609701059483769 0 0.35192526665491619 0.18382502179262139 0 0.37864704623623519 0.18609701059483769 0 0.35192526665491619 0.18382502179262139 0 0.36330470278373062 0.17416349297938941 0 0.37864704623623519 0.18609701059483769 0 0.35300355180507959 0.15789856361143881 0 0.3609127627891674 0.1643067326075244 0 0.36746321588524727 0.14673789699365411 0 0.3609127627891674 0.1643067326075244 0 0.37483132718889189 0.16557498455591729 0 0.36746321588524727 0.14673789699365411 0 0.36330470278373062 0.17416349297938941 0 0.3609127627891674 0.1643067326075244 0 0.37483132718889189 0.16557498455591729 0 0.35300355180507959 0.15789856361143881 0 0.36746321588524727 0.14673789699365411 0 0.34600595468348572 0.14588800794342449 0 0.34042871461805579 0.16154646516654511 0 0.35300355180507959 0.15789856361143881 0 0.34600595468348572 0.14588800794342449 0 0.36746321588524727 0.14673789699365411 0 0.34600595468348572 0.14588800794342449 0 0.35173563038094768 0.13128267348098291 0 0.35979464585309739 0.1151677808600263 0 0.35173563038094768 0.13128267348098291 0 0.3642596388746322 0.12913497688095929 0 0.36746321588524727 0.14673789699365411 0 0.3642596388746322 0.12913497688095929 0 0.37804506337923638 0.123351556189174 0 0.36746321588524727 0.14673789699365411 0 0.35173563038094768 0.13128267348098291 0 0.3642596388746322 0.12913497688095929 0 0.36746321588524727 0.14673789699365411 0 0.37804506337923638 0.123351556189174 0 0.36746321588524727 0.14673789699365411 0 0.38395960256305761 0.1367503815929495 0 0.37804506337923638 0.123351556189174 0 0.38395960256305761 0.1367503815929495 0 0.3924992571143992 0.1256832275223114 0 0.37804506337923638 0.123351556189174 0 0.3924992571143992 0.1256832275223114 0 0.39783426007509931 0.13653187713004891 0 0.41753539931968581 0.11861032273061679 0 0.38395960256305761 0.1367503815929495 0 0.3924992571143992 0.1256832275223114 0 0.39783426007509931 0.13653187713004891 0 0.39783426007509931 0.13653187713004891 0 0.40533529244250482 0.1526503537797923 0 0.41458558606434898 0.14042629729009559 0 0.39783426007509931 0.13653187713004891 0 0.40533529244250482 0.1526503537797923 0 0.3871821426919641 0.15190131614885369 0 0.37483132718889189 0.16557498455591729 0 0.36746321588524727 0.14673789699365411 0 0.3871821426919641 0.15190131614885369 0 0.36746321588524727 0.14673789699365411 0 0.38395960256305761 0.1367503815929495 0 0.3871821426919641 0.15190131614885369 0 0.38395960256305761 0.1367503815929495 0 0.39783426007509931 0.13653187713004891 0 0.3871821426919641 0.15190131614885369 0 0.37483132718889189 0.16557498455591729 0 0.3871821426919641 0.15190131614885369 0 0.39500073662478119 0.16807128826211609 0 0.37483132718889189 0.16557498455591729 0 0.37864704623623519 0.18609701059483769 0 0.39500073662478119 0.16807128826211609 0 0.37864704623623519 0.18609701059483769 0 0.39641080842396742 0.17944022792160641 0 0.39500073662478119 0.16807128826211609 0 0.37864704623623519 0.18609701059483769 0 0.39641080842396742 0.17944022792160641 0 0.40536882581755412 0.1883689993970539 0 0.37864704623623519 0.18609701059483769 0 0.40536882581755412 0.1883689993970539 0 0.39641080842396742 0.17944022792160641 0 0.39500073662478119 0.16807128826211609 0 0.4066266250172989 0.1752236134324178 0 0.39641080842396742 0.17944022792160641 0 0.4066266250172989 0.1752236134324178 0 0.40536882581755412 0.1883689993970539 0 0.40533529244250482 0.1526503537797923 0 0.3871821426919641 0.15190131614885369 0 0.39500073662478119 0.16807128826211609 0 0.39500073662478119 0.16807128826211609 0 0.41011103447019309 0.16515773686290439 0 0.4066266250172989 0.1752236134324178 0 0.40533529244250482 0.1526503537797923 0 0.39500073662478119 0.16807128826211609 0 0.41011103447019309 0.16515773686290439 0 0.40533529244250482 0.1526503537797923 0 0.41011103447019309 0.16515773686290439 0 0.42396720480281641 0.15760689800520139 0 0.41011103447019309 0.16515773686290439 0 0.4066266250172989 0.1752236134324178 0 0.41962531346356441 0.17223653083499429 0 0.41011103447019309 0.16515773686290439 0 0.41962531346356441 0.17223653083499429 0 0.42396720480281641 0.15760689800520139 0 0.41360003280409158 0.18035338935062781 0 0.42227988176024528 0.18278026019735749 0 0.40536882581755412 0.1883689993970539 0 0.42227988176024528 0.18278026019735749 0 0.40536882581755412 0.1883689993970539 0 0.43209060539887278 0.1906409881992715 0 0.41360003280409158 0.18035338935062781 0 0.4066266250172989 0.1752236134324178 0 0.40536882581755412 0.1883689993970539 0 0.41360003280409158 0.18035338935062781 0 0.4066266250172989 0.1752236134324178 0 0.41962531346356441 0.17223653083499429 0 0.41360003280409158 0.18035338935062781 0 0.41962531346356441 0.17223653083499429 0 0.42227988176024528 0.18278026019735749 0 0.42227988176024528 0.18278026019735749 0 0.43209060539887278 0.1906409881992715 0 0.43831710256016609 0.1688414562095395 0 0.41962531346356441 0.17223653083499429 0 0.42227988176024528 0.18278026019735749 0 0.43831710256016609 0.1688414562095395 0 0.43209060539887278 0.1906409881992715 0 0.43831710256016609 0.1688414562095395 0 0.42396720480281641 0.15760689800520139 0 0.44454359972145918 0.14704192421980741 0 0.43831710256016609 0.1688414562095395 0 0.41962531346356441 0.17223653083499429 0 0.42396720480281641 0.15760689800520139 0 0.43831710256016609 0.1688414562095395 0 0.42396720480281641 0.15760689800520139 0 0.42825577368163859 0.13673203480481819 0 0.44454359972145918 0.14704192421980741 0 0.42396720480281641 0.15760689800520139 0 0.42825577368163859 0.13673203480481819 0 0.41458558606434898 0.14042629729009559 0 0.42825577368163859 0.13673203480481819 0 0.44349698574313801 0.1231407134538766 0 0.41753539931968581 0.11861032273061679 0 0.39783426007509931 0.13653187713004891 0 0.41458558606434898 0.14042629729009559 0 0.41753539931968581 0.11861032273061679 0 0.42825577368163859 0.13673203480481819 0 0.41458558606434898 0.14042629729009559 0 0.41753539931968581 0.11861032273061679 0 0.40533529244250482 0.1526503537797923 0 0.42396720480281641 0.15760689800520139 0 0.41458558606434898 0.14042629729009559 0 0.40082287850574599 0.25621859437068972 0 0.39432126418767771 0.23711620722851301 0 0.41366690408933199 0.24065356243361821 0 0.40082287850574599 0.25621859437068972 0 0.38051310320780951 0.25297030194586873 0 0.39432126418767771 0.23711620722851301 0 0.38051310320780951 0.25297030194586873 0 0.39432126418767771 0.23711620722851301 0 0.37595268492756329 0.23620634627300111 0 0.39432126418767771 0.23711620722851301 0 0.37595268492756329 0.23620634627300111 0 0.38474588475420729 0.21307626076054631 0 0.39432126418767771 0.23711620722851301 0 0.38474588475420729 0.21307626076054631 0 0.40779670780336752 0.2215494207486402 0 0.39432126418767771 0.23711620722851301 0 0.40779670780336752 0.2215494207486402 0 0.41366690408933199 0.24065356243361821 0 0.39962980393597242 0.21234453177787579 0 0.38474588475420729 0.21307626076054631 0 0.40779670780336752 0.2215494207486402 0 0.38474588475420729 0.21307626076054631 0 0.40779670780336752 0.2215494207486402 0 0.39962980393597242 0.21234453177787579 0 0.40757167897784907 0.21168342411760471 0 0.40779670780336752 0.2215494207486402 0 0.39962980393597242 0.21234453177787579 0 0.40331836459107778 0.20619804566000299 0 0.40757167897784907 0.21168342411760471 0 0.40331836459107778 0.20619804566000299 0 0.40047271027778908 0.19762661789138869 0 0.41257002794399322 0.2061872534527526 0 0.39962980393597242 0.21234453177787579 0 0.40331836459107778 0.20619804566000299 0 0.39569943310732247 0.20473634249939809 0 0.39962980393597242 0.21234453177787579 0 0.39569943310732247 0.20473634249939809 0 0.38474588475420729 0.21307626076054631 0 0.39962980393597242 0.21234453177787579 0 0.38474588475420729 0.21307626076054631 0 0.39569943310732247 0.20473634249939809 0 0.38474588475420729 0.21307626076054631 0 0.38824822631945421 0.19661240713716799 0 0.37491260142441801 0.19865405020716831 0 0.38474588475420729 0.21307626076054631 0 0.38824822631945421 0.19661240713716799 0 0.37864704623623519 0.18609701059483769 0 0.38824822631945421 0.19661240713716799 0 0.39993959743578622 0.19081914595819641 0 0.37491260142441801 0.19865405020716831 0 0.37864704623623519 0.18609701059483769 0 0.38824822631945421 0.19661240713716799 0 0.37864704623623519 0.18609701059483769 0 0.39993959743578622 0.19081914595819641 0 0.40536882581755412 0.1883689993970539 0 0.38824822631945421 0.19661240713716799 0 0.40047271027778908 0.19762661789138869 0 0.39993959743578622 0.19081914595819641 0 0.39569943310732247 0.20473634249939809 0 0.38824822631945421 0.19661240713716799 0 0.40047271027778908 0.19762661789138869 0 0.40331836459107778 0.20619804566000299 0 0.39569943310732247 0.20473634249939809 0 0.40047271027778908 0.19762661789138869 0 0.40047271027778908 0.19762661789138869 0 0.39993959743578622 0.19081914595819641 0 0.4147024492130218 0.1953257816479281 0 0.40536882581755412 0.1883689993970539 0 0.43209060539887278 0.1906409881992715 0 0.40047271027778908 0.19762661789138869 0 0.4147024492130218 0.1953257816479281 0 0.4276184324691763 0.20629847174404481 0 0.40047271027778908 0.19762661789138869 0 0.4276184324691763 0.20629847174404481 0 0.40536882581755412 0.1883689993970539 0 0.4147024492130218 0.1953257816479281 0 0.43209060539887278 0.1906409881992715 0 0.39993959743578622 0.19081914595819641 0 0.4147024492130218 0.1953257816479281 0 0.39993959743578622 0.19081914595819641 0 0.40536882581755412 0.1883689993970539 0 0.4147024492130218 0.1953257816479281 0 0.4147024492130218 0.1953257816479281 0 0.43209060539887278 0.1906409881992715 0 0.4294653009902572 0.19983241733766069 0 0.43209060539887278 0.1906409881992715 0 0.4294653009902572 0.19983241733766069 0 0.4294653009902572 0.19983241733766069 0 0.4276184324691763 0.20629847174404481 0 0.4147024492130218 0.1953257816479281 0 0.4294653009902572 0.19983241733766069 0 0.4276184324691763 0.20629847174404481 0 0.4147024492130218 0.1953257816479281 0 0.4294653009902572 0.19983241733766069 0 0.4276184324691763 0.20629847174404481 0 0.43574288487996682 0.21558077057395919 0 0.44876266331208259 0.21305311538195451 0 0.4294653009902572 0.19983241733766069 0 0.4276184324691763 0.20629847174404481 0 0.44876266331208259 0.21305311538195451 0 0.42371402603959352 0.2091760111302122 0 0.4276184324691763 0.20629847174404481 0 0.41981305981102929 0.20882697908153719 0 0.42371402603959352 0.2091760111302122 0 0.42646254626392249 0.21061515552777579 0 0.4276184324691763 0.20629847174404481 0 0.42646254626392249 0.21061515552777579 0 0.4276184324691763 0.20629847174404481 0 0.43009651843795421 0.21245238386760579 0 0.4276184324691763 0.20629847174404481 0 0.43574288487996682 0.21558077057395919 0 0.43009651843795421 0.21245238386760579 0 0.43574288487996682 0.21558077057395919 0 0.43009651843795421 0.21245238386760579 0 0.42761174552846443 0.22047049234854121 0 0.42474394810322158 0.2134038133413397 0 0.41921074518931922 0.21589685454878069 0 0.42761174552846443 0.22047049234854121 0 0.43009651843795421 0.21245238386760579 0 0.42474394810322158 0.2134038133413397 0 0.42761174552846443 0.22047049234854121 0 0.42646254626392249 0.21061515552777579 0 0.43009651843795421 0.21245238386760579 0 0.42474394810322158 0.2134038133413397 0 0.42371402603959352 0.2091760111302122 0 0.42474394810322158 0.2134038133413397 0 0.42040505395159961 0.21188830541012441 0 0.42371402603959352 0.2091760111302122 0 0.42646254626392249 0.21061515552777579 0 0.42474394810322158 0.2134038133413397 0 0.40047271027778908 0.19762661789138869 0 0.4276184324691763 0.20629847174404481 0 0.41257002794399322 0.2061872534527526 0 0.41921074518931922 0.21589685454878069 0 0.41454349061483448 0.21213786894875181 0 0.42040505395159961 0.21188830541012441 0 0.41454349061483448 0.21213786894875181 0 0.42040505395159961 0.21188830541012441 0 0.41981305981102929 0.20882697908153719 0 0.42474394810322158 0.2134038133413397 0 0.41921074518931922 0.21589685454878069 0 0.42040505395159961 0.21188830541012441 0 0.42371402603959352 0.2091760111302122 0 0.42040505395159961 0.21188830541012441 0 0.41981305981102929 0.20882697908153719 0 0.4276184324691763 0.20629847174404481 0 0.41981305981102929 0.20882697908153719 0 0.41257002794399322 0.2061872534527526 0 0.41454349061483448 0.21213786894875181 0 0.41981305981102929 0.20882697908153719 0 0.41257002794399322 0.2061872534527526 0 0.41454349061483448 0.21213786894875181 0 0.41257002794399322 0.2061872534527526 0 0.40757167897784907 0.21168342411760471 0 0.40331836459107778 0.20619804566000299 0 0.41257002794399322 0.2061872534527526 0 0.40757167897784907 0.21168342411760471 0 0.41921074518931922 0.21589685454878069 0 0.41454349061483448 0.21213786894875181 0 0.40779670780336752 0.2215494207486402 0 0.41454349061483448 0.21213786894875181 0 0.40757167897784907 0.21168342411760471 0 0.40779670780336752 0.2215494207486402 0 0.40779670780336752 0.2215494207486402 0 0.43084753085252581 0.23002258073673959 0 0.41366690408933199 0.24065356243361821 0 0.40779670780336752 0.2215494207486402 0 0.43084753085252581 0.23002258073673959 0 0.41921074518931922 0.21589685454878069 0 0.40779670780336752 0.2215494207486402 0 0.42761174552846443 0.22047049234854121 0 0.40779670780336752 0.2215494207486402 0 0.42761174552846443 0.22047049234854121 0 0.43084753085252581 0.23002258073673959 0 0.42761174552846443 0.22047049234854121 0 0.43084753085252581 0.23002258073673959 0 0.43868920282611751 0.2247916873806842 0 0.43574288487996682 0.21558077057395919 0 0.42761174552846443 0.22047049234854121 0 0.43868920282611751 0.2247916873806842 0 0.42782889154107612 0.25533539845400482 0 0.43084753085252581 0.23002258073673959 0 0.41366690408933199 0.24065356243361821 0 0.45389835390168393 0.23849574072483909 0 0.4769491769508421 0.24696890071293859 0 0.45897269939270707 0.25639659969192341 0 0.45389835390168393 0.23849574072483909 0 0.4769491769508421 0.24696890071293859 0 0.45389835390168393 0.23849574072483909 0 0.47438133165603952 0.2212371432818987 0 0.4769491769508421 0.24696890071293859 0 0.42782889154107612 0.25533539845400482 0 0.43084753085252581 0.23002258073673959 0 0.45389835390168393 0.23849574072483909 0 0.45389835390168393 0.23849574072483909 0 0.43868920282611751 0.2247916873806842 0 0.44534549896794628 0.21938885251934179 0 0.43084753085252581 0.23002258073673959 0 0.45389835390168393 0.23849574072483909 0 0.43084753085252581 0.23002258073673959 0 0.45389835390168393 0.23849574072483909 0 0.43868920282611751 0.2247916873806842 0 0.43574288487996682 0.21558077057395919 0 0.43868920282611751 0.2247916873806842 0 0.44534549896794628 0.21938885251934179 0 0.45389835390168393 0.23849574072483909 0 0.44534549896794628 0.21938885251934179 0 0.47438133165603952 0.2212371432818987 0 0.45215710252024122 0.20675951273781881 0 0.47607855126012177 0.21406198086985559 0 0.44876266331208259 0.21305311538195451 0 0.47438133165603952 0.2212371432818987 0 0.45215710252024122 0.20675951273781881 0 0.47607855126012177 0.21406198086985559 0 0.47438133165603952 0.2212371432818987 0 0.44876266331208259 0.21305311538195451 0 0.45215710252024122 0.20675951273781881 0 0.47438133165603952 0.2212371432818987 0 0.45215710252024122 0.20675951273781881 0 0.47492914645343709 0.1955561435351468 0 0.47607855126012177 0.21406198086985559 0 0.44534549896794628 0.21938885251934179 0 0.44876266331208259 0.21305311538195451 0 0.47438133165603952 0.2212371432818987 0 0.4276184324691763 0.20629847174404481 0 0.44876266331208259 0.21305311538195451 0 0.4294653009902572 0.19983241733766069 0 0.45215710252024122 0.20675951273781881 0 0.4294653009902572 0.19983241733766069 0 0.44876266331208259 0.21305311538195451 0 0.45215710252024122 0.20675951273781881 0 0.44534549896794628 0.21938885251934179 0 0.44876266331208259 0.21305311538195451 0 0.43574288487996682 0.21558077057395919 0 0.44534549896794628 0.21938885251934179 0 0.44876266331208259 0.21305311538195451 0 0.44876266331208259 0.21305311538195451 0 0.45215710252024122 0.20675951273781881 0 0.43209060539887278 0.1906409881992715 0 0.45259110374977313 0.19238401966734109 0 0.43209060539887278 0.1906409881992715 0 0.4294653009902572 0.19983241733766069 0 0.45259110374977313 0.19238401966734109 0 0.43209060539887278 0.1906409881992715 0 0.45259110374977313 0.19238401966734109 0 0.44615824327188608 0.18092820170451529 0 0.4294653009902572 0.19983241733766069 0 0.45215710252024122 0.20675951273781881 0 0.45259110374977313 0.19238401966734109 0 0.45215710252024122 0.20675951273781881 0 0.46461449248254788 0.18366236543365649 0 0.45215710252024122 0.20675951273781881 0 0.45259110374977313 0.19238401966734109 0 0.46461449248254788 0.18366236543365649 0 0.45215710252024122 0.20675951273781881 0 0.47492914645343709 0.1955561435351468 0 0.46461449248254788 0.18366236543365649 0 0.47492914645343709 0.1955561435351468 0 0.5 0.19295086511600321 0 0.47607855126012177 0.21406198086985559 0 0.47492914645343709 0.1955561435351468 0 0.5 0.19295086511600321 0 0.4817955860042753 0.180345993518399 0 0.47607855126012177 0.21406198086985559 0 0.50000000000000233 0.2213644490018922 0 0.5 0.19295086511600321 0 0.47607855126012177 0.21406198086985559 0 0.50000000000000233 0.2213644490018922 0 0.47438133165603952 0.2212371432818987 0 0.49999999999999661 0.22942117118184241 0 0.4769491769508421 0.24696890071293859 0 0.47607855126012177 0.21406198086985559 0 0.47438133165603952 0.2212371432818987 0 0.50000000000000233 0.2213644490018922 0 0.47438133165603952 0.2212371432818987 0 0.49999999999999661 0.22942117118184241 0 0.47438133165603952 0.2212371432818987 0 0.50000000000000233 0.2213644490018922 0 0.49999999999999661 0.22942117118184241 0 0.50000000000000022 0.25544206070103809 0 0.49999999999999661 0.22942117118184241 0 0.4769491769508421 0.24696890071293859 0 0.45845482804765231 0.13922633408087309 0 0.44454359972145918 0.14704192421980741 0 0.45762346645027008 0.16391721412470139 0 0.45845482804765231 0.13922633408087309 0 0.45762346645027008 0.16391721412470139 0 0.4742706155639283 0.14327039186909901 0 0.45845482804765231 0.13922633408087309 0 0.46945857216659009 0.1276711041771364 0 0.45091107713559869 0.12443449921557651 0 0.45845482804765231 0.13922633408087309 0 0.4742706155639283 0.14327039186909901 0 0.46945857216659009 0.1276711041771364 0 0.46945857216659009 0.1276711041771364 0 0.45091107713559869 0.12443449921557651 0 0.44454359972145918 0.14704192421980741 0 0.45091107713559869 0.12443449921557651 0 0.45845482804765231 0.13922633408087309 0 0.44454359972145918 0.14704192421980741 0 0.45091107713559869 0.12443449921557651 0 0.44454359972145918 0.14704192421980741 0 0.45091107713559869 0.12443449921557651 0 0.44349698574313801 0.1231407134538766 0 0.42825577368163859 0.13673203480481819 0 0.44454359972145918 0.14704192421980741 0 0.44349698574313801 0.1231407134538766 0 0.44454359972145918 0.14704192421980741 0 0.43831710256016609 0.1688414562095395 0 0.43831710256016609 0.1688414562095395 0 0.44615824327188608 0.18092820170451529 0 0.45762346645027008 0.16391721412470139 0 0.44454359972145918 0.14704192421980741 0 0.43831710256016609 0.1688414562095395 0 0.45762346645027008 0.16391721412470139 0 0.43209060539887278 0.1906409881992715 0 0.43831710256016609 0.1688414562095395 0 0.44615824327188608 0.18092820170451529 0 0.44615824327188608 0.18092820170451529 0 0.46461449248254788 0.18366236543365649 0 0.45762346645027008 0.16391721412470139 0 0.45259110374977313 0.19238401966734109 0 0.44615824327188608 0.18092820170451529 0 0.46461449248254788 0.18366236543365649 0 0.46461449248254788 0.18366236543365649 0 0.45762346645027008 0.16391721412470139 0 0.47707188244485482 0.16056521812949401 0 0.47492914645343709 0.1955561435351468 0 0.46461449248254788 0.18366236543365649 0 0.4817955860042753 0.180345993518399 0 0.46461449248254788 0.18366236543365649 0 0.47707188244485482 0.16056521812949401 0 0.4817955860042753 0.180345993518399 0 0.46461449248254788 0.18366236543365649 0 0.47707188244485482 0.16056521812949401 0 0.5 0.19295086511600321 0 0.4817955860042753 0.180345993518399 0 0.5 0.16453728123011421 0 0.47707188244485482 0.16056521812949401 0 0.4817955860042753 0.180345993518399 0 0.5 0.16453728123011421 0 0.47707188244485482 0.16056521812949401 0 0.5 0.16453728123011421 0 0.49023293848144289 0.15275559647394371 0 0.49023293848144289 0.15275559647394371 0 0.48952927240716171 0.13746807082533169 0 0.5 0.136123697344225 0 0.5 0.16453728123011421 0 0.49023293848144289 0.15275559647394371 0 0.5 0.136123697344225 0 0.47707188244485482 0.16056521812949401 0 0.49023293848144289 0.15275559647394371 0 0.48952927240716171 0.13746807082533169 0 0.45762346645027008 0.16391721412470139 0 0.47707188244485482 0.16056521812949401 0 0.4742706155639283 0.14327039186909901 0 0.47707188244485482 0.16056521812949401 0 0.48952927240716171 0.13746807082533169 0 0.47707188244485482 0.16056521812949401 0 0.4742706155639283 0.14327039186909901 0 0.48952927240716171 0.13746807082533169 0 0.46945857216659009 0.1276711041771364 0 0.47931173065526189 0.13316475764871519 0 0.48549487216673759 0.1236857733145952 0 0.4742706155639283 0.14327039186909901 0 0.46945857216659009 0.1276711041771364 0 0.47931173065526189 0.13316475764871519 0 0.4742706155639283 0.14327039186909901 0 0.47931173065526189 0.13316475764871519 0 0.48952927240716171 0.13746807082533169 0 0.47931173065526189 0.13316475764871519 0 0.48952927240716171 0.13746807082533169 0 0.48549487216673759 0.1236857733145952 0 0.48952927240716171 0.13746807082533169 0 0.5 0.136123697344225 0 0.48549487216673759 0.1236857733145952 0 0.5 0.136123697344225 0 0.48549487216673759 0.1236857733145952 0 0.50000000000000266 0.10771011345833589 0 0.48549487216673759 0.1236857733145952 0 0.50000000000000266 0.10771011345833589 0 0.47480218959180698 0.099927303738805595 0 0.50000000000000266 0.10771011345833589 0 0.47480218959180698 0.099927303738805595 0 0.5 0.082643726001417339 0 0.50000000000000266 0.10771011345833589 0 0.47480218959180698 0.099927303738805595 0 0.46945857216659009 0.1276711041771364 0 0.48549487216673759 0.1236857733145952 0 0.47480218959180698 0.099927303738805595 0 0.47966088283470287 0.080001022939042418 0 0.46716968968597727 0.063733458270020832 0 0.5 0.057577338544498757 0 0.5 0.082643726001417339 0 0.47966088283470287 0.080001022939042418 0 0.5 0.057577338544498757 0 0.47480218959180698 0.099927303738805595 0 0.5 0.082643726001417339 0 0.47966088283470287 0.080001022939042418 0 0.47480218959180698 0.099927303738805595 0 0.47966088283470287 0.080001022939042418 0 0.44960437918361118 0.092144494019276033 0 0.47966088283470287 0.080001022939042418 0 0.46716968968597727 0.063733458270020832 0 0.44960437918361118 0.092144494019276033 0 0.44960437918361118 0.092144494019276033 0 0.44015092238234782 0.067275346703255481 0 0.42440656877541538 0.084361684299746484 0 0.46716968968597727 0.063733458270020832 0 0.44960437918361118 0.092144494019276033 0 0.44015092238234782 0.067275346703255481 0 0.46945857216659009 0.1276711041771364 0 0.45894631288771981 0.11125987573539731 0 0.45091107713559869 0.12443449921557651 0 0.46945857216659009 0.1276711041771364 0 0.47480218959180698 0.099927303738805595 0 0.45894631288771981 0.11125987573539731 0 0.47480218959180698 0.099927303738805595 0 0.44960437918361118 0.092144494019276033 0 0.47480218959180698 0.099927303738805595 0 0.44960437918361118 0.092144494019276033 0 0.45894631288771981 0.11125987573539731 0 0.44960437918361118 0.092144494019276033 0 0.44566838429263961 0.1099790691145356 0 0.43328162227329642 0.1050281116261074 0 0.44960437918361118 0.092144494019276033 0 0.45894631288771981 0.11125987573539731 0 0.44566838429263961 0.1099790691145356 0 0.44566838429263961 0.1099790691145356 0 0.44349698574313801 0.1231407134538766 0 0.43328162227329642 0.1050281116261074 0 0.45894631288771981 0.11125987573539731 0 0.44566838429263961 0.1099790691145356 0 0.44349698574313801 0.1231407134538766 0 0.45894631288771981 0.11125987573539731 0 0.45091107713559869 0.12443449921557651 0 0.44349698574313801 0.1231407134538766 0 0.45091107713559869 0.12443449921557651 0 0.44349698574313801 0.1231407134538766 0 0.44349698574313801 0.1231407134538766 0 0.41753539931968581 0.11861032273061679 0 0.44349698574313801 0.1231407134538766 0 0.41753539931968581 0.11861032273061679 0 0.43328162227329642 0.1050281116261074 0 0.40763350467677062 0.1021651917311477 0 0.43328162227329642 0.1050281116261074 0 0.42440656877541538 0.084361684299746484 0 0.41753539931968581 0.11861032273061679 0 0.40763350467677062 0.1021651917311477 0 0.43328162227329642 0.1050281116261074 0 0.44960437918361118 0.092144494019276033 0 0.43328162227329642 0.1050281116261074 0 0.42440656877541538 0.084361684299746484 0 0.44960437918361118 0.092144494019276033 0 0.42440656877541538 0.084361684299746484 0 0.44015092238234782 0.067275346703255481 0 0.42440656877541538 0.084361684299746484 0 0.41873912858495871 0.065782018931622999 0 0.42440656877541538 0.084361684299746484 0 0.41873912858495871 0.065782018931622999 0 0.40058564950662318 0.073535885588436087 0 0.41873912858495871 0.065782018931622999 0 0.40646122938536672 0.064759908938142527 0 0.40058564950662318 0.073535885588436087 0 0.42440656877541538 0.084361684299746484 0 0.3992087583672197 0.076578874580216255 0 0.40763350467677062 0.1021651917311477 0 0.42440656877541538 0.084361684299746484 0 0.3992087583672197 0.076578874580216255 0 0.42440656877541538 0.084361684299746484 0 0.40058564950662318 0.073535885588436087 0 0.3992087583672197 0.076578874580216255 0 0.40763350467677062 0.1021651917311477 0 0.3992087583672197 0.076578874580216255 0 0.38862691087322537 0.09996521538469394 0 0.3992087583672197 0.076578874580216255 0 0.38862691087322537 0.09996521538469394 0 0.3992087583672197 0.076578874580216255 0 0.39346678301420113 0.066942367248392309 0 0.3794716290007209 0.070482697183023968 0 0.40646122938536672 0.064759908938142527 0 0.39860367617562709 0.065715087297407493 0 0.39799689900614937 0.059108947948379252 0 0.40646122938536672 0.064759908938142527 0 0.39860367617562709 0.065715087297407493 0 0.40058564950662318 0.073535885588436087 0 0.40058564950662318 0.073535885588436087 0 0.3992087583672197 0.076578874580216255 0 0.40058564950662318 0.073535885588436087 0 0.3992087583672197 0.076578874580216255 0 0.39346678301420113 0.066942367248392309 0 0.39860367617562709 0.065715087297407493 0 0.40058564950662318 0.073535885588436087 0 0.39346678301420113 0.066942367248392309 0 0.39860367617562709 0.065715087297407493 0 0.39346678301420113 0.066942367248392309 0 0.39799689900614937 0.059108947948379252 0 0.36661049975044091 0.078574524508050178 0 0.3794716290007209 0.070482697183023968 0 0.38308787105973963 0.083809170753784995 0 0.3992087583672197 0.076578874580216255 0 0.3794716290007209 0.070482697183023968 0 0.38308787105973963 0.083809170753784995 0 0.3992087583672197 0.076578874580216255 0 0.3794716290007209 0.070482697183023968 0 0.39346678301420113 0.066942367248392309 0 0.3794716290007209 0.070482697183023968 0 0.38493408602886697 0.05623271089289017 0 0.37367232113742599 0.092921950275697343 0 0.38308787105973963 0.083809170753784995 0 0.38862691087322537 0.09996521538469394 0 0.3992087583672197 0.076578874580216255 0 0.38308787105973963 0.083809170753784995 0 0.38862691087322537 0.09996521538469394 0 0.37283405624565152 0.106739526300412 0 0.37367232113742599 0.092921950275697343 0 0.38862691087322537 0.09996521538469394 0 0.38862691087322537 0.09996521538469394 0 0.37804506337923638 0.123351556189174 0 0.3915738128962335 0.1140799320073571 0 0.37283405624565152 0.106739526300412 0 0.38862691087322537 0.09996521538469394 0 0.37804506337923638 0.123351556189174 0 0.38862691087322537 0.09996521538469394 0 0.37804506337923638 0.123351556189174 0 0.3924992571143992 0.1256832275223114 0 0.37804506337923638 0.123351556189174 0 0.3915738128962335 0.1140799320073571 0 0.41753539931968581 0.11861032273061679 0 0.40763350467677062 0.1021651917311477 0 0.3915738128962335 0.1140799320073571 0 0.41753539931968581 0.11861032273061679 0 0.3915738128962335 0.1140799320073571 0 0.3924992571143992 0.1256832275223114 0 0.41753539931968581 0.11861032273061679 0 0.3915738128962335 0.1140799320073571 0 0.40763350467677062 0.1021651917311477 0 0.38862691087322537 0.09996521538469394 0 0.3915738128962335 0.1140799320073571 0 0.40014595478512838 0.019206457939012489 0 0.38811438789370362 0.031153067884750991 0 0.39971395084558431 0.036103534947274682 0 0.40014595478512838 0.019206457939012489 0 0.39971395084558431 0.036103534947274682 0 0.41056806889800312 0.030680055647906448 0 0.40014595478512838 0.019206457939012489 0 0.39358874500516172 0.002003130149795967 0 0.41100152220785441 -0.0043939504535228406 0 0.40014595478512838 0.019206457939012489 0 0.39358874500516172 0.002003130149795967 0 0.38273570213103453 0.016594143913516018 0 0.39358874500516172 0.002003130149795967 0 0.38273570213103453 0.016594143913516018 0 0.37662375727886832 -0.00024753458288838111 0 0.40014595478512838 0.019206457939012489 0 0.38273570213103453 0.016594143913516018 0 0.38811438789370362 0.031153067884750991 0 0.37255180160143669 0.032136223495383677 0 0.38273570213103453 0.016594143913516018 0 0.38811438789370362 0.031153067884750991 0 0.37255180160143669 0.032136223495383677 0 0.38811438789370362 0.031153067884750991 0 0.38181173906570032 0.043343788707958547 0 0.38811438789370362 0.031153067884750991 0 0.38181173906570032 0.043343788707958547 0 0.39290084449939772 0.04598304782489003 0 0.37055757530509642 0.051213893441877843 0 0.3794716290007209 0.070482697183023968 0 0.38493408602886697 0.05623271089289017 0 0.37055757530509642 0.051213893441877843 0 0.38181173906570032 0.043343788707958547 0 0.38493408602886697 0.05623271089289017 0 0.38181173906570032 0.043343788707958547 0 0.38493408602886697 0.05623271089289017 0 0.39290084449939772 0.04598304782489003 0 0.39346678301420113 0.066942367248392309 0 0.38493408602886697 0.05623271089289017 0 0.39799689900614937 0.059108947948379252 0 0.39799689900614937 0.059108947948379252 0 0.40288441546309239 0.050813796531650537 0 0.39290084449939772 0.04598304782489003 0 0.38493408602886697 0.05623271089289017 0 0.39799689900614937 0.059108947948379252 0 0.39290084449939772 0.04598304782489003 0 0.40646122938536672 0.064759908938142527 0 0.39799689900614937 0.059108947948379252 0 0.41183222557697119 0.0562889380496151 0 0.39799689900614937 0.059108947948379252 0 0.40288441546309239 0.050813796531650537 0 0.41183222557697119 0.0562889380496151 0 0.38811438789370362 0.031153067884750991 0 0.39290084449939772 0.04598304782489003 0 0.39971395084558431 0.036103534947274682 0 0.40288441546309239 0.050813796531650537 0 0.39971395084558431 0.036103534947274682 0 0.41285624473790261 0.0428567059389642 0 0.40288441546309239 0.050813796531650537 0 0.39290084449939772 0.04598304782489003 0 0.39971395084558431 0.036103534947274682 0 0.39971395084558431 0.036103534947274682 0 0.41285624473790261 0.0428567059389642 0 0.41056806889800312 0.030680055647906448 0 0.41285624473790261 0.0428567059389642 0 0.42497223415720659 0.029413200990553778 0 0.41056806889800312 0.030680055647906448 0 0.41285624473790261 0.0428567059389642 0 0.41183222557697119 0.0562889380496151 0 0.42899817588302808 0.048470350010542423 0 0.41873912858495871 0.065782018931622999 0 0.41183222557697119 0.0562889380496151 0 0.42899817588302808 0.048470350010542423 0 0.41873912858495871 0.065782018931622999 0 0.40646122938536672 0.064759908938142527 0 0.41183222557697119 0.0562889380496151 0 0.40288441546309239 0.050813796531650537 0 0.41285624473790261 0.0428567059389642 0 0.41183222557697119 0.0562889380496151 0 0.44015092238234782 0.067275346703255481 0 0.41873912858495871 0.065782018931622999 0 0.42899817588302808 0.048470350010542423 0 0.42899817588302808 0.048470350010542423 0 0.42497223415720659 0.029413200990553778 0 0.44266650774304672 0.028039903318950551 0 0.41285624473790261 0.0428567059389642 0 0.42899817588302808 0.048470350010542423 0 0.42497223415720659 0.029413200990553778 0 0.42497223415720659 0.029413200990553778 0 0.43355977937381063 0.007478167013129782 0 0.44266650774304672 0.028039903318950551 0 0.42497223415720659 0.029413200990553778 0 0.41674198196424628 0.01641539575538823 0 0.43355977937381063 0.007478167013129782 0 0.40014595478512838 0.019206457939012489 0 0.41674198196424628 0.01641539575538823 0 0.41056806889800312 0.030680055647906448 0 0.42497223415720659 0.029413200990553778 0 0.41674198196424628 0.01641539575538823 0 0.41056806889800312 0.030680055647906448 0 0.40014595478512838 0.019206457939012489 0 0.41674198196424628 0.01641539575538823 0 0.41100152220785441 -0.0043939504535228406 0 0.41674198196424628 0.01641539575538823 0 0.43355977937381063 0.007478167013129782 0 0.41100152220785441 -0.0043939504535228406 0 0.43355977937381063 0.007478167013129782 0 0.46020029176545768 0.0068877817510958417 0 0.44928704876972142 -0.0093157435951783541 0 0.43355977937381063 0.007478167013129782 0 0.44266650774304672 0.028039903318950551 0 0.46020029176545768 0.0068877817510958417 0 0.44266650774304672 0.028039903318950551 0 0.46277608328504738 0.03062117492707268 0 0.46020029176545768 0.0068877817510958417 0 0.46277608328504738 0.03062117492707268 0 0.46020029176545768 0.0068877817510958417 0 0.4802448297081986 0.017556459695101969 0 0.44015092238234782 0.067275346703255481 0 0.42899817588302808 0.048470350010542423 0 0.45355169868534823 0.047027066801924373 0 0.42899817588302808 0.048470350010542423 0 0.44266650774304672 0.028039903318950551 0 0.45355169868534823 0.047027066801924373 0 0.44266650774304672 0.028039903318950551 0 0.46277608328504738 0.03062117492707268 0 0.45355169868534823 0.047027066801924373 0 0.46277608328504738 0.03062117492707268 0 0.45355169868534823 0.047027066801924373 0 0.47954881313264203 0.044022167581704338 0 0.46716968968597727 0.063733458270020832 0 0.45355169868534823 0.047027066801924373 0 0.47954881313264203 0.044022167581704338 0 0.46716968968597727 0.063733458270020832 0 0.44015092238234782 0.067275346703255481 0 0.45355169868534823 0.047027066801924373 0 0.46716968968597727 0.063733458270020832 0 0.47954881313264203 0.044022167581704338 0 0.5 0.057577338544498757 0 0.47954881313264203 0.044022167581704338 0 0.5 0.032510951087580182 0 0.4802448297081986 0.017556459695101969 0 0.47954881313264203 0.044022167581704338 0 0.5 0.032510951087580182 0 0.5 0.057577338544498757 0 0.46020029176545768 0.0068877817510958417 0 0.4802448297081986 0.017556459695101969 0 0.4829536825154806 -0.00158037144322379 0 0.46277608328504738 0.03062117492707268 0 0.47954881313264203 0.044022167581704338 0 0.4802448297081986 0.017556459695101969 0 0.5 0.032510951087580182 0 0.4802448297081986 0.017556459695101969 0 0.5 0.0074445636306617047 0 0.4802448297081986 0.017556459695101969 0 0.5 0.0074445636306617047 0 0.4829536825154806 -0.00158037144322379 0 0.4829536825154806 -0.00158037144322379 0 0.47432329110374649 -0.022168838466721651 0 0.4999999999999955 -0.017621823826256829 0 0.5 0.0074445636306617047 0 0.4829536825154806 -0.00158037144322379 0 0.4999999999999955 -0.017621823826256829 0 0.46020029176545768 0.0068877817510958417 0 0.4829536825154806 -0.00158037144322379 0 0.47432329110374649 -0.022168838466721651 0 0.47432329110374649 -0.022168838466721651 0 0.4999999999999955 -0.017621823826256829 0 0.48690834185845522 -0.033733582316348952 0 0.4999999999999955 -0.017621823826256829 0 0.5 -0.036101321284955627 0 0.48690834185845522 -0.033733582316348952 0 0.47432329110374649 -0.022168838466721651 0 0.4999999999999955 -0.017621823826256829 0 0.5 -0.036101321284955627 0 0.499999999999999 -0.054580818743654509 0 0.48686265368331533 -0.048178871040847171 0 0.5 -0.036101321284955627 0 0.48690834185845522 -0.033733582316348952 0 0.48686265368331533 -0.048178871040847171 0 0.499999999999999 -0.054580818743654509 0 0.48686265368331533 -0.048178871040847171 0 0.48644901139408692 -0.064216790184215611 0 0.499999999999998 -0.058786214634269571 0 0.499999999999999 -0.054580818743654509 0 0.48644901139408692 -0.064216790184215611 0 0.499999999999999 -0.054580818743654509 0 0.48644901139408692 -0.064216790184215611 0 0.48686265368331533 -0.048178871040847171 0 0.4748862174380149 -0.057966559870259629 0 0.48644901139408692 -0.064216790184215611 0 0.48686265368331533 -0.048178871040847171 0 0.4748862174380149 -0.057966559870259629 0 0.47335576450521399 -0.044597056962963483 0 0.4748862174380149 -0.057966559870259629 0 0.47335576450521399 -0.044597056962963483 0 0.46037274479257112 -0.052410710392254117 0 0.47432329110374649 -0.022168838466721651 0 0.48690834185845522 -0.033733582316348952 0 0.47335576450521399 -0.044597056962963483 0 0.47432329110374649 -0.022168838466721651 0 0.47335576450521399 -0.044597056962963483 0 0.4596460148204331 -0.039149801053558322 0 0.48690834185845522 -0.033733582316348952 0 0.48686265368331533 -0.048178871040847171 0 0.47335576450521399 -0.044597056962963483 0 0.47335576450521399 -0.044597056962963483 0 0.4596460148204331 -0.039149801053558322 0 0.46037274479257112 -0.052410710392254117 0 0.4596460148204331 -0.039149801053558322 0 0.46037274479257112 -0.052410710392254117 0 0.44607292354202249 -0.048377261596547302 0 0.4748862174380149 -0.057966559870259629 0 0.46037274479257112 -0.052410710392254117 0 0.45998075213503459 -0.06372713314050725 0 0.46037274479257112 -0.052410710392254117 0 0.44829479631470748 -0.060646449729688828 0 0.45998075213503459 -0.06372713314050725 0 0.46037274479257112 -0.052410710392254117 0 0.44829479631470748 -0.060646449729688828 0 0.44607292354202249 -0.048377261596547302 0 0.44607292354202249 -0.048377261596547302 0 0.43066969228920332 -0.045763913476871282 0 0.4363756852617503 -0.057994865139809018 0 0.44829479631470748 -0.060646449729688828 0 0.44607292354202249 -0.048377261596547302 0 0.4363756852617503 -0.057994865139809018 0 0.44829479631470748 -0.060646449729688828 0 0.43969348713792961 -0.065770524603933664 0 0.4363756852617503 -0.057994865139809018 0 0.4596460148204331 -0.039149801053558322 0 0.44607292354202249 -0.048377261596547302 0 0.44864658220749759 -0.026715853107187239 0 0.44607292354202249 -0.048377261596547302 0 0.44864658220749759 -0.026715853107187239 0 0.43066969228920332 -0.045763913476871282 0 0.44864658220749759 -0.026715853107187239 0 0.44928704876972142 -0.0093157435951783541 0 0.42970529939809449 -0.012059975166208509 0 0.43355977937381063 0.007478167013129782 0 0.44928704876972142 -0.0093157435951783541 0 0.42970529939809449 -0.012059975166208509 0 0.46020029176545768 0.0068877817510958417 0 0.47432329110374649 -0.022168838466721651 0 0.44928704876972142 -0.0093157435951783541 0 0.47432329110374649 -0.022168838466721651 0 0.4596460148204331 -0.039149801053558322 0 0.44864658220749759 -0.026715853107187239 0 0.47432329110374649 -0.022168838466721651 0 0.44864658220749759 -0.026715853107187239 0 0.47432329110374649 -0.022168838466721651 0 0.44864658220749759 -0.026715853107187239 0 0.44928704876972142 -0.0093157435951783541 0 0.47251842651681208 -0.124667937214217 0 0.48134847955640542 -0.1141418086331316 0 0.46269695911280279 -0.10849060231525939 0 0.48134847955640542 -0.1141418086331316 0 0.46269695911280279 -0.10849060231525939 0 0.47251842651681208 -0.124667937214217 0 0.48134847955640542 -0.1141418086331316 0 0.48732395009540902 -0.12732652428724631 0 0.48134847955640542 -0.1141418086331316 0 0.50000000000000733 -0.11979301495100581 0 0.48732395009540902 -0.12732652428724631 0 0.48134847955640542 -0.1141418086331316 0 0.50000000000000733 -0.11979301495100581 0 0.48134847955640542 -0.1141418086331316 0 0.50000000000000733 -0.11979301495100581 0 0.5 -0.097360944217497802 0 0.48134847955640542 -0.1141418086331316 0 0.5 -0.097360944217497802 0 0.48450964376110628 -0.092742586871698757 0 0.48134847955640542 -0.1141418086331316 0 0.47376500041728142 -0.10202043519532671 0 0.48450964376110628 -0.092742586871698757 0 0.47376500041728142 -0.10202043519532671 0 0.48450964376110628 -0.092742586871698757 0 0.46650491923881099 -0.092706742961216851 0 0.48134847955640542 -0.1141418086331316 0 0.47376500041728142 -0.10202043519532671 0 0.46269695911280279 -0.10849060231525939 0 0.48466121351527491 -0.074319831202196845 0 0.46650491923881099 -0.092706742961216851 0 0.48466121351527491 -0.074319831202196845 0 0.47067161482094011 -0.075435937894142741 0 0.46650491923881099 -0.092706742961216851 0 0.48450964376110628 -0.092742586871698757 0 0.48466121351527491 -0.074319831202196845 0 0.46650491923881099 -0.092706742961216851 0 0.48450964376110628 -0.092742586871698757 0 0.48466121351527491 -0.074319831202196845 0 0.50000000000000144 -0.074928873483989897 0 0.5 -0.097360944217497802 0 0.48450964376110628 -0.092742586871698757 0 0.50000000000000144 -0.074928873483989897 0 0.499999999999998 -0.058786214634269571 0 0.48466121351527491 -0.074319831202196845 0 0.50000000000000144 -0.074928873483989897 0 0.48466121351527491 -0.074319831202196845 0 0.50000000000000144 -0.074928873483989897 0 0.499999999999998 -0.058786214634269571 0 0.48466121351527491 -0.074319831202196845 0 0.499999999999998 -0.058786214634269571 0 0.48466121351527491 -0.074319831202196845 0 0.48644901139408692 -0.064216790184215611 0 0.4748862174380149 -0.057966559870259629 0 0.47107106756023759 -0.073780220489799042 0 0.48644901139408692 -0.064216790184215611 0 0.47289802278817428 -0.073852761624776192 0 0.4748862174380149 -0.057966559870259629 0 0.48644901139408692 -0.064216790184215611 0 0.47289802278817428 -0.073852761624776192 0 0.4748862174380149 -0.057966559870259629 0 0.47289802278817428 -0.073852761624776192 0 0.47107106756023759 -0.073780220489799042 0 0.48466121351527491 -0.074319831202196845 0 0.48644901139408692 -0.064216790184215611 0 0.47289802278817428 -0.073852761624776192 0 0.48466121351527491 -0.074319831202196845 0 0.47289802278817428 -0.073852761624776192 0 0.48466121351527491 -0.074319831202196845 0 0.47289802278817428 -0.073852761624776192 0 0.47067161482094011 -0.075435937894142741 0 0.47289802278817428 -0.073852761624776192 0 0.47067161482094011 -0.075435937894142741 0 0.47107106756023759 -0.073780220489799042 0 0.47289802278817428 -0.073852761624776192 0 0.47067161482094011 -0.075435937894142741 0 0.47067161482094011 -0.075435937894142741 0 0.47107106756023759 -0.073780220489799042 0 0.47289802278817428 -0.073852761624776192 0 0.47107106756023759 -0.073780220489799042 0 0.47067161482094011 -0.075435937894142741 0 0.47107106756023759 -0.073780220489799042 0 0.45103307608672449 -0.072984591444324898 0 0.47107106756023759 -0.073780220489799042 0 0.45103307608672449 -0.072984591444324898 0 0.47107106756023759 -0.073780220489799042 0 0.45998075213503459 -0.06372713314050725 0 0.45103307608672449 -0.072984591444324898 0 0.4748862174380149 -0.057966559870259629 0 0.47107106756023759 -0.073780220489799042 0 0.45998075213503459 -0.06372713314050725 0 0.44829479631470748 -0.060646449729688828 0 0.43969348713792961 -0.065770524603933664 0 0.45103307608672449 -0.072984591444324898 0 0.45103307608672449 -0.072984591444324898 0 0.43099508461321151 -0.072188962398851059 0 0.45103307608672449 -0.072984591444324898 0 0.43950151600578541 -0.083893485219593597 0 0.43099508461321151 -0.072188962398851059 0 0.43969348713792961 -0.065770524603933664 0 0.45103307608672449 -0.072984591444324898 0 0.43099508461321151 -0.072188962398851059 0 0.44829479631470748 -0.060646449729688828 0 0.45998075213503459 -0.06372713314050725 0 0.45103307608672449 -0.072984591444324898 0 0.45103307608672449 -0.072984591444324898 0 0.43950151600578541 -0.083893485219593597 0 0.45318239606256189 -0.087872345109475863 0 0.43950151600578541 -0.083893485219593597 0 0.45318239606256189 -0.087872345109475863 0 0.43569317730418472 -0.1003087523248105 0 0.47067161482094011 -0.075435937894142741 0 0.45103307608672449 -0.072984591444324898 0 0.45318239606256189 -0.087872345109475863 0 0.47067161482094011 -0.075435937894142741 0 0.45318239606256189 -0.087872345109475863 0 0.46650491923881099 -0.092706742961216851 0 0.47067161482094011 -0.075435937894142741 0 0.46650491923881099 -0.092706742961216851 0 0.47067161482094011 -0.075435937894142741 0 0.45318239606256189 -0.087872345109475863 0 0.45318239606256189 -0.087872345109475863 0 0.46650491923881099 -0.092706742961216851 0 0.4536313557107533 -0.1057438238220053 0 0.46650491923881099 -0.092706742961216851 0 0.46269695911280279 -0.10849060231525939 0 0.46650491923881099 -0.092706742961216851 0 0.46269695911280279 -0.10849060231525939 0 0.4536313557107533 -0.1057438238220053 0 0.47376500041728142 -0.10202043519532671 0 0.46650491923881099 -0.092706742961216851 0 0.46269695911280279 -0.10849060231525939 0 0.46269695911280279 -0.10849060231525939 0 0.4536313557107533 -0.1057438238220053 0 0.46650491923881099 -0.092706742961216851 0 0.4536313557107533 -0.1057438238220053 0 0.4536313557107533 -0.1057438238220053 0 0.43569317730418472 -0.1003087523248105 0 0.45318239606256189 -0.087872345109475863 0 0.4536313557107533 -0.1057438238220053 0 0.43569317730418472 -0.1003087523248105 0 0.4536313557107533 -0.1057438238220053 0 0.43543226086404557 -0.10806082159499079 0 0.43569317730418472 -0.1003087523248105 0 0.45318239606256189 -0.087872345109475863 0 0.43569317730418472 -0.1003087523248105 0 0.4536313557107533 -0.1057438238220053 0 0.4371090794444768 -0.12247596261312529 0 0.43543226086404557 -0.10806082159499079 0 0.4536313557107533 -0.1057438238220053 0 0.45254767539551383 -0.1178209363727331 0 0.4371090794444768 -0.12247596261312529 0 0.4536313557107533 -0.1057438238220053 0 0.4371090794444768 -0.12247596261312529 0 0.45254767539551383 -0.1178209363727331 0 0.4371090794444768 -0.12247596261312529 0 0.45047599607958339 -0.1278545025004092 0 0.45254767539551383 -0.1178209363727331 0 0.45882498662995258 -0.12453979061286639 0 0.45047599607958339 -0.1278545025004092 0 0.46269695911280279 -0.10849060231525939 0 0.45254767539551383 -0.1178209363727331 0 0.45882498662995258 -0.12453979061286639 0 0.46269695911280279 -0.10849060231525939 0 0.45882498662995258 -0.12453979061286639 0 0.47251842651681208 -0.124667937214217 0 0.46269695911280279 -0.10849060231525939 0 0.45882498662995258 -0.12453979061286639 0 0.46269695911280279 -0.10849060231525939 0 0.4536313557107533 -0.1057438238220053 0 0.45254767539551383 -0.1178209363727331 0 0.406714584529067 -0.10990298403544189 0 0.41406193188245238 -0.122443672872905 0 0.39924204522507512 -0.12601331429235521 0 0.406714584529067 -0.10990298403544189 0 0.41406193188245238 -0.122443672872905 0 0.42323361412224769 -0.1129941365830507 0 0.41406193188245238 -0.122443672872905 0 0.4371090794444768 -0.12247596261312529 0 0.42323361412224769 -0.1129941365830507 0 0.4371090794444768 -0.12247596261312529 0 0.42323361412224769 -0.1129941365830507 0 0.43543226086404557 -0.10806082159499079 0 0.43569317730418472 -0.1003087523248105 0 0.41418712383306389 -0.093792653778530966 0 0.42505592154948851 -0.1039350064132858 0 0.43569317730418472 -0.1003087523248105 0 0.41418712383306389 -0.093792653778530966 0 0.42323361412224769 -0.1129941365830507 0 0.42505592154948851 -0.1039350064132858 0 0.43543226086404557 -0.10806082159499079 0 0.42505592154948851 -0.1039350064132858 0 0.43543226086404557 -0.10806082159499079 0 0.43569317730418472 -0.1003087523248105 0 0.406714584529067 -0.10990298403544189 0 0.42323361412224769 -0.1129941365830507 0 0.41729781100846669 -0.1051561952025775 0 0.406714584529067 -0.10990298403544189 0 0.41418712383306389 -0.093792653778530966 0 0.41729781100846669 -0.1051561952025775 0 0.42505592154948851 -0.1039350064132858 0 0.41418712383306389 -0.093792653778530966 0 0.41729781100846669 -0.1051561952025775 0 0.406714584529067 -0.10990298403544189 0 0.41418712383306389 -0.093792653778530966 0 0.42323361412224769 -0.1129941365830507 0 0.42505592154948851 -0.1039350064132858 0 0.41729781100846669 -0.1051561952025775 0 0.41418712383306389 -0.093792653778530966 0 0.41339500105340538 -0.074220153656396226 0 0.40027707069329083 -0.071786654409803419 0 0.41418712383306389 -0.093792653778530966 0 0.42572468832993648 -0.068918381881983543 0 0.41418712383306389 -0.093792653778530966 0 0.42572468832993648 -0.068918381881983543 0 0.41339500105340538 -0.074220153656396226 0 0.41418712383306389 -0.093792653778530966 0 0.42922031801723631 -0.083820447120753858 0 0.42572468832993648 -0.068918381881983543 0 0.43569317730418472 -0.1003087523248105 0 0.41418712383306389 -0.093792653778530966 0 0.42922031801723631 -0.083820447120753858 0 0.43950151600578541 -0.083893485219593597 0 0.43569317730418472 -0.1003087523248105 0 0.42922031801723631 -0.083820447120753858 0 0.43950151600578541 -0.083893485219593597 0 0.42922031801723631 -0.083820447120753858 0 0.43099508461321151 -0.072188962398851059 0 0.42922031801723631 -0.083820447120753858 0 0.43099508461321151 -0.072188962398851059 0 0.42572468832993648 -0.068918381881983543 0 0.43969348713792961 -0.065770524603933664 0 0.43099508461321151 -0.072188962398851059 0 0.43176879341325392 -0.06503775430699453 0 0.43969348713792961 -0.065770524603933664 0 0.43176879341325392 -0.06503775430699453 0 0.4363756852617503 -0.057994865139809018 0 0.43176879341325392 -0.06503775430699453 0 0.42572468832993648 -0.068918381881983543 0 0.42513414424439522 -0.058210415472097002 0 0.43099508461321151 -0.072188962398851059 0 0.43176879341325392 -0.06503775430699453 0 0.42572468832993648 -0.068918381881983543 0 0.42572468832993648 -0.068918381881983543 0 0.41339500105340538 -0.074220153656396226 0 0.41339112135733069 -0.062382924555266277 0 0.42572468832993648 -0.068918381881983543 0 0.42513414424439522 -0.058210415472097002 0 0.41339112135733069 -0.062382924555266277 0 0.41339500105340538 -0.074220153656396226 0 0.40027707069329083 -0.071786654409803419 0 0.41339112135733069 -0.062382924555266277 0 0.40027707069329083 -0.071786654409803419 0 0.38547417162033498 -0.085092943884103794 0 0.37550091741861741 -0.05888829352058389 0 0.41418712383306389 -0.093792653778530966 0 0.38547417162033498 -0.085092943884103794 0 0.41418712383306389 -0.093792653778530966 0 0.40027707069329083 -0.071786654409803419 0 0.38547417162033498 -0.085092943884103794 0 0.406714584529067 -0.10990298403544189 0 0.41418712383306389 -0.093792653778530966 0 0.39187898819536782 -0.10347341616266249 0 0.41418712383306389 -0.093792653778530966 0 0.38547417162033498 -0.085092943884103794 0 0.39187898819536782 -0.10347341616266249 0 0.39187898819536782 -0.10347341616266249 0 0.37699192133659631 -0.11225885295967571 0 0.3704987021488933 -0.097888847936550616 0 0.38547417162033498 -0.085092943884103794 0 0.39187898819536782 -0.10347341616266249 0 0.3704987021488933 -0.097888847936550616 0 0.39187898819536782 -0.10347341616266249 0 0.37699192133659631 -0.11225885295967571 0 0.39924204522507512 -0.12601331429235521 0 0.37699192133659631 -0.11225885295967571 0 0.39924204522507512 -0.12601331429235521 0 0.37511938528269828 -0.13118119859356961 0 0.37699192133659631 -0.11225885295967571 0 0.39924204522507512 -0.12601331429235521 0 0.406714584529067 -0.10990298403544189 0 0.39187898819536782 -0.10347341616266249 0 0.39924204522507512 -0.12601331429235521 0 0.406714584529067 -0.10990298403544189 0 0.39924204522507512 -0.12601331429235521 0 0.41100152220785441 -0.0043939504535228406 0 0.42970529939809449 -0.012059975166208509 0 0.42296987331124858 -0.031262867747652849 0 0.41100152220785441 -0.0043939504535228406 0 0.42296987331124858 -0.031262867747652849 0 0.40259280627543342 -0.032966234370135752 0 0.43355977937381063 0.007478167013129782 0 0.41100152220785441 -0.0043939504535228406 0 0.42970529939809449 -0.012059975166208509 0 0.44864658220749759 -0.026715853107187239 0 0.42970529939809449 -0.012059975166208509 0 0.42296987331124858 -0.031262867747652849 0 0.44864658220749759 -0.026715853107187239 0 0.42296987331124858 -0.031262867747652849 0 0.44864658220749759 -0.026715853107187239 0 0.42296987331124858 -0.031262867747652849 0 0.43066969228920332 -0.045763913476871282 0 0.42296987331124858 -0.031262867747652849 0 0.43066969228920332 -0.045763913476871282 0 0.41514772494153368 -0.047601644727847968 0 0.43176879341325392 -0.06503775430699453 0 0.4363756852617503 -0.057994865139809018 0 0.42513414424439522 -0.058210415472097002 0 0.43066969228920332 -0.045763913476871282 0 0.4363756852617503 -0.057994865139809018 0 0.42513414424439522 -0.058210415472097002 0 0.43066969228920332 -0.045763913476871282 0 0.42513414424439522 -0.058210415472097002 0 0.41514772494153368 -0.047601644727847968 0 0.41514772494153368 -0.047601644727847968 0 0.41339112135733069 -0.062382924555266277 0 0.39910428984576229 -0.052754656760345631 0 0.42513414424439522 -0.058210415472097002 0 0.41514772494153368 -0.047601644727847968 0 0.41339112135733069 -0.062382924555266277 0 0.42296987331124858 -0.031262867747652849 0 0.41514772494153368 -0.047601644727847968 0 0.40259280627543342 -0.032966234370135752 0 0.41514772494153368 -0.047601644727847968 0 0.40259280627543342 -0.032966234370135752 0 0.39910428984576229 -0.052754656760345631 0 0.40259280627543342 -0.032966234370135752 0 0.39910428984576229 -0.052754656760345631 0 0.38352975735587153 -0.036022881928677489 0 0.40027707069329083 -0.071786654409803419 0 0.41339112135733069 -0.062382924555266277 0 0.39910428984576229 -0.052754656760345631 0 0.40027707069329083 -0.071786654409803419 0 0.39910428984576229 -0.052754656760345631 0 0.37550091741861741 -0.05888829352058389 0 0.39910428984576229 -0.052754656760345631 0 0.37550091741861741 -0.05888829352058389 0 0.38352975735587153 -0.036022881928677489 0 0.38352975735587153 -0.036022881928677489 0 0.3899529818063236 -0.014792819425590371 0 0.37016158579889902 -0.018662643970355611 0 0.40259280627543342 -0.032966234370135752 0 0.38352975735587153 -0.036022881928677489 0 0.3899529818063236 -0.014792819425590371 0 0.41100152220785441 -0.0043939504535228406 0 0.40259280627543342 -0.032966234370135752 0 0.3899529818063236 -0.014792819425590371 0 0.39358874500516172 0.002003130149795967 0 0.41100152220785441 -0.0043939504535228406 0 0.3899529818063236 -0.014792819425590371 0 0.39358874500516172 0.002003130149795967 0 0.37662375727886832 -0.00024753458288838111 0 0.3899529818063236 -0.014792819425590371 0 0.37662375727886832 -0.00024753458288838111 0 0.3899529818063236 -0.014792819425590371 0 0.37016158579889902 -0.018662643970355611 0 0.37662375727886832 -0.00024753458288838111 0 0.37016158579889902 -0.018662643970355611 0 0.35735570167929498 -0.0015424610238180139 0 0.38352975735587153 -0.036022881928677489 0 0.37016158579889902 -0.018662643970355611 0 0.36386596299019353 -0.03807264352505374 0 0.37016158579889902 -0.018662643970355611 0 0.34940657323516422 -0.022776017632001488 0 0.36386596299019353 -0.03807264352505374 0 0.37016158579889902 -0.018662643970355611 0 0.34940657323516422 -0.022776017632001488 0 0.35735570167929498 -0.0015424610238180139 0 0.33363381008414938 0.001659448493005145 0 0.34940657323516422 -0.022776017632001488 0 0.35735570167929498 -0.0015424610238180139 0 0.33363381008414938 0.001659448493005145 0 0.34940657323516422 -0.022776017632001488 0 0.32696934607909411 -0.029820700252332921 0 0.33363381008414938 0.001659448493005145 0 0.32696934607909411 -0.029820700252332921 0 0.31447786496183561 -0.01142934291039299 0 0.32696934607909411 -0.029820700252332921 0 0.31447786496183561 -0.01142934291039299 0 0.3056195292705074 -0.030011803086369391 0 0.317301502193439 -0.046990892364707257 0 0.32804826719487779 -0.067693524095248064 0 0.29933531498214921 -0.058993814200820213 0 0.32696934607909411 -0.029820700252332921 0 0.317301502193439 -0.046990892364707257 0 0.3056195292705074 -0.030011803086369391 0 0.34940657323516422 -0.022776017632001488 0 0.32696934607909411 -0.029820700252332921 0 0.34396429732405359 -0.049117449992948703 0 0.32696934607909411 -0.029820700252332921 0 0.317301502193439 -0.046990892364707257 0 0.34396429732405359 -0.049117449992948703 0 0.317301502193439 -0.046990892364707257 0 0.34396429732405359 -0.049117449992948703 0 0.32804826719487779 -0.067693524095248064 0 0.37550091741861741 -0.05888829352058389 0 0.34396429732405359 -0.049117449992948703 0 0.35676121940760641 -0.076393233989675929 0 0.37550091741861741 -0.05888829352058389 0 0.34396429732405359 -0.049117449992948703 0 0.36386596299019353 -0.03807264352505374 0 0.34940657323516422 -0.022776017632001488 0 0.34396429732405359 -0.049117449992948703 0 0.36386596299019353 -0.03807264352505374 0 0.37550091741861741 -0.05888829352058389 0 0.38352975735587153 -0.036022881928677489 0 0.36386596299019353 -0.03807264352505374 0 0.38547417162033498 -0.085092943884103794 0 0.37550091741861741 -0.05888829352058389 0 0.35676121940760641 -0.076393233989675929 0 0.38547417162033498 -0.085092943884103794 0 0.35676121940760641 -0.076393233989675929 0 0.38547417162033498 -0.085092943884103794 0 0.36470347883464432 -0.088469213643375247 0 0.35676121940760641 -0.076393233989675929 0 0.38547417162033498 -0.085092943884103794 0 0.36470347883464432 -0.088469213643375247 0 0.3704987021488933 -0.097888847936550616 0 0.36470347883464432 -0.088469213643375247 0 0.3704987021488933 -0.097888847936550616 0 0.35518963648815349 -0.094108444733275967 0 0.36470347883464432 -0.088469213643375247 0 0.35417251983355202 -0.085090896607261476 0 0.35676121940760641 -0.076393233989675929 0 0.35417251983355202 -0.085090896607261476 0 0.34509477246476072 -0.082766459769321815 0 0.35676121940760641 -0.076393233989675929 0 0.34509477246476072 -0.082766459769321815 0 0.35518963648815349 -0.094108444733275967 0 0.33111732848851272 -0.08323804143267545 0 0.35518963648815349 -0.094108444733275967 0 0.34683714742933941 -0.095667319461672451 0 0.33111732848851272 -0.08323804143267545 0 0.36470347883464432 -0.088469213643375247 0 0.35417251983355202 -0.085090896607261476 0 0.35518963648815349 -0.094108444733275967 0 0.35417251983355202 -0.085090896607261476 0 0.34509477246476072 -0.082766459769321815 0 0.35518963648815349 -0.094108444733275967 0 0.37699192133659631 -0.11225885295967571 0 0.35906689400327912 -0.1145370679795726 0 0.37511938528269828 -0.13118119859356961 0 0.37699192133659631 -0.11225885295967571 0 0.35474179744811751 -0.098504391626996202 0 0.3704987021488933 -0.097888847936550616 0 0.35474179744811751 -0.098504391626996202 0 0.35518963648815349 -0.094108444733275967 0 0.37699192133659631 -0.11225885295967571 0 0.3704987021488933 -0.097888847936550616 0 0.35474179744811751 -0.098504391626996202 0 0.37699192133659631 -0.11225885295967571 0 0.35474179744811751 -0.098504391626996202 0 0.35906689400327912 -0.1145370679795726 0 0.35474179744811751 -0.098504391626996202 0 0.35133728667980391 -0.10689387034191521 0 0.35906689400327912 -0.1145370679795726 0 0.35474179744811751 -0.098504391626996202 0 0.35158420525096368 -0.097346684370427053 0 0.34956823963824452 -0.10110658165976361 0 0.35474179744811751 -0.098504391626996202 0 0.35518963648815349 -0.094108444733275967 0 0.35158420525096368 -0.097346684370427053 0 0.34683714742933941 -0.095667319461672451 0 0.34956823963824452 -0.10110658165976361 0 0.34508393430505591 -0.1041065055540573 0 0.35518963648815349 -0.094108444733275967 0 0.35158420525096368 -0.097346684370427053 0 0.34683714742933941 -0.095667319461672451 0 0.35158420525096368 -0.097346684370427053 0 0.34683714742933941 -0.095667319461672451 0 0.34956823963824452 -0.10110658165976361 0 0.34508393430505591 -0.1041065055540573 0 0.35133728667980391 -0.10689387034191521 0 0.34298160179064358 -0.1153721138549199 0 0.34956823963824452 -0.10110658165976361 0 0.34508393430505591 -0.1041065055540573 0 0.35133728667980391 -0.10689387034191521 0 0.35474179744811751 -0.098504391626996202 0 0.34956823963824452 -0.10110658165976361 0 0.35133728667980391 -0.10689387034191521 0 0.35906689400327912 -0.1145370679795726 0 0.34298160179064358 -0.1153721138549199 0 0.35188216853037219 -0.13053319944946931 0 0.35133728667980391 -0.10689387034191521 0 0.35906689400327912 -0.1145370679795726 0 0.34298160179064358 -0.1153721138549199 0 0.34298160179064358 -0.1153721138549199 0 0.32641950540077502 -0.1112062808473902 0 0.33352798985790533 -0.12588248368978999 0 0.34298160179064358 -0.1153721138549199 0 0.33604739991808918 -0.10455472139746511 0 0.32641950540077502 -0.1112062808473902 0 0.34298160179064358 -0.1153721138549199 0 0.33352798985790533 -0.12588248368978999 0 0.35188216853037219 -0.13053319944946931 0 0.33604739991808918 -0.10455472139746511 0 0.32789386554468791 -0.095710626781931082 0 0.32641950540077502 -0.1112062808473902 0 0.34508393430505591 -0.1041065055540573 0 0.33604739991808918 -0.10455472139746511 0 0.33785809254928351 -0.096378079949026987 0 0.34508393430505591 -0.1041065055540573 0 0.34298160179064358 -0.1153721138549199 0 0.33604739991808918 -0.10455472139746511 0 0.34683714742933941 -0.095667319461672451 0 0.34508393430505591 -0.1041065055540573 0 0.33785809254928351 -0.096378079949026987 0 0.33604739991808918 -0.10455472139746511 0 0.33785809254928351 -0.096378079949026987 0 0.32789386554468791 -0.095710626781931082 0 0.31367732128908599 -0.10025474585016279 0 0.32641950540077502 -0.1112062808473902 0 0.3092253366888103 -0.1157276967917726 0 0.32789386554468791 -0.095710626781931082 0 0.31367732128908599 -0.10025474585016279 0 0.31630912863558458 -0.08869217409849614 0 0.32789386554468791 -0.095710626781931082 0 0.31367732128908599 -0.10025474585016279 0 0.32641950540077502 -0.1112062808473902 0 0.32641950540077502 -0.1112062808473902 0 0.31977171023983397 -0.1238458925683001 0 0.3092253366888103 -0.1157276967917726 0 0.32641950540077502 -0.1112062808473902 0 0.31977171023983397 -0.1238458925683001 0 0.33352798985790533 -0.12588248368978999 0 0.34509477246476072 -0.082766459769321815 0 0.33111732848851272 -0.08323804143267545 0 0.32804826719487779 -0.067693524095248064 0 0.35676121940760641 -0.076393233989675929 0 0.32804826719487779 -0.067693524095248064 0 0.34509477246476072 -0.082766459769321815 0 0.35676121940760641 -0.076393233989675929 0 0.32804826719487779 -0.067693524095248064 0 0.34396429732405359 -0.049117449992948703 0 0.35676121940760641 -0.076393233989675929 0 0.32804826719487779 -0.067693524095248064 0 0.34683714742933941 -0.095667319461672451 0 0.33785809254928351 -0.096378079949026987 0 0.33111732848851272 -0.08323804143267545 0 0.35518963648815349 -0.094108444733275967 0 0.33111732848851272 -0.08323804143267545 0 0.33785809254928351 -0.096378079949026987 0 0.32789386554468791 -0.095710626781931082 0 0.33111732848851272 -0.08323804143267545 0 0.33111732848851272 -0.08323804143267545 0 0.31630912863558458 -0.08869217409849614 0 0.30704502048887189 -0.072367638132074974 0 0.32789386554468791 -0.095710626781931082 0 0.33111732848851272 -0.08323804143267545 0 0.31630912863558458 -0.08869217409849614 0 0.33111732848851272 -0.08323804143267545 0 0.30704502048887189 -0.072367638132074974 0 0.32804826719487779 -0.067693524095248064 0 0.29933531498214921 -0.058993814200820213 0 0.33111732848851272 -0.08323804143267545 0 0.32804826719487779 -0.067693524095248064 0 0.30704502048887189 -0.072367638132074974 0 0.32804826719487779 -0.067693524095248064 0 0.30704502048887189 -0.072367638132074974 0 0.29933531498214921 -0.058993814200820213 0 0.30704502048887189 -0.072367638132074974 0 0.30261682378287968 -0.090980702693861243 0 0.29427963065574619 -0.081209189577098315 0 0.31630912863558458 -0.08869217409849614 0 0.30704502048887189 -0.072367638132074974 0 0.30261682378287968 -0.090980702693861243 0 0.31367732128908599 -0.10025474585016279 0 0.31630912863558458 -0.08869217409849614 0 0.30261682378287968 -0.090980702693861243 0 0.30261682378287968 -0.090980702693861243 0 0.29427963065574619 -0.081209189577098315 0 0.2888228499729722 -0.093458912373631214 0 0.2888228499729722 -0.093458912373631214 0 0.27633360105077243 -0.093979206133742013 0 0.27928211349077781 -0.080219879549517592 0 0.29427963065574619 -0.081209189577098315 0 0.28722200300214251 -0.07349577447131582 0 0.27928211349077781 -0.080219879549517592 0 0.29427963065574619 -0.081209189577098315 0 0.2888228499729722 -0.093458912373631214 0 0.27928211349077781 -0.080219879549517592 0 0.30704502048887189 -0.072367638132074974 0 0.28297271248923123 -0.061497234831474498 0 0.30704502048887189 -0.072367638132074974 0 0.29933531498214921 -0.058993814200820213 0 0.28297271248923123 -0.061497234831474498 0 0.30704502048887189 -0.072367638132074974 0 0.28722200300214251 -0.07349577447131582 0 0.28297271248923123 -0.061497234831474498 0 0.30704502048887189 -0.072367638132074974 0 0.29427963065574619 -0.081209189577098315 0 0.28722200300214251 -0.07349577447131582 0 0.3092253366888103 -0.1157276967917726 0 0.29049730231304771 -0.11954641951275111 0 0.30421271469822969 -0.13058703230544699 0 0.3092253366888103 -0.1157276967917726 0 0.29874875440129739 -0.1057544752288968 0 0.29049730231304771 -0.11954641951275111 0 0.31977171023983397 -0.1238458925683001 0 0.3092253366888103 -0.1157276967917726 0 0.30421271469822969 -0.13058703230544699 0 0.31367732128908599 -0.10025474585016279 0 0.3092253366888103 -0.1157276967917726 0 0.29874875440129739 -0.1057544752288968 0 0.31367732128908599 -0.10025474585016279 0 0.30261682378287968 -0.090980702693861243 0 0.29874875440129739 -0.1057544752288968 0 0.30261682378287968 -0.090980702693861243 0 0.2888228499729722 -0.093458912373631214 0 0.29874875440129739 -0.1057544752288968 0 0.2888228499729722 -0.093458912373631214 0 0.28554967931586778 -0.10606321080683991 0 0.27633360105077243 -0.093979206133742013 0 0.2888228499729722 -0.093458912373631214 0 0.29874875440129739 -0.1057544752288968 0 0.28554967931586778 -0.10606321080683991 0 0.29874875440129739 -0.1057544752288968 0 0.28554967931586778 -0.10606321080683991 0 0.29049730231304771 -0.11954641951275111 0 0.28554967931586778 -0.10606321080683991 0 0.29049730231304771 -0.11954641951275111 0 0.2769944689256108 -0.114356599963891 0 0.2647413887941466 -0.11562013559054619 0 0.25925064362039679 -0.13326273421147289 0 0.2742478794624903 -0.12515858244177969 0 0.29049730231304771 -0.11954641951275111 0 0.2769944689256108 -0.114356599963891 0 0.2742478794624903 -0.12515858244177969 0 0.2769944689256108 -0.114356599963891 0 0.2647413887941466 -0.11562013559054619 0 0.2742478794624903 -0.12515858244177969 0 0.2769944689256108 -0.114356599963891 0 0.27088603943272288 -0.1048802300579348 0 0.2647413887941466 -0.11562013559054619 0 0.28554967931586778 -0.10606321080683991 0 0.2769944689256108 -0.114356599963891 0 0.27088603943272288 -0.1048802300579348 0 0.28554967931586778 -0.10606321080683991 0 0.27088603943272288 -0.1048802300579348 0 0.27633360105077243 -0.093979206133742013 0 0.27088603943272288 -0.1048802300579348 0 0.27633360105077243 -0.093979206133742013 0 0.26493274959627688 -0.094637006592492467 0 0.27088603943272288 -0.1048802300579348 0 0.26493274959627688 -0.094637006592492467 0 0.25946913148946321 -0.10392776721250491 0 0.26493274959627688 -0.094637006592492467 0 0.25531397820072871 -0.098382170177095732 0 0.25946913148946321 -0.10392776721250491 0 0.25946913148946321 -0.10392776721250491 0 0.2488493395450567 -0.111586271447214 0 0.25531397820072871 -0.098382170177095732 0 0.25946913148946321 -0.10392776721250491 0 0.2488493395450567 -0.111586271447214 0 0.27088603943272288 -0.1048802300579348 0 0.25946913148946321 -0.10392776721250491 0 0.2647413887941466 -0.11562013559054619 0 0.25925064362039679 -0.13326273421147289 0 0.2488493395450567 -0.111586271447214 0 0.25946913148946321 -0.10392776721250491 0 0.2647413887941466 -0.11562013559054619 0 0.2488493395450567 -0.111586271447214 0 0.2647413887941466 -0.11562013559054619 0 0.25925064362039679 -0.13326273421147289 0 0.2488493395450567 -0.111586271447214 0 0.27253053788608522 -0.072184930266413719 0 0.25600715976498267 -0.073169543009763707 0 0.27062236276942031 -0.050294104306394118 0 0.28722200300214251 -0.07349577447131582 0 0.27253053788608522 -0.072184930266413719 0 0.28297271248923123 -0.061497234831474498 0 0.28722200300214251 -0.07349577447131582 0 0.27253053788608522 -0.072184930266413719 0 0.27928211349077781 -0.080219879549517592 0 0.27253053788608522 -0.072184930266413719 0 0.27928211349077781 -0.080219879549517592 0 0.27077578441681632 -0.084877518596762985 0 0.27633360105077243 -0.093979206133742013 0 0.27928211349077781 -0.080219879549517592 0 0.27077578441681632 -0.084877518596762985 0 0.27633360105077243 -0.093979206133742013 0 0.26493274959627688 -0.094637006592492467 0 0.27077578441681632 -0.084877518596762985 0 0.27253053788608522 -0.072184930266413719 0 0.27077578441681632 -0.084877518596762985 0 0.26079992006016922 -0.083366570441649149 0 0.26079992006016922 -0.083366570441649149 0 0.24251875031267911 -0.098393235191617495 0 0.26079992006016922 -0.083366570441649149 0 0.25600715976498267 -0.073169543009763707 0 0.24139195676054659 -0.09604498171313422 0 0.25531397820072871 -0.098382170177095732 0 0.26079992006016922 -0.083366570441649149 0 0.24251875031267911 -0.098393235191617495 0 0.26493274959627688 -0.094637006592492467 0 0.27077578441681632 -0.084877518596762985 0 0.26079992006016922 -0.083366570441649149 0 0.26493274959627688 -0.094637006592492467 0 0.25531397820072871 -0.098382170177095732 0 0.26079992006016922 -0.083366570441649149 0 0.27253053788608522 -0.072184930266413719 0 0.26079992006016922 -0.083366570441649149 0 0.25600715976498267 -0.073169543009763707 0 0.27062236276942031 -0.050294104306394118 0 0.25361853343101348 -0.045142130338597958 0 0.24898953992166531 -0.05905509024712783 0 0.25600715976498267 -0.073169543009763707 0 0.27062236276942031 -0.050294104306394118 0 0.25600715976498267 -0.073169543009763707 0 0.27062236276942031 -0.050294104306394118 0 0.24898953992166531 -0.05905509024712783 0 0.27062236276942031 -0.050294104306394118 0 0.25361853343101348 -0.045142130338597958 0 0.27253053788608522 -0.072184930266413719 0 0.27062236276942031 -0.050294104306394118 0 0.28297271248923123 -0.061497234831474498 0 0.27062236276942031 -0.050294104306394118 0 0.28360674553674092 -0.029971194525092108 0 0.27062236276942031 -0.050294104306394118 0 0.26355710776146452 -0.030304373899297049 0 0.28360674553674092 -0.029971194525092108 0 0.25361853343101348 -0.045142130338597958 0 0.26355710776146452 -0.030304373899297049 0 0.24964284861040009 -0.02830998638147841 0 0.27062236276942031 -0.050294104306394118 0 0.25361853343101348 -0.045142130338597958 0 0.26355710776146452 -0.030304373899297049 0 0.2557508608561096 -0.015966602693653121 0 0.26355710776146452 -0.030304373899297049 0 0.27016587524976238 -0.0098052798086835161 0 0.2557508608561096 -0.015966602693653121 0 0.26355710776146452 -0.030304373899297049 0 0.24964284861040009 -0.02830998638147841 0 0.26997261146140628 0.0091118082000288519 0 0.25553208938618721 -0.0013776190420226519 0 0.27016587524976238 -0.0098052798086835161 0 0.2557508608561096 -0.015966602693653121 0 0.25553208938618721 -0.0013776190420226519 0 0.2398563832727337 -0.01003575433678397 0 0.2557508608561096 -0.015966602693653121 0 0.25553208938618721 -0.0013776190420226519 0 0.27016587524976238 -0.0098052798086835161 0 0.26997261146140628 0.0091118082000288519 0 0.27016587524976238 -0.0098052798086835161 0 0.26355710776146452 -0.030304373899297049 0 0.27016587524976238 -0.0098052798086835161 0 0.28360674553674092 -0.029971194525092108 0 0.28360674553674092 -0.029971194525092108 0 0.2965911283040561 -0.0096482847437866018 0 0.3056195292705074 -0.030011803086369391 0 0.27016587524976238 -0.0098052798086835161 0 0.28360674553674092 -0.029971194525092108 0 0.2965911283040561 -0.0096482847437866018 0 0.28360674553674092 -0.029971194525092108 0 0.2965911283040561 -0.0096482847437866018 0 0.28120811288942799 0.0009092087759984659 0 0.27016587524976238 -0.0098052798086835161 0 0.2965911283040561 -0.0096482847437866018 0 0.30957551107137132 0.01067462503751886 0 0.31447786496183561 -0.01142934291039299 0 0.2965911283040561 -0.0096482847437866018 0 0.31447786496183561 -0.01142934291039299 0 0.2965911283040561 -0.0096482847437866018 0 0.3056195292705074 -0.030011803086369391 0 0.317301502193439 -0.046990892364707257 0 0.3056195292705074 -0.030011803086369391 0 0.29933531498214921 -0.058993814200820213 0 0.27062236276942031 -0.050294104306394118 0 0.29933531498214921 -0.058993814200820213 0 0.28297271248923123 -0.061497234831474498 0 0.27062236276942031 -0.050294104306394118 0 0.29933531498214921 -0.058993814200820213 0 0.27062236276942031 -0.050294104306394118 0 0.28360674553674092 -0.029971194525092108 0 0.29933531498214921 -0.058993814200820213 0 0.28360674553674092 -0.029971194525092108 0 0.3056195292705074 -0.030011803086369391 0 0.29933531498214921 -0.058993814200820213 0 0.2904545558464201 -0.1982921225042488 0 0.29820493934437498 -0.21444402981176239 0 0.2904545558464201 -0.1982921225042488 0 0.27294968601820402 -0.2115837450048354 0 0.28567684484242872 -0.21591148165320681 0 0.2904545558464201 -0.1982921225042488 0 0.29820493934437498 -0.21444402981176239 0 0.28567684484242872 -0.21591148165320681 0 0.2904545558464201 -0.1982921225042488 0 0.27294968601820402 -0.2115837450048354 0 0.2904545558464201 -0.1982921225042488 0 0.30277118521729462 -0.18893998280348709 0 0.28005325177107843 -0.17661565973999049 0 0.2904545558464201 -0.1982921225042488 0 0.30277118521729462 -0.18893998280348709 0 0.2904545558464201 -0.1982921225042488 0 0.30277118521729462 -0.18893998280348709 0 0.30813074311088767 -0.20306035227197111 0 0.30277118521729462 -0.18893998280348709 0 0.30813074311088767 -0.20306035227197111 0 0.31382454954109701 -0.1934046756274049 0 0.2904545558464201 -0.1982921225042488 0 0.30813074311088767 -0.20306035227197111 0 0.29820493934437498 -0.21444402981176239 0 0.30813074311088767 -0.20306035227197111 0 0.29820493934437498 -0.21444402981176239 0 0.31666404771728512 -0.21552198969390371 0 0.29820493934437498 -0.21444402981176239 0 0.30595532284233079 -0.2305959371192757 0 0.29820493934437498 -0.21444402981176239 0 0.30595532284233079 -0.2305959371192757 0 0.31666404771728512 -0.21552198969390371 0 0.29820493934437498 -0.21444402981176239 0 0.30595532284233079 -0.2305959371192757 0 0.28972062054746323 -0.22845061102261979 0 0.30595532284233079 -0.2305959371192757 0 0.29315052146770432 -0.24053402668276819 0 0.30260791946243593 -0.25483274280955842 0 0.30595532284233079 -0.2305959371192757 0 0.32804704842099708 -0.24781559642289699 0 0.30260791946243593 -0.25483274280955842 0 0.29315052146770432 -0.24053402668276819 0 0.28192247319022778 -0.2494267551726837 0 0.30260791946243593 -0.25483274280955842 0 0.29315052146770432 -0.24053402668276819 0 0.28138417853616021 -0.23694928810680971 0 0.28972062054746323 -0.22845061102261979 0 0.29315052146770432 -0.24053402668276819 0 0.28138417853616021 -0.23694928810680971 0 0.28192247319022778 -0.2494267551726837 0 0.30595532284233079 -0.2305959371192757 0 0.29315052146770432 -0.24053402668276819 0 0.28972062054746323 -0.22845061102261979 0 0.28567684484242872 -0.21591148165320681 0 0.29820493934437498 -0.21444402981176239 0 0.28972062054746323 -0.22845061102261979 0 0.28138417853616021 -0.23694928810680971 0 0.28972062054746323 -0.22845061102261979 0 0.27705442245568229 -0.2267868999225672 0 0.28567684484242872 -0.21591148165320681 0 0.28972062054746323 -0.22845061102261979 0 0.27705442245568229 -0.2267868999225672 0 0.28138417853616021 -0.23694928810680971 0 0.27705442245568229 -0.2267868999225672 0 0.26913276024038518 -0.23884789352828259 0 0.27705442245568229 -0.2267868999225672 0 0.26751244600590468 -0.22693998690362149 0 0.26913276024038518 -0.23884789352828259 0 0.26751244600590468 -0.22693998690362149 0 0.25892551542431841 -0.22485720991083161 0 0.27294968601820402 -0.2115837450048354 0 0.27705442245568229 -0.2267868999225672 0 0.26751244600590468 -0.22693998690362149 0 0.27294968601820402 -0.2115837450048354 0 0.28192247319022778 -0.2494267551726837 0 0.26913276024038518 -0.23884789352828259 0 0.27041703413951351 -0.25331338663942687 0 0.28138417853616021 -0.23694928810680971 0 0.28192247319022778 -0.2494267551726837 0 0.26913276024038518 -0.23884789352828259 0 0.26913276024038518 -0.23884789352828259 0 0.25684410453412182 -0.2462465244880406 0 0.27041703413951351 -0.25331338663942687 0 0.26913276024038518 -0.23884789352828259 0 0.25684410453412182 -0.2462465244880406 0 0.25949984589093372 -0.232624186151591 0 0.25684410453412182 -0.2462465244880406 0 0.25125052346109411 -0.23416890696817641 0 0.24650617052236279 -0.23839701510874189 0 0.25684410453412182 -0.2462465244880406 0 0.25949984589093372 -0.232624186151591 0 0.25125052346109411 -0.23416890696817641 0 0.25892551542431841 -0.22485720991083161 0 0.25544481618998532 -0.22487536750541859 0 0.27294968601820402 -0.2115837450048354 0 0.26751244600590468 -0.22693998690362149 0 0.25892551542431841 -0.22485720991083161 0 0.25949984589093372 -0.232624186151591 0 0.26751244600590468 -0.22693998690362149 0 0.26913276024038518 -0.23884789352828259 0 0.25949984589093372 -0.232624186151591 0 0.25892551542431841 -0.22485720991083161 0 0.25949984589093372 -0.232624186151591 0 0.25544481618998532 -0.22487536750541859 0 0.25949984589093372 -0.232624186151591 0 0.25125052346109411 -0.23416890696817641 0 0.25544481618998532 -0.22487536750541859 0 0.25892551542431841 -0.22485720991083161 0 0.25544481618998532 -0.22487536750541859 0 0.25544481618998532 -0.22487536750541859 0 0.27294968601820402 -0.2115837450048354 0 0.2451515947274199 -0.2102663818032002 0 0.25544481618998532 -0.22487536750541859 0 0.27294968601820402 -0.2115837450048354 0 0.27294968601820402 -0.2115837450048354 0 0.25253281716246961 -0.1946012503644951 0 0.2451515947274199 -0.2102663818032002 0 0.28567684484242872 -0.21591148165320681 0 0.27705442245568229 -0.2267868999225672 0 0.27294968601820402 -0.2115837450048354 0 0.2904545558464201 -0.1982921225042488 0 0.27132182010725547 -0.1921492075223783 0 0.28005325177107843 -0.17661565973999049 0 0.2904545558464201 -0.1982921225042488 0 0.27294968601820402 -0.2115837450048354 0 0.27132182010725547 -0.1921492075223783 0 0.27132182010725547 -0.1921492075223783 0 0.25253281716246961 -0.1946012503644951 0 0.26248533509351379 -0.17848020346403079 0 0.27294968601820402 -0.2115837450048354 0 0.27132182010725547 -0.1921492075223783 0 0.25253281716246961 -0.1946012503644951 0 0.25253281716246961 -0.1946012503644951 0 0.26248533509351379 -0.17848020346403079 0 0.2478262564369825 -0.16846503135296359 0 0.25233178883659441 -0.1504326262112218 0 0.26965194769573758 -0.15493919697573169 0 0.2478262564369825 -0.16846503135296359 0 0.26248533509351379 -0.17848020346403079 0 0.26965194769573758 -0.15493919697573169 0 0.2478262564369825 -0.16846503135296359 0 0.28005325177107843 -0.17661565973999049 0 0.26965194769573758 -0.15493919697573169 0 0.28765487905789688 -0.15541073377173101 0 0.26248533509351379 -0.17848020346403079 0 0.28005325177107843 -0.17661565973999049 0 0.26965194769573758 -0.15493919697573169 0 0.28005325177107843 -0.17661565973999049 0 0.26965194769573758 -0.15493919697573169 0 0.27132182010725547 -0.1921492075223783 0 0.26248533509351379 -0.17848020346403079 0 0.28005325177107843 -0.17661565973999049 0 0.25925064362039679 -0.13326273421147289 0 0.25233178883659441 -0.1504326262112218 0 0.2426601436047848 -0.13258649190178989 0 0.25925064362039679 -0.13326273421147289 0 0.2488493395450567 -0.111586271447214 0 0.2426601436047848 -0.13258649190178989 0 0.25925064362039679 -0.13326273421147289 0 0.26965194769573758 -0.15493919697573169 0 0.25925064362039679 -0.13326273421147289 0 0.25233178883659441 -0.1504326262112218 0 0.26965194769573758 -0.15493919697573169 0 0.25925064362039679 -0.13326273421147289 0 0.26965194769573758 -0.15493919697573169 0 0.2836585478607318 -0.13812151070000139 0 0.26965194769573758 -0.15493919697573169 0 0.2836585478607318 -0.13812151070000139 0 0.28765487905789688 -0.15541073377173101 0 0.25925064362039679 -0.13326273421147289 0 0.2742478794624903 -0.12515858244177969 0 0.2836585478607318 -0.13812151070000139 0 0.2836585478607318 -0.13812151070000139 0 0.30157758336559182 -0.14657392767414959 0 0.30421271469822969 -0.13058703230544699 0 0.29049730231304771 -0.11954641951275111 0 0.2742478794624903 -0.12515858244177969 0 0.2836585478607318 -0.13812151070000139 0 0.29049730231304771 -0.11954641951275111 0 0.2836585478607318 -0.13812151070000139 0 0.30421271469822969 -0.13058703230544699 0 0.2836585478607318 -0.13812151070000139 0 0.28765487905789688 -0.15541073377173101 0 0.30157758336559182 -0.14657392767414959 0 0.28765487905789688 -0.15541073377173101 0 0.30157758336559182 -0.14657392767414959 0 0.30188755912551701 -0.15834302113115711 0 0.30157758336559182 -0.14657392767414959 0 0.30188755912551701 -0.15834302113115711 0 0.31600678997201692 -0.1566962550239433 0 0.30157758336559182 -0.14657392767414959 0 0.30421271469822969 -0.13058703230544699 0 0.32035231462210889 -0.1394036756340935 0 0.28005325177107843 -0.17661565973999049 0 0.29603093232773542 -0.16630514963496401 0 0.30062064390212501 -0.17601141457483491 0 0.30277118521729462 -0.18893998280348709 0 0.28005325177107843 -0.17661565973999049 0 0.30062064390212501 -0.17601141457483491 0 0.2904545558464201 -0.1982921225042488 0 0.28005325177107843 -0.17661565973999049 0 0.28005325177107843 -0.17661565973999049 0 0.28765487905789688 -0.15541073377173101 0 0.29603093232773542 -0.16630514963496401 0 0.28765487905789688 -0.15541073377173101 0 0.29603093232773542 -0.16630514963496401 0 0.30188755912551701 -0.15834302113115711 0 0.29603093232773542 -0.16630514963496401 0 0.30816761090434402 -0.1667290395509973 0 0.30062064390212501 -0.17601141457483491 0 0.29603093232773542 -0.16630514963496401 0 0.30188755912551701 -0.15834302113115711 0 0.30816761090434402 -0.1667290395509973 0 0.30188755912551701 -0.15834302113115711 0 0.30816761090434402 -0.1667290395509973 0 0.31600678997201692 -0.1566962550239433 0 0.30816761090434402 -0.1667290395509973 0 0.30062064390212501 -0.17601141457483491 0 0.31313270325709402 -0.17650233230054599 0 0.30277118521729462 -0.18893998280348709 0 0.31508781458816482 -0.1795878431027198 0 0.31313270325709402 -0.17650233230054599 0 0.30277118521729462 -0.18893998280348709 0 0.31508781458816482 -0.1795878431027198 0 0.30277118521729462 -0.18893998280348709 0 0.30062064390212501 -0.17601141457483491 0 0.31313270325709402 -0.17650233230054599 0 0.30277118521729462 -0.18893998280348709 0 0.31508781458816482 -0.1795878431027198 0 0.31382454954109701 -0.1934046756274049 0 0.31508781458816482 -0.1795878431027198 0 0.31672387083449532 -0.16937012313720989 0 0.33122443545085661 -0.167335145707843 0 0.31508781458816482 -0.1795878431027198 0 0.33122443545085661 -0.167335145707843 0 0.33578125742047099 -0.18477032558627951 0 0.31508781458816482 -0.1795878431027198 0 0.33122443545085661 -0.167335145707843 0 0.31508781458816482 -0.1795878431027198 0 0.31313270325709402 -0.17650233230054599 0 0.31672387083449532 -0.16937012313720989 0 0.31508781458816482 -0.1795878431027198 0 0.31313270325709402 -0.17650233230054599 0 0.30816761090434402 -0.1667290395509973 0 0.31313270325709402 -0.17650233230054599 0 0.31672387083449532 -0.16937012313720989 0 0.30816761090434402 -0.1667290395509973 0 0.31672387083449532 -0.16937012313720989 0 0.31600678997201692 -0.1566962550239433 0 0.31600678997201692 -0.1566962550239433 0 0.33122443545085661 -0.167335145707843 0 0.33023335342677768 -0.15172308468521559 0 0.31672387083449532 -0.16937012313720989 0 0.31600678997201692 -0.1566962550239433 0 0.33122443545085661 -0.167335145707843 0 0.33122443545085661 -0.167335145707843 0 0.34736105631354691 -0.1550824483129643 0 0.35102708353153278 -0.17666274577120381 0 0.33122443545085661 -0.167335145707843 0 0.34736105631354691 -0.1550824483129643 0 0.33122443545085661 -0.167335145707843 0 0.33023335342677768 -0.15172308468521559 0 0.34736105631354691 -0.1550824483129643 0 0.33122443545085661 -0.167335145707843 0 0.33578125742047099 -0.18477032558627951 0 0.35102708353153278 -0.17666274577120381 0 0.31977171023983397 -0.1238458925683001 0 0.30421271469822969 -0.13058703230544699 0 0.32035231462210889 -0.1394036756340935 0 0.31977171023983397 -0.1238458925683001 0 0.32035231462210889 -0.1394036756340935 0 0.33352798985790533 -0.12588248368978999 0 0.31600678997201692 -0.1566962550239433 0 0.32035231462210889 -0.1394036756340935 0 0.33023335342677768 -0.15172308468521559 0 0.30157758336559182 -0.14657392767414959 0 0.31600678997201692 -0.1566962550239433 0 0.32035231462210889 -0.1394036756340935 0 0.32035231462210889 -0.1394036756340935 0 0.33023335342677768 -0.15172308468521559 0 0.3362221707753591 -0.14009789874723391 0 0.33023335342677768 -0.15172308468521559 0 0.3362221707753591 -0.14009789874723391 0 0.34736105631354691 -0.1550824483129643 0 0.32035231462210889 -0.1394036756340935 0 0.3362221707753591 -0.14009789874723391 0 0.33352798985790533 -0.12588248368978999 0 0.3362221707753591 -0.14009789874723391 0 0.33352798985790533 -0.12588248368978999 0 0.35188216853037219 -0.13053319944946931 0 0.35188216853037219 -0.13053319944946931 0 0.34736105631354691 -0.1550824483129643 0 0.36349767717623721 -0.14282975091808561 0 0.34736105631354691 -0.1550824483129643 0 0.36349767717623721 -0.14282975091808561 0 0.3362221707753591 -0.14009789874723391 0 0.35188216853037219 -0.13053319944946931 0 0.34736105631354691 -0.1550824483129643 0 0.34736105631354691 -0.1550824483129643 0 0.36349767717623721 -0.14282975091808561 0 0.36389988821084007 -0.1622052864258654 0 0.36349767717623721 -0.14282975091808561 0 0.37511938528269828 -0.13118119859356961 0 0.37683658276179322 -0.14854561585742551 0 0.36349767717623721 -0.14282975091808561 0 0.36389988821084007 -0.1622052864258654 0 0.37683658276179322 -0.14854561585742551 0 0.35188216853037219 -0.13053319944946931 0 0.36349767717623721 -0.14282975091808561 0 0.37511938528269828 -0.13118119859356961 0 0.35906689400327912 -0.1145370679795726 0 0.35188216853037219 -0.13053319944946931 0 0.37511938528269828 -0.13118119859356961 0 0.35102708353153278 -0.17666274577120381 0 0.37046255464643768 -0.1832191106690349 0 0.3522584982837596 -0.19823536901818919 0 0.33578125742047099 -0.18477032558627951 0 0.35102708353153278 -0.17666274577120381 0 0.3522584982837596 -0.19823536901818919 0 0.34736105631354691 -0.1550824483129643 0 0.35102708353153278 -0.17666274577120381 0 0.36389988821084007 -0.1622052864258654 0 0.36389988821084007 -0.1622052864258654 0 0.37046255464643768 -0.1832191106690349 0 0.38117462540061209 -0.16290378850264181 0 0.36389988821084007 -0.1622052864258654 0 0.37683658276179322 -0.14854561585742551 0 0.38117462540061209 -0.16290378850264181 0 0.35102708353153278 -0.17666274577120381 0 0.36389988821084007 -0.1622052864258654 0 0.37046255464643768 -0.1832191106690349 0 0.37046255464643768 -0.1832191106690349 0 0.37348231331630383 -0.20066948966955039 0 0.3522584982837596 -0.19823536901818919 0 0.37348231331630383 -0.20066948966955039 0 0.36615893893146262 -0.2164524250802472 0 0.3522584982837596 -0.19823536901818919 0 0.36615893893146262 -0.2164524250802472 0 0.3522584982837596 -0.19823536901818919 0 0.34352909590791741 -0.2244732055601632 0 0.33578125742047099 -0.18477032558627951 0 0.3522584982837596 -0.19823536901818919 0 0.32930845524804098 -0.2020305243314415 0 0.32930845524804098 -0.2020305243314415 0 0.34352909590791741 -0.2244732055601632 0 0.3522584982837596 -0.19823536901818919 0 0.32930845524804098 -0.2020305243314415 0 0.34352909590791741 -0.2244732055601632 0 0.32930845524804098 -0.2020305243314415 0 0.31666404771728512 -0.21552198969390371 0 0.34352909590791741 -0.2244732055601632 0 0.30813074311088767 -0.20306035227197111 0 0.32930845524804098 -0.2020305243314415 0 0.31666404771728512 -0.21552198969390371 0 0.31508781458816482 -0.1795878431027198 0 0.32930845524804098 -0.2020305243314415 0 0.31508781458816482 -0.1795878431027198 0 0.32930845524804098 -0.2020305243314415 0 0.31382454954109701 -0.1934046756274049 0 0.31508781458816482 -0.1795878431027198 0 0.33578125742047099 -0.18477032558627951 0 0.32930845524804098 -0.2020305243314415 0 0.30813074311088767 -0.20306035227197111 0 0.32930845524804098 -0.2020305243314415 0 0.31382454954109701 -0.1934046756274049 0 0.30595532284233079 -0.2305959371192757 0 0.32804704842099708 -0.24781559642289699 0 0.32319696544010368 -0.2309436140653284 0 0.31666404771728512 -0.21552198969390371 0 0.32319696544010368 -0.2309436140653284 0 0.34352909590791741 -0.2244732055601632 0 0.30595532284233079 -0.2305959371192757 0 0.31666404771728512 -0.21552198969390371 0 0.32319696544010368 -0.2309436140653284 0 0.32804704842099708 -0.24781559642289699 0 0.32319696544010368 -0.2309436140653284 0 0.34352909590791741 -0.2244732055601632 0 0.32804704842099708 -0.24781559642289699 0 0.34352909590791741 -0.2244732055601632 0 0.35774973656779391 -0.2469158867888849 0 0.34352909590791741 -0.2244732055601632 0 0.35774973656779391 -0.2469158867888849 0 0.34352909590791741 -0.2244732055601632 0 0.35774973656779391 -0.2469158867888849 0 0.37271645755543331 -0.2346461688312082 0 0.36615893893146262 -0.2164524250802472 0 0.34352909590791741 -0.2244732055601632 0 0.37271645755543331 -0.2346461688312082 0 0.35774973656779391 -0.2469158867888849 0 0.37271645755543331 -0.2346461688312082 0 0.37886752692166631 -0.25216484870198891 0 0.37271645755543331 -0.2346461688312082 0 0.39265267828673261 -0.2386635160266963 0 0.37886752692166631 -0.25216484870198891 0 0.39265267828673261 -0.2386635160266963 0 0.37886752692166631 -0.25216484870198891 0 0.39820905224024838 -0.255018004095869 0 0.39265267828673261 -0.2386635160266963 0 0.41073569937309928 -0.2418591416491554 0 0.39820905224024838 -0.255018004095869 0 0.39265267828673261 -0.2386635160266963 0 0.40592007084395249 -0.22576301708658331 0 0.41073569937309928 -0.2418591416491554 0 0.39265267828673261 -0.2386635160266963 0 0.40592007084395249 -0.22576301708658331 0 0.38615467331642928 -0.2175881721469661 0 0.36615893893146262 -0.2164524250802472 0 0.37271645755543331 -0.2346461688312082 0 0.38615467331642928 -0.2175881721469661 0 0.37271645755543331 -0.2346461688312082 0 0.39265267828673261 -0.2386635160266963 0 0.38615467331642928 -0.2175881721469661 0 0.37348231331630383 -0.20066948966955039 0 0.36615893893146262 -0.2164524250802472 0 0.38615467331642928 -0.2175881721469661 0 0.37348231331630383 -0.20066948966955039 0 0.38615467331642928 -0.2175881721469661 0 0.3909173449164236 -0.1967186481668485 0 0.37046255464643768 -0.1832191106690349 0 0.37348231331630383 -0.20066948966955039 0 0.3909173449164236 -0.1967186481668485 0 0.3909173449164236 -0.1967186481668485 0 0.41055855888432052 -0.19890970643996209 0 0.40423510713477689 -0.185010968141301 0 0.3909173449164236 -0.1967186481668485 0 0.40053397314860389 -0.21011121093242011 0 0.41055855888432052 -0.19890970643996209 0 0.40592007084395249 -0.22576301708658331 0 0.38615467331642928 -0.2175881721469661 0 0.40053397314860389 -0.21011121093242011 0 0.38615467331642928 -0.2175881721469661 0 0.3909173449164236 -0.1967186481668485 0 0.40053397314860389 -0.21011121093242011 0 0.41705493229383689 -0.213698778672963 0 0.41055855888432052 -0.19890970643996209 0 0.42821264183419938 -0.20173967617081459 0 0.40592007084395249 -0.22576301708658331 0 0.40053397314860389 -0.21011121093242011 0 0.41705493229383689 -0.213698778672963 0 0.40053397314860389 -0.21011121093242011 0 0.41705493229383689 -0.213698778672963 0 0.41055855888432052 -0.19890970643996209 0 0.41055855888432052 -0.19890970643996209 0 0.42821264183419938 -0.20173967617081459 0 0.42123012893765749 -0.18546552747945669 0 0.41055855888432052 -0.19890970643996209 0 0.40423510713477689 -0.185010968141301 0 0.42123012893765749 -0.18546552747945669 0 0.42821264183419938 -0.20173967617081459 0 0.42123012893765749 -0.18546552747945669 0 0.44507903342940702 -0.18151627797756101 0 0.41705493229383689 -0.213698778672963 0 0.42821264183419938 -0.20173967617081459 0 0.43415350544437642 -0.2166262967383927 0 0.42821264183419938 -0.20173967617081459 0 0.43415350544437642 -0.2166262967383927 0 0.44510096916175168 -0.20187304753728061 0 0.41705493229383689 -0.213698778672963 0 0.43415350544437642 -0.2166262967383927 0 0.42295084360756868 -0.22904276466960541 0 0.43415350544437642 -0.2166262967383927 0 0.42295084360756868 -0.22904276466960541 0 0.43963300034207681 -0.2319697287478194 0 0.42295084360756868 -0.22904276466960541 0 0.42907761974184638 -0.24548389699355561 0 0.43963300034207681 -0.2319697287478194 0 0.42295084360756868 -0.22904276466960541 0 0.42907761974184638 -0.24548389699355561 0 0.41073569937309928 -0.2418591416491554 0 0.42907761974184638 -0.24548389699355561 0 0.41073569937309928 -0.2418591416491554 0 0.41636506784681843 -0.25799152138854481 0 0.40592007084395249 -0.22576301708658331 0 0.42295084360756868 -0.22904276466960541 0 0.41073569937309928 -0.2418591416491554 0 0.40592007084395249 -0.22576301708658331 0 0.41705493229383689 -0.213698778672963 0 0.42295084360756868 -0.22904276466960541 0 0.39924204522507512 -0.12601331429235521 0 0.39073198299815493 -0.1443604794801395 0 0.39924204522507512 -0.12601331429235521 0 0.39073198299815493 -0.1443604794801395 0 0.40265829002288189 -0.14239126041684499 0 0.39924204522507512 -0.12601331429235521 0 0.37511938528269828 -0.13118119859356961 0 0.39073198299815493 -0.1443604794801395 0 0.37511938528269828 -0.13118119859356961 0 0.37683658276179322 -0.14854561585742551 0 0.39073198299815493 -0.1443604794801395 0 0.37683658276179322 -0.14854561585742551 0 0.39073198299815493 -0.1443604794801395 0 0.38117462540061209 -0.16290378850264181 0 0.39073198299815493 -0.1443604794801395 0 0.40265829002288189 -0.14239126041684499 0 0.40007232869009812 -0.15998314649064069 0 0.39073198299815493 -0.1443604794801395 0 0.40007232869009812 -0.15998314649064069 0 0.38117462540061209 -0.16290378850264181 0 0.40007232869009812 -0.15998314649064069 0 0.38117462540061209 -0.16290378850264181 0 0.39133204842679692 -0.1767886018612842 0 0.40007232869009812 -0.15998314649064069 0 0.39133204842679692 -0.1767886018612842 0 0.40971802602489338 -0.17196585451014379 0 0.37046255464643768 -0.1832191106690349 0 0.3909173449164236 -0.1967186481668485 0 0.39133204842679692 -0.1767886018612842 0 0.37046255464643768 -0.1832191106690349 0 0.38117462540061209 -0.16290378850264181 0 0.39133204842679692 -0.1767886018612842 0 0.40423510713477689 -0.185010968141301 0 0.39133204842679692 -0.1767886018612842 0 0.40971802602489338 -0.17196585451014379 0 0.3909173449164236 -0.1967186481668485 0 0.40423510713477689 -0.185010968141301 0 0.39133204842679692 -0.1767886018612842 0 0.42123012893765749 -0.18546552747945669 0 0.40971802602489338 -0.17196585451014379 0 0.42359710434511277 -0.16861482088093269 0 0.40423510713477689 -0.185010968141301 0 0.42123012893765749 -0.18546552747945669 0 0.40971802602489338 -0.17196585451014379 0 0.42123012893765749 -0.18546552747945669 0 0.42359710434511277 -0.16861482088093269 0 0.44507903342940702 -0.18151627797756101 0 0.42359710434511277 -0.16861482088093269 0 0.437839223562696 -0.16420570599952389 0 0.44507903342940702 -0.18151627797756101 0 0.42359710434511277 -0.16861482088093269 0 0.43062332697345118 -0.1553962623799271 0 0.437839223562696 -0.16420570599952389 0 0.43062332697345118 -0.1553962623799271 0 0.43988062927725491 -0.1544485403151816 0 0.437839223562696 -0.16420570599952389 0 0.42359710434511277 -0.16861482088093269 0 0.41784143861491868 -0.15593206220724781 0 0.43062332697345118 -0.1553962623799271 0 0.40007232869009812 -0.15998314649064069 0 0.40971802602489338 -0.17196585451014379 0 0.41784143861491868 -0.15593206220724781 0 0.40971802602489338 -0.17196585451014379 0 0.42359710434511277 -0.16861482088093269 0 0.41784143861491868 -0.15593206220724781 0 0.40265829002288189 -0.14239126041684499 0 0.40007232869009812 -0.15998314649064069 0 0.4205868031781998 -0.13920810140424481 0 0.40007232869009812 -0.15998314649064069 0 0.41784143861491868 -0.15593206220724781 0 0.4205868031781998 -0.13920810140424481 0 0.40007232869009812 -0.15998314649064069 0 0.4205868031781998 -0.13920810140424481 0 0.41784143861491868 -0.15593206220724781 0 0.43062332697345118 -0.1553962623799271 0 0.42835997211268922 -0.14401327696541039 0 0.41784143861491868 -0.15593206220724781 0 0.42835997211268922 -0.14401327696541039 0 0.4205868031781998 -0.13920810140424481 0 0.43062332697345118 -0.1553962623799271 0 0.4363224234386387 -0.14583757793196081 0 0.43988062927725491 -0.1544485403151816 0 0.4363224234386387 -0.14583757793196081 0 0.42835997211268922 -0.14401327696541039 0 0.43423279227896222 -0.13688564212827509 0 0.43062332697345118 -0.1553962623799271 0 0.4363224234386387 -0.14583757793196081 0 0.42835997211268922 -0.14401327696541039 0 0.42835997211268922 -0.14401327696541039 0 0.4205868031781998 -0.13920810140424481 0 0.4371090794444768 -0.12247596261312529 0 0.4205868031781998 -0.13920810140424481 0 0.42835997211268922 -0.14401327696541039 0 0.43423279227896222 -0.13688564212827509 0 0.4205868031781998 -0.13920810140424481 0 0.41406193188245238 -0.122443672872905 0 0.4371090794444768 -0.12247596261312529 0 0.4205868031781998 -0.13920810140424481 0 0.4371090794444768 -0.12247596261312529 0 0.43423279227896222 -0.13688564212827509 0 0.4205868031781998 -0.13920810140424481 0 0.4363224234386387 -0.14583757793196081 0 0.43423279227896222 -0.13688564212827509 0 0.44114372236161509 -0.13838812572209999 0 0.39924204522507512 -0.12601331429235521 0 0.40265829002288189 -0.14239126041684499 0 0.4205868031781998 -0.13920810140424481 0 0.41406193188245238 -0.122443672872905 0 0.39924204522507512 -0.12601331429235521 0 0.4205868031781998 -0.13920810140424481 0 0.39924204522507512 -0.12601331429235521 0 0.4205868031781998 -0.13920810140424481 0 0.45882498662995258 -0.12453979061286639 0 0.45495301414710182 -0.14058897891047309 0 0.45047599607958339 -0.1278545025004092 0 0.45882498662995258 -0.12453979061286639 0 0.46693950549615337 -0.13522847234173971 0 0.45495301414710182 -0.14058897891047309 0 0.45882498662995258 -0.12453979061286639 0 0.45495301414710182 -0.14058897891047309 0 0.47251842651681208 -0.124667937214217 0 0.45882498662995258 -0.12453979061286639 0 0.46693950549615337 -0.13522847234173971 0 0.45047599607958339 -0.1278545025004092 0 0.44187475313815411 -0.13139080813280921 0 0.44690453701691002 -0.13613474757415481 0 0.4371090794444768 -0.12247596261312529 0 0.43423279227896222 -0.13688564212827509 0 0.44187475313815411 -0.13139080813280921 0 0.4371090794444768 -0.12247596261312529 0 0.45047599607958339 -0.1278545025004092 0 0.44187475313815411 -0.13139080813280921 0 0.44114372236161509 -0.13838812572209999 0 0.44690453701691002 -0.13613474757415481 0 0.44496484395178998 -0.1456204174342064 0 0.43423279227896222 -0.13688564212827509 0 0.44187475313815411 -0.13139080813280921 0 0.44114372236161509 -0.13838812572209999 0 0.44187475313815411 -0.13139080813280921 0 0.44114372236161509 -0.13838812572209999 0 0.44690453701691002 -0.13613474757415481 0 0.45495301414710182 -0.14058897891047309 0 0.45047599607958339 -0.1278545025004092 0 0.45495301414710182 -0.14058897891047309 0 0.45047599607958339 -0.1278545025004092 0 0.44690453701691002 -0.13613474757415481 0 0.45495301414710182 -0.14058897891047309 0 0.44496484395178998 -0.1456204174342064 0 0.45001602378825389 -0.16105262844401699 0 0.45495301414710182 -0.14058897891047309 0 0.44690453701691002 -0.13613474757415481 0 0.44496484395178998 -0.1456204174342064 0 0.45495301414710182 -0.14058897891047309 0 0.45001602378825389 -0.16105262844401699 0 0.4363224234386387 -0.14583757793196081 0 0.44114372236161509 -0.13838812572209999 0 0.44496484395178998 -0.1456204174342064 0 0.4363224234386387 -0.14583757793196081 0 0.44496484395178998 -0.1456204174342064 0 0.43988062927725491 -0.1544485403151816 0 0.44496484395178998 -0.1456204174342064 0 0.43988062927725491 -0.1544485403151816 0 0.45001602378825389 -0.16105262844401699 0 0.45495301414710182 -0.14058897891047309 0 0.46404409485342829 -0.1664477427239611 0 0.45495301414710182 -0.14058897891047309 0 0.46404409485342829 -0.1664477427239611 0 0.45001602378825389 -0.16105262844401699 0 0.45495301414710182 -0.14058897891047309 0 0.46404409485342829 -0.1664477427239611 0 0.46930912123717172 -0.1473426043166364 0 0.46693950549615337 -0.13522847234173971 0 0.45495301414710182 -0.14058897891047309 0 0.46930912123717172 -0.1473426043166364 0 0.46404409485342829 -0.1664477427239611 0 0.45001602378825389 -0.16105262844401699 0 0.46097518636568818 -0.18205411141345021 0 0.45001602378825389 -0.16105262844401699 0 0.44507903342940702 -0.18151627797756101 0 0.45001602378825389 -0.16105262844401699 0 0.437839223562696 -0.16420570599952389 0 0.44507903342940702 -0.18151627797756101 0 0.43988062927725491 -0.1544485403151816 0 0.45001602378825389 -0.16105262844401699 0 0.437839223562696 -0.16420570599952389 0 0.45001602378825389 -0.16105262844401699 0 0.44507903342940702 -0.18151627797756101 0 0.46097518636568818 -0.18205411141345021 0 0.44507903342940702 -0.18151627797756101 0 0.46097518636568818 -0.18205411141345021 0 0.45623678535726331 -0.19313283520762731 0 0.46404409485342829 -0.1664477427239611 0 0.47313517555975332 -0.1923065065374496 0 0.46404409485342829 -0.1664477427239611 0 0.46097518636568818 -0.18205411141345021 0 0.47313517555975332 -0.1923065065374496 0 0.46404409485342829 -0.1664477427239611 0 0.48656758777987552 -0.17744391371146401 0 0.47313517555975332 -0.1923065065374496 0 0.48656758777987552 -0.17744391371146401 0 0.47313517555975332 -0.1923065065374496 0 0.48656758777987552 -0.17744391371146401 0 0.49999999999999961 -0.1625813208854798 0 0.5 -0.19159519193954941 0 0.48656758777987552 -0.17744391371146401 0 0.49999999999999961 -0.1625813208854798 0 0.48288997574353021 -0.15601535029243499 0 0.48656758777987552 -0.17744391371146401 0 0.49999999999999961 -0.1625813208854798 0 0.46404409485342829 -0.1664477427239611 0 0.48656758777987552 -0.17744391371146401 0 0.48288997574353021 -0.15601535029243499 0 0.46404409485342829 -0.1664477427239611 0 0.48288997574353021 -0.15601535029243499 0 0.46930912123717172 -0.1473426043166364 0 0.48288997574353021 -0.15601535029243499 0 0.46930912123717172 -0.1473426043166364 0 0.47909197894972849 -0.13900305065450569 0 0.48288997574353021 -0.15601535029243499 0 0.5 -0.14118716791824279 0 0.47909197894972849 -0.13900305065450569 0 0.49999999999999961 -0.1625813208854798 0 0.48288997574353021 -0.15601535029243499 0 0.5 -0.14118716791824279 0 0.5 -0.14118716791824279 0 0.48732395009540902 -0.12732652428724631 0 0.47909197894972849 -0.13900305065450569 0 0.50000000000000733 -0.11979301495100581 0 0.5 -0.14118716791824279 0 0.48732395009540902 -0.12732652428724631 0 0.47251842651681208 -0.124667937214217 0 0.48732395009540902 -0.12732652428724631 0 0.47909197894972849 -0.13900305065450569 0 0.46693950549615337 -0.13522847234173971 0 0.46930912123717172 -0.1473426043166364 0 0.47909197894972849 -0.13900305065450569 0 0.47251842651681208 -0.124667937214217 0 0.46693950549615337 -0.13522847234173971 0 0.47909197894972849 -0.13900305065450569 0 0.4685308517026705 -0.22906864202386931 0 0.45434895105632611 -0.2350477367550321 0 0.45006606168853308 -0.21783184336492631 0 0.4685308517026705 -0.22906864202386931 0 0.45006606168853308 -0.21783184336492631 0 0.46875402866034921 -0.21509068647958091 0 0.46708103956949992 -0.24657487848843829 0 0.45434895105632611 -0.2350477367550321 0 0.44713074540889142 -0.24750979113369789 0 0.4685308517026705 -0.22906864202386931 0 0.46708103956949992 -0.24657487848843829 0 0.45434895105632611 -0.2350477367550321 0 0.45434895105632611 -0.2350477367550321 0 0.44713074540889142 -0.24750979113369789 0 0.43963300034207681 -0.2319697287478194 0 0.42907761974184638 -0.24548389699355561 0 0.44713074540889142 -0.24750979113369789 0 0.43963300034207681 -0.2319697287478194 0 0.43415350544437642 -0.2166262967383927 0 0.43963300034207681 -0.2319697287478194 0 0.45006606168853308 -0.21783184336492631 0 0.45434895105632611 -0.2350477367550321 0 0.43963300034207681 -0.2319697287478194 0 0.45006606168853308 -0.21783184336492631 0 0.45006606168853308 -0.21783184336492631 0 0.44510096916175168 -0.20187304753728061 0 0.46160061862414248 -0.20506917495118729 0 0.43415350544437642 -0.2166262967383927 0 0.45006606168853308 -0.21783184336492631 0 0.44510096916175168 -0.20187304753728061 0 0.44507903342940702 -0.18151627797756101 0 0.44510096916175168 -0.20187304753728061 0 0.45623678535726331 -0.19313283520762731 0 0.42821264183419938 -0.20173967617081459 0 0.44507903342940702 -0.18151627797756101 0 0.44510096916175168 -0.20187304753728061 0 0.44510096916175168 -0.20187304753728061 0 0.45623678535726331 -0.19313283520762731 0 0.46160061862414248 -0.20506917495118729 0 0.46097518636568818 -0.18205411141345021 0 0.45623678535726331 -0.19313283520762731 0 0.47313517555975332 -0.1923065065374496 0 0.45623678535726331 -0.19313283520762731 0 0.46160061862414248 -0.20506917495118729 0 0.47313517555975332 -0.1923065065374496 0 0.46160061862414248 -0.20506917495118729 0 0.47313517555975332 -0.1923065065374496 0 0.45006606168853308 -0.21783184336492631 0 0.46160061862414248 -0.20506917495118729 0 0.46875402866034921 -0.21509068647958091 0 0.45006606168853308 -0.21783184336492631 0 0.46160061862414248 -0.20506917495118729 0 0.46160061862414248 -0.20506917495118729 0 0.46875402866034921 -0.21509068647958091 0 0.47835064659498477 -0.20714144619234359 0 0.46875402866034921 -0.21509068647958091 0 0.47835064659498477 -0.20714144619234359 0 0.48356611763021551 -0.22197638584723789 0 0.47835064659498477 -0.20714144619234359 0 0.48356611763021551 -0.22197638584723789 0 0.47835064659498477 -0.20714144619234359 0 0.4897176867261796 -0.20744077512968431 0 0.48356611763021551 -0.22197638584723789 0 0.46160061862414248 -0.20506917495118729 0 0.47835064659498477 -0.20714144619234359 0 0.47313517555975332 -0.1923065065374496 0 0.48656758777987552 -0.17744391371146401 0 0.47313517555975332 -0.1923065065374496 0 0.48626443541388309 -0.19562806346664341 0 0.47835064659498477 -0.20714144619234359 0 0.47313517555975332 -0.1923065065374496 0 0.47835064659498477 -0.20714144619234359 0 0.47313517555975332 -0.1923065065374496 0 0.48626443541388309 -0.19562806346664341 0 0.48656758777987552 -0.17744391371146401 0 0.5 -0.19159519193954941 0 0.48626443541388309 -0.19562806346664341 0 0.5 -0.19159519193954941 0 0.48626443541388309 -0.19562806346664341 0 0.4897176867261796 -0.20744077512968431 0 0.5 -0.19159519193954941 0 0.4897176867261796 -0.20744077512968431 0 0.5 -0.2206090629936189 0 0.4897176867261796 -0.20744077512968431 0 0.5 -0.2206090629936189 0 0.48356611763021551 -0.22197638584723789 0 0.47835064659498477 -0.20714144619234359 0 0.48626443541388309 -0.19562806346664341 0 0.4897176867261796 -0.20744077512968431 0 0.5 -0.2206090629936189 0 0.48356611763021551 -0.22197638584723789 0 0.48471180352822402 -0.2377729826843136 0 0.4685308517026705 -0.22906864202386931 0 0.48356611763021551 -0.22197638584723789 0 0.48471180352822402 -0.2377729826843136 0 0.4685308517026705 -0.22906864202386931 0 0.46875402866034921 -0.21509068647958091 0 0.48356611763021551 -0.22197638584723789 0 0.46708103956949992 -0.24657487848843829 0 0.48471180352822402 -0.2377729826843136 0 0.48365215257494321 -0.26103054165306872 0 0.4685308517026705 -0.22906864202386931 0 0.46708103956949992 -0.24657487848843829 0 0.48471180352822402 -0.2377729826843136 0 0.5 -0.2206090629936189 0 0.5 -0.24962293404768829 0 0.48471180352822402 -0.2377729826843136 0 0.5 -0.24962293404768829 0 0.48471180352822402 -0.2377729826843136 0 0.48365215257494321 -0.26103054165306872 0 0.5 -0.24962293404768829 0 0.5 -0.27863680510175781 0 0.48365215257494321 -0.26103054165306872 0 0.5 -0.27863680510175781 0 0.48365215257494321 -0.26103054165306872 0 0.4816352102879794 -0.28561092825657552 0 0.48365215257494321 -0.26103054165306872 0 0.46848486206395618 -0.26796472133963872 0 0.4816352102879794 -0.28561092825657552 0 0.46848486206395618 -0.26796472133963872 0 0.46200570446600769 -0.2893639657515531 0 0.4816352102879794 -0.28561092825657552 0 0.46708103956949992 -0.24657487848843829 0 0.48365215257494321 -0.26103054165306872 0 0.46848486206395618 -0.26796472133963872 0 0.46708103956949992 -0.24657487848843829 0 0.46848486206395618 -0.26796472133963872 0 0.45279446884076069 -0.26257849674431449 0 0.46708103956949992 -0.24657487848843829 0 0.44713074540889142 -0.24750979113369789 0 0.45279446884076069 -0.26257849674431449 0 0.46848486206395618 -0.26796472133963872 0 0.44807675005035369 -0.27909323189002472 0 0.45279446884076069 -0.26257849674431449 0 0.46848486206395618 -0.26796472133963872 0 0.44807675005035369 -0.27909323189002472 0 0.46200570446600769 -0.2893639657515531 0 0.46848486206395618 -0.26796472133963872 0 0.46200570446600769 -0.2893639657515531 0 0.44807675005035369 -0.27909323189002472 0 0.4360506905733873 -0.26632218291994841 0 0.42963316584714661 -0.28619122935530938 0 0.44807675005035369 -0.27909323189002472 0 0.45279446884076069 -0.26257849674431449 0 0.4360506905733873 -0.26632218291994841 0 0.44713074540889142 -0.24750979113369789 0 0.45279446884076069 -0.26257849674431449 0 0.4360506905733873 -0.26632218291994841 0 0.44291556046792502 -0.29737041211646242 0 0.45552654686805932 -0.31076321016346742 0 0.43523346453006412 -0.31324298639152798 0 0.44807675005035369 -0.27909323189002472 0 0.44291556046792502 -0.29737041211646242 0 0.46200570446600769 -0.2893639657515531 0 0.44807675005035369 -0.27909323189002472 0 0.44291556046792502 -0.29737041211646242 0 0.42963316584714661 -0.28619122935530938 0 0.46200570446600769 -0.2893639657515531 0 0.45552654686805932 -0.31076321016346742 0 0.47720696784542088 -0.30611467064771303 0 0.46200570446600769 -0.2893639657515531 0 0.45552654686805932 -0.31076321016346742 0 0.44291556046792502 -0.29737041211646242 0 0.46200570446600769 -0.2893639657515531 0 0.45552654686805932 -0.31076321016346742 0 0.46200570446600769 -0.2893639657515531 0 0.47720696784542088 -0.30611467064771303 0 0.4816352102879794 -0.28561092825657552 0 0.5 -0.27863680510175781 0 0.4816352102879794 -0.28561092825657552 0 0.49999999999999872 -0.3076506761558272 0 0.47720696784542088 -0.30611467064771303 0 0.4816352102879794 -0.28561092825657552 0 0.49999999999999872 -0.3076506761558272 0 0.49999999999999872 -0.3076506761558272 0 0.48931421790500762 -0.32466902267836012 0 0.47720696784542088 -0.30611467064771303 0 0.49999999999999872 -0.3076506761558272 0 0.48931421790500762 -0.32466902267836012 0 0.49999999999999872 -0.3076506761558272 0 0.48931421790500762 -0.32466902267836012 0 0.5 -0.32810977863756252 0 0.5 -0.32810977863756252 0 0.49138569742584082 -0.3369402162932561 0 0.49999999999999822 -0.34856888111929768 0 0.48931421790500762 -0.32466902267836012 0 0.49138569742584082 -0.3369402162932561 0 0.47862843581001768 -0.3416873692008936 0 0.49138569742584082 -0.3369402162932561 0 0.47862843581001768 -0.3416873692008936 0 0.49999999999999822 -0.34856888111929768 0 0.48931421790500762 -0.32466902267836012 0 0.5 -0.32810977863756252 0 0.49138569742584082 -0.3369402162932561 0 0.48931421790500762 -0.32466902267836012 0 0.47862843581001768 -0.3416873692008936 0 0.47228644377443668 -0.32188013521654052 0 0.47862843581001768 -0.3416873692008936 0 0.47228644377443668 -0.32188013521654052 0 0.46383791254006418 -0.33692491188813811 0 0.48931421790500762 -0.32466902267836012 0 0.47862843581001768 -0.3416873692008936 0 0.47862843581001768 -0.3416873692008936 0 0.46383791254006418 -0.33692491188813811 0 0.47862843581001768 -0.3416873692008936 0 0.469389089440646 -0.34464962679977462 0 0.46383791254006418 -0.33692491188813811 0 0.47720696784542088 -0.30611467064771303 0 0.48931421790500762 -0.32466902267836012 0 0.47228644377443668 -0.32188013521654052 0 0.5 -0.36882465530215708 0 0.4843786167981573 -0.3574236334960405 0 0.48616370266838382 -0.37819530917384431 0 0.5 -0.36882465530215708 0 0.49999999999999822 -0.34856888111929768 0 0.4843786167981573 -0.3574236334960405 0 0.47862843581001768 -0.3416873692008936 0 0.49999999999999822 -0.34856888111929768 0 0.4843786167981573 -0.3574236334960405 0 0.47862843581001768 -0.3416873692008936 0 0.49999999999999822 -0.34856888111929768 0 0.47862843581001768 -0.3416873692008936 0 0.4843786167981573 -0.3574236334960405 0 0.47329852484499679 -0.35404905369692252 0 0.47862843581001768 -0.3416873692008936 0 0.469389089440646 -0.34464962679977462 0 0.47329852484499679 -0.35404905369692252 0 0.4843786167981573 -0.3574236334960405 0 0.47329852484499679 -0.35404905369692252 0 0.47103531983598212 -0.36990788114819351 0 0.4843786167981573 -0.3574236334960405 0 0.47103531983598212 -0.36990788114819351 0 0.48616370266838382 -0.37819530917384431 0 0.47329852484499679 -0.35404905369692252 0 0.47103531983598212 -0.36990788114819351 0 0.46319429866925632 -0.35636472280448372 0 0.47103531983598212 -0.36990788114819351 0 0.44207887396653522 -0.36862323417445708 0 0.45650214439440118 -0.38578200657754791 0 0.47103531983598212 -0.36990788114819351 0 0.46319429866925632 -0.35636472280448372 0 0.44207887396653522 -0.36862323417445708 0 0.46319429866925632 -0.35636472280448372 0 0.45685311661016242 -0.3465181708279601 0 0.44207887396653522 -0.36862323417445708 0 0.469389089440646 -0.34464962679977462 0 0.47329852484499679 -0.35404905369692252 0 0.46319429866925632 -0.35636472280448372 0 0.469389089440646 -0.34464962679977462 0 0.46319429866925632 -0.35636472280448372 0 0.45685311661016242 -0.3465181708279601 0 0.44207887396653522 -0.36862323417445708 0 0.44640346627812721 -0.3408947555661237 0 0.45685311661016242 -0.3465181708279601 0 0.44207887396653522 -0.36862323417445708 0 0.44640346627812721 -0.3408947555661237 0 0.44252311951893158 -0.35371069459024929 0 0.44207887396653522 -0.36862323417445708 0 0.44640346627812721 -0.3408947555661237 0 0.44252311951893158 -0.35371069459024929 0 0.44640346627812721 -0.3408947555661237 0 0.43630265831332499 -0.33728326944529541 0 0.44252311951893158 -0.35371069459024929 0 0.44640346627812721 -0.3408947555661237 0 0.44252311951893158 -0.35371069459024929 0 0.44207887396653522 -0.36862323417445708 0 0.43329743756150702 -0.36089874775168462 0 0.45552654686805932 -0.31076321016346742 0 0.47228644377443668 -0.32188013521654052 0 0.46017457311316778 -0.32543267796088188 0 0.45552654686805932 -0.31076321016346742 0 0.46017457311316778 -0.32543267796088188 0 0.44782667719983171 -0.33176939281416068 0 0.45552654686805932 -0.31076321016346742 0 0.47720696784542088 -0.30611467064771303 0 0.47228644377443668 -0.32188013521654052 0 0.47228644377443668 -0.32188013521654052 0 0.46017457311316778 -0.32543267796088188 0 0.46383791254006418 -0.33692491188813811 0 0.46017457311316778 -0.32543267796088188 0 0.46383791254006418 -0.33692491188813811 0 0.44782667719983171 -0.33176939281416068 0 0.45685311661016242 -0.3465181708279601 0 0.46383791254006418 -0.33692491188813811 0 0.44782667719983171 -0.33176939281416068 0 0.46383791254006418 -0.33692491188813811 0 0.44782667719983171 -0.33176939281416068 0 0.469389089440646 -0.34464962679977462 0 0.45685311661016242 -0.3465181708279601 0 0.46383791254006418 -0.33692491188813811 0 0.44782667719983171 -0.33176939281416068 0 0.44640346627812721 -0.3408947555661237 0 0.44508547103263513 -0.33088674132722778 0 0.44782667719983171 -0.33176939281416068 0 0.44508547103263513 -0.33088674132722778 0 0.44782667719983171 -0.33176939281416068 0 0.44640346627812721 -0.3408947555661237 0 0.45685311661016242 -0.3465181708279601 0 0.44782667719983171 -0.33176939281416068 0 0.44640346627812721 -0.3408947555661237 0 0.44640346627812721 -0.3408947555661237 0 0.44508547103263513 -0.33088674132722778 0 0.43630265831332499 -0.33728326944529541 0 0.44782667719983171 -0.33176939281416068 0 0.44508547103263513 -0.33088674132722778 0 0.44213276208268831 -0.32395302223646671 0 0.44508547103263513 -0.33088674132722778 0 0.4380822676864779 -0.33010203498951529 0 0.43630265831332499 -0.33728326944529541 0 0.44508547103263513 -0.33088674132722778 0 0.4380822676864779 -0.33010203498951529 0 0.44213276208268831 -0.32395302223646671 0 0.45552654686805932 -0.31076321016346742 0 0.44782667719983171 -0.33176939281416068 0 0.44213276208268831 -0.32395302223646671 0 0.45552654686805932 -0.31076321016346742 0 0.44213276208268831 -0.32395302223646671 0 0.43523346453006412 -0.31324298639152798 0 0.45552654686805932 -0.31076321016346742 0 0.44782667719983171 -0.33176939281416068 0 0.43523346453006412 -0.31324298639152798 0 0.43121370177890389 -0.32710710042362451 0 0.41953913482854938 -0.31871566704721921 0 0.4380822676864779 -0.33010203498951529 0 0.44213276208268831 -0.32395302223646671 0 0.43121370177890389 -0.32710710042362451 0 0.44213276208268831 -0.32395302223646671 0 0.43523346453006412 -0.31324298639152798 0 0.43121370177890389 -0.32710710042362451 0 0.43121370177890389 -0.32710710042362451 0 0.42126676845500838 -0.34257437091685611 0 0.41953913482854938 -0.31871566704721921 0 0.4380822676864779 -0.33010203498951529 0 0.43121370177890389 -0.32710710042362451 0 0.43630265831332499 -0.33728326944529541 0 0.43121370177890389 -0.32710710042362451 0 0.43630265831332499 -0.33728326944529541 0 0.42126676845500838 -0.34257437091685611 0 0.42126676845500838 -0.34257437091685611 0 0.41953913482854938 -0.31871566704721921 0 0.40993943633841262 -0.33140269303624581 0 0.42126676845500838 -0.34257437091685611 0 0.40542402771717528 -0.35273065791853447 0 0.40993943633841262 -0.33140269303624581 0 0.42126676845500838 -0.34257437091685611 0 0.41953913482854938 -0.31871566704721921 0 0.40993943633841262 -0.33140269303624581 0 0.41953913482854938 -0.31871566704721921 0 0.4063563718651283 -0.30878851302820032 0 0.44207887396653522 -0.36862323417445708 0 0.43329743756150702 -0.36089874775168462 0 0.43135558554929271 -0.37781953458378759 0 0.42299440208146749 -0.36643307478649312 0 0.43329743756150702 -0.36089874775168462 0 0.43135558554929271 -0.37781953458378759 0 0.44252311951893158 -0.35371069459024929 0 0.43630265831332499 -0.33728326944529541 0 0.42126676845500838 -0.34257437091685611 0 0.42126676845500838 -0.34257437091685611 0 0.42299440208146749 -0.36643307478649312 0 0.43329743756150702 -0.36089874775168462 0 0.42126676845500838 -0.34257437091685611 0 0.42299440208146749 -0.36643307478649312 0 0.44252311951893158 -0.35371069459024929 0 0.42126676845500838 -0.34257437091685611 0 0.43329743756150702 -0.36089874775168462 0 0.42126676845500838 -0.34257437091685611 0 0.42299440208146749 -0.36643307478649312 0 0.40542402771717528 -0.35273065791853447 0 0.42299440208146749 -0.36643307478649312 0 0.40542402771717528 -0.35273065791853447 0 0.40128744577089609 -0.37939480265667819 0 0.40542402771717528 -0.35273065791853447 0 0.38258528514980189 -0.36145649973388932 0 0.40128744577089609 -0.37939480265667819 0 0.40542402771717528 -0.35273065791853447 0 0.38258528514980189 -0.36145649973388932 0 0.39447082850746512 -0.33512250638104479 0 0.38258528514980189 -0.36145649973388932 0 0.39447082850746512 -0.33512250638104479 0 0.38258528514980189 -0.36145649973388932 0 0.39447082850746512 -0.33512250638104479 0 0.37569752509385418 -0.34347440278667091 0 0.38258528514980189 -0.36145649973388932 0 0.37069974179213883 -0.38779049308673358 0 0.40993943633841262 -0.33140269303624581 0 0.39447082850746512 -0.33512250638104479 0 0.4063563718651283 -0.30878851302820032 0 0.39447082850746512 -0.33512250638104479 0 0.4063563718651283 -0.30878851302820032 0 0.39106520182084931 -0.31712624523870181 0 0.39447082850746512 -0.33512250638104479 0 0.4063563718651283 -0.30878851302820032 0 0.40993943633841262 -0.33140269303624581 0 0.40542402771717528 -0.35273065791853447 0 0.39447082850746512 -0.33512250638104479 0 0.39447082850746512 -0.33512250638104479 0 0.37569752509385418 -0.34347440278667091 0 0.37407848225316159 -0.32240957863284181 0 0.39106520182084931 -0.31712624523870181 0 0.3893551246576421 -0.30218438291272032 0 0.37407848225316159 -0.32240957863284181 0 0.39106520182084931 -0.31712624523870181 0 0.39447082850746512 -0.33512250638104479 0 0.37407848225316159 -0.32240957863284181 0 0.3893551246576421 -0.30218438291272032 0 0.37407848225316159 -0.32240957863284181 0 0.3893551246576421 -0.30218438291272032 0 0.37521244540613952 -0.28709167689418857 0 0.36843871487598401 -0.30376056575693589 0 0.3893551246576421 -0.30218438291272032 0 0.36843871487598401 -0.30376056575693589 0 0.37407848225316159 -0.32240957863284181 0 0.39106520182084931 -0.31712624523870181 0 0.3893551246576421 -0.30218438291272032 0 0.4063563718651283 -0.30878851302820032 0 0.3893551246576421 -0.30218438291272032 0 0.40397937288634828 -0.29671573026473569 0 0.4063563718651283 -0.30878851302820032 0 0.3893551246576421 -0.30218438291272032 0 0.39218964607724138 -0.28569606199963449 0 0.40397937288634828 -0.29671573026473569 0 0.39218964607724138 -0.28569606199963449 0 0.40397937288634828 -0.29671573026473569 0 0.41106171641090289 -0.28584942560308357 0 0.3893551246576421 -0.30218438291272032 0 0.39218964607724138 -0.28569606199963449 0 0.37521244540613952 -0.28709167689418857 0 0.39218964607724138 -0.28569606199963449 0 0.37521244540613952 -0.28709167689418857 0 0.38486596467396572 -0.27010680074221399 0 0.38486596467396572 -0.27010680074221399 0 0.37886752692166631 -0.25216484870198891 0 0.36464275762557158 -0.26908248316680228 0 0.38486596467396572 -0.27010680074221399 0 0.37886752692166631 -0.25216484870198891 0 0.39820905224024838 -0.255018004095869 0 0.38486596467396572 -0.27010680074221399 0 0.39820905224024838 -0.255018004095869 0 0.40361069132571259 -0.27147749168789681 0 0.39820905224024838 -0.255018004095869 0 0.40361069132571259 -0.27147749168789681 0 0.41636506784681843 -0.25799152138854481 0 0.39218964607724138 -0.28569606199963449 0 0.38486596467396572 -0.27010680074221399 0 0.40361069132571259 -0.27147749168789681 0 0.39218964607724138 -0.28569606199963449 0 0.40361069132571259 -0.27147749168789681 0 0.41106171641090289 -0.28584942560308357 0 0.40361069132571259 -0.27147749168789681 0 0.4189727007050989 -0.27420313629803478 0 0.41106171641090289 -0.28584942560308357 0 0.40361069132571259 -0.27147749168789681 0 0.4189727007050989 -0.27420313629803478 0 0.41636506784681843 -0.25799152138854481 0 0.41073569937309928 -0.2418591416491554 0 0.39820905224024838 -0.255018004095869 0 0.41636506784681843 -0.25799152138854481 0 0.42907761974184638 -0.24548389699355561 0 0.44713074540889142 -0.24750979113369789 0 0.4360506905733873 -0.26632218291994841 0 0.42907761974184638 -0.24548389699355561 0 0.41636506784681843 -0.25799152138854481 0 0.4360506905733873 -0.26632218291994841 0 0.4189727007050989 -0.27420313629803478 0 0.41636506784681843 -0.25799152138854481 0 0.4360506905733873 -0.26632218291994841 0 0.4189727007050989 -0.27420313629803478 0 0.4360506905733873 -0.26632218291994841 0 0.42963316584714661 -0.28619122935530938 0 0.44291556046792502 -0.29737041211646242 0 0.42963316584714661 -0.28619122935530938 0 0.42093400542082637 -0.3010602677800398 0 0.44291556046792502 -0.29737041211646242 0 0.43523346453006412 -0.31324298639152798 0 0.42093400542082637 -0.3010602677800398 0 0.43523346453006412 -0.31324298639152798 0 0.41953913482854938 -0.31871566704721921 0 0.42093400542082637 -0.3010602677800398 0 0.40397937288634828 -0.29671573026473569 0 0.42093400542082637 -0.3010602677800398 0 0.4063563718651283 -0.30878851302820032 0 0.41953913482854938 -0.31871566704721921 0 0.42093400542082637 -0.3010602677800398 0 0.4063563718651283 -0.30878851302820032 0 0.4189727007050989 -0.27420313629803478 0 0.42963316584714661 -0.28619122935530938 0 0.41106171641090289 -0.28584942560308357 0 0.40397937288634828 -0.29671573026473569 0 0.42093400542082637 -0.3010602677800398 0 0.41106171641090289 -0.28584942560308357 0 0.42963316584714661 -0.28619122935530938 0 0.42093400542082637 -0.3010602677800398 0 0.41106171641090289 -0.28584942560308357 0 0.4600821405522002 -0.5 0 0.46269114207352657 -0.4702991624988111 0 0.44445706323311701 -0.46703567953427821 0 0.4600821405522002 -0.5 0 0.44445706323311701 -0.46703567953427821 0 0.42443887178490808 -0.48351783976713952 0 0.4600821405522002 -0.5 0 0.46269114207352657 -0.4702991624988111 0 0.48175010982746319 -0.46360745115954949 0 0.4600821405522002 -0.5 0 0.5 -0.5 0 0.48175010982746319 -0.46360745115954949 0 0.5 -0.5 0 0.48175010982746319 -0.46360745115954949 0 0.50000000000000022 -0.45195553003180677 0 0.46269114207352657 -0.4702991624988111 0 0.48175010982746319 -0.46360745115954949 0 0.46447525468132578 -0.45055351930141679 0 0.50000000000000022 -0.45195553003180677 0 0.47325699856894049 -0.44369030230668471 0 0.48175010982746319 -0.46360745115954949 0 0.50000000000000022 -0.45195553003180677 0 0.47325699856894049 -0.44369030230668471 0 0.50000000000000022 -0.45195553003180677 0 0.47325699856894049 -0.44369030230668471 0 0.4859772742880632 -0.43354621024498402 0 0.48175010982746319 -0.46360745115954949 0 0.47325699856894049 -0.44369030230668471 0 0.46447525468132578 -0.45055351930141679 0 0.46447525468132578 -0.45055351930141679 0 0.44839390925276512 -0.45141962821335752 0 0.44651399713788092 -0.4354250745815631 0 0.47325699856894049 -0.44369030230668471 0 0.46447525468132578 -0.45055351930141679 0 0.44651399713788092 -0.4354250745815631 0 0.47325699856894049 -0.44369030230668471 0 0.44651399713788092 -0.4354250745815631 0 0.46269114207352657 -0.4702991624988111 0 0.46447525468132578 -0.45055351930141679 0 0.44445706323311701 -0.46703567953427821 0 0.46447525468132578 -0.45055351930141679 0 0.44445706323311701 -0.46703567953427821 0 0.46447525468132578 -0.45055351930141679 0 0.44445706323311701 -0.46703567953427821 0 0.44839390925276512 -0.45141962821335752 0 0.44445706323311701 -0.46703567953427821 0 0.44839390925276512 -0.45141962821335752 0 0.42720490662449617 -0.46211328900122117 0 0.44651399713788092 -0.4354250745815631 0 0.42862816230445638 -0.4442355757185496 0 0.44839390925276512 -0.45141962821335752 0 0.44651399713788092 -0.4354250745815631 0 0.42862816230445638 -0.4442355757185496 0 0.44651399713788092 -0.4354250745815631 0 0.44467986376216229 -0.42391790339228019 0 0.45337082540294321 -0.42253917537110652 0 0.44651399713788092 -0.4354250745815631 0 0.43345147589799232 -0.43138795432824178 0 0.44651399713788092 -0.4354250745815631 0 0.4377662323537363 -0.4277875599498166 0 0.43345147589799232 -0.43138795432824178 0 0.44651399713788092 -0.4354250745815631 0 0.4377662323537363 -0.4277875599498166 0 0.44467986376216229 -0.42391790339228019 0 0.4377662323537363 -0.4277875599498166 0 0.44467986376216229 -0.42391790339228019 0 0.43911288303265761 -0.42202442896974252 0 0.43911288303265761 -0.42202442896974252 0 0.44544263231659348 -0.41549031351872939 0 0.43514332279524631 -0.41309269359022538 0 0.44386235035124139 -0.40727505299076522 0 0.44544263231659348 -0.41549031351872939 0 0.46050179482486459 -0.40692920126140009 0 0.44467986376216229 -0.42391790339228019 0 0.43911288303265761 -0.42202442896974252 0 0.44544263231659348 -0.41549031351872939 0 0.44386235035124139 -0.40727505299076522 0 0.44544263231659348 -0.41549031351872939 0 0.43514332279524631 -0.41309269359022538 0 0.44544263231659348 -0.41549031351872939 0 0.46050179482486459 -0.40692920126140009 0 0.45337082540294321 -0.42253917537110652 0 0.44467986376216229 -0.42391790339228019 0 0.44544263231659348 -0.41549031351872939 0 0.45337082540294321 -0.42253917537110652 0 0.46050179482486459 -0.40692920126140009 0 0.46488165256633251 -0.42646588216078668 0 0.45337082540294321 -0.42253917537110652 0 0.44651399713788092 -0.4354250745815631 0 0.46488165256633251 -0.42646588216078668 0 0.44651399713788092 -0.4354250745815631 0 0.46488165256633251 -0.42646588216078668 0 0.45337082540294321 -0.42253917537110652 0 0.47325699856894049 -0.44369030230668471 0 0.44651399713788092 -0.4354250745815631 0 0.46488165256633251 -0.42646588216078668 0 0.46488165256633251 -0.42646588216078668 0 0.4859772742880632 -0.43354621024498402 0 0.48324930799478388 -0.41750668974000982 0 0.47325699856894049 -0.44369030230668471 0 0.46488165256633251 -0.42646588216078668 0 0.4859772742880632 -0.43354621024498402 0 0.46488165256633251 -0.42646588216078668 0 0.48324930799478388 -0.41750668974000982 0 0.4859772742880632 -0.43354621024498402 0 0.49999999999999639 -0.42529568409602292 0 0.48324930799478388 -0.41750668974000982 0 0.50000000000000022 -0.45195553003180677 0 0.4859772742880632 -0.43354621024498402 0 0.49999999999999639 -0.42529568409602292 0 0.49999999999999639 -0.42529568409602292 0 0.50000000000000133 -0.40933620366787571 0 0.48324930799478388 -0.41750668974000982 0 0.50000000000000133 -0.40933620366787571 0 0.48324930799478388 -0.41750668974000982 0 0.49999999999999639 -0.42529568409602292 0 0.48324930799478388 -0.41750668974000982 0 0.50000000000000133 -0.40933620366787571 0 0.48324930799478388 -0.41750668974000982 0 0.47948985553411899 -0.39498117685170803 0 0.46050179482486459 -0.40692920126140009 0 0.46488165256633251 -0.42646588216078668 0 0.48324930799478388 -0.41750668974000982 0 0.46050179482486459 -0.40692920126140009 0 0.48324930799478388 -0.41750668974000982 0 0.46050179482486459 -0.40692920126140009 0 0.48324930799478388 -0.41750668974000982 0 0.47948985553411899 -0.39498117685170803 0 0.50000000000000133 -0.40933620366787571 0 0.47948985553411899 -0.39498117685170803 0 0.5 -0.38908042948501642 0 0.5 -0.36882465530215708 0 0.48616370266838382 -0.37819530917384431 0 0.5 -0.38908042948501642 0 0.47948985553411899 -0.39498117685170803 0 0.48616370266838382 -0.37819530917384431 0 0.5 -0.38908042948501642 0 0.47103531983598212 -0.36990788114819351 0 0.47948985553411899 -0.39498117685170803 0 0.45650214439440118 -0.38578200657754791 0 0.47103531983598212 -0.36990788114819351 0 0.47948985553411899 -0.39498117685170803 0 0.48616370266838382 -0.37819530917384431 0 0.46050179482486459 -0.40692920126140009 0 0.47948985553411899 -0.39498117685170803 0 0.45650214439440118 -0.38578200657754791 0 0.44386235035124139 -0.40727505299076522 0 0.4377542816549449 -0.39635171278279091 0 0.43514332279524631 -0.41309269359022538 0 0.44386235035124139 -0.40727505299076522 0 0.46050179482486459 -0.40692920126140009 0 0.4377542816549449 -0.39635171278279091 0 0.46050179482486459 -0.40692920126140009 0 0.45650214439440118 -0.38578200657754791 0 0.4377542816549449 -0.39635171278279091 0 0.46050179482486459 -0.40692920126140009 0 0.4377542816549449 -0.39635171278279091 0 0.44207887396653522 -0.36862323417445708 0 0.45650214439440118 -0.38578200657754791 0 0.4377542816549449 -0.39635171278279091 0 0.44207887396653522 -0.36862323417445708 0 0.4377542816549449 -0.39635171278279091 0 0.4377542816549449 -0.39635171278279091 0 0.43135558554929271 -0.37781953458378759 0 0.42472203570792438 -0.39029177865613041 0 0.42299440208146749 -0.36643307478649312 0 0.42472203570792438 -0.39029177865613041 0 0.42299440208146749 -0.36643307478649312 0 0.43135558554929271 -0.37781953458378759 0 0.42472203570792438 -0.39029177865613041 0 0.44207887396653522 -0.36862323417445708 0 0.4377542816549449 -0.39635171278279091 0 0.43135558554929271 -0.37781953458378759 0 0.4377542816549449 -0.39635171278279091 0 0.43514332279524631 -0.41309269359022538 0 0.4377542816549449 -0.39635171278279091 0 0.42472203570792438 -0.39029177865613041 0 0.42472203570792438 -0.39029177865613041 0 0.42667509900619149 -0.41726367718733981 0 0.4377542816549449 -0.39635171278279091 0 0.42472203570792438 -0.39029177865613041 0 0.43514332279524631 -0.41309269359022538 0 0.42472203570792438 -0.39029177865613041 0 0.40530141107270917 -0.40140975569202009 0 0.42667509900619149 -0.41726367718733981 0 0.42472203570792438 -0.39029177865613041 0 0.40128744577089609 -0.37939480265667819 0 0.40530141107270917 -0.40140975569202009 0 0.42299440208146749 -0.36643307478649312 0 0.42472203570792438 -0.39029177865613041 0 0.40128744577089609 -0.37939480265667819 0 0.42472203570792438 -0.39029177865613041 0 0.40128744577089609 -0.37939480265667819 0 0.40128744577089609 -0.37939480265667819 0 0.38797407728407562 -0.39080806911856347 0 0.40530141107270917 -0.40140975569202009 0 0.38258528514980189 -0.36145649973388932 0 0.40128744577089609 -0.37939480265667819 0 0.38797407728407562 -0.39080806911856347 0 0.38258528514980189 -0.36145649973388932 0 0.38797407728407562 -0.39080806911856347 0 0.37069974179213883 -0.38779049308673358 0 0.37520219870923138 -0.40282420616277581 0 0.38797407728407562 -0.39080806911856347 0 0.37069974179213883 -0.38779049308673358 0 0.37520219870923138 -0.40282420616277581 0 0.38797407728407562 -0.39080806911856347 0 0.38994693249748608 -0.40347909264934401 0 0.38797407728407562 -0.39080806911856347 0 0.38994693249748608 -0.40347909264934401 0 0.40530141107270917 -0.40140975569202009 0 0.38994693249748608 -0.40347909264934401 0 0.40530141107270917 -0.40140975569202009 0 0.3913100429239284 -0.41887433962401682 0 0.40530141107270917 -0.40140975569202009 0 0.3913100429239284 -0.41887433962401682 0 0.40767611003536358 -0.41811806139715868 0 0.37520219870923138 -0.40282420616277581 0 0.38994693249748608 -0.40347909264934401 0 0.3913100429239284 -0.41887433962401682 0 0.37520219870923138 -0.40282420616277581 0 0.3913100429239284 -0.41887433962401682 0 0.37626827811659902 -0.41930343605738468 0 0.37520219870923138 -0.40282420616277581 0 0.3913100429239284 -0.41887433962401682 0 0.37626827811659902 -0.41930343605738468 0 0.38268753144503459 -0.4329416642502556 0 0.36618746525528889 -0.43065258927467798 0 0.3913100429239284 -0.41887433962401682 0 0.37626827811659902 -0.41930343605738468 0 0.38268753144503459 -0.4329416642502556 0 0.3913100429239284 -0.41887433962401682 0 0.40741788713862542 -0.43492447308525789 0 0.40767611003536358 -0.41811806139715868 0 0.3913100429239284 -0.41887433962401682 0 0.38268753144503459 -0.4329416642502556 0 0.40741788713862542 -0.43492447308525789 0 0.3913100429239284 -0.41887433962401682 0 0.40741788713862542 -0.43492447308525789 0 0.40741788713862542 -0.43492447308525789 0 0.40767611003536358 -0.41811806139715868 0 0.42667509900619149 -0.41726367718733981 0 0.40741788713862542 -0.43492447308525789 0 0.42667509900619149 -0.41726367718733981 0 0.42862816230445638 -0.4442355757185496 0 0.40530141107270917 -0.40140975569202009 0 0.40767611003536358 -0.41811806139715868 0 0.42667509900619149 -0.41726367718733981 0 0.43514332279524631 -0.41309269359022538 0 0.43253236393554939 -0.42983367439766029 0 0.42667509900619149 -0.41726367718733981 0 0.43514332279524631 -0.41309269359022538 0 0.43253236393554939 -0.42983367439766029 0 0.43911288303265761 -0.42202442896974252 0 0.43514332279524631 -0.41309269359022538 0 0.43253236393554939 -0.42983367439766029 0 0.42472203570792438 -0.39029177865613041 0 0.42667509900619149 -0.41726367718733981 0 0.43514332279524631 -0.41309269359022538 0 0.42667509900619149 -0.41726367718733981 0 0.43253236393554939 -0.42983367439766029 0 0.42862816230445638 -0.4442355757185496 0 0.44651399713788092 -0.4354250745815631 0 0.43345147589799232 -0.43138795432824178 0 0.42862816230445638 -0.4442355757185496 0 0.42667509900619149 -0.41726367718733981 0 0.42862816230445638 -0.4442355757185496 0 0.4377662323537363 -0.4277875599498166 0 0.43253236393554939 -0.42983367439766029 0 0.43345147589799232 -0.43138795432824178 0 0.4377662323537363 -0.4277875599498166 0 0.43911288303265761 -0.42202442896974252 0 0.43253236393554939 -0.42983367439766029 0 0.43253236393554939 -0.42983367439766029 0 0.43345147589799232 -0.43138795432824178 0 0.42862816230445638 -0.4442355757185496 0 0.44839390925276512 -0.45141962821335752 0 0.42862816230445638 -0.4442355757185496 0 0.42720490662449617 -0.46211328900122117 0 0.42862816230445638 -0.4442355757185496 0 0.42720490662449617 -0.46211328900122117 0 0.41034647743679631 -0.45306650789603709 0 0.42720490662449617 -0.46211328900122117 0 0.41034647743679631 -0.45306650789603709 0 0.40871122471188098 -0.47272285534738467 0 0.40741788713862542 -0.43492447308525789 0 0.42862816230445638 -0.4442355757185496 0 0.41034647743679631 -0.45306650789603709 0 0.42862816230445638 -0.4442355757185496 0 0.41034647743679631 -0.45306650789603709 0 0.40741788713862542 -0.43492447308525789 0 0.41034647743679631 -0.45306650789603709 0 0.38991448149355268 -0.44705736448128619 0 0.38268753144503459 -0.4329416642502556 0 0.40741788713862542 -0.43492447308525789 0 0.38991448149355268 -0.44705736448128619 0 0.38268753144503459 -0.4329416642502556 0 0.38991448149355268 -0.44705736448128619 0 0.37130612907440658 -0.45555794466890681 0 0.38991448149355268 -0.44705736448128619 0 0.39473875099270261 -0.4609465703672817 0 0.37130612907440658 -0.45555794466890681 0 0.39473875099270261 -0.4609465703672817 0 0.38881987994449368 -0.47705767066246418 0 0.37130612907440658 -0.45555794466890681 0 0.41034647743679631 -0.45306650789603709 0 0.38991448149355268 -0.44705736448128619 0 0.39473875099270261 -0.4609465703672817 0 0.41034647743679631 -0.45306650789603709 0 0.39473875099270261 -0.4609465703672817 0 0.40871122471188098 -0.47272285534738467 0 0.39473875099270261 -0.4609465703672817 0 0.38881987994449368 -0.47705767066246418 0 0.40871122471188098 -0.47272285534738467 0 0.38881987994449368 -0.47705767066246418 0 0.40442068033669898 -0.50000000000000044 0 0.40871122471188098 -0.47272285534738467 0 0.38881987994449368 -0.47705767066246418 0 0.37058477928798761 -0.48102270142472647 0 0.37130612907440658 -0.45555794466890681 0 0.38881987994449368 -0.47705767066246418 0 0.37628784787705422 -0.5 0 0.37058477928798761 -0.48102270142472647 0 0.38881987994449368 -0.47705767066246418 0 0.37628784787705422 -0.5 0 0.40442068033669898 -0.50000000000000044 0 0.4600821405522002 -0.5 0 0.40442068033669898 -0.50000000000000044 0 0.42443887178490808 -0.48351783976713952 0 0.40442068033669898 -0.50000000000000044 0 0.40871122471188098 -0.47272285534738467 0 0.42443887178490808 -0.48351783976713952 0 0.40442068033669898 -0.50000000000000044 0 0.42443887178490808 -0.48351783976713952 0 0.42720490662449617 -0.46211328900122117 0 0.40871122471188098 -0.47272285534738467 0 0.42443887178490808 -0.48351783976713952 0 0.44445706323311701 -0.46703567953427821 0 0.42720490662449617 -0.46211328900122117 0 0.42443887178490808 -0.48351783976713952 0 0.44445706323311701 -0.46703567953427821 0 0.42443887178490808 -0.48351783976713952 0 0.3200221829577643 -0.5 0 0.32683456390664428 -0.4746797152837039 0 0.30769667062137501 -0.48775462718203932 0 0.3200221829577643 -0.5 0 0.32683456390664428 -0.4746797152837039 0 0.33705914316745822 -0.48719360400311351 0 0.32683456390664428 -0.4746797152837039 0 0.31093500714395278 -0.46942495198764189 0 0.30769667062137501 -0.48775462718203932 0 0.32683456390664428 -0.4746797152837039 0 0.33705914316745822 -0.48719360400311351 0 0.35322481038801518 -0.47409470072874998 0 0.32683456390664428 -0.4746797152837039 0 0.35322481038801518 -0.47409470072874998 0 0.34647557101018189 -0.45850217332040749 0 0.3200221829577643 -0.5 0 0.33705914316745822 -0.48719360400311351 0 0.34815501541740912 -0.5 0 0.33705914316745822 -0.48719360400311351 0 0.34815501541740912 -0.5 0 0.35322481038801518 -0.47409470072874998 0 0.34815501541740912 -0.5 0 0.37058477928798761 -0.48102270142472647 0 0.35322481038801518 -0.47409470072874998 0 0.37628784787705422 -0.5 0 0.34815501541740912 -0.5 0 0.37058477928798761 -0.48102270142472647 0 0.37058477928798761 -0.48102270142472647 0 0.35322481038801518 -0.47409470072874998 0 0.37130612907440658 -0.45555794466890681 0 0.35322481038801518 -0.47409470072874998 0 0.34647557101018189 -0.45850217332040749 0 0.37130612907440658 -0.45555794466890681 0 0.37130612907440658 -0.45555794466890681 0 0.3512990069624799 -0.44338297976015911 0 0.36618746525528889 -0.43065258927467798 0 0.38268753144503459 -0.4329416642502556 0 0.37130612907440658 -0.45555794466890681 0 0.36618746525528889 -0.43065258927467798 0 0.34647557101018189 -0.45850217332040749 0 0.37130612907440658 -0.45555794466890681 0 0.3512990069624799 -0.44338297976015911 0 0.34647557101018189 -0.45850217332040749 0 0.3512990069624799 -0.44338297976015911 0 0.32971334471936392 -0.44479552616051821 0 0.3512990069624799 -0.44338297976015911 0 0.32971334471936392 -0.44479552616051821 0 0.34960309801384543 -0.42551511854420482 0 0.32683456390664428 -0.4746797152837039 0 0.32971334471936392 -0.44479552616051821 0 0.32683456390664428 -0.4746797152837039 0 0.34647557101018189 -0.45850217332040749 0 0.32971334471936392 -0.44479552616051821 0 0.32683456390664428 -0.4746797152837039 0 0.32971334471936392 -0.44479552616051821 0 0.31444392168173951 -0.45780627352081621 0 0.32683456390664428 -0.4746797152837039 0 0.31444392168173951 -0.45780627352081621 0 0.31093500714395278 -0.46942495198764189 0 0.32971334471936392 -0.44479552616051821 0 0.31444392168173951 -0.45780627352081621 0 0.30764922823954521 -0.44009899564950872 0 0.32971334471936392 -0.44479552616051821 0 0.3325921255320835 -0.41491133703733268 0 0.31187365642644888 -0.42032479200861789 0 0.32971334471936392 -0.44479552616051821 0 0.31187365642644888 -0.42032479200861789 0 0.30764922823954521 -0.44009899564950872 0 0.3325921255320835 -0.41491133703733268 0 0.32066082868313411 -0.40151305092277062 0 0.31187365642644888 -0.42032479200861789 0 0.32066082868313411 -0.40151305092277062 0 0.30586717152789122 -0.40101523306954978 0 0.31187365642644888 -0.42032479200861789 0 0.32971334471936392 -0.44479552616051821 0 0.3325921255320835 -0.41491133703733268 0 0.32971334471936392 -0.44479552616051821 0 0.3325921255320835 -0.41491133703733268 0 0.34960309801384543 -0.42551511854420482 0 0.3512990069624799 -0.44338297976015911 0 0.34960309801384543 -0.42551511854420482 0 0.36618746525528889 -0.43065258927467798 0 0.34960309801384543 -0.42551511854420482 0 0.36618746525528889 -0.43065258927467798 0 0.36321767375494651 -0.41480275529176941 0 0.37520219870923138 -0.40282420616277581 0 0.37626827811659902 -0.41930343605738468 0 0.36321767375494651 -0.41480275529176941 0 0.37626827811659902 -0.41930343605738468 0 0.36618746525528889 -0.43065258927467798 0 0.36321767375494651 -0.41480275529176941 0 0.37520219870923138 -0.40282420616277581 0 0.36321767375494651 -0.41480275529176941 0 0.36006594333357761 -0.40132348093148679 0 0.3325921255320835 -0.41491133703733268 0 0.34960309801384543 -0.42551511854420482 0 0.35197905910113692 -0.40919770078008599 0 0.34960309801384543 -0.42551511854420482 0 0.36321767375494651 -0.41480275529176941 0 0.35197905910113692 -0.40919770078008599 0 0.36321767375494651 -0.41480275529176941 0 0.35197905910113692 -0.40919770078008599 0 0.36006594333357761 -0.40132348093148679 0 0.3325921255320835 -0.41491133703733268 0 0.35197905910113692 -0.40919770078008599 0 0.34809995211347361 -0.39659704403784019 0 0.34809995211347361 -0.39659704403784019 0 0.36006594333357761 -0.40132348093148679 0 0.35909435449453442 -0.38677407270153469 0 0.35197905910113692 -0.40919770078008599 0 0.34809995211347361 -0.39659704403784019 0 0.36006594333357761 -0.40132348093148679 0 0.37520219870923138 -0.40282420616277581 0 0.37069974179213883 -0.38779049308673358 0 0.35909435449453442 -0.38677407270153469 0 0.37520219870923138 -0.40282420616277581 0 0.36006594333357761 -0.40132348093148679 0 0.35909435449453442 -0.38677407270153469 0 0.37520219870923138 -0.40282420616277581 0 0.35909435449453442 -0.38677407270153469 0 0.38258528514980189 -0.36145649973388932 0 0.37069974179213883 -0.38779049308673358 0 0.3659025119431405 -0.37624217559856521 0 0.37069974179213883 -0.38779049308673358 0 0.3659025119431405 -0.37624217559856521 0 0.35909435449453442 -0.38677407270153469 0 0.3659025119431405 -0.37624217559856521 0 0.35909435449453442 -0.38677407270153469 0 0.35634722133757141 -0.37383802503105618 0 0.35909435449453442 -0.38677407270153469 0 0.34298651027983751 -0.37072393924029368 0 0.35909435449453442 -0.38677407270153469 0 0.35634722133757141 -0.37383802503105618 0 0.34298651027983751 -0.37072393924029368 0 0.35909435449453442 -0.38677407270153469 0 0.34662627533715529 -0.38454607973562421 0 0.34298651027983751 -0.37072393924029368 0 0.34809995211347361 -0.39659704403784019 0 0.35909435449453442 -0.38677407270153469 0 0.34662627533715529 -0.38454607973562421 0 0.34662627533715529 -0.38454607973562421 0 0.33547090634480309 -0.38502714791414711 0 0.34298651027983751 -0.37072393924029368 0 0.34809995211347361 -0.39659704403784019 0 0.34662627533715529 -0.38454607973562421 0 0.33547090634480309 -0.38502714791414711 0 0.3325921255320835 -0.41491133703733268 0 0.34809995211347361 -0.39659704403784019 0 0.33547090634480309 -0.38502714791414711 0 0.3325921255320835 -0.41491133703733268 0 0.33547090634480309 -0.38502714791414711 0 0.32066082868313411 -0.40151305092277062 0 0.3325921255320835 -0.41491133703733268 0 0.33547090634480309 -0.38502714791414711 0 0.33547090634480309 -0.38502714791414711 0 0.32066082868313411 -0.40151305092277062 0 0.31750028358444382 -0.38628674458420531 0 0.32066082868313411 -0.40151305092277062 0 0.31750028358444382 -0.38628674458420531 0 0.30586717152789122 -0.40101523306954978 0 0.33547090634480309 -0.38502714791414711 0 0.31750028358444382 -0.38628674458420531 0 0.32556797025386908 -0.37664135955192879 0 0.31750028358444382 -0.38628674458420531 0 0.32556797025386908 -0.37664135955192879 0 0.31096887938343692 -0.37506721222386008 0 0.30029016106079992 -0.38522406234926521 0 0.31096887938343692 -0.37506721222386008 0 0.29653090866594872 -0.36948118563515842 0 0.31750028358444382 -0.38628674458420531 0 0.30029016106079992 -0.38522406234926521 0 0.31096887938343692 -0.37506721222386008 0 0.31750028358444382 -0.38628674458420531 0 0.30029016106079992 -0.38522406234926521 0 0.30586717152789122 -0.40101523306954978 0 0.30029016106079992 -0.38522406234926521 0 0.30586717152789122 -0.40101523306954978 0 0.28881284904684568 -0.39601504423805989 0 0.28881284904684568 -0.39601504423805989 0 0.27586905195482397 -0.40458728120404708 0 0.29419997027385231 -0.41112184193408302 0 0.30586717152789122 -0.40101523306954978 0 0.28881284904684568 -0.39601504423805989 0 0.29419997027385231 -0.41112184193408302 0 0.30029016106079992 -0.38522406234926521 0 0.28881284904684568 -0.39601504423805989 0 0.28424214224385602 -0.38063321462489508 0 0.28881284904684568 -0.39601504423805989 0 0.28424214224385602 -0.38063321462489508 0 0.27277253672946139 -0.39270725951697322 0 0.30029016106079992 -0.38522406234926521 0 0.28424214224385602 -0.38063321462489508 0 0.29653090866594872 -0.36948118563515842 0 0.26957508344827019 -0.3756085318561983 0 0.26129171372512539 -0.38835823376752471 0 0.27277253672946139 -0.39270725951697322 0 0.28424214224385602 -0.38063321462489508 0 0.26957508344827019 -0.3756085318561983 0 0.27277253672946139 -0.39270725951697322 0 0.26957508344827019 -0.3756085318561983 0 0.26129171372512539 -0.38835823376752471 0 0.25368076558034403 -0.3666666575654437 0 0.26129171372512539 -0.38835823376752471 0 0.25368076558034403 -0.3666666575654437 0 0.26129171372512539 -0.38835823376752471 0 0.25368076558034403 -0.3666666575654437 0 0.24165879674961649 -0.38427817806658698 0 0.26129171372512539 -0.38835823376752471 0 0.26890266186990702 -0.41004980996960583 0 0.26129171372512539 -0.38835823376752471 0 0.25314414183579881 -0.40404289189138931 0 0.24165879674961649 -0.38427817806658698 0 0.26129171372512539 -0.38835823376752471 0 0.25314414183579881 -0.40404289189138931 0 0.26890266186990702 -0.41004980996960583 0 0.26129171372512539 -0.38835823376752471 0 0.27277253672946139 -0.39270725951697322 0 0.26890266186990702 -0.41004980996960583 0 0.27277253672946139 -0.39270725951697322 0 0.27586905195482397 -0.40458728120404708 0 0.26890266186990702 -0.41004980996960583 0 0.28881284904684568 -0.39601504423805989 0 0.27277253672946139 -0.39270725951697322 0 0.27586905195482397 -0.40458728120404708 0 0.27586905195482397 -0.40458728120404708 0 0.28647825817700773 -0.43230972986337801 0 0.27586905195482397 -0.40458728120404708 0 0.27264806065741209 -0.42355757184453069 0 0.28647825817700773 -0.43230972986337801 0 0.27586905195482397 -0.40458728120404708 0 0.26890266186990702 -0.41004980996960583 0 0.27264806065741209 -0.42355757184453069 0 0.26890266186990702 -0.41004980996960583 0 0.25914236676116409 -0.41980472288301313 0 0.27264806065741209 -0.42355757184453069 0 0.25314414183579881 -0.40404289189138931 0 0.26890266186990702 -0.41004980996960583 0 0.25914236676116409 -0.41980472288301313 0 0.25314414183579881 -0.40404289189138931 0 0.25914236676116409 -0.41980472288301313 0 0.24891616791737281 -0.41467410268550642 0 0.25914236676116409 -0.41980472288301313 0 0.24668501867356429 -0.42548152538770062 0 0.24891616791737281 -0.41467410268550642 0 0.26007660761145729 -0.43305828831967308 0 0.24668501867356429 -0.42548152538770062 0 0.24789079824018989 -0.43723785773929452 0 0.25914236676116409 -0.41980472288301313 0 0.26007660761145729 -0.43305828831967308 0 0.24668501867356429 -0.42548152538770062 0 0.25914236676116409 -0.41980472288301313 0 0.26007660761145729 -0.43305828831967308 0 0.27264806065741209 -0.42355757184453069 0 0.26007660761145729 -0.43305828831967308 0 0.27264806065741209 -0.42355757184453069 0 0.27396057499287768 -0.44121973452599278 0 0.27264806065741209 -0.42355757184453069 0 0.28647825817700773 -0.43230972986337801 0 0.27396057499287768 -0.44121973452599278 0 0.27586905195482397 -0.40458728120404708 0 0.28647825817700773 -0.43230972986337801 0 0.29419997027385231 -0.41112184193408302 0 0.30586717152789122 -0.40101523306954978 0 0.29419997027385231 -0.41112184193408302 0 0.31187365642644888 -0.42032479200861789 0 0.28647825817700773 -0.43230972986337801 0 0.29419997027385231 -0.41112184193408302 0 0.31187365642644888 -0.42032479200861789 0 0.28647825817700773 -0.43230972986337801 0 0.31187365642644888 -0.42032479200861789 0 0.30764922823954521 -0.44009899564950872 0 0.31444392168173951 -0.45780627352081621 0 0.30764922823954521 -0.44009899564950872 0 0.29708746439919143 -0.46003217852270861 0 0.28647825817700773 -0.43230972986337801 0 0.30764922823954521 -0.44009899564950872 0 0.29708746439919143 -0.46003217852270861 0 0.31444392168173951 -0.45780627352081621 0 0.29708746439919143 -0.46003217852270861 0 0.31093500714395278 -0.46942495198764189 0 0.29036684045384992 -0.45255851924634072 0 0.27310531584362302 -0.45753941609774701 0 0.29708746439919143 -0.46003217852270861 0 0.28478085006279852 -0.46695085010589071 0 0.29036684045384992 -0.45255851924634072 0 0.28478085006279852 -0.46695085010589071 0 0.29036684045384992 -0.45255851924634072 0 0.27310531584362302 -0.45753941609774701 0 0.29708746439919143 -0.46003217852270861 0 0.28478085006279852 -0.46695085010589071 0 0.2954492896694586 -0.47344947329177423 0 0.28647825817700773 -0.43230972986337801 0 0.29036684045384992 -0.45255851924634072 0 0.27396057499287768 -0.44121973452599278 0 0.28647825817700773 -0.43230972986337801 0 0.29708746439919143 -0.46003217852270861 0 0.29036684045384992 -0.45255851924634072 0 0.28647825817700773 -0.43230972986337801 0 0.29708746439919143 -0.46003217852270861 0 0.27396057499287768 -0.44121973452599278 0 0.25810627303977102 -0.44645190914086819 0 0.27310531584362302 -0.45753941609774701 0 0.29036684045384992 -0.45255851924634072 0 0.27396057499287768 -0.44121973452599278 0 0.27310531584362302 -0.45753941609774701 0 0.26007660761145729 -0.43305828831967308 0 0.27396057499287768 -0.44121973452599278 0 0.25810627303977102 -0.44645190914086819 0 0.25810627303977102 -0.44645190914086819 0 0.25584379123339529 -0.46252031294915069 0 0.2434766277031844 -0.44790595959912688 0 0.26007660761145729 -0.43305828831967308 0 0.25810627303977102 -0.44645190914086819 0 0.24789079824018989 -0.43723785773929452 0 0.25584379123339529 -0.46252031294915069 0 0.27310531584362302 -0.45753941609774701 0 0.25810627303977102 -0.44645190914086819 0 0.25584379123339529 -0.46252031294915069 0 0.27310531584362302 -0.45753941609774701 0 0.28478085006279852 -0.46695085010589071 0 0.27310531584362302 -0.45753941609774701 0 0.26925157476063988 -0.47836437336195903 0 0.25584379123339529 -0.46252031294915069 0 0.27310531584362302 -0.45753941609774701 0 0.26925157476063988 -0.47836437336195903 0 0.28478085006279852 -0.46695085010589071 0 0.26925157476063988 -0.47836437336195903 0 0.2838918785092977 -0.48219542976934948 0 0.25584379123339529 -0.46252031294915069 0 0.26925157476063988 -0.47836437336195903 0 0.24785323357605379 -0.48254105613309028 0 0.25584379123339529 -0.46252031294915069 0 0.26925157476063988 -0.47836437336195903 0 0.26925157476063988 -0.47836437336195903 0 0.26375651803847439 -0.5 0 0.24785323357605379 -0.48254105613309028 0 0.26925157476063988 -0.47836437336195903 0 0.26375651803847439 -0.5 0 0.28265935828788369 -0.49420843377476792 0 0.26925157476063988 -0.47836437336195903 0 0.28265935828788369 -0.49420843377476792 0 0.2838918785092977 -0.48219542976934948 0 0.26375651803847439 -0.5 0 0.28265935828788369 -0.49420843377476792 0 0.29188935049811943 -0.5 0 0.26925157476063988 -0.47836437336195903 0 0.28265935828788369 -0.49420843377476792 0 0.28265935828788369 -0.49420843377476792 0 0.29188935049811943 -0.5 0 0.29157039080572622 -0.48898461003753663 0 0.28265935828788369 -0.49420843377476792 0 0.29157039080572622 -0.48898461003753663 0 0.2838918785092977 -0.48219542976934948 0 0.28478085006279852 -0.46695085010589071 0 0.2838918785092977 -0.48219542976934948 0 0.29223217359446979 -0.47906023735645847 0 0.28478085006279852 -0.46695085010589071 0 0.2954492896694586 -0.47344947329177423 0 0.29223217359446979 -0.47906023735645847 0 0.29157039080572622 -0.48898461003753663 0 0.2838918785092977 -0.48219542976934948 0 0.29223217359446979 -0.47906023735645847 0 0.29708746439919143 -0.46003217852270861 0 0.31093500714395278 -0.46942495198764189 0 0.30769667062137501 -0.48775462718203932 0 0.29708746439919143 -0.46003217852270861 0 0.2954492896694586 -0.47344947329177423 0 0.30769667062137501 -0.48775462718203932 0 0.2954492896694586 -0.47344947329177423 0 0.29223217359446979 -0.47906023735645847 0 0.30769667062137501 -0.48775462718203932 0 0.29708746439919143 -0.46003217852270861 0 0.30769667062137501 -0.48775462718203932 0 0.29188935049811943 -0.5 0 0.29157039080572622 -0.48898461003753663 0 0.30769667062137501 -0.48775462718203932 0 0.3200221829577643 -0.5 0 0.29188935049811943 -0.5 0 0.30769667062137501 -0.48775462718203932 0 0.29157039080572622 -0.48898461003753663 0 0.29223217359446979 -0.47906023735645847 0 0.30769667062137501 -0.48775462718203932 0 0.3358029693889768 -0.282903394515436 0 0.32919667246924211 -0.29734678339753889 0 0.35250960459140818 -0.29023598621647739 0 0.32919667246924211 -0.29734678339753889 0 0.32935379094384398 -0.32347953568535021 0 0.3077025437340965 -0.30039205508190669 0 0.32919667246924211 -0.29734678339753889 0 0.31930722929454991 -0.2753724996752851 0 0.3077025437340965 -0.30039205508190669 0 0.3358029693889768 -0.282903394515436 0 0.32919667246924211 -0.29734678339753889 0 0.31930722929454991 -0.2753724996752851 0 0.32804704842099708 -0.24781559642289699 0 0.31930722929454991 -0.2753724996752851 0 0.30260791946243593 -0.25483274280955842 0 0.32804704842099708 -0.24781559642289699 0 0.35774973656779391 -0.2469158867888849 0 0.34219837120070717 -0.26865830877244262 0 0.32804704842099708 -0.24781559642289699 0 0.31930722929454991 -0.2753724996752851 0 0.34219837120070717 -0.26865830877244262 0 0.3358029693889768 -0.282903394515436 0 0.31930722929454991 -0.2753724996752851 0 0.34219837120070717 -0.26865830877244262 0 0.3358029693889768 -0.282903394515436 0 0.34219837120070717 -0.26865830877244262 0 0.35250960459140818 -0.29023598621647739 0 0.34219837120070717 -0.26865830877244262 0 0.36464275762557158 -0.26908248316680228 0 0.35250960459140818 -0.29023598621647739 0 0.35774973656779391 -0.2469158867888849 0 0.34219837120070717 -0.26865830877244262 0 0.36464275762557158 -0.26908248316680228 0 0.35774973656779391 -0.2469158867888849 0 0.37886752692166631 -0.25216484870198891 0 0.36464275762557158 -0.26908248316680228 0 0.37521244540613952 -0.28709167689418857 0 0.38486596467396572 -0.27010680074221399 0 0.36464275762557158 -0.26908248316680228 0 0.37521244540613952 -0.28709167689418857 0 0.35250960459140818 -0.29023598621647739 0 0.36843871487598401 -0.30376056575693589 0 0.37521244540613952 -0.28709167689418857 0 0.36464275762557158 -0.26908248316680228 0 0.35250960459140818 -0.29023598621647739 0 0.32919667246924211 -0.29734678339753889 0 0.35250960459140818 -0.29023598621647739 0 0.35103791747156882 -0.31688120412845139 0 0.35250960459140818 -0.29023598621647739 0 0.36843871487598401 -0.30376056575693589 0 0.35103791747156882 -0.31688120412845139 0 0.37407848225316159 -0.32240957863284181 0 0.35880183984868119 -0.3426347743529633 0 0.35103791747156882 -0.31688120412845139 0 0.36843871487598401 -0.30376056575693589 0 0.37407848225316159 -0.32240957863284181 0 0.35103791747156882 -0.31688120412845139 0 0.37569752509385418 -0.34347440278667091 0 0.37407848225316159 -0.32240957863284181 0 0.35880183984868119 -0.3426347743529633 0 0.37407848225316159 -0.32240957863284181 0 0.35880183984868119 -0.3426347743529633 0 0.35880183984868119 -0.3426347743529633 0 0.35103791747156882 -0.31688120412845139 0 0.34166352012260881 -0.33654900865045279 0 0.38258528514980189 -0.36145649973388932 0 0.3659025119431405 -0.37624217559856521 0 0.36169600705739452 -0.36805511752317838 0 0.38258528514980189 -0.36145649973388932 0 0.36169600705739452 -0.36805511752317838 0 0.35952763699554241 -0.35635987553765902 0 0.3659025119431405 -0.37624217559856521 0 0.36169600705739452 -0.36805511752317838 0 0.35634722133757141 -0.37383802503105618 0 0.37569752509385418 -0.34347440278667091 0 0.35880183984868119 -0.3426347743529633 0 0.35952763699554241 -0.35635987553765902 0 0.38258528514980189 -0.36145649973388932 0 0.37569752509385418 -0.34347440278667091 0 0.35952763699554241 -0.35635987553765902 0 0.35880183984868119 -0.3426347743529633 0 0.33834968715752273 -0.35514295879096158 0 0.34166352012260881 -0.33654900865045279 0 0.35880183984868119 -0.3426347743529633 0 0.35952763699554241 -0.35635987553765902 0 0.34352519744420063 -0.3628599700730849 0 0.35880183984868119 -0.3426347743529633 0 0.34352519744420063 -0.3628599700730849 0 0.35880183984868119 -0.3426347743529633 0 0.34352519744420063 -0.3628599700730849 0 0.33834968715752273 -0.35514295879096158 0 0.35952763699554241 -0.35635987553765902 0 0.35205672291294959 -0.3673948200917091 0 0.34352519744420063 -0.3628599700730849 0 0.36169600705739452 -0.36805511752317838 0 0.35952763699554241 -0.35635987553765902 0 0.35205672291294959 -0.3673948200917091 0 0.35205672291294959 -0.3673948200917091 0 0.34298651027983751 -0.37072393924029368 0 0.34352519744420063 -0.3628599700730849 0 0.35205672291294959 -0.3673948200917091 0 0.35634722133757141 -0.37383802503105618 0 0.34298651027983751 -0.37072393924029368 0 0.36169600705739452 -0.36805511752317838 0 0.35205672291294959 -0.3673948200917091 0 0.35634722133757141 -0.37383802503105618 0 0.32556797025386908 -0.37664135955192879 0 0.33834968715752273 -0.35514295879096158 0 0.3219466293733681 -0.36581610235605178 0 0.33547090634480309 -0.38502714791414711 0 0.32556797025386908 -0.37664135955192879 0 0.33834968715752273 -0.35514295879096158 0 0.33547090634480309 -0.38502714791414711 0 0.33834968715752273 -0.35514295879096158 0 0.33547090634480309 -0.38502714791414711 0 0.34298651027983751 -0.37072393924029368 0 0.33834968715752273 -0.35514295879096158 0 0.34298651027983751 -0.37072393924029368 0 0.34352519744420063 -0.3628599700730849 0 0.33834968715752273 -0.35514295879096158 0 0.33834968715752273 -0.35514295879096158 0 0.32422421832873999 -0.35347906993912148 0 0.3219466293733681 -0.36581610235605178 0 0.33834968715752273 -0.35514295879096158 0 0.3307743651914275 -0.34460657029453751 0 0.34166352012260881 -0.33654900865045279 0 0.33834968715752273 -0.35514295879096158 0 0.3307743651914275 -0.34460657029453751 0 0.32422421832873999 -0.35347906993912148 0 0.31660037201319852 -0.34384256697493798 0 0.32422421832873999 -0.35347906993912148 0 0.3110970863181422 -0.35982096681604891 0 0.3307743651914275 -0.34460657029453751 0 0.31660037201319852 -0.34384256697493798 0 0.32422421832873999 -0.35347906993912148 0 0.32422421832873999 -0.35347906993912148 0 0.3219466293733681 -0.36581610235605178 0 0.3110970863181422 -0.35982096681604891 0 0.31096887938343692 -0.37506721222386008 0 0.3219466293733681 -0.36581610235605178 0 0.3110970863181422 -0.35982096681604891 0 0.32556797025386908 -0.37664135955192879 0 0.31096887938343692 -0.37506721222386008 0 0.3219466293733681 -0.36581610235605178 0 0.32919667246924211 -0.29734678339753889 0 0.35103791747156882 -0.31688120412845139 0 0.32935379094384398 -0.32347953568535021 0 0.35103791747156882 -0.31688120412845139 0 0.32935379094384398 -0.32347953568535021 0 0.34166352012260881 -0.33654900865045279 0 0.3307743651914275 -0.34460657029453751 0 0.32935379094384398 -0.32347953568535021 0 0.34166352012260881 -0.33654900865045279 0 0.3307743651914275 -0.34460657029453751 0 0.31660037201319852 -0.34384256697493798 0 0.32935379094384398 -0.32347953568535021 0 0.31660037201319852 -0.34384256697493798 0 0.32935379094384398 -0.32347953568535021 0 0.30236519808565332 -0.33042736890417429 0 0.32935379094384398 -0.32347953568535021 0 0.30236519808565332 -0.33042736890417429 0 0.32935379094384398 -0.32347953568535021 0 0.30236519808565332 -0.33042736890417429 0 0.3077025437340965 -0.30039205508190669 0 0.31660037201319852 -0.34384256697493798 0 0.30236519808565332 -0.33042736890417429 0 0.29761932340872033 -0.35031721859821252 0 0.30236519808565332 -0.33042736890417429 0 0.27537660522746271 -0.33737520212299837 0 0.30236519808565332 -0.33042736890417429 0 0.29761932340872033 -0.35031721859821252 0 0.27537660522746271 -0.33737520212299837 0 0.30236519808565332 -0.33042736890417429 0 0.27281775320725749 -0.31387814606404713 0 0.27537660522746271 -0.33737520212299837 0 0.30236519808565332 -0.33042736890417429 0 0.27281775320725749 -0.31387814606404713 0 0.28886344475937697 -0.3022317661409184 0 0.3110970863181422 -0.35982096681604891 0 0.29761932340872033 -0.35031721859821252 0 0.29653090866594872 -0.36948118563515842 0 0.31096887938343692 -0.37506721222386008 0 0.3110970863181422 -0.35982096681604891 0 0.29653090866594872 -0.36948118563515842 0 0.31660037201319852 -0.34384256697493798 0 0.3110970863181422 -0.35982096681604891 0 0.29761932340872033 -0.35031721859821252 0 0.29761932340872033 -0.35031721859821252 0 0.27713167804081179 -0.36184025158391342 0 0.27537660522746271 -0.33737520212299837 0 0.29761932340872033 -0.35031721859821252 0 0.29653090866594872 -0.36948118563515842 0 0.27713167804081179 -0.36184025158391342 0 0.28424214224385602 -0.38063321462489508 0 0.29653090866594872 -0.36948118563515842 0 0.27713167804081179 -0.36184025158391342 0 0.26957508344827019 -0.3756085318561983 0 0.27713167804081179 -0.36184025158391342 0 0.25368076558034403 -0.3666666575654437 0 0.28424214224385602 -0.38063321462489508 0 0.26957508344827019 -0.3756085318561983 0 0.27713167804081179 -0.36184025158391342 0 0.27713167804081179 -0.36184025158391342 0 0.2636442653044726 -0.35255128665354452 0 0.27537660522746271 -0.33737520212299837 0 0.2636442653044726 -0.35255128665354452 0 0.27537660522746271 -0.33737520212299837 0 0.2483880123692721 -0.34432303534182251 0 0.2636442653044726 -0.35255128665354452 0 0.25368076558034403 -0.3666666575654437 0 0.2483880123692721 -0.34432303534182251 0 0.27713167804081179 -0.36184025158391342 0 0.2636442653044726 -0.35255128665354452 0 0.25368076558034403 -0.3666666575654437 0 0.27281775320725749 -0.31387814606404713 0 0.27537660522746271 -0.33737520212299837 0 0.26396587802058219 -0.32499445976038499 0 0.27537660522746271 -0.33737520212299837 0 0.2483880123692721 -0.34432303534182251 0 0.27537660522746271 -0.33737520212299837 0 0.25009553787234001 -0.33065452094022069 0 0.26396587802058219 -0.32499445976038499 0 0.27537660522746271 -0.33737520212299837 0 0.25009553787234001 -0.33065452094022069 0 0.2483880123692721 -0.34432303534182251 0 0.25009553787234001 -0.33065452094022069 0 0.26396587802058219 -0.32499445976038499 0 0.25133728351744761 -0.31693584764273042 0 0.27281775320725749 -0.31387814606404713 0 0.26396587802058219 -0.32499445976038499 0 0.25133728351744761 -0.31693584764273042 0 0.27281775320725749 -0.31387814606404713 0 0.25133728351744761 -0.31693584764273042 0 0.25745953861521548 -0.29923011287994039 0 0.25745953861521548 -0.29923011287994039 0 0.25511179437063392 -0.2827270415464912 0 0.23793608437496611 -0.29529763537581077 0 0.25745953861521548 -0.29923011287994039 0 0.25511179437063392 -0.2827270415464912 0 0.27390309653382577 -0.28717684653948211 0 0.27281775320725749 -0.31387814606404713 0 0.25745953861521548 -0.29923011287994039 0 0.27390309653382577 -0.28717684653948211 0 0.27281775320725749 -0.31387814606404713 0 0.27390309653382577 -0.28717684653948211 0 0.28886344475937697 -0.3022317661409184 0 0.27390309653382577 -0.28717684653948211 0 0.28886344475937697 -0.3022317661409184 0 0.29462217685357439 -0.28173357719958009 0 0.28886344475937697 -0.3022317661409184 0 0.29462217685357439 -0.28173357719958009 0 0.3077025437340965 -0.30039205508190669 0 0.31930722929454991 -0.2753724996752851 0 0.29462217685357439 -0.28173357719958009 0 0.3077025437340965 -0.30039205508190669 0 0.30236519808565332 -0.33042736890417429 0 0.28886344475937697 -0.3022317661409184 0 0.3077025437340965 -0.30039205508190669 0 0.31930722929454991 -0.2753724996752851 0 0.29462217685357439 -0.28173357719958009 0 0.30260791946243593 -0.25483274280955842 0 0.29462217685357439 -0.28173357719958009 0 0.30260791946243593 -0.25483274280955842 0 0.2801467078523342 -0.2669624723131811 0 0.27390309653382577 -0.28717684653948211 0 0.29462217685357439 -0.28173357719958009 0 0.2801467078523342 -0.2669624723131811 0 0.28192247319022778 -0.2494267551726837 0 0.30260791946243593 -0.25483274280955842 0 0.2801467078523342 -0.2669624723131811 0 0.28192247319022778 -0.2494267551726837 0 0.27041703413951351 -0.25331338663942687 0 0.2801467078523342 -0.2669624723131811 0 0.27041703413951351 -0.25331338663942687 0 0.2801467078523342 -0.2669624723131811 0 0.2640391248804983 -0.2650832876949466 0 0.27390309653382577 -0.28717684653948211 0 0.2801467078523342 -0.2669624723131811 0 0.2640391248804983 -0.2650832876949466 0 0.25511179437063392 -0.2827270415464912 0 0.2640391248804983 -0.2650832876949466 0 0.24222112744866431 -0.26684732524227628 0 0.25511179437063392 -0.2827270415464912 0 0.27390309653382577 -0.28717684653948211 0 0.2640391248804983 -0.2650832876949466 0 0.25684410453412182 -0.2462465244880406 0 0.2640391248804983 -0.2650832876949466 0 0.24222112744866431 -0.26684732524227628 0 0.25684410453412182 -0.2462465244880406 0 0.27041703413951351 -0.25331338663942687 0 0.2640391248804983 -0.2650832876949466 0 0.24222112744866431 -0.26684732524227628 0 0.23256339064272161 -0.25123977470111808 0 0.24650617052236279 -0.23839701510874189 0 0.24222112744866431 -0.26684732524227628 0 0.24650617052236279 -0.23839701510874189 0 0.25684410453412182 -0.2462465244880406 0 0.24222112744866431 -0.26684732524227628 0 0.24650617052236279 -0.23839701510874189 0 0.24222112744866431 -0.26684732524227628 0 0.22825198005174521 -0.27966122084805389 0 0.23793608437496611 -0.29529763537581077 0 0.24222112744866431 -0.26684732524227628 0 0.23793608437496611 -0.29529763537581077 0 0.22825198005174521 -0.27966122084805389 0 0.2185678757285241 -0.26402480632029729 0 0.21228260254518741 -0.26976646119164321 0 0.22825198005174521 -0.27966122084805389 0 0.2185678757285241 -0.26402480632029729 0 0.24222112744866431 -0.26684732524227628 0 0.22825198005174521 -0.27966122084805389 0 0.2185678757285241 -0.26402480632029729 0 0.24222112744866431 -0.26684732524227628 0 0.23256339064272161 -0.25123977470111808 0 0.2185678757285241 -0.26402480632029729 0 0.21329154587977761 -0.25550539368836589 0 0.2185678757285241 -0.26402480632029729 0 0.22562264746561889 -0.24751963808399541 0 0.23256339064272161 -0.25123977470111808 0 0.2185678757285241 -0.26402480632029729 0 0.22562264746561889 -0.24751963808399541 0 0.23256339064272161 -0.25123977470111808 0 0.2185678757285241 -0.26402480632029729 0 0.20730421866483389 -0.25345525673254138 0 0.21228260254518741 -0.26976646119164321 0 0.21329154587977761 -0.25550539368836589 0 0.20730421866483389 -0.25345525673254138 0 0.21228260254518741 -0.26976646119164321 0 0.20730421866483389 -0.25345525673254138 0 0.21228260254518741 -0.26976646119164321 0 0.19576016266777799 -0.26765640565352239 0 0.21329154587977761 -0.25550539368836589 0 0.21228260254518741 -0.26976646119164321 0 0.21329154587977761 -0.25550539368836589 0 0.2185678757285241 -0.26402480632029729 0 0.21329154587977761 -0.25550539368836589 0 0.2185678757285241 -0.26402480632029729 0 0.21228260254518741 -0.26976646119164321 0 0.21228260254518741 -0.26976646119164321 0 0.19475834085688029 -0.28577503544999427 0 0.21228260254518741 -0.26976646119164321 0 0.20977176838950429 -0.28802953446720581 0 0.2185678757285241 -0.26402480632029729 0 0.21228260254518741 -0.26976646119164321 0 0.21228260254518741 -0.26976646119164321 0 0.19475834085688029 -0.28577503544999427 0 0.20977176838950429 -0.28802953446720581 0 0.19576016266777799 -0.26765640565352239 0 0.19475834085688029 -0.28577503544999427 0 0.18053444968717691 -0.28513565704791938 0 0.21228260254518741 -0.26976646119164321 0 0.19576016266777799 -0.26765640565352239 0 0.19475834085688029 -0.28577503544999427 0 0.20730421866483389 -0.25345525673254138 0 0.19576016266777799 -0.26765640565352239 0 0.18775999181847311 -0.25362873363711003 0 0.19284052907938101 -0.30349637732784152 0 0.20130614873443989 -0.29576295589752188 0 0.20785395661199371 -0.30575087634504622 0 0.19284052907938101 -0.30349637732784152 0 0.20785395661199371 -0.30575087634504622 0 0.19284052907938101 -0.30349637732784152 0 0.20785395661199371 -0.30575087634504622 0 0.19777566946107569 -0.31572921336439619 0 0.19284052907938101 -0.30349637732784152 0 0.19475834085688029 -0.28577503544999427 0 0.20130614873443989 -0.29576295589752188 0 0.19284052907938101 -0.30349637732784152 0 0.19475834085688029 -0.28577503544999427 0 0.1778271015467684 -0.30124187831063642 0 0.19475834085688029 -0.28577503544999427 0 0.20130614873443989 -0.29576295589752188 0 0.20977176838950429 -0.28802953446720581 0 0.21228260254518741 -0.26976646119164321 0 0.2204698254336864 -0.29659112351099148 0 0.20130614873443989 -0.29576295589752188 0 0.20977176838950429 -0.28802953446720581 0 0.20785395661199371 -0.30575087634504622 0 0.20977176838950429 -0.28802953446720581 0 0.20785395661199371 -0.30575087634504622 0 0.2204698254336864 -0.29659112351099148 0 0.21228260254518741 -0.26976646119164321 0 0.20977176838950429 -0.28802953446720581 0 0.2204698254336864 -0.29659112351099148 0 0.20977176838950429 -0.28802953446720581 0 0.20785395661199371 -0.30575087634504622 0 0.20785395661199371 -0.30575087634504622 0 0.2204698254336864 -0.29659112351099148 0 0.2357311658694142 -0.30993707171827017 0 0.20785395661199371 -0.30575087634504622 0 0.2357311658694142 -0.30993707171827017 0 0.2198679238368354 -0.32066074794419092 0 0.20785395661199371 -0.30575087634504622 0 0.2357311658694142 -0.30993707171827017 0 0.2204698254336864 -0.29659112351099148 0 0.23793608437496611 -0.29529763537581077 0 0.2357311658694142 -0.30993707171827017 0 0.22825198005174521 -0.27966122084805389 0 0.21228260254518741 -0.26976646119164321 0 0.2204698254336864 -0.29659112351099148 0 0.22825198005174521 -0.27966122084805389 0 0.23793608437496611 -0.29529763537581077 0 0.22825198005174521 -0.27966122084805389 0 0.2204698254336864 -0.29659112351099148 0 0.23793608437496611 -0.29529763537581077 0 0.25511179437063392 -0.2827270415464912 0 0.24222112744866431 -0.26684732524227628 0 0.23793608437496611 -0.29529763537581077 0 0.25133728351744761 -0.31693584764273042 0 0.23793608437496611 -0.29529763537581077 0 0.23951194105055151 -0.31050481375529898 0 0.25133728351744761 -0.31693584764273042 0 0.23793608437496611 -0.29529763537581077 0 0.25133728351744761 -0.31693584764273042 0 0.25745953861521548 -0.29923011287994039 0 0.23793608437496611 -0.29529763537581077 0 0.23793608437496611 -0.29529763537581077 0 0.23951194105055151 -0.31050481375529898 0 0.2357311658694142 -0.30993707171827017 0 0.23951194105055151 -0.31050481375529898 0 0.2357311658694142 -0.30993707171827017 0 0.23793608437496611 -0.29529763537581077 0 0.2357311658694142 -0.30993707171827017 0 0.25133728351744761 -0.31693584764273042 0 0.23951194105055151 -0.31050481375529898 0 0.24371557004209141 -0.31834804497385721 0 0.2357311658694142 -0.30993707171827017 0 0.23845886929078089 -0.3232835051612814 0 0.2313018726901257 -0.33934512257231653 0 0.25133728351744761 -0.31693584764273042 0 0.24371557004209141 -0.31834804497385721 0 0.24590181518066501 -0.32230547967952239 0 0.23951194105055151 -0.31050481375529898 0 0.2357311658694142 -0.30993707171827017 0 0.23845886929078089 -0.3232835051612814 0 0.23951194105055151 -0.31050481375529898 0 0.24371557004209141 -0.31834804497385721 0 0.23845886929078089 -0.3232835051612814 0 0.25009553787234001 -0.33065452094022069 0 0.23845886929078089 -0.3232835051612814 0 0.24590181518066501 -0.32230547967952239 0 0.25009553787234001 -0.33065452094022069 0 0.25133728351744761 -0.31693584764273042 0 0.24590181518066501 -0.32230547967952239 0 0.24371557004209141 -0.31834804497385721 0 0.23845886929078089 -0.3232835051612814 0 0.24590181518066501 -0.32230547967952239 0 0.23845886929078089 -0.3232835051612814 0 0.2313018726901257 -0.33934512257231653 0 0.24606981743556239 -0.34497508136336258 0 0.25009553787234001 -0.33065452094022069 0 0.23845886929078089 -0.3232835051612814 0 0.24606981743556239 -0.34497508136336258 0 0.23845886929078089 -0.3232835051612814 0 0.24606981743556239 -0.34497508136336258 0 0.25009553787234001 -0.33065452094022069 0 0.24606981743556239 -0.34497508136336258 0 0.2483880123692721 -0.34432303534182251 0 0.2313018726901257 -0.33934512257231653 0 0.21822445265400059 -0.35102267947970428 0 0.2185518809313127 -0.33430680745418262 0 0.2313018726901257 -0.33934512257231653 0 0.2198679238368354 -0.32066074794419092 0 0.2185518809313127 -0.33430680745418262 0 0.2357311658694142 -0.30993707171827017 0 0.2313018726901257 -0.33934512257231653 0 0.2357311658694142 -0.30993707171827017 0 0.2313018726901257 -0.33934512257231653 0 0.2198679238368354 -0.32066074794419092 0 0.23963108910801079 -0.35941526447397959 0 0.2268725795108372 -0.3687531734263626 0 0.24165879674961649 -0.38427817806658698 0 0.25368076558034403 -0.3666666575654437 0 0.23963108910801079 -0.35941526447397959 0 0.24165879674961649 -0.38427817806658698 0 0.25368076558034403 -0.3666666575654437 0 0.24606981743556239 -0.34497508136336258 0 0.2313018726901257 -0.33934512257231653 0 0.23963108910801079 -0.35941526447397959 0 0.24606981743556239 -0.34497508136336258 0 0.25368076558034403 -0.3666666575654437 0 0.23963108910801079 -0.35941526447397959 0 0.24606981743556239 -0.34497508136336258 0 0.25368076558034403 -0.3666666575654437 0 0.24606981743556239 -0.34497508136336258 0 0.2483880123692721 -0.34432303534182251 0 0.2313018726901257 -0.33934512257231653 0 0.23963108910801079 -0.35941526447397959 0 0.2268725795108372 -0.3687531734263626 0 0.2313018726901257 -0.33934512257231653 0 0.2268725795108372 -0.3687531734263626 0 0.2313018726901257 -0.33934512257231653 0 0.2268725795108372 -0.3687531734263626 0 0.21822445265400059 -0.35102267947970428 0 0.2268725795108372 -0.3687531734263626 0 0.20203075769165621 -0.35955954521447442 0 0.19911915823148749 -0.38646387964918849 0 0.2268725795108372 -0.3687531734263626 0 0.21822445265400059 -0.35102267947970428 0 0.20203075769165621 -0.35955954521447442 0 0.20203075769165621 -0.35955954521447442 0 0.20494235715182479 -0.33265521077976018 0 0.21822445265400059 -0.35102267947970428 0 0.20203075769165621 -0.35955954521447442 0 0.20494235715182479 -0.33265521077976018 0 0.18886050795766041 -0.34452454018979839 0 0.20203075769165621 -0.35955954521447442 0 0.17945607065511651 -0.36538404993858559 0 0.18886050795766041 -0.34452454018979839 0 0.20203075769165621 -0.35955954521447442 0 0.20494235715182479 -0.33265521077976018 0 0.20203075769165621 -0.35955954521447442 0 0.19911915823148749 -0.38646387964918849 0 0.20203075769165621 -0.35955954521447442 0 0.17945607065511651 -0.36538404993858559 0 0.19911915823148749 -0.38646387964918849 0 0.20785395661199371 -0.30575087634504622 0 0.2198679238368354 -0.32066074794419092 0 0.21280402963299169 -0.32334341063079503 0 0.20785395661199371 -0.30575087634504622 0 0.21280402963299169 -0.32334341063079503 0 0.20494235715182479 -0.33265521077976018 0 0.20785395661199371 -0.30575087634504622 0 0.20494235715182479 -0.33265521077976018 0 0.20785395661199371 -0.30575087634504622 0 0.20494235715182479 -0.33265521077976018 0 0.19777566946107569 -0.31572921336439619 0 0.2198679238368354 -0.32066074794419092 0 0.21280402963299169 -0.32334341063079503 0 0.2185518809313127 -0.33430680745418262 0 0.21280402963299169 -0.32334341063079503 0 0.2185518809313127 -0.33430680745418262 0 0.20494235715182479 -0.33265521077976018 0 0.21822445265400059 -0.35102267947970428 0 0.2185518809313127 -0.33430680745418262 0 0.20494235715182479 -0.33265521077976018 0 0.18886050795766041 -0.34452454018979839 0 0.20494235715182479 -0.33265521077976018 0 0.1961223332591305 -0.32590270495696527 0 0.18886050795766041 -0.34452454018979839 0 0.1961223332591305 -0.32590270495696527 0 0.18424000084470549 -0.33199587480234782 0 0.1961223332591305 -0.32590270495696527 0 0.19777566946107569 -0.31572921336439619 0 0.18156841342793509 -0.31891232929487429 0 0.1961223332591305 -0.32590270495696527 0 0.18156841342793509 -0.31891232929487429 0 0.20494235715182479 -0.33265521077976018 0 0.1961223332591305 -0.32590270495696527 0 0.19777566946107569 -0.31572921336439619 0 0.19284052907938101 -0.30349637732784152 0 0.19777566946107569 -0.31572921336439619 0 0.18156841342793509 -0.31891232929487429 0 0.18156841342793509 -0.31891232929487429 0 0.1670144935967425 -0.31192195363277758 0 0.18156841342793509 -0.31891232929487429 0 0.17669794764338859 -0.31071224459347269 0 0.1670144935967425 -0.31192195363277758 0 0.1961223332591305 -0.32590270495696527 0 0.18156841342793509 -0.31891232929487429 0 0.18424000084470549 -0.33199587480234782 0 0.18156841342793509 -0.31891232929487429 0 0.18424000084470549 -0.33199587480234782 0 0.16281229403887129 -0.33827120654780679 0 0.18886050795766041 -0.34452454018979839 0 0.18424000084470549 -0.33199587480234782 0 0.16281229403887129 -0.33827120654780679 0 0.16281229403887129 -0.33827120654780679 0 0.1567268694087523 -0.32264085307657048 0 0.1670144935967425 -0.31192195363277758 0 0.16281229403887129 -0.33827120654780679 0 0.1670144935967425 -0.31192195363277758 0 0.1567268694087523 -0.32264085307657048 0 0.15028560490104159 -0.31323467506454639 0 0.1670144935967425 -0.31192195363277758 0 0.18156841342793509 -0.31891232929487429 0 0.16281229403887129 -0.33827120654780679 0 0.1670144935967425 -0.31192195363277758 0 0.18886050795766041 -0.34452454018979839 0 0.16281229403887129 -0.33827120654780679 0 0.17945607065511651 -0.36538404993858559 0 0.16281229403887129 -0.33827120654780679 0 0.17945607065511651 -0.36538404993858559 0 0.15861009448099819 -0.36462045946283572 0 0.16281229403887129 -0.33827120654780679 0 0.15861009448099819 -0.36462045946283572 0 0.14749850509408149 -0.34640187799007882 0 0.16281229403887129 -0.33827120654780679 0 0.15861009448099819 -0.36462045946283572 0 0.17945607065511651 -0.36538404993858559 0 0.15861009448099819 -0.36462045946283572 0 0.16822371605641551 -0.38038653435245878 0 0.15861009448099819 -0.36462045946283572 0 0.1468977353089424 -0.37152182023149338 0 0.14270421465384139 -0.36002127881223323 0 0.1468977353089424 -0.37152182023149338 0 0.14270421465384139 -0.36002127881223323 0 0.13508158898409059 -0.37471974994469059 0 0.15861009448099819 -0.36462045946283572 0 0.14270421465384139 -0.36002127881223323 0 0.14749850509408149 -0.34640187799007882 0 0.14270421465384139 -0.36002127881223323 0 0.14749850509408149 -0.34640187799007882 0 0.138370266222443 -0.34971081196871417 0 0.14749850509408149 -0.34640187799007882 0 0.138370266222443 -0.34971081196871417 0 0.13575880934833939 -0.33899994880195572 0 0.138370266222443 -0.34971081196871417 0 0.1275195357935095 -0.35342014227058932 0 0.13575880934833939 -0.33899994880195572 0 0.14270421465384139 -0.36002127881223323 0 0.138370266222443 -0.34971081196871417 0 0.1275195357935095 -0.35342014227058932 0 0.1285883576183606 -0.36582449405937378 0 0.13508158898409059 -0.37471974994469059 0 0.11260659977894689 -0.38309612314904679 0 0.1275195357935095 -0.35342014227058932 0 0.1285883576183606 -0.36582449405937378 0 0.13508158898409059 -0.37471974994469059 0 0.1275195357935095 -0.35342014227058932 0 0.13508158898409059 -0.37471974994469059 0 0.14270421465384139 -0.36002127881223323 0 0.1275195357935095 -0.35342014227058932 0 0.13508158898409059 -0.37471974994469059 0 0.14679508509835401 -0.32713557706115121 0 0.15028560490104159 -0.31323467506454639 0 0.13779372365085679 -0.31301357219717518 0 0.1567268694087523 -0.32264085307657048 0 0.14679508509835401 -0.32713557706115121 0 0.15028560490104159 -0.31323467506454639 0 0.16281229403887129 -0.33827120654780679 0 0.1567268694087523 -0.32264085307657048 0 0.14679508509835401 -0.32713557706115121 0 0.16281229403887129 -0.33827120654780679 0 0.14749850509408149 -0.34640187799007882 0 0.14679508509835401 -0.32713557706115121 0 0.14749850509408149 -0.34640187799007882 0 0.14679508509835401 -0.32713557706115121 0 0.13575880934833939 -0.33899994880195572 0 0.13575880934833939 -0.33899994880195572 0 0.13249403123214121 -0.32444963127385429 0 0.1199574826029285 -0.33212053459648788 0 0.14679508509835401 -0.32713557706115121 0 0.13575880934833939 -0.33899994880195572 0 0.13249403123214121 -0.32444963127385429 0 0.1275195357935095 -0.35342014227058932 0 0.13575880934833939 -0.33899994880195572 0 0.1199574826029285 -0.33212053459648788 0 0.13249403123214121 -0.32444963127385429 0 0.13779372365085679 -0.31301357219717518 0 0.1221650554602273 -0.31097852371250162 0 0.14679508509835401 -0.32713557706115121 0 0.13249403123214121 -0.32444963127385429 0 0.13779372365085679 -0.31301357219717518 0 0.13779372365085679 -0.31301357219717518 0 0.13109320858904849 -0.3035998348156026 0 0.1221650554602273 -0.31097852371250162 0 0.13109320858904849 -0.3035998348156026 0 0.1438095162806165 -0.30077639899517239 0 0.1206045389644933 -0.28963084435756131 0 0.13779372365085679 -0.31301357219717518 0 0.13109320858904849 -0.3035998348156026 0 0.1438095162806165 -0.30077639899517239 0 0.15028560490104159 -0.31323467506454639 0 0.13779372365085679 -0.31301357219717518 0 0.1438095162806165 -0.30077639899517239 0 0.1438095162806165 -0.30077639899517239 0 0.16382075937369109 -0.30771767043716641 0 0.15725206027203981 -0.30145767932762629 0 0.1438095162806165 -0.30077639899517239 0 0.1670144935967425 -0.31192195363277758 0 0.1438095162806165 -0.30077639899517239 0 0.15244715215202731 -0.29743068524077632 0 0.13596349102222899 -0.29495540784416979 0 0.15028560490104159 -0.31323467506454639 0 0.1438095162806165 -0.30077639899517239 0 0.1670144935967425 -0.31192195363277758 0 0.1438095162806165 -0.30077639899517239 0 0.15244715215202731 -0.29743068524077632 0 0.15725206027203981 -0.30145767932762629 0 0.15244715215202731 -0.29743068524077632 0 0.13596349102222899 -0.29495540784416979 0 0.15244715215202731 -0.29743068524077632 0 0.14525119310005849 -0.28830050397675872 0 0.13596349102222899 -0.29495540784416979 0 0.15590418837832279 -0.28700414083097497 0 0.14525119310005849 -0.28830050397675872 0 0.14675025414490109 -0.27924552949325843 0 0.15244715215202731 -0.29743068524077632 0 0.15590418837832279 -0.28700414083097497 0 0.14525119310005849 -0.28830050397675872 0 0.14525119310005849 -0.28830050397675872 0 0.13519087980281261 -0.28286675647461401 0 0.14675025414490109 -0.27924552949325843 0 0.14525119310005849 -0.28830050397675872 0 0.13519087980281261 -0.28286675647461401 0 0.13596349102222899 -0.29495540784416979 0 0.1438095162806165 -0.30077639899517239 0 0.1206045389644933 -0.28963084435756131 0 0.1438095162806165 -0.30077639899517239 0 0.13596349102222899 -0.29495540784416979 0 0.1206045389644933 -0.28963084435756131 0 0.13519087980281261 -0.28286675647461401 0 0.13596349102222899 -0.29495540784416979 0 0.1206045389644933 -0.28963084435756131 0 0.13519087980281261 -0.28286675647461401 0 0.12854847488496909 -0.27152578832108198 0 0.1164741872495455 -0.2770232702694726 0 0.13519087980281261 -0.28286675647461401 0 0.12854847488496909 -0.27152578832108198 0 0.1444717093131983 -0.26741153625510938 0 0.12854847488496909 -0.27152578832108198 0 0.13970518164948389 -0.25520319458836538 0 0.1444717093131983 -0.26741153625510938 0 0.12854847488496909 -0.27152578832108198 0 0.1250566038212913 -0.25905064346822732 0 0.13970518164948389 -0.25520319458836538 0 0.1250566038212913 -0.25905064346822732 0 0.13970518164948389 -0.25520319458836538 0 0.1259743144220184 -0.2461285612103877 0 0.13970518164948389 -0.25520319458836538 0 0.15107794618063 -0.25338955067562619 0 0.1444717093131983 -0.26741153625510938 0 0.15107794618063 -0.25338955067562619 0 0.1444717093131983 -0.26741153625510938 0 0.15646389335856581 -0.26356897356298048 0 0.13519087980281261 -0.28286675647461401 0 0.14675025414490109 -0.27924552949325843 0 0.1444717093131983 -0.26741153625510938 0 0.1444717093131983 -0.26741153625510938 0 0.1555143967580829 -0.27446787931472472 0 0.15646389335856581 -0.26356897356298048 0 0.15590418837832279 -0.28700414083097497 0 0.14675025414490109 -0.27924552949325843 0 0.1555143967580829 -0.27446787931472472 0 0.14675025414490109 -0.27924552949325843 0 0.1444717093131983 -0.26741153625510938 0 0.1555143967580829 -0.27446787931472472 0 0.1555143967580829 -0.27446787931472472 0 0.16374306125081561 -0.26978491521105341 0 0.16580554601822431 -0.27947000240374031 0 0.15590418837832279 -0.28700414083097497 0 0.1555143967580829 -0.27446787931472472 0 0.16580554601822431 -0.27947000240374031 0 0.1555143967580829 -0.27446787931472472 0 0.16374306125081561 -0.26978491521105341 0 0.15646389335856581 -0.26356897356298048 0 0.16374306125081561 -0.26978491521105341 0 0.16580554601822431 -0.27947000240374031 0 0.17366536465777771 -0.27021867865047722 0 0.16374306125081561 -0.26978491521105341 0 0.16726610546142509 -0.26119904212334372 0 0.17366536465777771 -0.27021867865047722 0 0.16580554601822431 -0.27947000240374031 0 0.17366536465777771 -0.27021867865047722 0 0.15107794618063 -0.25338955067562619 0 0.15646389335856581 -0.26356897356298048 0 0.1613336587090777 -0.2481503295639583 0 0.15646389335856581 -0.26356897356298048 0 0.16726610546142509 -0.26119904212334372 0 0.1613336587090777 -0.2481503295639583 0 0.16374306125081561 -0.26978491521105341 0 0.15646389335856581 -0.26356897356298048 0 0.16726610546142509 -0.26119904212334372 0 0.16726610546142509 -0.26119904212334372 0 0.17615348000576159 -0.25461732995610198 0 0.1613336587090777 -0.2481503295639583 0 0.18775999181847311 -0.25362873363711003 0 0.17366536465777771 -0.27021867865047722 0 0.18775999181847311 -0.25362873363711003 0 0.17615348000576159 -0.25461732995610198 0 0.17366536465777771 -0.27021867865047722 0 0.19576016266777799 -0.26765640565352239 0 0.18775999181847311 -0.25362873363711003 0 0.17366536465777771 -0.27021867865047722 0 0.16726610546142509 -0.26119904212334372 0 0.17615348000576159 -0.25461732995610198 0 0.17366536465777771 -0.27021867865047722 0 0.17615348000576159 -0.25461732995610198 0 0.17366536465777771 -0.27021867865047722 0 0.19576016266777799 -0.26765640565352239 0 0.17366536465777771 -0.27021867865047722 0 0.18053444968717691 -0.28513565704791938 0 0.19475834085688029 -0.28577503544999427 0 0.1778271015467684 -0.30124187831063642 0 0.17366536465777771 -0.27021867865047722 0 0.18053444968717691 -0.28513565704791938 0 0.1689308132818243 -0.29990596263739039 0 0.19475834085688029 -0.28577503544999427 0 0.18053444968717691 -0.28513565704791938 0 0.1778271015467684 -0.30124187831063642 0 0.18053444968717691 -0.28513565704791938 0 0.1778271015467684 -0.30124187831063642 0 0.1689308132818243 -0.29990596263739039 0 0.19284052907938101 -0.30349637732784152 0 0.18156841342793509 -0.31891232929487429 0 0.17669794764338859 -0.31071224459347269 0 0.19284052907938101 -0.30349637732784152 0 0.17669794764338859 -0.31071224459347269 0 0.1778271015467684 -0.30124187831063642 0 0.19284052907938101 -0.30349637732784152 0 0.1778271015467684 -0.30124187831063642 0 0.17669794764338859 -0.31071224459347269 0 0.1778271015467684 -0.30124187831063642 0 0.1670144935967425 -0.31192195363277758 0 0.1778271015467684 -0.30124187831063642 0 0.1670144935967425 -0.31192195363277758 0 0.1778271015467684 -0.30124187831063642 0 0.1689308132818243 -0.29990596263739039 0 0.15244715215202731 -0.29743068524077632 0 0.1689308132818243 -0.29990596263739039 0 0.15244715215202731 -0.29743068524077632 0 0.1689308132818243 -0.29990596263739039 0 0.15725206027203981 -0.30145767932762629 0 0.1438095162806165 -0.30077639899517239 0 0.1670144935967425 -0.31192195363277758 0 0.16382075937369109 -0.30771767043716641 0 0.1778271015467684 -0.30124187831063642 0 0.1689308132818243 -0.29990596263739039 0 0.1670144935967425 -0.31192195363277758 0 0.1689308132818243 -0.29990596263739039 0 0.1670144935967425 -0.31192195363277758 0 0.1689308132818243 -0.29990596263739039 0 0.1670144935967425 -0.31192195363277758 0 0.16382075937369109 -0.30771767043716641 0 0.1689308132818243 -0.29990596263739039 0 0.16382075937369109 -0.30771767043716641 0 0.15725206027203981 -0.30145767932762629 0 0.15590418837832279 -0.28700414083097497 0 0.16580554601822431 -0.27947000240374031 0 0.1689308132818243 -0.29990596263739039 0 0.15244715215202731 -0.29743068524077632 0 0.15590418837832279 -0.28700414083097497 0 0.1689308132818243 -0.29990596263739039 0 0.16580554601822431 -0.27947000240374031 0 0.17366536465777771 -0.27021867865047722 0 0.1689308132818243 -0.29990596263739039 0 0.17366536465777771 -0.27021867865047722 0 0.1689308132818243 -0.29990596263739039 0 0.19326466788723881 -0.49491364456128301 0 0.2074908531191845 -0.5 0 0.1793580206595394 -0.5 0 0.19923417340679361 -0.49027163810804247 0 0.19326466788723881 -0.49491364456128301 0 0.19385800401994849 -0.48480843663255402 0 0.19941459957761809 -0.48451840961927439 0 0.19923417340679361 -0.49027163810804247 0 0.19385800401994849 -0.48480843663255402 0 0.19941459957761809 -0.48451840961927439 0 0.19923417340679361 -0.49027163810804247 0 0.20533094837826241 -0.48767695511447051 0 0.19941459957761809 -0.48451840961927439 0 0.20399964400083079 -0.48189239504854559 0 0.20533094837826241 -0.48767695511447051 0 0.19923417340679361 -0.49027163810804247 0 0.19326466788723881 -0.49491364456128301 0 0.2074908531191845 -0.5 0 0.19326466788723881 -0.49491364456128301 0 0.19385800401994849 -0.48480843663255402 0 0.18351709027357871 -0.48988108099314298 0 0.19385800401994849 -0.48480843663255402 0 0.19702897909623529 -0.47949161294755982 0 0.1778789014026477 -0.48501746097327042 0 0.19300914181622059 -0.47331475980057758 0 0.2021161114418592 -0.47096193829127608 0 0.18665974126717191 -0.46752552726497598 0 0.19300914181622059 -0.47331475980057758 0 0.19702897909623529 -0.47949161294755982 0 0.18623173545961649 -0.47527996069849882 0 0.19300914181622059 -0.47331475980057758 0 0.18665974126717191 -0.46752552726497598 0 0.18623173545961649 -0.47527996069849882 0 0.2021161114418592 -0.47096193829127608 0 0.19702897909623529 -0.47949161294755982 0 0.19300914181622059 -0.47331475980057758 0 0.2021161114418592 -0.47096193829127608 0 0.19702897909623529 -0.47949161294755982 0 0.2021161114418592 -0.47096193829127608 0 0.19702897909623529 -0.47949161294755982 0 0.20876237401485531 -0.47610588479630328 0 0.19702897909623529 -0.47949161294755982 0 0.20876237401485531 -0.47610588479630328 0 0.19385800401994849 -0.48480843663255402 0 0.19702897909623529 -0.47949161294755982 0 0.19941459957761809 -0.48451840961927439 0 0.19385800401994849 -0.48480843663255402 0 0.19702897909623529 -0.47949161294755982 0 0.19941459957761809 -0.48451840961927439 0 0.19702897909623529 -0.47949161294755982 0 0.20399964400083079 -0.48189239504854559 0 0.19702897909623529 -0.47949161294755982 0 0.20399964400083079 -0.48189239504854559 0 0.20876237401485531 -0.47610588479630328 0 0.20399964400083079 -0.48189239504854559 0 0.2093575091104618 -0.48236377769506222 0 0.20533094837826241 -0.48767695511447051 0 0.20876237401485531 -0.47610588479630328 0 0.215022057969594 -0.48095063461591081 0 0.23230308262412569 -0.4693130988727281 0 0.20399964400083079 -0.48189239504854559 0 0.2093575091104618 -0.48236377769506222 0 0.20876237401485531 -0.47610588479630328 0 0.2021161114418592 -0.47096193829127608 0 0.20876237401485531 -0.47610588479630328 0 0.2171581127502501 -0.46306983016608327 0 0.2021161114418592 -0.47096193829127608 0 0.20876237401485531 -0.47610588479630328 0 0.2093575091104618 -0.48236377769506222 0 0.215022057969594 -0.48095063461591081 0 0.21693671881835899 -0.48920963457709171 0 0.20876237401485531 -0.47610588479630328 0 0.215022057969594 -0.48095063461591081 0 0.2093575091104618 -0.48236377769506222 0 0.20876237401485531 -0.47610588479630328 0 0.215022057969594 -0.48095063461591081 0 0.2093575091104618 -0.48236377769506222 0 0.21693671881835899 -0.48920963457709171 0 0.20533094837826241 -0.48767695511447051 0 0.21693671881835899 -0.48920963457709171 0 0.20533094837826241 -0.48767695511447051 0 0.2074908531191845 -0.5 0 0.19923417340679361 -0.49027163810804247 0 0.20533094837826241 -0.48767695511447051 0 0.2074908531191845 -0.5 0 0.21693671881835899 -0.48920963457709171 0 0.23562368557882951 -0.5 0 0.22879525875382151 -0.48426644003710689 0 0.21693671881835899 -0.48920963457709171 0 0.2074908531191845 -0.5 0 0.23562368557882951 -0.5 0 0.215022057969594 -0.48095063461591081 0 0.21693671881835899 -0.48920963457709171 0 0.22879525875382151 -0.48426644003710689 0 0.26375651803847439 -0.5 0 0.23562368557882951 -0.5 0 0.24785323357605379 -0.48254105613309028 0 0.23562368557882951 -0.5 0 0.24785323357605379 -0.48254105613309028 0 0.22879525875382151 -0.48426644003710689 0 0.25584379123339529 -0.46252031294915069 0 0.24785323357605379 -0.48254105613309028 0 0.23230308262412569 -0.4693130988727281 0 0.24785323357605379 -0.48254105613309028 0 0.23230308262412569 -0.4693130988727281 0 0.22879525875382151 -0.48426644003710689 0 0.215022057969594 -0.48095063461591081 0 0.23230308262412569 -0.4693130988727281 0 0.22879525875382151 -0.48426644003710689 0 0.20876237401485531 -0.47610588479630328 0 0.23230308262412569 -0.4693130988727281 0 0.2171581127502501 -0.46306983016608327 0 0.20876237401485531 -0.47610588479630328 0 0.23230308262412569 -0.4693130988727281 0 0.23230308262412569 -0.4693130988727281 0 0.2285905377656007 -0.44796314172360152 0 0.2171581127502501 -0.46306983016608327 0 0.2285905377656007 -0.44796314172360152 0 0.21401845790480989 -0.45100508714650739 0 0.2171581127502501 -0.46306983016608327 0 0.23230308262412569 -0.4693130988727281 0 0.2434766277031844 -0.44790595959912688 0 0.2285905377656007 -0.44796314172360152 0 0.25584379123339529 -0.46252031294915069 0 0.23230308262412569 -0.4693130988727281 0 0.2434766277031844 -0.44790595959912688 0 0.25584379123339529 -0.46252031294915069 0 0.23230308262412569 -0.4693130988727281 0 0.25584379123339529 -0.46252031294915069 0 0.2434766277031844 -0.44790595959912688 0 0.2434766277031844 -0.44790595959912688 0 0.2311094641729726 -0.43329160624910368 0 0.24789079824018989 -0.43723785773929452 0 0.25810627303977102 -0.44645190914086819 0 0.2434766277031844 -0.44790595959912688 0 0.24789079824018989 -0.43723785773929452 0 0.2434766277031844 -0.44790595959912688 0 0.2311094641729726 -0.43329160624910368 0 0.2434766277031844 -0.44790595959912688 0 0.2285905377656007 -0.44796314172360152 0 0.2311094641729726 -0.43329160624910368 0 0.2285905377656007 -0.44796314172360152 0 0.21401845790480989 -0.45100508714650739 0 0.2259208043677611 -0.43104823600173903 0 0.21401845790480989 -0.45100508714650739 0 0.2259208043677611 -0.43104823600173903 0 0.21401845790480989 -0.45100508714650739 0 0.19329595931115021 -0.44027254851861652 0 0.20841742836854779 -0.42891822480849429 0 0.2021161114418592 -0.47096193829127608 0 0.21401845790480989 -0.45100508714650739 0 0.2171581127502501 -0.46306983016608327 0 0.2021161114418592 -0.47096193829127608 0 0.21401845790480989 -0.45100508714650739 0 0.19722191817245879 -0.45391609009046929 0 0.2021161114418592 -0.47096193829127608 0 0.21401845790480989 -0.45100508714650739 0 0.2021161114418592 -0.47096193829127608 0 0.1794571440320161 -0.45342478640547718 0 0.2021161114418592 -0.47096193829127608 0 0.1794571440320161 -0.45342478640547718 0 0.18665974126717191 -0.46752552726497598 0 0.2021161114418592 -0.47096193829127608 0 0.19722191817245879 -0.45391609009046929 0 0.1794571440320161 -0.45342478640547718 0 0.19722191817245879 -0.45391609009046929 0 0.19329595931115021 -0.44027254851861652 0 0.1794571440320161 -0.45342478640547718 0 0.21401845790480989 -0.45100508714650739 0 0.19722191817245879 -0.45391609009046929 0 0.19329595931115021 -0.44027254851861652 0 0.19329595931115021 -0.44027254851861652 0 0.1962075587713189 -0.41336821408390251 0 0.20841742836854779 -0.42891822480849429 0 0.19329595931115021 -0.44027254851861652 0 0.1962075587713189 -0.41336821408390251 0 0.19329595931115021 -0.44027254851861652 0 0.1962075587713189 -0.41336821408390251 0 0.1778110137309287 -0.42709221836345362 0 0.1962075587713189 -0.41336821408390251 0 0.2170141932028252 -0.41220856792796567 0 0.20841742836854779 -0.42891822480849429 0 0.2170141932028252 -0.41220856792796567 0 0.20841742836854779 -0.42891822480849429 0 0.2259208043677611 -0.43104823600173903 0 0.21401845790480989 -0.45100508714650739 0 0.20841742836854779 -0.42891822480849429 0 0.2259208043677611 -0.43104823600173903 0 0.2259208043677611 -0.43104823600173903 0 0.2311094641729726 -0.43329160624910368 0 0.2378231508307122 -0.41109138485697061 0 0.2285905377656007 -0.44796314172360152 0 0.2259208043677611 -0.43104823600173903 0 0.2311094641729726 -0.43329160624910368 0 0.2311094641729726 -0.43329160624910368 0 0.24668501867356429 -0.42548152538770062 0 0.2378231508307122 -0.41109138485697061 0 0.2311094641729726 -0.43329160624910368 0 0.24668501867356429 -0.42548152538770062 0 0.24789079824018989 -0.43723785773929452 0 0.25314414183579881 -0.40404289189138931 0 0.24891616791737281 -0.41467410268550642 0 0.2378231508307122 -0.41109138485697061 0 0.24668501867356429 -0.42548152538770062 0 0.24891616791737281 -0.41467410268550642 0 0.2378231508307122 -0.41109138485697061 0 0.2170141932028252 -0.41220856792796567 0 0.2259208043677611 -0.43104823600173903 0 0.2378231508307122 -0.41109138485697061 0 0.2259208043677611 -0.43104823600173903 0 0.2378231508307122 -0.41109138485697061 0 0.2170141932028252 -0.41220856792796567 0 0.2378231508307122 -0.41109138485697061 0 0.22449757570509571 -0.39255903678541482 0 0.2378231508307122 -0.41109138485697061 0 0.22449757570509571 -0.39255903678541482 0 0.24165879674961649 -0.38427817806658698 0 0.25314414183579881 -0.40404289189138931 0 0.2378231508307122 -0.41109138485697061 0 0.24165879674961649 -0.38427817806658698 0 0.2268725795108372 -0.3687531734263626 0 0.22449757570509571 -0.39255903678541482 0 0.24165879674961649 -0.38427817806658698 0 0.2268725795108372 -0.3687531734263626 0 0.22449757570509571 -0.39255903678541482 0 0.19911915823148749 -0.38646387964918849 0 0.1962075587713189 -0.41336821408390251 0 0.2170141932028252 -0.41220856792796567 0 0.19911915823148749 -0.38646387964918849 0 0.2170141932028252 -0.41220856792796567 0 0.22449757570509571 -0.39255903678541482 0 0.19911915823148749 -0.38646387964918849 0 0.1962075587713189 -0.41336821408390251 0 0.19911915823148749 -0.38646387964918849 0 0.1852063816057328 -0.39817489082257268 0 0.1962075587713189 -0.41336821408390251 0 0.19911915823148749 -0.38646387964918849 0 0.19911915823148749 -0.38646387964918849 0 0.17941215010831441 -0.38537486912214058 0 0.1852063816057328 -0.39817489082257268 0 0.17945607065511651 -0.36538404993858559 0 0.19911915823148749 -0.38646387964918849 0 0.17941215010831441 -0.38537486912214058 0 0.17945607065511651 -0.36538404993858559 0 0.17941215010831441 -0.38537486912214058 0 0.16822371605641551 -0.38038653435245878 0 0.17941215010831441 -0.38537486912214058 0 0.16923237011452311 -0.39558358086086742 0 0.16822371605641551 -0.38038653435245878 0 0.1852063816057328 -0.39817489082257268 0 0.16923237011452311 -0.39558358086086742 0 0.17400062751163289 -0.40962128986140561 0 0.17941215010831441 -0.38537486912214058 0 0.1852063816057328 -0.39817489082257268 0 0.16923237011452311 -0.39558358086086742 0 0.16923237011452311 -0.39558358086086742 0 0.15440789492312521 -0.39096971237786449 0 0.1617906607629773 -0.40716388784453711 0 0.16923237011452311 -0.39558358086086742 0 0.1617906607629773 -0.40716388784453711 0 0.17400062751163289 -0.40962128986140561 0 0.15861009448099819 -0.36462045946283572 0 0.15440789492312521 -0.39096971237786449 0 0.15861009448099819 -0.36462045946283572 0 0.16822371605641551 -0.38038653435245878 0 0.15440789492312521 -0.39096971237786449 0 0.16923237011452311 -0.39558358086086742 0 0.16822371605641551 -0.38038653435245878 0 0.15440789492312521 -0.39096971237786449 0 0.15861009448099819 -0.36462045946283572 0 0.1468977353089424 -0.37152182023149338 0 0.15440789492312521 -0.39096971237786449 0 0.1468977353089424 -0.37152182023149338 0 0.14475771534770751 -0.38330766004320999 0 0.15440789492312521 -0.39096971237786449 0 0.13508158898409059 -0.37471974994469059 0 0.14475771534770751 -0.38330766004320999 0 0.14264364217467171 -0.39601935761879192 0 0.14475771534770751 -0.38330766004320999 0 0.14264364217467171 -0.39601935761879192 0 0.15440789492312521 -0.39096971237786449 0 0.1468977353089424 -0.37152182023149338 0 0.13508158898409059 -0.37471974994469059 0 0.14475771534770751 -0.38330766004320999 0 0.13508158898409059 -0.37471974994469059 0 0.14264364217467171 -0.39601935761879192 0 0.13508158898409059 -0.37471974994469059 0 0.12675676328317731 -0.39106745920104641 0 0.14264364217467171 -0.39601935761879192 0 0.13158740667988419 -0.40222931759110719 0 0.12675676328317731 -0.39106745920104641 0 0.14264364217467171 -0.39601935761879192 0 0.13158740667988419 -0.40222931759110719 0 0.12675676328317731 -0.39106745920104641 0 0.1207944043589603 -0.40236095401110722 0 0.13158740667988419 -0.40222931759110719 0 0.14264364217467171 -0.39601935761879192 0 0.13856080210032801 -0.40718546770452912 0 0.14264364217467171 -0.39601935761879192 0 0.15440789492312521 -0.39096971237786449 0 0.1502056953652525 -0.41731896529289342 0 0.15440789492312521 -0.39096971237786449 0 0.1502056953652525 -0.41731896529289342 0 0.1617906607629773 -0.40716388784453711 0 0.15440789492312521 -0.39096971237786449 0 0.1502056953652525 -0.41731896529289342 0 0.1502056953652525 -0.41731896529289342 0 0.12918142148228379 -0.41451334942006129 0 0.14829403190798399 -0.42930576012029531 0 0.14264364217467171 -0.39601935761879192 0 0.1502056953652525 -0.41731896529289342 0 0.13856080210032801 -0.40718546770452912 0 0.14264364217467171 -0.39601935761879192 0 0.1502056953652525 -0.41731896529289342 0 0.1502056953652525 -0.41731896529289342 0 0.13856080210032801 -0.40718546770452912 0 0.12918142148228379 -0.41451334942006129 0 0.13158740667988419 -0.40222931759110719 0 0.13856080210032801 -0.40718546770452912 0 0.12918142148228379 -0.41451334942006129 0 0.13158740667988419 -0.40222931759110719 0 0.12918142148228379 -0.41451334942006129 0 0.1207944043589603 -0.40236095401110722 0 0.12918142148228379 -0.41451334942006129 0 0.13888262542912841 -0.43412068040793661 0 0.14829403190798399 -0.42930576012029531 0 0.12918142148228379 -0.41451334942006129 0 0.1294218646572165 -0.43578679561450029 0 0.11981852814538869 -0.42741406383981012 0 0.12918142148228379 -0.41451334942006129 0 0.14829403190798399 -0.42930576012029531 0 0.12918142148228379 -0.41451334942006129 0 0.1294218646572165 -0.43578679561450029 0 0.13888262542912841 -0.43412068040793661 0 0.1502056953652525 -0.41731896529289342 0 0.14829403190798399 -0.42930576012029531 0 0.1567981766221716 -0.43588763451968021 0 0.13888262542912841 -0.43412068040793661 0 0.14829403190798399 -0.42930576012029531 0 0.14620777667630169 -0.44238730610300903 0 0.1502056953652525 -0.41731896529289342 0 0.1567981766221716 -0.43588763451968021 0 0.14829403190798399 -0.42930576012029531 0 0.14620777667630169 -0.44238730610300903 0 0.1502056953652525 -0.41731896529289342 0 0.14829403190798399 -0.42930576012029531 0 0.14829403190798399 -0.42930576012029531 0 0.1567981766221716 -0.43588763451968021 0 0.14620777667630169 -0.44238730610300903 0 0.14829403190798399 -0.42930576012029531 0 0.1567981766221716 -0.43588763451968021 0 0.1502056953652525 -0.41731896529289342 0 0.1567981766221716 -0.43588763451968021 0 0.16325575383391841 -0.42273754362076021 0 0.1567981766221716 -0.43588763451968021 0 0.1687507295477583 -0.43163269752898092 0 0.17616074474115209 -0.43920552802795437 0 0.1567981766221716 -0.43588763451968021 0 0.1687507295477583 -0.43163269752898092 0 0.16325575383391841 -0.42273754362076021 0 0.1687507295477583 -0.43163269752898092 0 0.16325575383391841 -0.42273754362076021 0 0.1778110137309287 -0.42709221836345362 0 0.1502056953652525 -0.41731896529289342 0 0.16325575383391841 -0.42273754362076021 0 0.1617906607629773 -0.40716388784453711 0 0.16325575383391841 -0.42273754362076021 0 0.17400062751163289 -0.40962128986140561 0 0.1778110137309287 -0.42709221836345362 0 0.16325575383391841 -0.42273754362076021 0 0.1617906607629773 -0.40716388784453711 0 0.17400062751163289 -0.40962128986140561 0 0.1962075587713189 -0.41336821408390251 0 0.1852063816057328 -0.39817489082257268 0 0.17400062751163289 -0.40962128986140561 0 0.1962075587713189 -0.41336821408390251 0 0.17400062751163289 -0.40962128986140561 0 0.1778110137309287 -0.42709221836345362 0 0.19329595931115021 -0.44027254851861652 0 0.1778110137309287 -0.42709221836345362 0 0.17616074474115209 -0.43920552802795437 0 0.1687507295477583 -0.43163269752898092 0 0.1778110137309287 -0.42709221836345362 0 0.17616074474115209 -0.43920552802795437 0 0.19329595931115021 -0.44027254851861652 0 0.17616074474115209 -0.43920552802795437 0 0.1794571440320161 -0.45342478640547718 0 0.1794571440320161 -0.45342478640547718 0 0.18665974126717191 -0.46752552726497598 0 0.17019238808808379 -0.46165112013613052 0 0.18665974126717191 -0.46752552726497598 0 0.17019238808808379 -0.46165112013613052 0 0.17577061761835311 -0.47256900669907093 0 0.1794571440320161 -0.45342478640547718 0 0.17019238808808379 -0.46165112013613052 0 0.16254325971928499 -0.45206948526043028 0 0.17019238808808379 -0.46165112013613052 0 0.15547262348368451 -0.46231785634365191 0 0.16377936163676399 -0.47210052123993951 0 0.16254325971928499 -0.45206948526043028 0 0.1526045387981885 -0.45021633914789172 0 0.15547262348368451 -0.46231785634365191 0 0.17019238808808379 -0.46165112013613052 0 0.16254325971928499 -0.45206948526043028 0 0.15547262348368451 -0.46231785634365191 0 0.1567981766221716 -0.43588763451968021 0 0.16254325971928499 -0.45206948526043028 0 0.1526045387981885 -0.45021633914789172 0 0.1567981766221716 -0.43588763451968021 0 0.17616074474115209 -0.43920552802795437 0 0.1794571440320161 -0.45342478640547718 0 0.1567981766221716 -0.43588763451968021 0 0.1794571440320161 -0.45342478640547718 0 0.1567981766221716 -0.43588763451968021 0 0.1794571440320161 -0.45342478640547718 0 0.16254325971928499 -0.45206948526043028 0 0.1567981766221716 -0.43588763451968021 0 0.16254325971928499 -0.45206948526043028 0 0.1567981766221716 -0.43588763451968021 0 0.1526045387981885 -0.45021633914789172 0 0.14620777667630169 -0.44238730610300903 0 0.1526045387981885 -0.45021633914789172 0 0.14620777667630169 -0.44238730610300903 0 0.14388797896311209 -0.45599395607593851 0 0.14620777667630169 -0.44238730610300903 0 0.1376761010810488 -0.447248421486793 0 0.14388797896311209 -0.45599395607593851 0 0.13888262542912841 -0.43412068040793661 0 0.14620777667630169 -0.44238730610300903 0 0.1376761010810488 -0.447248421486793 0 0.1294218646572165 -0.43578679561450029 0 0.13888262542912841 -0.43412068040793661 0 0.1376761010810488 -0.447248421486793 0 0.1376761010810488 -0.447248421486793 0 0.13460034307324761 -0.45546148867512742 0 0.14388797896311209 -0.45599395607593851 0 0.1376761010810488 -0.447248421486793 0 0.12718075209206489 -0.44949743633941253 0 0.13460034307324761 -0.45546148867512742 0 0.1294218646572165 -0.43578679561450029 0 0.12718075209206489 -0.44949743633941253 0 0.1215878640042935 -0.4403321396615581 0 0.1294218646572165 -0.43578679561450029 0 0.1376761010810488 -0.447248421486793 0 0.12718075209206489 -0.44949743633941253 0 0.13482189064971589 -0.46403268347358828 0 0.128273813504617 -0.47003327890003538 0 0.1249193090222048 -0.46193286646680998 0 0.13460034307324761 -0.45546148867512742 0 0.13482189064971589 -0.46403268347358828 0 0.1249193090222048 -0.46193286646680998 0 0.12718075209206489 -0.44949743633941253 0 0.13460034307324761 -0.45546148867512742 0 0.1249193090222048 -0.46193286646680998 0 0.13460034307324761 -0.45546148867512742 0 0.13482189064971589 -0.46403268347358828 0 0.14388797896311209 -0.45599395607593851 0 0.13482189064971589 -0.46403268347358828 0 0.1445846670396547 -0.46936044919779363 0 0.13611405120726 -0.47169181163285939 0 0.13482189064971589 -0.46403268347358828 0 0.13611405120726 -0.47169181163285939 0 0.128273813504617 -0.47003327890003538 0 0.14388797896311209 -0.45599395607593851 0 0.15547262348368451 -0.46231785634365191 0 0.1445846670396547 -0.46936044919779363 0 0.13482189064971589 -0.46403268347358828 0 0.14388797896311209 -0.45599395607593851 0 0.1445846670396547 -0.46936044919779363 0 0.1526045387981885 -0.45021633914789172 0 0.14388797896311209 -0.45599395607593851 0 0.15547262348368451 -0.46231785634365191 0 0.15547262348368451 -0.46231785634365191 0 0.15397852949211499 -0.47360687532883988 0 0.1445846670396547 -0.46936044919779363 0 0.15397852949211499 -0.47360687532883988 0 0.1486996819972029 -0.48215504833950512 0 0.1445846670396547 -0.46936044919779363 0 0.15397852949211499 -0.47360687532883988 0 0.1486996819972029 -0.48215504833950512 0 0.15776628720551439 -0.48124336725113148 0 0.1486996819972029 -0.48215504833950512 0 0.14007516503040571 -0.47739101042025878 0 0.13874486772258479 -0.48482731356800879 0 0.1486996819972029 -0.48215504833950512 0 0.1445846670396547 -0.46936044919779363 0 0.14007516503040571 -0.47739101042025878 0 0.1445846670396547 -0.46936044919779363 0 0.13611405120726 -0.47169181163285939 0 0.14007516503040571 -0.47739101042025878 0 0.13611405120726 -0.47169181163285939 0 0.14007516503040571 -0.47739101042025878 0 0.13165039455874539 -0.48019922255363312 0 0.14007516503040571 -0.47739101042025878 0 0.13165039455874539 -0.48019922255363312 0 0.13874486772258479 -0.48482731356800879 0 0.13165039455874539 -0.48019922255363312 0 0.131774085804888 -0.48749892460696409 0 0.13874486772258479 -0.48482731356800879 0 0.13165039455874539 -0.48019922255363312 0 0.12167336547913619 -0.47558657511131941 0 0.1229352314824261 -0.48328511156970472 0 0.13165039455874539 -0.48019922255363312 0 0.131774085804888 -0.48749892460696409 0 0.1229352314824261 -0.48328511156970472 0 0.13165039455874539 -0.48019922255363312 0 0.128273813504617 -0.47003327890003538 0 0.12167336547913619 -0.47558657511131941 0 0.13611405120726 -0.47169181163285939 0 0.13165039455874539 -0.48019922255363312 0 0.128273813504617 -0.47003327890003538 0 0.1512251881998945 -0.5 0 0.14486890768172089 -0.49465591904964651 0 0.1230923557402495 -0.49999999999999828 0 0.14486890768172089 -0.49465591904964651 0 0.120671027578962 -0.49452705629382782 0 0.14486890768172089 -0.49465591904964651 0 0.1230923557402495 -0.49999999999999828 0 0.120671027578962 -0.49452705629382782 0 0.131774085804888 -0.48749892460696409 0 0.14486890768172089 -0.49465591904964651 0 0.120671027578962 -0.49452705629382782 0 0.131774085804888 -0.48749892460696409 0 0.120671027578962 -0.49452705629382782 0 0.1229352314824261 -0.48328511156970472 0 0.131774085804888 -0.48749892460696409 0 0.13874486772258479 -0.48482731356800879 0 0.14486890768172089 -0.49465591904964651 0 0.1512251881998945 -0.5 0 0.14486890768172089 -0.49465591904964651 0 0.16906678778447989 -0.4947847818054647 0 0.1486996819972029 -0.48215504833950512 0 0.13874486772258479 -0.48482731356800879 0 0.14486890768172089 -0.49465591904964651 0 0.1486996819972029 -0.48215504833950512 0 0.14486890768172089 -0.49465591904964651 0 0.15872882370906011 -0.49054330899898102 0 0.1486996819972029 -0.48215504833950512 0 0.15872882370906011 -0.49054330899898102 0 0.15776628720551439 -0.48124336725113148 0 0.15872882370906011 -0.49054330899898102 0 0.16674121476196879 -0.48039906880865729 0 0.1778789014026477 -0.48501746097327042 0 0.16906678778447989 -0.4947847818054647 0 0.15872882370906011 -0.49054330899898102 0 0.1778789014026477 -0.48501746097327042 0 0.14486890768172089 -0.49465591904964651 0 0.16906678778447989 -0.4947847818054647 0 0.15872882370906011 -0.49054330899898102 0 0.1512251881998945 -0.5 0 0.16906678778447989 -0.4947847818054647 0 0.1793580206595394 -0.5 0 0.14486890768172089 -0.49465591904964651 0 0.16906678778447989 -0.4947847818054647 0 0.15872882370906011 -0.49054330899898102 0 0.1778789014026477 -0.48501746097327042 0 0.15776628720551439 -0.48124336725113148 0 0.16377936163676399 -0.47210052123993951 0 0.16674121476196879 -0.48039906880865729 0 0.15872882370906011 -0.49054330899898102 0 0.15776628720551439 -0.48124336725113148 0 0.16674121476196879 -0.48039906880865729 0 0.15397852949211499 -0.47360687532883988 0 0.15776628720551439 -0.48124336725113148 0 0.16377936163676399 -0.47210052123993951 0 0.15547262348368451 -0.46231785634365191 0 0.15397852949211499 -0.47360687532883988 0 0.16377936163676399 -0.47210052123993951 0 0.16377936163676399 -0.47210052123993951 0 0.16674121476196879 -0.48039906880865729 0 0.17577061761835311 -0.47256900669907093 0 0.17019238808808379 -0.46165112013613052 0 0.16377936163676399 -0.47210052123993951 0 0.17577061761835311 -0.47256900669907093 0 0.16674121476196879 -0.48039906880865729 0 0.17577061761835311 -0.47256900669907093 0 0.1778789014026477 -0.48501746097327042 0 0.19702897909623529 -0.47949161294755982 0 0.1778789014026477 -0.48501746097327042 0 0.19702897909623529 -0.47949161294755982 0 0.18623173545961649 -0.47527996069849882 0 0.1778789014026477 -0.48501746097327042 0 0.18665974126717191 -0.46752552726497598 0 0.17577061761835311 -0.47256900669907093 0 0.18623173545961649 -0.47527996069849882 0 0.17577061761835311 -0.47256900669907093 0 0.18623173545961649 -0.47527996069849882 0 0.1778789014026477 -0.48501746097327042 0 0.19326466788723881 -0.49491364456128301 0 0.16906678778447989 -0.4947847818054647 0 0.18351709027357871 -0.48988108099314298 0 0.19385800401994849 -0.48480843663255402 0 0.18351709027357871 -0.48988108099314298 0 0.1778789014026477 -0.48501746097327042 0 0.19326466788723881 -0.49491364456128301 0 0.16906678778447989 -0.4947847818054647 0 0.19326466788723881 -0.49491364456128301 0 0.16906678778447989 -0.4947847818054647 0 0.1793580206595394 -0.5 0 0.16906678778447989 -0.4947847818054647 0 0.18351709027357871 -0.48988108099314298 0 0.1778789014026477 -0.48501746097327042 0 0.068877575931119317 -0.5 0 0.070349461027846533 -0.49425907514360629 0 0.09178820566834478 -0.5 0 0.068877575931119317 -0.5 0 0.070349461027846533 -0.49425907514360629 0 0.049109975688023833 -0.49414596694563839 0 0.076485762501296919 -0.48997453219509468 0 0.061382578634924301 -0.48557688104861729 0 0.076485762501296919 -0.48997453219509468 0 0.070349461027846533 -0.49425907514360629 0 0.061382578634924301 -0.48557688104861729 0 0.076485762501296919 -0.48997453219509468 0 0.079071809223850029 -0.47322574926145677 0 0.061382578634924301 -0.48557688104861729 0 0.079071809223850029 -0.47322574926145677 0 0.065780697088549375 -0.46754929552396979 0 0.061382578634924301 -0.48557688104861729 0 0.079071809223850029 -0.47322574926145677 0 0.061382578634924301 -0.48557688104861729 0 0.079071809223850029 -0.47322574926145677 0 0.085721998623293924 -0.48457090937086239 0 0.095741476400359474 -0.48071117268532482 0 0.076485762501296919 -0.48997453219509468 0 0.079071809223850029 -0.47322574926145677 0 0.085721998623293924 -0.48457090937086239 0 0.079071809223850029 -0.47322574926145677 0 0.095741476400359474 -0.48071117268532482 0 0.0983030149584707 -0.4710984284122659 0 0.085721998623293924 -0.48457090937086239 0 0.091588946367669288 -0.49437218334157318 0 0.095741476400359474 -0.48071117268532482 0 0.070349461027846533 -0.49425907514360629 0 0.091588946367669288 -0.49437218334157318 0 0.070349461027846533 -0.49425907514360629 0 0.09178820566834478 -0.5 0 0.091588946367669288 -0.49437218334157318 0 0.076485762501296919 -0.48997453219509468 0 0.070349461027846533 -0.49425907514360629 0 0.091588946367669288 -0.49437218334157318 0 0.076485762501296919 -0.48997453219509468 0 0.085721998623293924 -0.48457090937086239 0 0.091588946367669288 -0.49437218334157318 0 0.076485762501296919 -0.48997453219509468 0 0.091588946367669288 -0.49437218334157318 0 0.091588946367669288 -0.49437218334157318 0 0.1142350958710089 -0.49449278255197088 0 0.09178820566834478 -0.5 0 0.091588946367669288 -0.49437218334157318 0 0.1146988354055702 -0.50000000000000322 0 0.091588946367669288 -0.49437218334157318 0 0.10357281726800389 -0.48653610838570099 0 0.1142350958710089 -0.49449278255197088 0 0.091588946367669288 -0.49437218334157318 0 0.1146988354055702 -0.50000000000000322 0 0.1142350958710089 -0.49449278255197088 0 0.091588946367669288 -0.49437218334157318 0 0.10357281726800389 -0.48653610838570099 0 0.095741476400359474 -0.48071117268532482 0 0.1142350958710089 -0.49449278255197088 0 0.120671027578962 -0.49452705629382782 0 0.11272575043297781 -0.47656829496393538 0 0.120671027578962 -0.49452705629382782 0 0.11272575043297781 -0.47656829496393538 0 0.10357281726800389 -0.48653610838570099 0 0.1142350958710089 -0.49449278255197088 0 0.11272575043297781 -0.47656829496393538 0 0.120671027578962 -0.49452705629382782 0 0.1229352314824261 -0.48328511156970472 0 0.11272575043297781 -0.47656829496393538 0 0.1142350958710089 -0.49449278255197088 0 0.11272575043297781 -0.47656829496393538 0 0.1146988354055702 -0.50000000000000322 0 0.1142350958710089 -0.49449278255197088 0 0.1146988354055702 -0.50000000000000322 0 0.1142350958710089 -0.49449278255197088 0 0.1181743286489477 -0.49725495971145001 0 0.1146988354055702 -0.50000000000000322 0 0.1230923557402495 -0.49999999999999828 0 0.1181743286489477 -0.49725495971145001 0 0.1230923557402495 -0.49999999999999828 0 0.120671027578962 -0.49452705629382782 0 0.1230923557402495 -0.49999999999999828 0 0.1181743286489477 -0.49725495971145001 0 0.120671027578962 -0.49452705629382782 0 0.1142350958710089 -0.49449278255197088 0 0.1181743286489477 -0.49725495971145001 0 0.120671027578962 -0.49452705629382782 0 0.1142350958710089 -0.49449278255197088 0 0.120671027578962 -0.49452705629382782 0 0.128273813504617 -0.47003327890003538 0 0.12167336547913619 -0.47558657511131941 0 0.1198817074840593 -0.46803530735250881 0 0.12167336547913619 -0.47558657511131941 0 0.11272575043297781 -0.47656829496393538 0 0.1198817074840593 -0.46803530735250881 0 0.12167336547913619 -0.47558657511131941 0 0.1229352314824261 -0.48328511156970472 0 0.11272575043297781 -0.47656829496393538 0 0.11272575043297781 -0.47656829496393538 0 0.11179636322275679 -0.46553119961492467 0 0.11272575043297781 -0.47656829496393538 0 0.10721499892239041 -0.46411230767631678 0 0.11272575043297781 -0.47656829496393538 0 0.11179636322275679 -0.46553119961492467 0 0.1198817074840593 -0.46803530735250881 0 0.11272575043297781 -0.47656829496393538 0 0.0983030149584707 -0.4710984284122659 0 0.10721499892239041 -0.46411230767631678 0 0.11272575043297781 -0.47656829496393538 0 0.095741476400359474 -0.48071117268532482 0 0.0983030149584707 -0.4710984284122659 0 0.10357281726800389 -0.48653610838570099 0 0.11272575043297781 -0.47656829496393538 0 0.095741476400359474 -0.48071117268532482 0 0.0983030149584707 -0.4710984284122659 0 0.09676103981277541 -0.46087461747429592 0 0.10721499892239041 -0.46411230767631678 0 0.10250312044065719 -0.45346201826361482 0 0.11179636322275679 -0.46553119961492467 0 0.1099504338807067 -0.44360955282263193 0 0.095958969786017687 -0.45356444471310492 0 0.09676103981277541 -0.46087461747429592 0 0.08962082905381577 -0.44941322289987601 0 0.09676103981277541 -0.46087461747429592 0 0.0989613087259998 -0.45589557978285827 0 0.10721499892239041 -0.46411230767631678 0 0.095958969786017687 -0.45356444471310492 0 0.09676103981277541 -0.46087461747429592 0 0.0989613087259998 -0.45589557978285827 0 0.095958969786017687 -0.45356444471310492 0 0.0989613087259998 -0.45589557978285827 0 0.10250312044065719 -0.45346201826361482 0 0.10250312044065719 -0.45346201826361482 0 0.10721499892239041 -0.46411230767631678 0 0.0989613087259998 -0.45589557978285827 0 0.10250312044065719 -0.45346201826361482 0 0.10721499892239041 -0.46411230767631678 0 0.10250312044065719 -0.45346201826361482 0 0.10721499892239041 -0.46411230767631678 0 0.11179636322275679 -0.46553119961492467 0 0.09676103981277541 -0.46087461747429592 0 0.10721499892239041 -0.46411230767631678 0 0.11179636322275679 -0.46553119961492467 0 0.1198817074840593 -0.46803530735250881 0 0.11866941064410209 -0.4626762522478497 0 0.11272575043297781 -0.47656829496393538 0 0.10721499892239041 -0.46411230767631678 0 0.11179636322275679 -0.46553119961492467 0 0.11179636322275679 -0.46553119961492467 0 0.1198817074840593 -0.46803530735250881 0 0.11179636322275679 -0.46553119961492467 0 0.1180802628473875 -0.45520563555715521 0 0.1099504338807067 -0.44360955282263193 0 0.11179636322275679 -0.46553119961492467 0 0.1180802628473875 -0.45520563555715521 0 0.11866941064410209 -0.4626762522478497 0 0.11179636322275679 -0.46553119961492467 0 0.1099504338807067 -0.44360955282263193 0 0.10721499892239041 -0.46411230767631678 0 0.11179636322275679 -0.46553119961492467 0 0.1180802628473875 -0.45520563555715521 0 0.1249193090222048 -0.46193286646680998 0 0.11866941064410209 -0.4626762522478497 0 0.12718075209206489 -0.44949743633941253 0 0.1180802628473875 -0.45520563555715521 0 0.1249193090222048 -0.46193286646680998 0 0.128273813504617 -0.47003327890003538 0 0.1249193090222048 -0.46193286646680998 0 0.1198817074840593 -0.46803530735250881 0 0.1249193090222048 -0.46193286646680998 0 0.1198817074840593 -0.46803530735250881 0 0.11866941064410209 -0.4626762522478497 0 0.12718075209206489 -0.44949743633941253 0 0.1180802628473875 -0.45520563555715521 0 0.11919982820611311 -0.44716119109518943 0 0.12718075209206489 -0.44949743633941253 0 0.1215878640042935 -0.4403321396615581 0 0.11919982820611311 -0.44716119109518943 0 0.1180802628473875 -0.45520563555715521 0 0.11919982820611311 -0.44716119109518943 0 0.1099504338807067 -0.44360955282263193 0 0.1215878640042935 -0.4403321396615581 0 0.11919982820611311 -0.44716119109518943 0 0.1099504338807067 -0.44360955282263193 0 0.098921933657774602 -0.44447559631554362 0 0.08962082905381577 -0.44941322289987601 0 0.095611566657659575 -0.43328073990127558 0 0.10250312044065719 -0.45346201826361482 0 0.1099504338807067 -0.44360955282263193 0 0.098921933657774602 -0.44447559631554362 0 0.095958969786017687 -0.45356444471310492 0 0.10250312044065719 -0.45346201826361482 0 0.098921933657774602 -0.44447559631554362 0 0.095958969786017687 -0.45356444471310492 0 0.098921933657774602 -0.44447559631554362 0 0.08962082905381577 -0.44941322289987601 0 0.1099504338807067 -0.44360955282263193 0 0.098921933657774602 -0.44447559631554362 0 0.095611566657659575 -0.43328073990127558 0 0.08962082905381577 -0.44941322289987601 0 0.080478040019053718 -0.43641892943880389 0 0.095611566657659575 -0.43328073990127558 0 0.09676103981277541 -0.46087461747429592 0 0.07904121913559517 -0.44722483309992461 0 0.08962082905381577 -0.44941322289987601 0 0.07904121913559517 -0.44722483309992461 0 0.08962082905381577 -0.44941322289987601 0 0.080478040019053718 -0.43641892943880389 0 0.079071809223850029 -0.47322574926145677 0 0.09676103981277541 -0.46087461747429592 0 0.09676103981277541 -0.46087461747429592 0 0.068209992878108111 -0.45203208767783332 0 0.079071809223850029 -0.47322574926145677 0 0.09676103981277541 -0.46087461747429592 0 0.068209992878108111 -0.45203208767783332 0 0.079071809223850029 -0.47322574926145677 0 0.0983030149584707 -0.4710984284122659 0 0.09676103981277541 -0.46087461747429592 0 0.09676103981277541 -0.46087461747429592 0 0.07904121913559517 -0.44722483309992461 0 0.068209992878108111 -0.45203208767783332 0 0.079071809223850029 -0.47322574926145677 0 0.065780697088549375 -0.46754929552396979 0 0.068209992878108111 -0.45203208767783332 0 0.068209992878108111 -0.45203208767783332 0 0.064661326260706101 -0.43491101041806579 0 0.055294184483280717 -0.43964279545198248 0 0.07904121913559517 -0.44722483309992461 0 0.068209992878108111 -0.45203208767783332 0 0.064661326260706101 -0.43491101041806579 0 0.07904121913559517 -0.44722483309992461 0 0.064661326260706101 -0.43491101041806579 0 0.080478040019053718 -0.43641892943880389 0 0.064661326260706101 -0.43491101041806579 0 0.080643084100119694 -0.41763938132839279 0 0.06183367991643423 -0.41964691109323338 0 0.064661326260706101 -0.43491101041806579 0 0.080643084100119694 -0.41763938132839279 0 0.064661326260706101 -0.43491101041806579 0 0.080643084100119694 -0.41763938132839279 0 0.080478040019053718 -0.43641892943880389 0 0.080643084100119694 -0.41763938132839279 0 0.065641901767313826 -0.40364198303428911 0 0.06183367991643423 -0.41964691109323338 0 0.080643084100119694 -0.41763938132839279 0 0.095611566657659575 -0.43328073990127558 0 0.097448514486515148 -0.41454840774735469 0 0.080643084100119694 -0.41763938132839279 0 0.096624841939533274 -0.4003677522387199 0 0.080643084100119694 -0.41763938132839279 0 0.097448514486515148 -0.41454840774735469 0 0.096624841939533274 -0.4003677522387199 0 0.080643084100119694 -0.41763938132839279 0 0.080478040019053718 -0.43641892943880389 0 0.095611566657659575 -0.43328073990127558 0 0.1099504338807067 -0.44360955282263193 0 0.095611566657659575 -0.43328073990127558 0 0.1081045045386566 -0.42168790603033918 0 0.095611566657659575 -0.43328073990127558 0 0.1081045045386566 -0.42168790603033918 0 0.097448514486515148 -0.41454840774735469 0 0.1099504338807067 -0.44360955282263193 0 0.1081045045386566 -0.42168790603033918 0 0.1099504338807067 -0.44360955282263193 0 0.11981852814538869 -0.42741406383981012 0 0.1081045045386566 -0.42168790603033918 0 0.1215878640042935 -0.4403321396615581 0 0.1099504338807067 -0.44360955282263193 0 0.11981852814538869 -0.42741406383981012 0 0.1294218646572165 -0.43578679561450029 0 0.1215878640042935 -0.4403321396615581 0 0.11981852814538869 -0.42741406383981012 0 0.12918142148228379 -0.41451334942006129 0 0.11981852814538869 -0.42741406383981012 0 0.1081045045386566 -0.42168790603033918 0 0.1081045045386566 -0.42168790603033918 0 0.1062585751966066 -0.39976625923804637 0 0.1207944043589603 -0.40236095401110722 0 0.12918142148228379 -0.41451334942006129 0 0.1081045045386566 -0.42168790603033918 0 0.1207944043589603 -0.40236095401110722 0 0.1081045045386566 -0.42168790603033918 0 0.1062585751966066 -0.39976625923804637 0 0.1081045045386566 -0.42168790603033918 0 0.097448514486515148 -0.41454840774735469 0 0.1062585751966066 -0.39976625923804637 0 0.097448514486515148 -0.41454840774735469 0 0.096624841939533274 -0.4003677522387199 0 0.1062585751966066 -0.39976625923804637 0 0.096624841939533274 -0.4003677522387199 0 0.1062585751966066 -0.39976625923804637 0 0.11260659977894689 -0.38309612314904679 0 0.096624841939533274 -0.4003677522387199 0 0.11260659977894689 -0.38309612314904679 0 0.1062585751966066 -0.39976625923804637 0 0.11660408565442271 -0.39407269889981172 0 0.11260659977894689 -0.38309612314904679 0 0.1062585751966066 -0.39976625923804637 0 0.11660408565442271 -0.39407269889981172 0 0.1207944043589603 -0.40236095401110722 0 0.12675676328317731 -0.39106745920104641 0 0.11660408565442271 -0.39407269889981172 0 0.1207944043589603 -0.40236095401110722 0 0.13508158898409059 -0.37471974994469059 0 0.12675676328317731 -0.39106745920104641 0 0.11260659977894689 -0.38309612314904679 0 0.12675676328317731 -0.39106745920104641 0 0.11660408565442271 -0.39407269889981172 0 0.11260659977894689 -0.38309612314904679 0 0.096624841939533274 -0.4003677522387199 0 0.11260659977894689 -0.38309612314904679 0 0.098171509976255067 -0.38601876996305268 0 0.11260659977894689 -0.38309612314904679 0 0.098171509976255067 -0.38601876996305268 0 0.10089565584643991 -0.37174389926755891 0 0.098171509976255067 -0.38601876996305268 0 0.090479702324040095 -0.37861027150899501 0 0.10089565584643991 -0.37174389926755891 0 0.090479702324040095 -0.37861027150899501 0 0.08223189700180894 -0.39358795207154068 0 0.075614499754217801 -0.37647048470491279 0 0.098171509976255067 -0.38601876996305268 0 0.090479702324040095 -0.37861027150899501 0 0.08223189700180894 -0.39358795207154068 0 0.080643084100119694 -0.41763938132839279 0 0.096624841939533274 -0.4003677522387199 0 0.08223189700180894 -0.39358795207154068 0 0.096624841939533274 -0.4003677522387199 0 0.098171509976255067 -0.38601876996305268 0 0.08223189700180894 -0.39358795207154068 0 0.08223189700180894 -0.39358795207154068 0 0.065641901767313826 -0.40364198303428911 0 0.067569378564308988 -0.38854156953112989 0 0.080643084100119694 -0.41763938132839279 0 0.08223189700180894 -0.39358795207154068 0 0.065641901767313826 -0.40364198303428911 0 0.08223189700180894 -0.39358795207154068 0 0.067569378564308988 -0.38854156953112989 0 0.075614499754217801 -0.37647048470491279 0 0.067569378564308988 -0.38854156953112989 0 0.075614499754217801 -0.37647048470491279 0 0.061048037741941792 -0.37406169506399572 0 0.05137854974481177 -0.39103659075729141 0 0.061048037741941792 -0.37406169506399572 0 0.044736171753604878 -0.372426841972398 0 0.067569378564308988 -0.38854156953112989 0 0.05137854974481177 -0.39103659075729141 0 0.061048037741941792 -0.37406169506399572 0 0.065641901767313826 -0.40364198303428911 0 0.05137854974481177 -0.39103659075729141 0 0.050194821276399328 -0.41139949342414678 0 0.05137854974481177 -0.39103659075729141 0 0.039071156796330102 -0.40117618884745732 0 0.050194821276399328 -0.41139949342414678 0 0.065641901767313826 -0.40364198303428911 0 0.067569378564308988 -0.38854156953112989 0 0.05137854974481177 -0.39103659075729141 0 0.039071156796330102 -0.40117618884745732 0 0.022449353873779949 -0.40281485478340229 0 0.037568245884652227 -0.41462182273266512 0 0.039071156796330102 -0.40117618884745732 0 0.033764813202007228 -0.38600818253978109 0 0.022449353873779949 -0.40281485478340229 0 0.05137854974481177 -0.39103659075729141 0 0.039071156796330102 -0.40117618884745732 0 0.033764813202007228 -0.38600818253978109 0 0.05137854974481177 -0.39103659075729141 0 0.033764813202007228 -0.38600818253978109 0 0.044736171753604878 -0.372426841972398 0 0.033764813202007228 -0.38600818253978109 0 0.031649593445556158 -0.36983146754652219 0 0.044736171753604878 -0.372426841972398 0 0.033764813202007228 -0.38600818253978109 0 0.016251258061710142 -0.37720156778687941 0 0.031649593445556158 -0.36983146754652219 0 0.016251258061710142 -0.37720156778687941 0 0.022449353873779949 -0.40281485478340229 0 0.033764813202007228 -0.38600818253978109 0 0.016251258061710142 -0.37720156778687941 0 0.022449353873779949 -0.40281485478340229 0 -0.0089935967596312845 -0.37600889422938621 0 -0.0026714207763636031 -0.39921203780759179 0 0.016251258061710142 -0.37720156778687941 0 -0.0026714207763636031 -0.39921203780759179 0 0.016251258061710142 -0.37720156778687941 0 0.022449353873779949 -0.40281485478340229 0 0.022449353873779949 -0.40281485478340229 0 0.01187466835926587 -0.42381695181355522 0 0.028647449685849782 -0.42842814177992522 0 0.022449353873779949 -0.40281485478340229 0 0.028647449685849782 -0.42842814177992522 0 0.022449353873779949 -0.40281485478340229 0 0.028647449685849782 -0.42842814177992522 0 0.037568245884652227 -0.41462182273266512 0 -0.0026714207763636031 -0.39921203780759179 0 0.022449353873779949 -0.40281485478340229 0 0.01187466835926587 -0.42381695181355522 0 -0.010333105857996371 -0.4232681593450357 0 0.01187466835926587 -0.42381695181355522 0 0.0083772917317496299 -0.44625754927048522 0 0.01187466835926587 -0.42381695181355522 0 0.020840333089770149 -0.44189887965893659 0 0.0083772917317496299 -0.44625754927048522 0 0.01187466835926587 -0.42381695181355522 0 0.028647449685849782 -0.42842814177992522 0 0.020840333089770149 -0.44189887965893659 0 0.028647449685849782 -0.42842814177992522 0 0.048646472850867817 -0.42843852583066022 0 0.039658945943440868 -0.44318955788137038 0 0.028647449685849782 -0.42842814177992522 0 0.037568245884652227 -0.41462182273266512 0 0.048646472850867817 -0.42843852583066022 0 0.037568245884652227 -0.41462182273266512 0 0.050194821276399328 -0.41139949342414678 0 0.048646472850867817 -0.42843852583066022 0 0.039071156796330102 -0.40117618884745732 0 0.037568245884652227 -0.41462182273266512 0 0.050194821276399328 -0.41139949342414678 0 0.065641901767313826 -0.40364198303428911 0 0.06183367991643423 -0.41964691109323338 0 0.050194821276399328 -0.41139949342414678 0 0.06183367991643423 -0.41964691109323338 0 0.050194821276399328 -0.41139949342414678 0 0.048646472850867817 -0.42843852583066022 0 0.048646472850867817 -0.42843852583066022 0 0.055294184483280717 -0.43964279545198248 0 0.039658945943440868 -0.44318955788137038 0 0.064661326260706101 -0.43491101041806579 0 0.048646472850867817 -0.42843852583066022 0 0.055294184483280717 -0.43964279545198248 0 0.064661326260706101 -0.43491101041806579 0 0.06183367991643423 -0.41964691109323338 0 0.048646472850867817 -0.42843852583066022 0 0.068209992878108111 -0.45203208767783332 0 0.039658945943440868 -0.44318955788137038 0 0.068209992878108111 -0.45203208767783332 0 0.048777346682024422 -0.45327709134956312 0 0.039658945943440868 -0.44318955788137038 0 0.068209992878108111 -0.45203208767783332 0 0.055294184483280717 -0.43964279545198248 0 0.039658945943440868 -0.44318955788137038 0 0.068209992878108111 -0.45203208767783332 0 0.052394902408629068 -0.46384529106260058 0 0.048777346682024422 -0.45327709134956312 0 0.065780697088549375 -0.46754929552396979 0 0.068209992878108111 -0.45203208767783332 0 0.052394902408629068 -0.46384529106260058 0 0.052394902408629068 -0.46384529106260058 0 0.034845545497919621 -0.45404142877644821 0 0.041043641309990039 -0.47965471577297097 0 0.034845545497919621 -0.45404142877644821 0 0.020456710174065851 -0.45695032665426921 0 0.041043641309990039 -0.47965471577297097 0 0.052394902408629068 -0.46384529106260058 0 0.048777346682024422 -0.45327709134956312 0 0.034845545497919621 -0.45404142877644821 0 0.034845545497919621 -0.45404142877644821 0 0.041043641309990039 -0.47965471577297097 0 0.028647449685849782 -0.42842814177992522 0 0.034845545497919621 -0.45404142877644821 0 0.039658945943440868 -0.44318955788137038 0 0.028647449685849782 -0.42842814177992522 0 0.034845545497919621 -0.45404142877644821 0 0.048777346682024422 -0.45327709134956312 0 0.034845545497919621 -0.45404142877644821 0 0.039658945943440868 -0.44318955788137038 0 0.028647449685849782 -0.42842814177992522 0 0.034845545497919621 -0.45404142877644821 0 0.020840333089770149 -0.44189887965893659 0 0.034845545497919621 -0.45404142877644821 0 0.020840333089770149 -0.44189887965893659 0 0.020456710174065851 -0.45695032665426921 0 0.020840333089770149 -0.44189887965893659 0 0.0083772917317496299 -0.44625754927048522 0 0.020456710174065851 -0.45695032665426921 0 -0.0122552006841631 -0.46413549044436769 0 0.01439422031291368 -0.47189510310866878 0 0.0083772917317496299 -0.44625754927048522 0 0.020456710174065851 -0.45695032665426921 0 0.01439422031291368 -0.47189510310866878 0 -0.0122552006841631 -0.46413549044436769 0 0.0083772917317496299 -0.44625754927048522 0 0.01439422031291368 -0.47189510310866878 0 0.020456710174065851 -0.45695032665426921 0 0.01439422031291368 -0.47189510310866878 0 0.041043641309990039 -0.47965471577297097 0 0.01439422031291368 -0.47189510310866878 0 0.031819390432445777 -0.48968385669176723 0 0.041043641309990039 -0.47965471577297097 0 0.01439422031291368 -0.47189510310866878 0 0.041043641309990039 -0.47965471577297097 0 -0.002184083443599689 -0.482152927360879 0 0.01439422031291368 -0.47189510310866878 0 0.017723836695573869 -0.5 0 -0.005278184763499616 -0.5 0 -0.002184083443599689 -0.482152927360879 0 0.017723836695573869 -0.5 0 0.017723836695573869 -0.5 0 0.040725858154647271 -0.49999999999999939 0 0.031819390432445777 -0.48968385669176723 0 0.01439422031291368 -0.47189510310866878 0 0.017723836695573869 -0.5 0 0.031819390432445777 -0.48968385669176723 0 0.045209395689104447 -0.49686946457719688 0 0.041043641309990039 -0.47965471577297097 0 0.045209395689104447 -0.49686946457719688 0 0.031819390432445777 -0.48968385669176723 0 0.041043641309990039 -0.47965471577297097 0 0.046067179473822738 -0.4941297629185139 0 0.045209395689104447 -0.49686946457719688 0 0.041043641309990039 -0.47965471577297097 0 0.040725858154647271 -0.49999999999999939 0 0.045209395689104447 -0.49686946457719688 0 0.040725858154647271 -0.49999999999999939 0 0.045209395689104447 -0.49686946457719688 0 0.031819390432445777 -0.48968385669176723 0 0.046067179473822738 -0.4941297629185139 0 0.045209395689104447 -0.49686946457719688 0 0.049109975688023833 -0.49414596694563839 0 0.040725858154647271 -0.49999999999999939 0 0.045209395689104447 -0.49686946457719688 0 0.045966946193893937 -0.49999999999999278 0 0.045209395689104447 -0.49686946457719688 0 0.045966946193893937 -0.49999999999999278 0 0.049109975688023833 -0.49414596694563839 0 0.045209395689104447 -0.49686946457719688 0 0.045966946193893937 -0.49999999999999278 0 0.046067179473822738 -0.4941297629185139 0 0.041043641309990039 -0.47965471577297097 0 0.049109975688023833 -0.49414596694563839 0 0.065780697088549375 -0.46754929552396979 0 0.052394902408629068 -0.46384529106260058 0 0.061382578634924301 -0.48557688104861729 0 0.052394902408629068 -0.46384529106260058 0 0.041043641309990039 -0.47965471577297097 0 0.061382578634924301 -0.48557688104861729 0 0.041043641309990039 -0.47965471577297097 0 0.061382578634924301 -0.48557688104861729 0 0.070349461027846533 -0.49425907514360629 0 0.061382578634924301 -0.48557688104861729 0 0.049109975688023833 -0.49414596694563839 0 0.061382578634924301 -0.48557688104861729 0 0.049109975688023833 -0.49414596694563839 0 0.041043641309990039 -0.47965471577297097 0 0.061382578634924301 -0.48557688104861729 0 0.049109975688023833 -0.49414596694563839 0 0.070349461027846533 -0.49425907514360629 0 0.049109975688023833 -0.49414596694563839 0 0.068877575931119317 -0.5 0 0.045966946193893937 -0.49999999999999278 0 0.049109975688023833 -0.49414596694563839 0 0.045209395689104447 -0.49686946457719688 0 0.049109975688023833 -0.49414596694563839 0 0.046067179473822738 -0.4941297629185139 0 0.049109975688023833 -0.49414596694563839 0 0.091847741482996376 -0.2949285931002808 0 0.075804622982612022 -0.29822446218408688 0 0.078088146846136311 -0.28167179675678727 0 0.091847741482996376 -0.2949285931002808 0 0.078088146846136311 -0.28167179675678727 0 0.092696283312629829 -0.2760846245926063 0 0.091847741482996376 -0.2949285931002808 0 0.1043013145741435 -0.31279565401843951 0 0.083738468644310504 -0.31373292867818831 0 0.091847741482996376 -0.2949285931002808 0 0.075804622982612022 -0.29822446218408688 0 0.083738468644310504 -0.31373292867818831 0 0.075804622982612022 -0.29822446218408688 0 0.062666149710958075 -0.30686542676974382 0 0.083738468644310504 -0.31373292867818831 0 0.075804622982612022 -0.29822446218408688 0 0.062666149710958075 -0.30686542676974382 0 0.06510418171068505 -0.29263729377063258 0 0.075804622982612022 -0.29822446218408688 0 0.06510418171068505 -0.29263729377063258 0 0.078088146846136311 -0.28167179675678727 0 0.06510418171068505 -0.29263729377063258 0 0.078088146846136311 -0.28167179675678727 0 0.063145434993065713 -0.28109054588171889 0 0.078088146846136311 -0.28167179675678727 0 0.071390325493261658 -0.27320599474471119 0 0.080889532615638388 -0.26450711159321361 0 0.071390325493261658 -0.27320599474471119 0 0.063438187518206207 -0.26555452474712532 0 0.080889532615638388 -0.26450711159321361 0 0.063145434993065713 -0.28109054588171889 0 0.071390325493261658 -0.27320599474471119 0 0.063438187518206207 -0.26555452474712532 0 0.078088146846136311 -0.28167179675678727 0 0.063145434993065713 -0.28109054588171889 0 0.071390325493261658 -0.27320599474471119 0 0.063438187518206207 -0.26555452474712532 0 0.072498359263896014 -0.25178780853489569 0 0.080889532615638388 -0.26450711159321361 0 0.063438187518206207 -0.26555452474712532 0 0.072498359263896014 -0.25178780853489569 0 0.059969151172626523 -0.25031490138327489 0 0.072498359263896014 -0.25178780853489569 0 0.080889532615638388 -0.26450711159321361 0 0.086527918232943035 -0.24915400579853081 0 0.080889532615638388 -0.26450711159321361 0 0.09570085326086121 -0.26008895182685488 0 0.086527918232943035 -0.24915400579853081 0 0.078088146846136311 -0.28167179675678727 0 0.080889532615638388 -0.26450711159321361 0 0.092696283312629829 -0.2760846245926063 0 0.080889532615638388 -0.26450711159321361 0 0.092696283312629829 -0.2760846245926063 0 0.09570085326086121 -0.26008895182685488 0 0.092696283312629829 -0.2760846245926063 0 0.1039396912915871 -0.2707489591703513 0 0.1057117343785596 -0.28456233510814988 0 0.092696283312629829 -0.2760846245926063 0 0.1039396912915871 -0.2707489591703513 0 0.09570085326086121 -0.26008895182685488 0 0.1039396912915871 -0.2707489591703513 0 0.1164741872495455 -0.2770232702694726 0 0.1057117343785596 -0.28456233510814988 0 0.09570085326086121 -0.26008895182685488 0 0.086527918232943035 -0.24915400579853081 0 0.1001703677061717 -0.2446294187205533 0 0.1039396912915871 -0.2707489591703513 0 0.09570085326086121 -0.26008895182685488 0 0.1112928173744573 -0.25694793586032649 0 0.09570085326086121 -0.26008895182685488 0 0.1112928173744573 -0.25694793586032649 0 0.1001703677061717 -0.2446294187205533 0 0.1250566038212913 -0.25905064346822732 0 0.1112928173744573 -0.25694793586032649 0 0.1164741872495455 -0.2770232702694726 0 0.1250566038212913 -0.25905064346822732 0 0.1112928173744573 -0.25694793586032649 0 0.1259743144220184 -0.2461285612103877 0 0.1039396912915871 -0.2707489591703513 0 0.1112928173744573 -0.25694793586032649 0 0.1164741872495455 -0.2770232702694726 0 0.12854847488496909 -0.27152578832108198 0 0.1250566038212913 -0.25905064346822732 0 0.1164741872495455 -0.2770232702694726 0 0.13519087980281261 -0.28286675647461401 0 0.1164741872495455 -0.2770232702694726 0 0.1206045389644933 -0.28963084435756131 0 0.1206045389644933 -0.28963084435756131 0 0.1057117343785596 -0.28456233510814988 0 0.10892607697208399 -0.2985791900593866 0 0.1164741872495455 -0.2770232702694726 0 0.1206045389644933 -0.28963084435756131 0 0.1057117343785596 -0.28456233510814988 0 0.091847741482996376 -0.2949285931002808 0 0.092696283312629829 -0.2760846245926063 0 0.1057117343785596 -0.28456233510814988 0 0.091847741482996376 -0.2949285931002808 0 0.1057117343785596 -0.28456233510814988 0 0.10892607697208399 -0.2985791900593866 0 0.091847741482996376 -0.2949285931002808 0 0.10892607697208399 -0.2985791900593866 0 0.1043013145741435 -0.31279565401843951 0 0.1206045389644933 -0.28963084435756131 0 0.10892607697208399 -0.2985791900593866 0 0.1221650554602273 -0.31097852371250162 0 0.13109320858904849 -0.3035998348156026 0 0.1206045389644933 -0.28963084435756131 0 0.1221650554602273 -0.31097852371250162 0 0.10892607697208399 -0.2985791900593866 0 0.1221650554602273 -0.31097852371250162 0 0.1043013145741435 -0.31279565401843951 0 0.1221650554602273 -0.31097852371250162 0 0.1199574826029285 -0.33212053459648788 0 0.1043013145741435 -0.31279565401843951 0 0.13249403123214121 -0.32444963127385429 0 0.1221650554602273 -0.31097852371250162 0 0.1199574826029285 -0.33212053459648788 0 0.1275195357935095 -0.35342014227058932 0 0.1199574826029285 -0.33212053459648788 0 0.1199574826029285 -0.33212053459648788 0 0.10101773630259681 -0.34125119255971598 0 0.11350216295731121 -0.34825222997511118 0 0.1199574826029285 -0.33212053459648788 0 0.10101773630259681 -0.34125119255971598 0 0.098809603441154192 -0.32657723175290482 0 0.10101773630259681 -0.34125119255971598 0 0.098809603441154192 -0.32657723175290482 0 0.085033015081791702 -0.33298584891169231 0 0.1199574826029285 -0.33212053459648788 0 0.098809603441154192 -0.32657723175290482 0 0.1043013145741435 -0.31279565401843951 0 0.098809603441154192 -0.32657723175290482 0 0.1043013145741435 -0.31279565401843951 0 0.083738468644310504 -0.31373292867818831 0 0.1285883576183606 -0.36582449405937378 0 0.11260659977894689 -0.38309612314904679 0 0.11447259301456671 -0.36079255643970448 0 0.1285883576183606 -0.36582449405937378 0 0.11260659977894689 -0.38309612314904679 0 0.1275195357935095 -0.35342014227058932 0 0.1285883576183606 -0.36582449405937378 0 0.11447259301456671 -0.36079255643970448 0 0.1275195357935095 -0.35342014227058932 0 0.1199574826029285 -0.33212053459648788 0 0.11350216295731121 -0.34825222997511118 0 0.11447259301456671 -0.36079255643970448 0 0.11350216295731121 -0.34825222997511118 0 0.1012209703196561 -0.35661254813235649 0 0.1275195357935095 -0.35342014227058932 0 0.11447259301456671 -0.36079255643970448 0 0.11350216295731121 -0.34825222997511118 0 0.10101773630259681 -0.34125119255971598 0 0.11350216295731121 -0.34825222997511118 0 0.1012209703196561 -0.35661254813235649 0 0.10101773630259681 -0.34125119255971598 0 0.1012209703196561 -0.35661254813235649 0 0.08680513631721043 -0.34987956103237933 0 0.11260659977894689 -0.38309612314904679 0 0.11447259301456671 -0.36079255643970448 0 0.10089565584643991 -0.37174389926755891 0 0.11447259301456671 -0.36079255643970448 0 0.1012209703196561 -0.35661254813235649 0 0.10089565584643991 -0.37174389926755891 0 0.1012209703196561 -0.35661254813235649 0 0.10089565584643991 -0.37174389926755891 0 0.08787592620804785 -0.36565372043207001 0 0.075614499754217801 -0.37647048470491279 0 0.08787592620804785 -0.36565372043207001 0 0.07274636282499819 -0.36058913786458963 0 0.090479702324040095 -0.37861027150899501 0 0.075614499754217801 -0.37647048470491279 0 0.08787592620804785 -0.36565372043207001 0 0.090479702324040095 -0.37861027150899501 0 0.10089565584643991 -0.37174389926755891 0 0.08787592620804785 -0.36565372043207001 0 0.1012209703196561 -0.35661254813235649 0 0.08787592620804785 -0.36565372043207001 0 0.08680513631721043 -0.34987956103237933 0 0.08787592620804785 -0.36565372043207001 0 0.08680513631721043 -0.34987956103237933 0 0.07274636282499819 -0.36058913786458963 0 0.08680513631721043 -0.34987956103237933 0 0.07274636282499819 -0.36058913786458963 0 0.072390173709045116 -0.34250551231372262 0 0.07274636282499819 -0.36058913786458963 0 0.072390173709045116 -0.34250551231372262 0 0.054243263809709077 -0.35530554555365251 0 0.07274636282499819 -0.36058913786458963 0 0.061048037741941792 -0.37406169506399572 0 0.054243263809709077 -0.35530554555365251 0 0.075614499754217801 -0.37647048470491279 0 0.07274636282499819 -0.36058913786458963 0 0.061048037741941792 -0.37406169506399572 0 0.098809603441154192 -0.32657723175290482 0 0.083738468644310504 -0.31373292867818831 0 0.085033015081791702 -0.33298584891169231 0 0.083738468644310504 -0.31373292867818831 0 0.085033015081791702 -0.33298584891169231 0 0.069072802299308789 -0.32491089866928519 0 0.08680513631721043 -0.34987956103237933 0 0.085033015081791702 -0.33298584891169231 0 0.072390173709045116 -0.34250551231372262 0 0.10101773630259681 -0.34125119255971598 0 0.08680513631721043 -0.34987956103237933 0 0.085033015081791702 -0.33298584891169231 0 0.085033015081791702 -0.33298584891169231 0 0.072390173709045116 -0.34250551231372262 0 0.069072802299308789 -0.32491089866928519 0 0.072390173709045116 -0.34250551231372262 0 0.069072802299308789 -0.32491089866928519 0 0.053151194188502553 -0.33445594754233759 0 0.062666149710958075 -0.30686542676974382 0 0.083738468644310504 -0.31373292867818831 0 0.069072802299308789 -0.32491089866928519 0 0.054953907570348737 -0.31864775895477948 0 0.053151194188502553 -0.33445594754233759 0 0.041805704761742793 -0.32032155206167118 0 0.062666149710958075 -0.30686542676974382 0 0.069072802299308789 -0.32491089866928519 0 0.054953907570348737 -0.31864775895477948 0 0.069072802299308789 -0.32491089866928519 0 0.054953907570348737 -0.31864775895477948 0 0.053151194188502553 -0.33445594754233759 0 0.053151194188502553 -0.33445594754233759 0 0.034903738855454162 -0.33308089039575839 0 0.04233007081270318 -0.34543227157687051 0 0.053151194188502553 -0.33445594754233759 0 0.034903738855454162 -0.33308089039575839 0 0.041805704761742793 -0.32032155206167118 0 0.034903738855454162 -0.33308089039575839 0 0.04233007081270318 -0.34543227157687051 0 0.030371815452982832 -0.34648008220759252 0 0.034903738855454162 -0.33308089039575839 0 0.041805704761742793 -0.32032155206167118 0 0.029256213369472869 -0.32032713488393277 0 0.041805704761742793 -0.32032155206167118 0 0.029256213369472869 -0.32032713488393277 0 0.032404807286531973 -0.31048606350969299 0 0.054953907570348737 -0.31864775895477948 0 0.041805704761742793 -0.32032155206167118 0 0.043065877109439148 -0.30614103204036441 0 0.061048037741941792 -0.37406169506399572 0 0.054243263809709077 -0.35530554555365251 0 0.044736171753604878 -0.372426841972398 0 0.072390173709045116 -0.34250551231372262 0 0.053151194188502553 -0.33445594754233759 0 0.054243263809709077 -0.35530554555365251 0 0.053151194188502553 -0.33445594754233759 0 0.054243263809709077 -0.35530554555365251 0 0.04233007081270318 -0.34543227157687051 0 0.054243263809709077 -0.35530554555365251 0 0.04233007081270318 -0.34543227157687051 0 0.037672274905598373 -0.35759003647680232 0 0.04233007081270318 -0.34543227157687051 0 0.037672274905598373 -0.35759003647680232 0 0.030371815452982832 -0.34648008220759252 0 0.037672274905598373 -0.35759003647680232 0 0.025823449304860191 -0.35593070895675061 0 0.030371815452982832 -0.34648008220759252 0 0.054243263809709077 -0.35530554555365251 0 0.037672274905598373 -0.35759003647680232 0 0.044736171753604878 -0.372426841972398 0 0.037672274905598373 -0.35759003647680232 0 0.031649593445556158 -0.36983146754652219 0 0.025823449304860191 -0.35593070895675061 0 0.037672274905598373 -0.35759003647680232 0 0.031649593445556158 -0.36983146754652219 0 0.044736171753604878 -0.372426841972398 0 0.016251258061710142 -0.37720156778687941 0 0.025823449304860191 -0.35593070895675061 0 0.01005316224964173 -0.35158828079035609 0 0.016251258061710142 -0.37720156778687941 0 0.031649593445556158 -0.36983146754652219 0 0.025823449304860191 -0.35593070895675061 0 0.025823449304860191 -0.35593070895675061 0 0.01005316224964173 -0.35158828079035609 0 0.025823449304860191 -0.35593070895675061 0 0.01974265488883005 -0.34814588216448378 0 0.01005316224964173 -0.35158828079035609 0 0.025823449304860191 -0.35593070895675061 0 0.030371815452982832 -0.34648008220759252 0 0.01974265488883005 -0.34814588216448378 0 0.030371815452982832 -0.34648008220759252 0 0.01974265488883005 -0.34814588216448378 0 0.021758703950451048 -0.33870070367488969 0 0.01974265488883005 -0.34814588216448378 0 0.013969381991630879 -0.34613515251988952 0 0.021758703950451048 -0.33870070367488969 0 0.01974265488883005 -0.34814588216448378 0 0.013969381991630879 -0.34613515251988952 0 0.01005316224964173 -0.35158828079035609 0 0.013969381991630879 -0.34613515251988952 0 0.0087114016002290458 -0.34392857060748122 0 0.01005316224964173 -0.35158828079035609 0 0.0087114016002290458 -0.34392857060748122 0 0.01005316224964173 -0.35158828079035609 0 0.00051641852415745609 -0.34180500859184709 0 0.016251258061710142 -0.37720156778687941 0 0.01005316224964173 -0.35158828079035609 0 -0.0041560947851077452 -0.36099627080717273 0 0.016251258061710142 -0.37720156778687941 0 0.01005316224964173 -0.35158828079035609 0 -0.0041560947851077452 -0.36099627080717273 0 -0.0089935967596312845 -0.37600889422938621 0 0.016251258061710142 -0.37720156778687941 0 0.016522344407218191 -0.31307392975808662 0 0.029256213369472869 -0.32032713488393277 0 0.032404807286531973 -0.31048606350969299 0 0.017361288918844409 -0.32772108182647042 0 0.016522344407218191 -0.31307392975808662 0 0.029256213369472869 -0.32032713488393277 0 0.017361288918844409 -0.32772108182647042 0 0.029256213369472869 -0.32032713488393277 0 0.02641701421913966 -0.32908812857793301 0 0.034903738855454162 -0.33308089039575839 0 0.029256213369472869 -0.32032713488393277 0 0.02641701421913966 -0.32908812857793301 0 0.034903738855454162 -0.33308089039575839 0 0.02641701421913966 -0.32908812857793301 0 0.021758703950451048 -0.33870070367488969 0 0.034903738855454162 -0.33308089039575839 0 0.030371815452982832 -0.34648008220759252 0 0.021758703950451048 -0.33870070367488969 0 0.017361288918844409 -0.32772108182647042 0 0.02641701421913966 -0.32908812857793301 0 0.021758703950451048 -0.33870070367488969 0 0.017361288918844409 -0.32772108182647042 0 0.021758703950451048 -0.33870070367488969 0 0.010617441230050701 -0.33747019434047731 0 0.017361288918844409 -0.32772108182647042 0 0.010617441230050701 -0.33747019434047731 0 0.0041244426393669828 -0.32530704085658613 0 0.010617441230050701 -0.33747019434047731 0 0.00051641852415745609 -0.34180500859184709 0 0.0041244426393669828 -0.32530704085658613 0 0.013969381991630879 -0.34613515251988952 0 0.0087114016002290458 -0.34392857060748122 0 0.010617441230050701 -0.33747019434047731 0 0.013969381991630879 -0.34613515251988952 0 0.021758703950451048 -0.33870070367488969 0 0.010617441230050701 -0.33747019434047731 0 0.0087114016002290458 -0.34392857060748122 0 0.010617441230050701 -0.33747019434047731 0 0.00051641852415745609 -0.34180500859184709 0 -0.0061618268048884896 -0.30723877497148222 0 0.016522344407218191 -0.31307392975808662 0 0.0041244426393669828 -0.32530704085658613 0 0.017361288918844409 -0.32772108182647042 0 0.016522344407218191 -0.31307392975808662 0 0.0041244426393669828 -0.32530704085658613 0 -0.0061618268048884896 -0.30723877497148222 0 0.016522344407218191 -0.31307392975808662 0 0.0099365822910048255 -0.29898262374433909 0 -0.0044487735413143732 -0.29125309173092712 0 0.0180468255549096 -0.28584739789431762 0 0.01246822017416711 -0.268216647768732 0 -0.0044487735413143732 -0.29125309173092712 0 0.0099365822910048255 -0.29898262374433909 0 0.0180468255549096 -0.28584739789431762 0 0.0099365822910048255 -0.29898262374433909 0 0.0180468255549096 -0.28584739789431762 0 0.025853845907932958 -0.30010168061651299 0 0.0180468255549096 -0.28584739789431762 0 0.025853845907932958 -0.30010168061651299 0 0.037271357642734697 -0.28717015117257022 0 0.016522344407218191 -0.31307392975808662 0 0.025853845907932958 -0.30010168061651299 0 0.032404807286531973 -0.31048606350969299 0 0.016522344407218191 -0.31307392975808662 0 0.0099365822910048255 -0.29898262374433909 0 0.025853845907932958 -0.30010168061651299 0 0.025853845907932958 -0.30010168061651299 0 0.032404807286531973 -0.31048606350969299 0 0.043065877109439148 -0.30614103204036441 0 0.025853845907932958 -0.30010168061651299 0 0.043065877109439148 -0.30614103204036441 0 0.037271357642734697 -0.28717015117257022 0 0.041805704761742793 -0.32032155206167118 0 0.032404807286531973 -0.31048606350969299 0 0.043065877109439148 -0.30614103204036441 0 0.043065877109439148 -0.30614103204036441 0 0.037271357642734697 -0.28717015117257022 0 0.050659700984705618 -0.29276169357122289 0 0.037271357642734697 -0.28717015117257022 0 0.050659700984705618 -0.29276169357122289 0 0.051703741568797291 -0.27922355864745779 0 0.063145434993065713 -0.28109054588171889 0 0.050659700984705618 -0.29276169357122289 0 0.051703741568797291 -0.27922355864745779 0 0.06510418171068505 -0.29263729377063258 0 0.063145434993065713 -0.28109054588171889 0 0.050659700984705618 -0.29276169357122289 0 0.062666149710958075 -0.30686542676974382 0 0.054953907570348737 -0.31864775895477948 0 0.043065877109439148 -0.30614103204036441 0 0.062666149710958075 -0.30686542676974382 0 0.043065877109439148 -0.30614103204036441 0 0.050659700984705618 -0.29276169357122289 0 0.062666149710958075 -0.30686542676974382 0 0.06510418171068505 -0.29263729377063258 0 0.050659700984705618 -0.29276169357122289 0 0.063438187518206207 -0.26555452474712532 0 0.049604481914701938 -0.25667839916537999 0 0.044004026705274257 -0.26954087786465181 0 0.049604481914701938 -0.25667839916537999 0 0.059969151172626523 -0.25031490138327489 0 0.048997435651836937 -0.24394470321010031 0 0.063438187518206207 -0.26555452474712532 0 0.049604481914701938 -0.25667839916537999 0 0.059969151172626523 -0.25031490138327489 0 0.063438187518206207 -0.26555452474712532 0 0.051703741568797291 -0.27922355864745779 0 0.044004026705274257 -0.26954087786465181 0 0.063145434993065713 -0.28109054588171889 0 0.063438187518206207 -0.26555452474712532 0 0.051703741568797291 -0.27922355864745779 0 0.037271357642734697 -0.28717015117257022 0 0.044004026705274257 -0.26954087786465181 0 0.028246233501662141 -0.26996424726565621 0 0.037271357642734697 -0.28717015117257022 0 0.051703741568797291 -0.27922355864745779 0 0.044004026705274257 -0.26954087786465181 0 0.044004026705274257 -0.26954087786465181 0 0.034702058145227033 -0.25414572792090578 0 0.028246233501662141 -0.26996424726565621 0 0.049604481914701938 -0.25667839916537999 0 0.044004026705274257 -0.26954087786465181 0 0.034702058145227033 -0.25414572792090578 0 0.049604481914701938 -0.25667839916537999 0 0.034702058145227033 -0.25414572792090578 0 0.048997435651836937 -0.24394470321010031 0 0.034702058145227033 -0.25414572792090578 0 0.021538498552752351 -0.25799082956699582 0 0.02252626839979879 -0.2449584481580224 0 0.021538498552752351 -0.25799082956699582 0 0.028246233501662141 -0.26996424726565621 0 0.01246822017416711 -0.268216647768732 0 0.034702058145227033 -0.25414572792090578 0 0.021538498552752351 -0.25799082956699582 0 0.028246233501662141 -0.26996424726565621 0 0.021538498552752351 -0.25799082956699582 0 0.0097497125429066855 -0.25266907672166272 0 0.02252626839979879 -0.2449584481580224 0 0.0180468255549096 -0.28584739789431762 0 0.037271357642734697 -0.28717015117257022 0 0.028246233501662141 -0.26996424726565621 0 0.0180468255549096 -0.28584739789431762 0 0.028246233501662141 -0.26996424726565621 0 0.01246822017416711 -0.268216647768732 0 -0.0083257157391786862 -0.2621261102623057 0 0.01246822017416711 -0.268216647768732 0 0.0097497125429066855 -0.25266907672166272 0 -0.0083257157391786862 -0.2621261102623057 0 0.0097497125429066855 -0.25266907672166272 0 0.00037212691417675119 -0.246244438005357 0 0.021538498552752351 -0.25799082956699582 0 0.01246822017416711 -0.268216647768732 0 0.0097497125429066855 -0.25266907672166272 0 0.0097497125429066855 -0.25266907672166272 0 0.00037212691417675119 -0.246244438005357 0 0.0084724627208160215 -0.23960413516279949 0 0.0097497125429066855 -0.25266907672166272 0 0.0084724627208160215 -0.23960413516279949 0 0.02252626839979879 -0.2449584481580224 0 -0.012202657937042959 -0.2329991287936842 0 0.0096152387323779065 -0.22938692598971719 0 0.01130321508704612 -0.22704865446538219 0 -0.012202657937042959 -0.2329991287936842 0 0.0084724627208160215 -0.23960413516279949 0 0.0096152387323779065 -0.22938692598971719 0 0.0084724627208160215 -0.23960413516279949 0 0.0096152387323779065 -0.22938692598971719 0 0.01829480918387583 -0.23387422382227699 0 0.0096152387323779065 -0.22938692598971719 0 0.01130321508704612 -0.22704865446538219 0 0.01829480918387583 -0.23387422382227699 0 0.0096152387323779065 -0.22938692598971719 0 0.01130321508704612 -0.22704865446538219 0 0.01130321508704612 -0.22704865446538219 0 0.039615839752979498 -0.21988135861260311 0 0.01130321508704612 -0.22704865446538219 0 0.01829480918387583 -0.23387422382227699 0 0.039615839752979498 -0.21988135861260311 0 0.01829480918387583 -0.23387422382227699 0 0.02252626839979879 -0.2449584481580224 0 0.037158948949101142 -0.23701354326675411 0 0.0084724627208160215 -0.23960413516279949 0 0.01829480918387583 -0.23387422382227699 0 0.02252626839979879 -0.2449584481580224 0 0.0050847774300980461 -0.18785515819526849 0 0.0039153120913630653 -0.2077476543260402 0 0.028327600245261139 -0.20346560193938659 0 0.01130321508704612 -0.22704865446538219 0 0.0039153120913630653 -0.2077476543260402 0 0.028327600245261139 -0.20346560193938659 0 -0.002999387731968305 -0.21991941538551041 0 0.01130321508704612 -0.22704865446538219 0 0.0039153120913630653 -0.2077476543260402 0 0.01130321508704612 -0.22704865446538219 0 0.028327600245261139 -0.20346560193938659 0 0.039615839752979498 -0.21988135861260311 0 0.01130321508704612 -0.22704865446538219 0 0.028327600245261139 -0.20346560193938659 0 0.0050847774300980461 -0.18785515819526849 0 0.028327600245261139 -0.20346560193938659 0 0.023783703888691929 -0.1739820371537335 0 0.028327600245261139 -0.20346560193938659 0 0.042483912578224793 -0.19988195401299649 0 0.04535198540347557 -0.1798825494133908 0 0.028327600245261139 -0.20346560193938659 0 0.04535198540347557 -0.1798825494133908 0 0.042483912578224793 -0.19988195401299649 0 0.04535198540347557 -0.1798825494133908 0 0.042483912578224793 -0.19988195401299649 0 0.039615839752979498 -0.21988135861260311 0 0.028327600245261139 -0.20346560193938659 0 0.042483912578224793 -0.19988195401299649 0 0.039615839752979498 -0.21988135861260311 0 0.039615839752979498 -0.21988135861260311 0 0.066558978974174565 -0.2130607458195686 0 0.042483912578224793 -0.19988195401299649 0 0.039615839752979498 -0.21988135861260311 0 0.066558978974174565 -0.2130607458195686 0 0.042483912578224793 -0.19988195401299649 0 0.059934642573682147 -0.18875892182269011 0 0.04535198540347557 -0.1798825494133908 0 0.042483912578224793 -0.19988195401299649 0 0.059934642573682147 -0.18875892182269011 0 0.066558978974174565 -0.2130607458195686 0 0.034702058145227033 -0.25414572792090578 0 0.037158948949101142 -0.23701354326675411 0 0.048997435651836937 -0.24394470321010031 0 0.034702058145227033 -0.25414572792090578 0 0.02252626839979879 -0.2449584481580224 0 0.037158948949101142 -0.23701354326675411 0 0.034702058145227033 -0.25414572792090578 0 0.037158948949101142 -0.23701354326675411 0 0.01829480918387583 -0.23387422382227699 0 0.037158948949101142 -0.23701354326675411 0 0.039615839752979498 -0.21988135861260311 0 0.037158948949101142 -0.23701354326675411 0 0.039615839752979498 -0.21988135861260311 0 0.054768340834404641 -0.22945743918456271 0 0.037158948949101142 -0.23701354326675411 0 0.039615839752979498 -0.21988135861260311 0 0.039615839752979498 -0.21988135861260311 0 0.054768340834404641 -0.22945743918456271 0 0.066558978974174565 -0.2130607458195686 0 0.037158948949101142 -0.23701354326675411 0 0.054768340834404641 -0.22945743918456271 0 0.048997435651836937 -0.24394470321010031 0 0.054768340834404641 -0.22945743918456271 0 0.048997435651836937 -0.24394470321010031 0 0.065551595071399182 -0.23813790528011031 0 0.059969151172626523 -0.25031490138327489 0 0.048997435651836937 -0.24394470321010031 0 0.065551595071399182 -0.23813790528011031 0 0.072498359263896014 -0.25178780853489569 0 0.059969151172626523 -0.25031490138327489 0 0.065551595071399182 -0.23813790528011031 0 0.072498359263896014 -0.25178780853489569 0 0.065551595071399182 -0.23813790528011031 0 0.078496254672254406 -0.23760771393061031 0 0.072498359263896014 -0.25178780853489569 0 0.078496254672254406 -0.23760771393061031 0 0.086527918232943035 -0.24915400579853081 0 0.078496254672254406 -0.23760771393061031 0 0.086527918232943035 -0.24915400579853081 0 0.091669855655567373 -0.23384764879164199 0 0.086527918232943035 -0.24915400579853081 0 0.091669855655567373 -0.23384764879164199 0 0.1001703677061717 -0.2446294187205533 0 0.091669855655567373 -0.23384764879164199 0 0.084325113559461221 -0.22612538751807229 0 0.094972669368302606 -0.2196724270676175 0 0.084325113559461221 -0.22612538751807229 0 0.085506281351920232 -0.21403378821529859 0 0.094972669368302606 -0.2196724270676175 0 0.078496254672254406 -0.23760771393061031 0 0.091669855655567373 -0.23384764879164199 0 0.084325113559461221 -0.22612538751807229 0 0.078496254672254406 -0.23760771393061031 0 0.084325113559461221 -0.22612538751807229 0 0.072090450078790697 -0.22613569558960561 0 0.084325113559461221 -0.22612538751807229 0 0.072090450078790697 -0.22613569558960561 0 0.085506281351920232 -0.21403378821529859 0 0.054768340834404641 -0.22945743918456271 0 0.072090450078790697 -0.22613569558960561 0 0.066558978974174565 -0.2130607458195686 0 0.054768340834404641 -0.22945743918456271 0 0.065551595071399182 -0.23813790528011031 0 0.072090450078790697 -0.22613569558960561 0 0.065551595071399182 -0.23813790528011031 0 0.078496254672254406 -0.23760771393061031 0 0.072090450078790697 -0.22613569558960561 0 0.072090450078790697 -0.22613569558960561 0 0.066558978974174565 -0.2130607458195686 0 0.085506281351920232 -0.21403378821529859 0 0.066558978974174565 -0.2130607458195686 0 0.074930166104312426 -0.19353512118519259 0 0.087648842343072658 -0.19897445095830879 0 0.059934642573682147 -0.18875892182269011 0 0.066558978974174565 -0.2130607458195686 0 0.074930166104312426 -0.19353512118519259 0 0.095452209806085209 -0.19842304016125309 0 0.087450995008976962 -0.18187995760019121 0 0.095452209806085209 -0.19842304016125309 0 0.097883131729403966 -0.18521324920386231 0 0.087450995008976962 -0.18187995760019121 0 0.087606866002221173 -0.1953475924861027 0 0.095452209806085209 -0.19842304016125309 0 0.087450995008976962 -0.18187995760019121 0 0.074930166104312426 -0.19353512118519259 0 0.087648842343072658 -0.19897445095830879 0 0.087606866002221173 -0.1953475924861027 0 0.087606866002221173 -0.1953475924861027 0 0.093502118195368994 -0.2062401330265308 0 0.087606866002221173 -0.1953475924861027 0 0.093502118195368994 -0.2062401330265308 0 0.095452209806085209 -0.19842304016125309 0 0.087648842343072658 -0.19897445095830879 0 0.087606866002221173 -0.1953475924861027 0 0.093502118195368994 -0.2062401330265308 0 0.087648842343072658 -0.19897445095830879 0 0.087606866002221173 -0.1953475924861027 0 0.087606866002221173 -0.1953475924861027 0 0.087450995008976962 -0.18187995760019121 0 0.066558978974174565 -0.2130607458195686 0 0.093502118195368994 -0.2062401330265308 0 0.066558978974174565 -0.2130607458195686 0 0.085506281351920232 -0.21403378821529859 0 0.093502118195368994 -0.2062401330265308 0 0.066558978974174565 -0.2130607458195686 0 0.087648842343072658 -0.19897445095830879 0 0.093502118195368994 -0.2062401330265308 0 0.085506281351920232 -0.21403378821529859 0 0.093502118195368994 -0.2062401330265308 0 0.094972669368302606 -0.2196724270676175 0 0.093502118195368994 -0.2062401330265308 0 0.1122229227317373 -0.20549314982634509 0 0.094972669368302606 -0.2196724270676175 0 0.093502118195368994 -0.2062401330265308 0 0.1166991325014856 -0.2003678457908985 0 0.1122229227317373 -0.20549314982634509 0 0.1122229227317373 -0.20549314982634509 0 0.094972669368302606 -0.2196724270676175 0 0.093502118195368994 -0.2062401330265308 0 0.1166991325014856 -0.2003678457908985 0 0.1122229227317373 -0.20549314982634509 0 0.094972669368302606 -0.2196724270676175 0 0.1089912257001648 -0.21899631785840709 0 0.095452209806085209 -0.19842304016125309 0 0.1067243767879149 -0.19230836021041589 0 0.1166991325014856 -0.2003678457908985 0 0.093502118195368994 -0.2062401330265308 0 0.095452209806085209 -0.19842304016125309 0 0.1166991325014856 -0.2003678457908985 0 0.095452209806085209 -0.19842304016125309 0 0.1067243767879149 -0.19230836021041589 0 0.097883131729403966 -0.18521324920386231 0 0.1166991325014856 -0.2003678457908985 0 0.1122229227317373 -0.20549314982634509 0 0.12947317609517439 -0.1913138725850754 0 0.1067243767879149 -0.19230836021041589 0 0.1166991325014856 -0.2003678457908985 0 0.11044596121531609 -0.1800364056506423 0 0.1166991325014856 -0.2003678457908985 0 0.11044596121531609 -0.1800364056506423 0 0.12947317609517439 -0.1913138725850754 0 0.1122229227317373 -0.20549314982634509 0 0.12947317609517439 -0.1913138725850754 0 0.1122229227317373 -0.20549314982634509 0 0.1287545693191898 -0.20747198480377921 0 0.12947317609517439 -0.1913138725850754 0 0.1122229227317373 -0.20549314982634509 0 0.1191998781712655 -0.21529725730209409 0 0.1287545693191898 -0.20747198480377921 0 0.1122229227317373 -0.20549314982634509 0 0.1191998781712655 -0.21529725730209409 0 0.1089912257001648 -0.21899631785840709 0 0.11514010332129559 -0.22662495162921781 0 0.12261234646571691 -0.23410549314603871 0 0.13628372800659591 -0.2237947351719223 0 0.1191998781712655 -0.21529725730209409 0 0.11514010332129559 -0.22662495162921781 0 0.13628372800659591 -0.2237947351719223 0 0.1191998781712655 -0.21529725730209409 0 0.11514010332129559 -0.22662495162921781 0 0.1089912257001648 -0.21899631785840709 0 0.11514010332129559 -0.22662495162921781 0 0.12261234646571691 -0.23410549314603871 0 0.1130512401129579 -0.23987372457262679 0 0.11514010332129559 -0.22662495162921781 0 0.1130512401129579 -0.23987372457262679 0 0.1037158042632505 -0.22927829903134411 0 0.1112928173744573 -0.25694793586032649 0 0.1130512401129579 -0.23987372457262679 0 0.1259743144220184 -0.2461285612103877 0 0.12261234646571691 -0.23410549314603871 0 0.1130512401129579 -0.23987372457262679 0 0.1259743144220184 -0.2461285612103877 0 0.1130512401129579 -0.23987372457262679 0 0.1001703677061717 -0.2446294187205533 0 0.1037158042632505 -0.22927829903134411 0 0.1112928173744573 -0.25694793586032649 0 0.1130512401129579 -0.23987372457262679 0 0.1001703677061717 -0.2446294187205533 0 0.091669855655567373 -0.23384764879164199 0 0.1001703677061717 -0.2446294187205533 0 0.1037158042632505 -0.22927829903134411 0 0.091669855655567373 -0.23384764879164199 0 0.094972669368302606 -0.2196724270676175 0 0.1037158042632505 -0.22927829903134411 0 0.094972669368302606 -0.2196724270676175 0 0.1089912257001648 -0.21899631785840709 0 0.1037158042632505 -0.22927829903134411 0 0.11514010332129559 -0.22662495162921781 0 0.1089912257001648 -0.21899631785840709 0 0.1037158042632505 -0.22927829903134411 0 0.10008979983587631 -0.1417018720911325 0 0.1102678799633829 -0.15390066158285101 0 0.098691325100838723 -0.15767745037734709 0 0.10008979983587631 -0.1417018720911325 0 0.098691325100838723 -0.15767745037734709 0 0.087112016119319777 -0.15259135280646399 0 0.10008979983587631 -0.1417018720911325 0 0.1143519778622247 -0.1412274621144152 0 0.1102678799633829 -0.15390066158285101 0 0.10008979983587631 -0.1417018720911325 0 0.1078116241572625 -0.12741794445031951 0 0.08677303722966298 -0.1233027480127365 0 0.10008979983587631 -0.1417018720911325 0 0.1078116241572625 -0.12741794445031951 0 0.1143519778622247 -0.1412274621144152 0 0.1078116241572625 -0.12741794445031951 0 0.1229530066037904 -0.12712088987018169 0 0.1143519778622247 -0.1412274621144152 0 0.1229530066037904 -0.12712088987018169 0 0.1143519778622247 -0.1412274621144152 0 0.12793483583695781 -0.14060179434438391 0 0.1143519778622247 -0.1412274621144152 0 0.12361385061520851 -0.1517193845165076 0 0.12793483583695781 -0.14060179434438391 0 0.1143519778622247 -0.1412274621144152 0 0.1102678799633829 -0.15390066158285101 0 0.12361385061520851 -0.1517193845165076 0 0.1102678799633829 -0.15390066158285101 0 0.12361385061520851 -0.1517193845165076 0 0.11903817523872071 -0.1648496235264173 0 0.12361385061520851 -0.1517193845165076 0 0.11903817523872071 -0.1648496235264173 0 0.13152724517839759 -0.16131800828077181 0 0.11903817523872071 -0.1648496235264173 0 0.11044596121531609 -0.1800364056506423 0 0.1063031069092716 -0.16546246664010131 0 0.1102678799633829 -0.15390066158285101 0 0.11903817523872071 -0.1648496235264173 0 0.1063031069092716 -0.16546246664010131 0 0.11044596121531609 -0.1800364056506423 0 0.12947317609517439 -0.1913138725850754 0 0.11044596121531609 -0.1800364056506423 0 0.12947317609517439 -0.1913138725850754 0 0.1257015484282723 -0.17598733567650349 0 0.11903817523872071 -0.1648496235264173 0 0.11044596121531609 -0.1800364056506423 0 0.1257015484282723 -0.17598733567650349 0 0.11044596121531609 -0.1800364056506423 0 0.097883131729403966 -0.18521324920386231 0 0.091418746335458295 -0.16875893871620809 0 0.11044596121531609 -0.1800364056506423 0 0.091418746335458295 -0.16875893871620809 0 0.1067243767879149 -0.19230836021041589 0 0.11044596121531609 -0.1800364056506423 0 0.097883131729403966 -0.18521324920386231 0 0.11044596121531609 -0.1800364056506423 0 0.1063031069092716 -0.16546246664010131 0 0.091418746335458295 -0.16875893871620809 0 0.1102678799633829 -0.15390066158285101 0 0.1063031069092716 -0.16546246664010131 0 0.098691325100838723 -0.15767745037734709 0 0.1063031069092716 -0.16546246664010131 0 0.098691325100838723 -0.15767745037734709 0 0.091418746335458295 -0.16875893871620809 0 0.087450995008976962 -0.18187995760019121 0 0.077691027747205085 -0.16170052881356831 0 0.074665146485344364 -0.17143543404371539 0 0.087450995008976962 -0.18187995760019121 0 0.087112016119319777 -0.15259135280646399 0 0.098691325100838723 -0.15767745037734709 0 0.091418746335458295 -0.16875893871620809 0 0.087112016119319777 -0.15259135280646399 0 0.087450995008976962 -0.18187995760019121 0 0.077691027747205085 -0.16170052881356831 0 0.087112016119319777 -0.15259135280646399 0 0.091418746335458295 -0.16875893871620809 0 0.087450995008976962 -0.18187995760019121 0 0.087112016119319777 -0.15259135280646399 0 0.087450995008976962 -0.18187995760019121 0 0.077691027747205085 -0.16170052881356831 0 0.087606866002221173 -0.1953475924861027 0 0.074665146485344364 -0.17143543404371539 0 0.097883131729403966 -0.18521324920386231 0 0.091418746335458295 -0.16875893871620809 0 0.087450995008976962 -0.18187995760019121 0 0.074930166104312426 -0.19353512118519259 0 0.087606866002221173 -0.1953475924861027 0 0.074665146485344364 -0.17143543404371539 0 0.087606866002221173 -0.1953475924861027 0 0.087450995008976962 -0.18187995760019121 0 0.074665146485344364 -0.17143543404371539 0 0.059934642573682147 -0.18875892182269011 0 0.074665146485344364 -0.17143543404371539 0 0.059850415953197032 -0.17452142055189129 0 0.059934642573682147 -0.18875892182269011 0 0.074930166104312426 -0.19353512118519259 0 0.074665146485344364 -0.17143543404371539 0 0.074665146485344364 -0.17143543404371539 0 0.061723426968466423 -0.14752327560132869 0 0.074665146485344364 -0.17143543404371539 0 0.061723426968466423 -0.14752327560132869 0 0.061213535207217062 -0.15791031613219161 0 0.074665146485344364 -0.17143543404371539 0 0.059850415953197032 -0.17452142055189129 0 0.061213535207217062 -0.15791031613219161 0 0.077691027747205085 -0.16170052881356831 0 0.074665146485344364 -0.17143543404371539 0 0.061723426968466423 -0.14752327560132869 0 0.077691027747205085 -0.16170052881356831 0 0.067931060485433598 -0.14152110002694529 0 0.077691027747205085 -0.16170052881356831 0 0.067931060485433598 -0.14152110002694529 0 0.087112016119319777 -0.15259135280646399 0 0.077691027747205085 -0.16170052881356831 0 0.067931060485433598 -0.14152110002694529 0 0.061723426968466423 -0.14752327560132869 0 0.067931060485433598 -0.14152110002694529 0 0.061723426968466423 -0.14752327560132869 0 0.087112016119319777 -0.15259135280646399 0 0.08677303722966298 -0.1233027480127365 0 0.10008979983587631 -0.1417018720911325 0 0.087112016119319777 -0.15259135280646399 0 0.08677303722966298 -0.1233027480127365 0 0.067931060485433598 -0.14152110002694529 0 0.087112016119319777 -0.15259135280646399 0 0.08677303722966298 -0.1233027480127365 0 0.067931060485433598 -0.14152110002694529 0 0.057867219598940083 -0.1207133908367343 0 0.067931060485433598 -0.14152110002694529 0 0.071303161712957919 -0.12619973164828971 0 0.057867219598940083 -0.1207133908367343 0 0.067931060485433598 -0.14152110002694529 0 0.08677303722966298 -0.1233027480127365 0 0.067931060485433598 -0.14152110002694529 0 0.071303161712957919 -0.12619973164828971 0 0.08677303722966298 -0.1233027480127365 0 0.067931060485433598 -0.14152110002694529 0 0.057867219598940083 -0.1207133908367343 0 0.048842397302050783 -0.1237232525918022 0 0.061723426968466423 -0.14752327560132869 0 0.048842397302050783 -0.1237232525918022 0 0.049996520616843183 -0.13861373822341341 0 0.061723426968466423 -0.14752327560132869 0 0.048842397302050783 -0.1237232525918022 0 0.067931060485433598 -0.14152110002694529 0 0.061723426968466423 -0.14752327560132869 0 0.048842397302050783 -0.1237232525918022 0 0.049996520616843183 -0.13861373822341341 0 0.04350763666450562 -0.13371583676883009 0 0.048842397302050783 -0.1237232525918022 0 0.061723426968466423 -0.14752327560132869 0 0.05713460974792247 -0.15196021385826161 0 0.051773788399515352 -0.14713136901492219 0 0.061723426968466423 -0.14752327560132869 0 0.05713460974792247 -0.15196021385826161 0 0.061213535207217062 -0.15791031613219161 0 0.061723426968466423 -0.14752327560132869 0 0.05713460974792247 -0.15196021385826161 0 0.05713460974792247 -0.15196021385826161 0 0.061213535207217062 -0.15791031613219161 0 0.054886757502151232 -0.15628850231602409 0 0.05713460974792247 -0.15196021385826161 0 0.050457446622517277 -0.15438408880342819 0 0.054886757502151232 -0.15628850231602409 0 0.05713460974792247 -0.15196021385826161 0 0.050457446622517277 -0.15438408880342819 0 0.051773788399515352 -0.14713136901492219 0 0.050457446622517277 -0.15438408880342819 0 0.051773788399515352 -0.14713136901492219 0 0.045285670283379348 -0.15105267946837439 0 0.049996520616843183 -0.13861373822341341 0 0.051773788399515352 -0.14713136901492219 0 0.044135353749678183 -0.14097495714018399 0 0.049996520616843183 -0.13861373822341341 0 0.061723426968466423 -0.14752327560132869 0 0.051773788399515352 -0.14713136901492219 0 0.051773788399515352 -0.14713136901492219 0 0.044135353749678183 -0.14097495714018399 0 0.045285670283379348 -0.15105267946837439 0 0.044135353749678183 -0.14097495714018399 0 0.045285670283379348 -0.15105267946837439 0 0.037523657134329799 -0.1478596017536335 0 0.045285670283379348 -0.15105267946837439 0 0.037523657134329799 -0.1478596017536335 0 0.037870846918024642 -0.15724253511678341 0 0.050457446622517277 -0.15438408880342819 0 0.045285670283379348 -0.15105267946837439 0 0.044402638134454109 -0.15800412666348479 0 0.045285670283379348 -0.15105267946837439 0 0.044402638134454109 -0.15800412666348479 0 0.037870846918024642 -0.15724253511678341 0 0.037523657134329799 -0.1478596017536335 0 0.029197553746312759 -0.14508019261692789 0 0.02985827053661649 -0.15365997701892861 0 0.037523657134329799 -0.1478596017536335 0 0.037870846918024642 -0.15724253511678341 0 0.02985827053661649 -0.15365997701892861 0 0.037523657134329799 -0.1478596017536335 0 0.035219326728933693 -0.13757242483084281 0 0.029197553746312759 -0.14508019261692789 0 0.044135353749678183 -0.14097495714018399 0 0.037523657134329799 -0.1478596017536335 0 0.035219326728933693 -0.13757242483084281 0 0.035219326728933693 -0.13757242483084281 0 0.038254089989494533 -0.12824187562965339 0 0.04350763666450562 -0.13371583676883009 0 0.035219326728933693 -0.13757242483084281 0 0.038254089989494533 -0.12824187562965339 0 0.026044765092264249 -0.12781571381154511 0 0.038254089989494533 -0.12824187562965339 0 0.04350763666450562 -0.13371583676883009 0 0.048842397302050783 -0.1237232525918022 0 0.044135353749678183 -0.14097495714018399 0 0.035219326728933693 -0.13757242483084281 0 0.04350763666450562 -0.13371583676883009 0 0.049996520616843183 -0.13861373822341341 0 0.044135353749678183 -0.14097495714018399 0 0.04350763666450562 -0.13371583676883009 0 0.059934642573682147 -0.18875892182269011 0 0.059850415953197032 -0.17452142055189129 0 0.04535198540347557 -0.1798825494133908 0 0.061213535207217062 -0.15791031613219161 0 0.046011404086187917 -0.17528434642494961 0 0.04535198540347557 -0.1798825494133908 0 0.059850415953197032 -0.17452142055189129 0 0.061213535207217062 -0.15791031613219161 0 0.04535198540347557 -0.1798825494133908 0 0.061213535207217062 -0.15791031613219161 0 0.046484950091439277 -0.16776764950220449 0 0.046011404086187917 -0.17528434642494961 0 0.061213535207217062 -0.15791031613219161 0 0.04535198540347557 -0.1798825494133908 0 0.061213535207217062 -0.15791031613219161 0 0.054886757502151232 -0.15628850231602409 0 0.049261215667681151 -0.1618676414995025 0 0.050457446622517277 -0.15438408880342819 0 0.054886757502151232 -0.15628850231602409 0 0.049261215667681151 -0.1618676414995025 0 0.061213535207217062 -0.15791031613219161 0 0.049261215667681151 -0.1618676414995025 0 0.046484950091439277 -0.16776764950220449 0 0.050457446622517277 -0.15438408880342819 0 0.049261215667681151 -0.1618676414995025 0 0.044402638134454109 -0.15800412666348479 0 0.043450640088427431 -0.16274637312605911 0 0.037870846918024642 -0.15724253511678341 0 0.039233549630537941 -0.16884991284832049 0 0.049261215667681151 -0.1618676414995025 0 0.044402638134454109 -0.15800412666348479 0 0.043450640088427431 -0.16274637312605911 0 0.044402638134454109 -0.15800412666348479 0 0.043450640088427431 -0.16274637312605911 0 0.037870846918024642 -0.15724253511678341 0 0.031620566226081698 -0.16318200427003091 0 0.037870846918024642 -0.15724253511678341 0 0.039233549630537941 -0.16884991284832049 0 0.031620566226081698 -0.16318200427003091 0 0.037870846918024642 -0.15724253511678341 0 0.02985827053661649 -0.15365997701892861 0 0.031620566226081698 -0.16318200427003091 0 0.039233549630537941 -0.16884991284832049 0 0.023783703888691929 -0.1739820371537335 0 0.043450640088427431 -0.16274637312605911 0 0.039233549630537941 -0.16884991284832049 0 0.046484950091439277 -0.16776764950220449 0 0.049261215667681151 -0.1618676414995025 0 0.043450640088427431 -0.16274637312605911 0 0.046484950091439277 -0.16776764950220449 0 0.039233549630537941 -0.16884991284832049 0 0.046484950091439277 -0.16776764950220449 0 0.046011404086187917 -0.17528434642494961 0 0.039233549630537941 -0.16884991284832049 0 0.04535198540347557 -0.1798825494133908 0 0.023783703888691929 -0.1739820371537335 0 0.028327600245261139 -0.20346560193938659 0 0.04535198540347557 -0.1798825494133908 0 0.023783703888691929 -0.1739820371537335 0 0.039233549630537941 -0.16884991284832049 0 0.046011404086187917 -0.17528434642494961 0 0.04535198540347557 -0.1798825494133908 0 0.046011404086187917 -0.17528434642494961 0 0.04535198540347557 -0.1798825494133908 0 0.023783703888691929 -0.1739820371537335 0 0.023948957556921689 -0.16066369023343929 0 0.01301384485900796 -0.1585012191809422 0 0.031620566226081698 -0.16318200427003091 0 0.023783703888691929 -0.1739820371537335 0 0.023948957556921689 -0.16066369023343929 0 0.031620566226081698 -0.16318200427003091 0 0.023948957556921689 -0.16066369023343929 0 0.02985827053661649 -0.15365997701892861 0 0.0039479792452843804 -0.16693724185506159 0 0.01301384485900796 -0.1585012191809422 0 0.001143458992811707 -0.14684704123411249 0 0.023783703888691929 -0.1739820371537335 0 0.0039479792452843804 -0.16693724185506159 0 0.01301384485900796 -0.1585012191809422 0 0.0050847774300980461 -0.18785515819526849 0 0.023783703888691929 -0.1739820371537335 0 0.0039479792452843804 -0.16693724185506159 0 -0.0072757933531289107 -0.17681850822391179 0 0.0050847774300980461 -0.18785515819526849 0 0.0039479792452843804 -0.16693724185506159 0 0.026044765092264249 -0.12781571381154511 0 0.012834234805284551 -0.13388398139612909 0 0.01207517237429338 -0.1161255586153422 0 0.023430207973730199 -0.13793835081740019 0 0.018988041638028339 -0.1479318381227564 0 0.012834234805284551 -0.13388398139612909 0 0.023430207973730199 -0.13793835081740019 0 0.026044765092264249 -0.12781571381154511 0 0.012834234805284551 -0.13388398139612909 0 0.035219326728933693 -0.13757242483084281 0 0.023430207973730199 -0.13793835081740019 0 0.026044765092264249 -0.12781571381154511 0 0.035219326728933693 -0.13757242483084281 0 0.023430207973730199 -0.13793835081740019 0 0.029197553746312759 -0.14508019261692789 0 0.023430207973730199 -0.13793835081740019 0 0.029197553746312759 -0.14508019261692789 0 0.018988041638028339 -0.1479318381227564 0 0.023948957556921689 -0.16066369023343929 0 0.02985827053661649 -0.15365997701892861 0 0.018988041638028339 -0.1479318381227564 0 0.029197553746312759 -0.14508019261692789 0 0.02985827053661649 -0.15365997701892861 0 0.018988041638028339 -0.1479318381227564 0 0.023948957556921689 -0.16066369023343929 0 0.01301384485900796 -0.1585012191809422 0 0.018988041638028339 -0.1479318381227564 0 0.01301384485900796 -0.1585012191809422 0 0.018988041638028339 -0.1479318381227564 0 0.001143458992811707 -0.14684704123411249 0 0.018988041638028339 -0.1479318381227564 0 0.001143458992811707 -0.14684704123411249 0 0.012834234805284551 -0.13388398139612909 0 -0.0014395948375110241 -0.12830226696244521 0 0.012834234805284551 -0.13388398139612909 0 0.01207517237429338 -0.1161255586153422 0 -0.0014395948375110241 -0.12830226696244521 0 0.001143458992811707 -0.14684704123411249 0 0.012834234805284551 -0.13388398139612909 0 0.01207517237429338 -0.1161255586153422 0 0.023015238447412541 -0.10025176098018269 0 0.036204140643090403 -0.11329091805002731 0 0.026044765092264249 -0.12781571381154511 0 0.01207517237429338 -0.1161255586153422 0 0.036204140643090403 -0.11329091805002731 0 0.01207517237429338 -0.1161255586153422 0 0.023015238447412541 -0.10025176098018269 0 0.0012160388576872539 -0.09547461031818763 0 0.023015238447412541 -0.10025176098018269 0 0.0012160388576872539 -0.09547461031818763 0 -0.013182697469403801 -0.1139452890994259 0 0.01207517237429338 -0.1161255586153422 0 0.0012160388576872539 -0.09547461031818763 0 0.0012160388576872539 -0.09547461031818763 0 0.01522175796428815 -0.084982438040229785 0 0.00095295619353100007 -0.071802971974695054 0 0.023015238447412541 -0.10025176098018269 0 0.0012160388576872539 -0.09547461031818763 0 0.01522175796428815 -0.084982438040229785 0 0.00095295619353100007 -0.071802971974695054 0 0.023718027929133769 -0.070267461074139309 0 0.0095444768203046641 -0.05803786665790904 0 0.01522175796428815 -0.084982438040229785 0 0.00095295619353100007 -0.071802971974695054 0 0.023718027929133769 -0.070267461074139309 0 0.023015238447412541 -0.10025176098018269 0 0.01522175796428815 -0.084982438040229785 0 0.031479569539572663 -0.085989834780785521 0 0.01522175796428815 -0.084982438040229785 0 0.023718027929133769 -0.070267461074139309 0 0.031479569539572663 -0.085989834780785521 0 0.031479569539572663 -0.085989834780785521 0 0.046730658781532687 -0.076326329143972693 0 0.047803378712446172 -0.09990568164652347 0 0.023718027929133769 -0.070267461074139309 0 0.031479569539572663 -0.085989834780785521 0 0.046730658781532687 -0.076326329143972693 0 0.023718027929133769 -0.070267461074139309 0 0.046730658781532687 -0.076326329143972693 0 0.047225060157392702 -0.051640287651132662 0 0.046730658781532687 -0.076326329143972693 0 0.064926685925366656 -0.084573472811090497 0 0.065231230425284212 -0.065581236900164791 0 0.046730658781532687 -0.076326329143972693 0 0.047225060157392702 -0.051640287651132662 0 0.065231230425284212 -0.065581236900164791 0 0.046730658781532687 -0.076326329143972693 0 0.047803378712446172 -0.09990568164652347 0 0.064926685925366656 -0.084573472811090497 0 0.047803378712446172 -0.09990568164652347 0 0.057867219598940083 -0.1207133908367343 0 0.067055714860968965 -0.10304656704190519 0 0.047803378712446172 -0.09990568164652347 0 0.067055714860968965 -0.10304656704190519 0 0.064926685925366656 -0.084573472811090497 0 0.047803378712446172 -0.09990568164652347 0 0.057867219598940083 -0.1207133908367343 0 0.047803378712446172 -0.09990568164652347 0 0.057867219598940083 -0.1207133908367343 0 0.048842397302050783 -0.1237232525918022 0 0.047803378712446172 -0.09990568164652347 0 0.048842397302050783 -0.1237232525918022 0 0.036204140643090403 -0.11329091805002731 0 0.038254089989494533 -0.12824187562965339 0 0.048842397302050783 -0.1237232525918022 0 0.036204140643090403 -0.11329091805002731 0 0.038254089989494533 -0.12824187562965339 0 0.026044765092264249 -0.12781571381154511 0 0.036204140643090403 -0.11329091805002731 0 0.023015238447412541 -0.10025176098018269 0 0.047803378712446172 -0.09990568164652347 0 0.036204140643090403 -0.11329091805002731 0 0.023015238447412541 -0.10025176098018269 0 0.031479569539572663 -0.085989834780785521 0 0.047803378712446172 -0.09990568164652347 0 0.03791704630969836 0.0058718258029147848 0 0.016968052952430229 -0.0055066293572975837 0 0.033998751774811223 -0.01651319489348365 0 -0.0035238433934066051 -0.01234887374579445 0 -0.0072106955429384594 0.01297181303916195 0 0.016968052952430229 -0.0055066293572975837 0 -0.0035238433934066051 -0.01234887374579445 0 0.016968052952430229 -0.0055066293572975837 0 0.012847523248047251 -0.02502410607394745 0 -0.0035238433934066051 -0.01234887374579445 0 0.012847523248047251 -0.02502410607394745 0 -0.0067730253783062884 -0.031087426280697081 0 -0.0035238433934066051 -0.01234887374579445 0 0.012847523248047251 -0.02502410607394745 0 0.012847523248047251 -0.02502410607394745 0 0.029218889889501491 -0.037699338402100123 0 0.033998751774811223 -0.01651319489348365 0 0.016968052952430229 -0.0055066293572975837 0 0.012847523248047251 -0.02502410607394745 0 0.033998751774811223 -0.01651319489348365 0 0.029218889889501491 -0.037699338402100123 0 0.0098120049658047201 -0.043693513696029779 0 0.023806472226838231 -0.052492239319758473 0 0.012847523248047251 -0.02502410607394745 0 0.029218889889501491 -0.037699338402100123 0 0.012847523248047251 -0.02502410607394745 0 0.029218889889501491 -0.037699338402100123 0 0.0098120049658047201 -0.043693513696029779 0 0.029218889889501491 -0.037699338402100123 0 0.0098120049658047201 -0.043693513696029779 0 -0.0067730253783062884 -0.031087426280697081 0 0.012847523248047251 -0.02502410607394745 0 0.0098120049658047201 -0.043693513696029779 0 -0.0095948799578919886 -0.049687688989959719 0 0.0098120049658047201 -0.043693513696029779 0 0.0098120049658047201 -0.043693513696029779 0 0.0095444768203046641 -0.05803786665790904 0 0.023806472226838231 -0.052492239319758473 0 -0.0095948799578919886 -0.049687688989959719 0 0.0098120049658047201 -0.043693513696029779 0 0.0095444768203046641 -0.05803786665790904 0 -0.0095948799578919886 -0.049687688989959719 0 0.00095295619353100007 -0.071802971974695054 0 0.0095444768203046641 -0.05803786665790904 0 0.023718027929133769 -0.070267461074139309 0 0.0095444768203046641 -0.05803786665790904 0 0.023806472226838231 -0.052492239319758473 0 0.023718027929133769 -0.070267461074139309 0 0.023806472226838231 -0.052492239319758473 0 0.047225060157392702 -0.051640287651132662 0 0.029218889889501491 -0.037699338402100123 0 0.023806472226838231 -0.052492239319758473 0 0.047225060157392702 -0.051640287651132662 0 0.047225060157392702 -0.051640287651132662 0 0.065231230425284212 -0.065581236900164791 0 0.047225060157392702 -0.051640287651132662 0 0.06701510077537233 -0.045455689286033142 0 0.065231230425284212 -0.065581236900164791 0 0.047225060157392702 -0.051640287651132662 0 0.053825379874594612 -0.030099168930342889 0 0.06701510077537233 -0.045455689286033142 0 0.029218889889501491 -0.037699338402100123 0 0.047225060157392702 -0.051640287651132662 0 0.053825379874594612 -0.030099168930342889 0 0.029218889889501491 -0.037699338402100123 0 0.053825379874594612 -0.030099168930342889 0 0.029218889889501491 -0.037699338402100123 0 0.047225060157392702 -0.051640287651132662 0 0.029218889889501491 -0.037699338402100123 0 0.033998751774811223 -0.01651319489348365 0 0.053825379874594612 -0.030099168930342889 0 0.033998751774811223 -0.01651319489348365 0 0.053825379874594612 -0.030099168930342889 0 0.053215618374595403 -0.0066217524001286436 0 0.053825379874594612 -0.030099168930342889 0 0.053215618374595403 -0.0066217524001286436 0 0.064764897964366047 -0.01387666133873861 0 0.069432041904490233 0.0018834123004069429 0 0.053215618374595403 -0.0066217524001286436 0 0.064764897964366047 -0.01387666133873861 0 0.03791704630969836 0.0058718258029147848 0 0.033998751774811223 -0.01651319489348365 0 0.053215618374595403 -0.0066217524001286436 0 0.090853754436256401 -0.0043661430246791939 0 0.078431869859687697 -0.022498999458585581 0 0.1002649111097678 -0.015755460917128251 0 0.090853754436256401 -0.0043661430246791939 0 0.081039187096109452 -0.0009049415825050502 0 0.078431869859687697 -0.022498999458585581 0 0.069432041904490233 0.0018834123004069429 0 0.078431869859687697 -0.022498999458585581 0 0.069432041904490233 0.0018834123004069429 0 0.064764897964366047 -0.01387666133873861 0 0.078431869859687697 -0.022498999458585581 0 0.069432041904490233 0.0018834123004069429 0 0.081039187096109452 -0.0009049415825050502 0 0.078431869859687697 -0.022498999458585581 0 0.053825379874594612 -0.030099168930342889 0 0.064764897964366047 -0.01387666133873861 0 0.078431869859687697 -0.022498999458585581 0 0.053825379874594612 -0.030099168930342889 0 0.078431869859687697 -0.022498999458585581 0 0.078431869859687697 -0.022498999458585581 0 0.10091286433457169 -0.033196073224136077 0 0.1002649111097678 -0.015755460917128251 0 0.078431869859687697 -0.022498999458585581 0 0.1002649111097678 -0.015755460917128251 0 0.078431869859687697 -0.022498999458585581 0 0.086060006165890421 -0.043165212334779837 0 0.078431869859687697 -0.022498999458585581 0 0.086060006165890421 -0.043165212334779837 0 0.10091286433457169 -0.033196073224136077 0 0.053825379874594612 -0.030099168930342889 0 0.078431869859687697 -0.022498999458585581 0 0.06701510077537233 -0.045455689286033142 0 0.078431869859687697 -0.022498999458585581 0 0.086060006165890421 -0.043165212334779837 0 0.06701510077537233 -0.045455689286033142 0 0.086060006165890421 -0.043165212334779837 0 0.06701510077537233 -0.045455689286033142 0 0.079016927756834235 -0.057505816148841829 0 0.06701510077537233 -0.045455689286033142 0 0.079016927756834235 -0.057505816148841829 0 0.065231230425284212 -0.065581236900164791 0 0.086060006165890421 -0.043165212334779837 0 0.079016927756834235 -0.057505816148841829 0 0.093688142472086858 -0.063831425210976359 0 0.086060006165890421 -0.043165212334779837 0 0.093688142472086858 -0.063831425210976359 0 0.106024268497644 -0.050951640302953918 0 0.093688142472086858 -0.063831425210976359 0 0.11454369978542971 -0.067874322458176109 0 0.086060006165890421 -0.043165212334779837 0 0.106024268497644 -0.050951640302953918 0 0.093688142472086858 -0.063831425210976359 0 0.106024268497644 -0.050951640302953918 0 0.122826871196514 -0.055357566017905688 0 0.11454369978542971 -0.067874322458176109 0 0.106024268497644 -0.050951640302953918 0 0.122826871196514 -0.055357566017905688 0 0.11996992317307539 -0.04159883629397633 0 0.11996992317307539 -0.04159883629397633 0 0.10091286433457169 -0.033196073224136077 0 0.114726207201365 -0.025206290037392529 0 0.106024268497644 -0.050951640302953918 0 0.11996992317307539 -0.04159883629397633 0 0.10091286433457169 -0.033196073224136077 0 0.086060006165890421 -0.043165212334779837 0 0.106024268497644 -0.050951640302953918 0 0.10091286433457169 -0.033196073224136077 0 0.10091286433457169 -0.033196073224136077 0 0.1002649111097678 -0.015755460917128251 0 0.114726207201365 -0.025206290037392529 0 0.114726207201365 -0.025206290037392529 0 0.1220979523598477 -0.0090119223756705939 0 0.13161770757696661 -0.02487212480821362 0 0.11996992317307539 -0.04159883629397633 0 0.114726207201365 -0.025206290037392529 0 0.13161770757696661 -0.02487212480821362 0 0.1002649111097678 -0.015755460917128251 0 0.114726207201365 -0.025206290037392529 0 0.1220979523598477 -0.0090119223756705939 0 0.1002649111097678 -0.015755460917128251 0 0.1220979523598477 -0.0090119223756705939 0 0.10580923584085219 0.0047942544251321096 0 0.1002649111097678 -0.015755460917128251 0 0.1220979523598477 -0.0090119223756705939 0 0.10580923584085219 0.0047942544251321096 0 0.090853754436256401 -0.0043661430246791939 0 0.1002649111097678 -0.015755460917128251 0 0.086538526181758973 -0.10304042014706601 0 0.078272118686715436 -0.092518252427050918 0 0.1012435709610673 -0.093463135398229105 0 0.086538526181758973 -0.10304042014706601 0 0.08677303722966298 -0.1233027480127365 0 0.086538526181758973 -0.10304042014706601 0 0.08677303722966298 -0.1233027480127365 0 0.07390753191685788 -0.1152605715373464 0 0.086538526181758973 -0.10304042014706601 0 0.08677303722966298 -0.1233027480127365 0 0.1058547972611952 -0.10485254896918129 0 0.057867219598940083 -0.1207133908367343 0 0.07390753191685788 -0.1152605715373464 0 0.067055714860968965 -0.10304656704190519 0 0.071303161712957919 -0.12619973164828971 0 0.057867219598940083 -0.1207133908367343 0 0.07390753191685788 -0.1152605715373464 0 0.071303161712957919 -0.12619973164828971 0 0.08677303722966298 -0.1233027480127365 0 0.07390753191685788 -0.1152605715373464 0 0.086538526181758973 -0.10304042014706601 0 0.067055714860968965 -0.10304656704190519 0 0.078272118686715436 -0.092518252427050918 0 0.086538526181758973 -0.10304042014706601 0 0.07390753191685788 -0.1152605715373464 0 0.067055714860968965 -0.10304656704190519 0 0.067055714860968965 -0.10304656704190519 0 0.064926685925366656 -0.084573472811090497 0 0.078272118686715436 -0.092518252427050918 0 0.064926685925366656 -0.084573472811090497 0 0.083237400693175756 -0.079522186149196955 0 0.078272118686715436 -0.092518252427050918 0 0.065231230425284212 -0.065581236900164791 0 0.083237400693175756 -0.079522186149196955 0 0.064926685925366656 -0.084573472811090497 0 0.065231230425284212 -0.065581236900164791 0 0.083237400693175756 -0.079522186149196955 0 0.079016927756834235 -0.057505816148841829 0 0.065231230425284212 -0.065581236900164791 0 0.083237400693175756 -0.079522186149196955 0 0.093688142472086858 -0.063831425210976359 0 0.083237400693175756 -0.079522186149196955 0 0.10131627877828329 -0.084497638087172797 0 0.079016927756834235 -0.057505816148841829 0 0.093688142472086858 -0.063831425210976359 0 0.083237400693175756 -0.079522186149196955 0 0.083237400693175756 -0.079522186149196955 0 0.078272118686715436 -0.092518252427050918 0 0.1012435709610673 -0.093463135398229105 0 0.083237400693175756 -0.079522186149196955 0 0.1012435709610673 -0.093463135398229105 0 0.083237400693175756 -0.079522186149196955 0 0.1012435709610673 -0.093463135398229105 0 0.10131627877828329 -0.084497638087172797 0 0.10131627877828329 -0.084497638087172797 0 0.1093675613252324 -0.089373157100930731 0 0.11258433089165849 -0.080495820896091794 0 0.10131627877828329 -0.084497638087172797 0 0.1055331129818646 -0.074174801663104264 0 0.11258433089165849 -0.080495820896091794 0 0.1012435709610673 -0.093463135398229105 0 0.10131627877828329 -0.084497638087172797 0 0.1093675613252324 -0.089373157100930731 0 0.093688142472086858 -0.063831425210976359 0 0.10131627877828329 -0.084497638087172797 0 0.093688142472086858 -0.063831425210976359 0 0.10131627877828329 -0.084497638087172797 0 0.1055331129818646 -0.074174801663104264 0 0.093688142472086858 -0.063831425210976359 0 0.1055331129818646 -0.074174801663104264 0 0.11454369978542971 -0.067874322458176109 0 0.122826871196514 -0.055357566017905688 0 0.11454369978542971 -0.067874322458176109 0 0.1358664262505484 -0.067431192263161646 0 0.1055331129818646 -0.074174801663104264 0 0.11454369978542971 -0.067874322458176109 0 0.11258433089165849 -0.080495820896091794 0 0.1093675613252324 -0.089373157100930731 0 0.1249365572927269 -0.08640234992562551 0 0.1058547972611952 -0.10485254896918129 0 0.11454369978542971 -0.067874322458176109 0 0.11258433089165849 -0.080495820896091794 0 0.1249365572927269 -0.08640234992562551 0 0.1093675613252324 -0.089373157100930731 0 0.11258433089165849 -0.080495820896091794 0 0.1249365572927269 -0.08640234992562551 0 0.1249365572927269 -0.08640234992562551 0 0.1058547972611952 -0.10485254896918129 0 0.1249365572927269 -0.08640234992562551 0 0.1244731801733201 -0.1043511347242404 0 0.1058547972611952 -0.10485254896918129 0 0.1244731801733201 -0.1043511347242404 0 0.1058547972611952 -0.10485254896918129 0 0.116904759985706 -0.1149890939344589 0 0.1012435709610673 -0.093463135398229105 0 0.1093675613252324 -0.089373157100930731 0 0.1058547972611952 -0.10485254896918129 0 0.086538526181758973 -0.10304042014706601 0 0.1012435709610673 -0.093463135398229105 0 0.1058547972611952 -0.10485254896918129 0 0.1078116241572625 -0.12741794445031951 0 0.08677303722966298 -0.1233027480127365 0 0.1043360546584568 -0.1176405838416742 0 0.08677303722966298 -0.1233027480127365 0 0.1058547972611952 -0.10485254896918129 0 0.1043360546584568 -0.1176405838416742 0 0.08677303722966298 -0.1233027480127365 0 0.1058547972611952 -0.10485254896918129 0 0.1058547972611952 -0.10485254896918129 0 0.1043360546584568 -0.1176405838416742 0 0.116904759985706 -0.1149890939344589 0 0.1078116241572625 -0.12741794445031951 0 0.1043360546584568 -0.1176405838416742 0 0.116904759985706 -0.1149890939344589 0 0.1229530066037904 -0.12712088987018169 0 0.116904759985706 -0.1149890939344589 0 0.13462084544285091 -0.1158821033417763 0 0.1078116241572625 -0.12741794445031951 0 0.1229530066037904 -0.12712088987018169 0 0.116904759985706 -0.1149890939344589 0 0.1244731801733201 -0.1043511347242404 0 0.116904759985706 -0.1149890939344589 0 0.13462084544285091 -0.1158821033417763 0 0.13462084544285091 -0.1158821033417763 0 0.149023815768587 -0.1116137136319648 0 0.1499983316955591 -0.12436127373602909 0 0.13462084544285091 -0.1158821033417763 0 0.1499983316955591 -0.12436127373602909 0 0.140526493796503 -0.13343368543928361 0 0.149023815768587 -0.1116137136319648 0 0.1499983316955591 -0.12436127373602909 0 0.16805488669107971 -0.12685528932830131 0 0.149023815768587 -0.1116137136319648 0 0.14004894088412151 -0.099629577450160059 0 0.1587699219286049 -0.1017419171953924 0 0.13462084544285091 -0.1158821033417763 0 0.149023815768587 -0.1116137136319648 0 0.14004894088412151 -0.099629577450160059 0 0.14004894088412151 -0.099629577450160059 0 0.14679376906782729 -0.085049571862371803 0 0.1587699219286049 -0.1017419171953924 0 0.1249365572927269 -0.08640234992562551 0 0.1244731801733201 -0.1043511347242404 0 0.14004894088412151 -0.099629577450160059 0 0.1244731801733201 -0.1043511347242404 0 0.13462084544285091 -0.1158821033417763 0 0.14004894088412151 -0.099629577450160059 0 0.1249365572927269 -0.08640234992562551 0 0.1358664262505484 -0.067431192263161646 0 0.14679376906782729 -0.085049571862371803 0 0.1249365572927269 -0.08640234992562551 0 0.14004894088412151 -0.099629577450160059 0 0.14679376906782729 -0.085049571862371803 0 0.11454369978542971 -0.067874322458176109 0 0.1249365572927269 -0.08640234992562551 0 0.1358664262505484 -0.067431192263161646 0 0.1358664262505484 -0.067431192263161646 0 0.15352960229673471 -0.073222510403031016 0 0.14679376906782729 -0.085049571862371803 0 0.1358664262505484 -0.067431192263161646 0 0.15352960229673471 -0.073222510403031016 0 0.15191658099354369 -0.058918434573705478 0 0.15352960229673471 -0.073222510403031016 0 0.14679376906782729 -0.085049571862371803 0 0.1696985844622643 -0.087863455415200575 0 0.14679376906782729 -0.085049571862371803 0 0.1696985844622643 -0.087863455415200575 0 0.1587699219286049 -0.1017419171953924 0 0.15352960229673471 -0.073222510403031016 0 0.1696985844622643 -0.087863455415200575 0 0.16337265070949011 -0.066849897900715605 0 0.1696985844622643 -0.087863455415200575 0 0.16337265070949011 -0.066849897900715605 0 0.1764909833715709 -0.077679859783249899 0 0.1696985844622643 -0.087863455415200575 0 0.16337265070949011 -0.066849897900715605 0 0.15352960229673471 -0.073222510403031016 0 0.16337265070949011 -0.066849897900715605 0 0.15191658099354369 -0.058918434573705478 0 0.16337265070949011 -0.066849897900715605 0 0.1769849620854583 -0.06832710697582306 0 0.17141517838652129 -0.058697749688347671 0 0.1769849620854583 -0.06832710697582306 0 0.1832611017599636 -0.063581792203452558 0 0.17141517838652129 -0.058697749688347671 0 0.1769849620854583 -0.06832710697582306 0 0.1764909833715709 -0.077679859783249899 0 0.18299357786879081 -0.072327997301275718 0 0.16337265070949011 -0.066849897900715605 0 0.1769849620854583 -0.06832710697582306 0 0.1764909833715709 -0.077679859783249899 0 0.1764909833715709 -0.077679859783249899 0 0.18299357786879081 -0.072327997301275718 0 0.18651327517055549 -0.079716557657765474 0 0.18299357786879081 -0.072327997301275718 0 0.18651327517055549 -0.079716557657765474 0 0.19171756695640571 -0.072334669886087638 0 0.18299357786879081 -0.072327997301275718 0 0.1832611017599636 -0.063581792203452558 0 0.19171756695640571 -0.072334669886087638 0 0.1769849620854583 -0.06832710697582306 0 0.18299357786879081 -0.072327997301275718 0 0.1832611017599636 -0.063581792203452558 0 0.1696985844622643 -0.087863455415200575 0 0.17924455524484001 -0.087096629749534887 0 0.18427537797496921 -0.1031266461419237 0 0.18651327517055549 -0.079716557657765474 0 0.18427537797496921 -0.1031266461419237 0 0.17924455524484001 -0.087096629749534887 0 0.18651327517055549 -0.079716557657765474 0 0.18427537797496921 -0.1031266461419237 0 0.18651327517055549 -0.079716557657765474 0 0.18427537797496921 -0.1031266461419237 0 0.19123735785691251 -0.091146833861995846 0 0.1696985844622643 -0.087863455415200575 0 0.1764909833715709 -0.077679859783249899 0 0.17924455524484001 -0.087096629749534887 0 0.1764909833715709 -0.077679859783249899 0 0.17924455524484001 -0.087096629749534887 0 0.18651327517055549 -0.079716557657765474 0 0.1696985844622643 -0.087863455415200575 0 0.17602451821503851 -0.1088770129296856 0 0.18427537797496921 -0.1031266461419237 0 0.1696985844622643 -0.087863455415200575 0 0.17602451821503851 -0.1088770129296856 0 0.17602451821503851 -0.1088770129296856 0 0.16805488669107971 -0.12685528932830131 0 0.18203748077938281 -0.12653673462608189 0 0.17602451821503851 -0.1088770129296856 0 0.18427537797496921 -0.1031266461419237 0 0.18203748077938281 -0.12653673462608189 0 0.18427537797496921 -0.1031266461419237 0 0.19397351427128109 -0.1157622154379553 0 0.18203748077938281 -0.12653673462608189 0 0.18427537797496921 -0.1031266461419237 0 0.18203748077938281 -0.12653673462608189 0 0.1587699219286049 -0.1017419171953924 0 0.16805488669107971 -0.12685528932830131 0 0.149023815768587 -0.1116137136319648 0 0.1587699219286049 -0.1017419171953924 0 0.16805488669107971 -0.12685528932830131 0 0.17602451821503851 -0.1088770129296856 0 0.1587699219286049 -0.1017419171953924 0 0.16805488669107971 -0.12685528932830131 0 0.1696985844622643 -0.087863455415200575 0 0.17602451821503851 -0.1088770129296856 0 0.1587699219286049 -0.1017419171953924 0 0.14393099360992739 -0.0022683838342123751 0 0.15048885528332159 -0.024052362110221479 0 0.16561639020045121 0.0044295519237971476 0 0.14393099360992739 -0.0022683838342123751 0 0.156825324138996 -0.0055618294174159134 0 0.14393099360992739 -0.0022683838342123751 0 0.15048885528332159 -0.024052362110221479 0 0.15739009865599091 -0.01528118018324922 0 0.14393099360992739 -0.0022683838342123751 0 0.15739009865599091 -0.01528118018324922 0 0.156825324138996 -0.0055618294174159134 0 0.1220979523598477 -0.0090119223756705939 0 0.14393099360992739 -0.0022683838342123751 0 0.12560896974666211 0.006708581279863849 0 0.1220979523598477 -0.0090119223756705939 0 0.14393099360992739 -0.0022683838342123751 0 0.1220979523598477 -0.0090119223756705939 0 0.14393099360992739 -0.0022683838342123751 0 0.13161770757696661 -0.02487212480821362 0 0.14393099360992739 -0.0022683838342123751 0 0.13161770757696661 -0.02487212480821362 0 0.15048885528332159 -0.024052362110221479 0 0.15048885528332159 -0.024052362110221479 0 0.15704671695671549 -0.045836340386230717 0 0.15048885528332159 -0.024052362110221479 0 0.13833068995752609 -0.045875575146614687 0 0.15704671695671549 -0.045836340386230717 0 0.13161770757696661 -0.02487212480821362 0 0.15048885528332159 -0.024052362110221479 0 0.13833068995752609 -0.045875575146614687 0 0.11996992317307539 -0.04159883629397633 0 0.13161770757696661 -0.02487212480821362 0 0.13833068995752609 -0.045875575146614687 0 0.122826871196514 -0.055357566017905688 0 0.1358664262505484 -0.067431192263161646 0 0.13833068995752609 -0.045875575146614687 0 0.122826871196514 -0.055357566017905688 0 0.11996992317307539 -0.04159883629397633 0 0.13833068995752609 -0.045875575146614687 0 0.13833068995752609 -0.045875575146614687 0 0.15191658099354369 -0.058918434573705478 0 0.15704671695671549 -0.045836340386230717 0 0.1358664262505484 -0.067431192263161646 0 0.13833068995752609 -0.045875575146614687 0 0.15191658099354369 -0.058918434573705478 0 0.15191658099354369 -0.058918434573705478 0 0.15704671695671549 -0.045836340386230717 0 0.17141517838652129 -0.058697749688347671 0 0.17641046042097849 -0.048893610975516512 0 0.15704671695671549 -0.045836340386230717 0 0.16337265070949011 -0.066849897900715605 0 0.15191658099354369 -0.058918434573705478 0 0.15704671695671549 -0.045836340386230717 0 0.16337265070949011 -0.066849897900715605 0 0.17141517838652129 -0.058697749688347671 0 0.15704671695671549 -0.045836340386230717 0 0.16337265070949011 -0.066849897900715605 0 0.15704671695671549 -0.045836340386230717 0 0.1832611017599636 -0.063581792203452558 0 0.17141517838652129 -0.058697749688347671 0 0.17641046042097849 -0.048893610975516512 0 0.1832611017599636 -0.063581792203452558 0 0.17641046042097849 -0.048893610975516512 0 0.1914143380210061 -0.056772756828828777 0 0.17641046042097849 -0.048893610975516512 0 0.1837563031319607 -0.028609940749451699 0 0.1914143380210061 -0.056772756828828777 0 0.17641046042097849 -0.048893610975516512 0 0.1707687859865277 -0.036674423433708948 0 0.1837563031319607 -0.028609940749451699 0 0.15704671695671549 -0.045836340386230717 0 0.16586166343645589 -0.023357801623636969 0 0.17641046042097849 -0.048893610975516512 0 0.1707687859865277 -0.036674423433708948 0 0.15704671695671549 -0.045836340386230717 0 0.1707687859865277 -0.036674423433708948 0 0.15704671695671549 -0.045836340386230717 0 0.16586166343645589 -0.023357801623636969 0 0.15048885528332159 -0.024052362110221479 0 0.15704671695671549 -0.045836340386230717 0 0.16586166343645589 -0.023357801623636969 0 0.15048885528332159 -0.024052362110221479 0 0.16586166343645589 -0.023357801623636969 0 0.15739009865599091 -0.01528118018324922 0 0.16586166343645589 -0.023357801623636969 0 0.1675526366893553 -0.01343807909916781 0 0.15739009865599091 -0.01528118018324922 0 0.16586166343645589 -0.023357801623636969 0 0.1837563031319607 -0.028609940749451699 0 0.1746766099161994 -0.00087926286104425154 0 0.1707687859865277 -0.036674423433708948 0 0.16586166343645589 -0.023357801623636969 0 0.1837563031319607 -0.028609940749451699 0 0.1837563031319607 -0.028609940749451699 0 0.18615146454912959 -0.024700347746852671 0 0.176098268242915 -0.00044712467007468202 0 0.1837563031319607 -0.028609940749451699 0 0.176098268242915 -0.00044712467007468202 0 0.18615146454912959 -0.024700347746852671 0 0.176098268242915 -0.00044712467007468202 0 0.1878084188739518 -0.0098033388525821819 0 0.1837563031319607 -0.028609940749451699 0 0.176098268242915 -0.00044712467007468202 0 0.1746766099161994 -0.00087926286104425154 0 0.17558552507299821 0.001438514635507832 0 0.1746766099161994 -0.00087926286104425154 0 0.1722977414487197 -0.001602362002945532 0 0.176098268242915 -0.00044712467007468202 0 0.1746766099161994 -0.00087926286104425154 0 0.1746766099161994 -0.00087926286104425154 0 0.1722977414487197 -0.001602362002945532 0 0.1746766099161994 -0.00087926286104425154 0 0.1722977414487197 -0.001602362002945532 0 0.1675526366893553 -0.01343807909916781 0 0.16561639020045121 0.0044295519237971476 0 0.1675526366893553 -0.01343807909916781 0 0.156825324138996 -0.0055618294174159134 0 0.16586166343645589 -0.023357801623636969 0 0.1746766099161994 -0.00087926286104425154 0 0.1675526366893553 -0.01343807909916781 0 0.16561639020045121 0.0044295519237971476 0 0.1675526366893553 -0.01343807909916781 0 0.16561639020045121 0.0044295519237971476 0 0.1722977414487197 -0.001602362002945532 0 0.1675526366893553 -0.01343807909916781 0 0.16586166343645589 -0.023357801623636969 0 0.1746766099161994 -0.00087926286104425154 0 0.1675526366893553 -0.01343807909916781 0 0.15739009865599091 -0.01528118018324922 0 0.156825324138996 -0.0055618294174159134 0 0.2223875119791916 0.0013160666026401609 0 0.21262001035968731 -0.01396018126070493 0 0.20249880444610649 -0.0077151405049489634 0 0.2223875119791916 0.0013160666026401609 0 0.21262001035968731 -0.01396018126070493 0 0.21262001035968731 -0.01396018126070493 0 0.20249880444610649 -0.0077151405049489634 0 0.1993838794124233 -0.019325685462153439 0 0.20412664092080501 0.0080725948979577054 0 0.20249880444610649 -0.0077151405049489634 0 0.1878084188739518 -0.0098033388525821819 0 0.20412664092080501 0.0080725948979577054 0 0.176098268242915 -0.00044712467007468202 0 0.1878084188739518 -0.0098033388525821819 0 0.20249880444610649 -0.0077151405049489634 0 0.1878084188739518 -0.0098033388525821819 0 0.19208921802750431 -0.01685724820638702 0 0.20249880444610649 -0.0077151405049489634 0 0.1993838794124233 -0.019325685462153439 0 0.19208921802750431 -0.01685724820638702 0 0.18615146454912959 -0.024700347746852671 0 0.2107313130061127 -0.032147772492328322 0 0.18615146454912959 -0.024700347746852671 0 0.2094435541625535 -0.029464065101448791 0 0.2107313130061127 -0.032147772492328322 0 0.18615146454912959 -0.024700347746852671 0 0.2107313130061127 -0.032147772492328322 0 0.19678182179838419 -0.033901376943588489 0 0.18615146454912959 -0.024700347746852671 0 0.1993838794124233 -0.019325685462153439 0 0.2094435541625535 -0.029464065101448791 0 0.18615146454912959 -0.024700347746852671 0 0.1878084188739518 -0.0098033388525821819 0 0.19208921802750431 -0.01685724820638702 0 0.18615146454912959 -0.024700347746852671 0 0.1993838794124233 -0.019325685462153439 0 0.19208921802750431 -0.01685724820638702 0 0.1837563031319607 -0.028609940749451699 0 0.18615146454912959 -0.024700347746852671 0 0.19678182179838419 -0.033901376943588489 0 0.2094435541625535 -0.029464065101448791 0 0.2107313130061127 -0.032147772492328322 0 0.1993838794124233 -0.019325685462153439 0 0.2094435541625535 -0.029464065101448791 0 0.2077873768854214 -0.02104740512284603 0 0.21262001035968731 -0.01396018126070493 0 0.1993838794124233 -0.019325685462153439 0 0.2077873768854214 -0.02104740512284603 0 0.21262001035968731 -0.01396018126070493 0 0.2077873768854214 -0.02104740512284603 0 0.220350988485603 -0.022574066681671268 0 0.2094435541625535 -0.029464065101448791 0 0.2107313130061127 -0.032147772492328322 0 0.220350988485603 -0.022574066681671268 0 0.2094435541625535 -0.029464065101448791 0 0.2077873768854214 -0.02104740512284603 0 0.220350988485603 -0.022574066681671268 0 0.2107313130061127 -0.032147772492328322 0 0.20577944365408529 -0.048607213886673203 0 0.22163762829690109 -0.054876685673176107 0 0.2107313130061127 -0.032147772492328322 0 0.19678182179838419 -0.033901376943588489 0 0.20577944365408529 -0.048607213886673203 0 0.2107313130061127 -0.032147772492328322 0 0.22163762829690109 -0.054876685673176107 0 0.19678182179838419 -0.033901376943588489 0 0.1914143380210061 -0.056772756828828777 0 0.20577944365408529 -0.048607213886673203 0 0.1837563031319607 -0.028609940749451699 0 0.19678182179838419 -0.033901376943588489 0 0.1914143380210061 -0.056772756828828777 0 0.1837563031319607 -0.028609940749451699 0 0.1914143380210061 -0.056772756828828777 0 0.1914143380210061 -0.056772756828828777 0 0.20577944365408529 -0.048607213886673203 0 0.20897724660461919 -0.068026877657453827 0 0.20577944365408529 -0.048607213886673203 0 0.22163762829690109 -0.054876685673176107 0 0.20897724660461919 -0.068026877657453827 0 0.22163762829690109 -0.054876685673176107 0 0.23457932384015351 -0.058797877612413403 0 0.23661470409260671 -0.039990156370801763 0 0.24898953992166531 -0.05905509024712783 0 0.23457932384015351 -0.058797877612413403 0 0.23661470409260671 -0.039990156370801763 0 0.23457932384015351 -0.058797877612413403 0 0.23661470409260671 -0.039990156370801763 0 0.25361853343101348 -0.045142130338597958 0 0.24898953992166531 -0.05905509024712783 0 0.23661470409260671 -0.039990156370801763 0 0.25361853343101348 -0.045142130338597958 0 0.23661470409260671 -0.039990156370801763 0 0.24964284861040009 -0.02830998638147841 0 0.25361853343101348 -0.045142130338597958 0 0.23661470409260671 -0.039990156370801763 0 0.2107313130061127 -0.032147772492328322 0 0.22163762829690109 -0.054876685673176107 0 0.23661470409260671 -0.039990156370801763 0 0.2107313130061127 -0.032147772492328322 0 0.23661470409260671 -0.039990156370801763 0 0.2107313130061127 -0.032147772492328322 0 0.23661470409260671 -0.039990156370801763 0 0.220350988485603 -0.022574066681671268 0 0.23661470409260671 -0.039990156370801763 0 0.220350988485603 -0.022574066681671268 0 0.2398563832727337 -0.01003575433678397 0 0.21262001035968731 -0.01396018126070493 0 0.220350988485603 -0.022574066681671268 0 0.22380372352430389 -0.01131348391913 0 0.23661470409260671 -0.039990156370801763 0 0.24964284861040009 -0.02830998638147841 0 0.2398563832727337 -0.01003575433678397 0 0.2557508608561096 -0.015966602693653121 0 0.24964284861040009 -0.02830998638147841 0 0.2398563832727337 -0.01003575433678397 0 0.23661470409260671 -0.039990156370801763 0 0.2398563832727337 -0.01003575433678397 0 0.2223875119791916 0.0013160666026401609 0 0.2398563832727337 -0.01003575433678397 0 0.22380372352430389 -0.01131348391913 0 0.220350988485603 -0.022574066681671268 0 0.2398563832727337 -0.01003575433678397 0 0.22380372352430389 -0.01131348391913 0 0.2223875119791916 0.0013160666026401609 0 0.21262001035968731 -0.01396018126070493 0 0.22380372352430389 -0.01131348391913 0 0.2087694916642861 -0.1015495330570042 0 0.2184666104185195 -0.1181634932058032 0 0.22072563622205479 -0.1020572233880498 0 0.20453622572777189 -0.1050291718823185 0 0.2087694916642861 -0.1015495330570042 0 0.19907237291005231 -0.084935572908205553 0 0.20453622572777189 -0.1050291718823185 0 0.2087694916642861 -0.1015495330570042 0 0.2184666104185195 -0.1181634932058032 0 0.2087694916642861 -0.1015495330570042 0 0.2164690574611296 -0.087636485145646273 0 0.22072563622205479 -0.1020572233880498 0 0.2087694916642861 -0.1015495330570042 0 0.2184666104185195 -0.1181634932058032 0 0.20453622572777189 -0.1050291718823185 0 0.2184666104185195 -0.1181634932058032 0 0.21000007854549149 -0.1251227708564315 0 0.20453622572777189 -0.1050291718823185 0 0.21000007854549149 -0.1251227708564315 0 0.2184666104185195 -0.1181634932058032 0 0.21000007854549149 -0.1251227708564315 0 0.2184666104185195 -0.1181634932058032 0 0.21620608219327669 -0.12814183879314381 0 0.21000007854549149 -0.1251227708564315 0 0.20453622572777189 -0.1050291718823185 0 0.19397351427128109 -0.1157622154379553 0 0.21000007854549149 -0.1251227708564315 0 0.20453622572777189 -0.1050291718823185 0 0.19907237291005231 -0.084935572908205553 0 0.20453622572777189 -0.1050291718823185 0 0.19397351427128109 -0.1157622154379553 0 0.1950884053720735 -0.096808558740088521 0 0.18427537797496921 -0.1031266461419237 0 0.19397351427128109 -0.1157622154379553 0 0.1950884053720735 -0.096808558740088521 0 0.20453622572777189 -0.1050291718823185 0 0.1950884053720735 -0.096808558740088521 0 0.19907237291005231 -0.084935572908205553 0 0.18427537797496921 -0.1031266461419237 0 0.1950884053720735 -0.096808558740088521 0 0.19123735785691251 -0.091146833861995846 0 0.1950884053720735 -0.096808558740088521 0 0.19123735785691251 -0.091146833861995846 0 0.19907237291005231 -0.084935572908205553 0 0.18651327517055549 -0.079716557657765474 0 0.19123735785691251 -0.091146833861995846 0 0.19907237291005231 -0.084935572908205553 0 0.18651327517055549 -0.079716557657765474 0 0.19907237291005231 -0.084935572908205553 0 0.19171756695640571 -0.072334669886087638 0 0.19907237291005231 -0.084935572908205553 0 0.19171756695640571 -0.072334669886087638 0 0.1914143380210061 -0.056772756828828777 0 0.19907237291005231 -0.084935572908205553 0 0.1914143380210061 -0.056772756828828777 0 0.19907237291005231 -0.084935572908205553 0 0.19171756695640571 -0.072334669886087638 0 0.1914143380210061 -0.056772756828828777 0 0.19907237291005231 -0.084935572908205553 0 0.20897724660461919 -0.068026877657453827 0 0.1832611017599636 -0.063581792203452558 0 0.1914143380210061 -0.056772756828828777 0 0.19171756695640571 -0.072334669886087638 0 0.2087694916642861 -0.1015495330570042 0 0.19907237291005231 -0.084935572908205553 0 0.2164690574611296 -0.087636485145646273 0 0.19907237291005231 -0.084935572908205553 0 0.20897724660461919 -0.068026877657453827 0 0.2164690574611296 -0.087636485145646273 0 0.2087694916642861 -0.1015495330570042 0 0.19907237291005231 -0.084935572908205553 0 0.2308223217180107 -0.093514068128606659 0 0.23254394358768951 -0.077605598854023877 0 0.2164690574611296 -0.087636485145646273 0 0.2308223217180107 -0.093514068128606659 0 0.23254394358768951 -0.077605598854023877 0 0.22163762829690109 -0.054876685673176107 0 0.20897724660461919 -0.068026877657453827 0 0.23254394358768951 -0.077605598854023877 0 0.22163762829690109 -0.054876685673176107 0 0.23457932384015351 -0.058797877612413403 0 0.23254394358768951 -0.077605598854023877 0 0.20897724660461919 -0.068026877657453827 0 0.2164690574611296 -0.087636485145646273 0 0.23254394358768951 -0.077605598854023877 0 0.22163762829690109 -0.054876685673176107 0 0.23254394358768951 -0.077605598854023877 0 0.23457932384015351 -0.058797877612413403 0 0.23254394358768951 -0.077605598854023877 0 0.24898953992166531 -0.05905509024712783 0 0.23457932384015351 -0.058797877612413403 0 0.23254394358768951 -0.077605598854023877 0 0.25600715976498267 -0.073169543009763707 0 0.24898953992166531 -0.05905509024712783 0 0.23254394358768951 -0.077605598854023877 0 0.23254394358768951 -0.077605598854023877 0 0.24139195676054659 -0.09604498171313422 0 0.26079992006016922 -0.083366570441649149 0 0.24251875031267911 -0.098393235191617495 0 0.24139195676054659 -0.09604498171313422 0 0.25600715976498267 -0.073169543009763707 0 0.24139195676054659 -0.09604498171313422 0 0.2308223217180107 -0.093514068128606659 0 0.23254394358768951 -0.077605598854023877 0 0.24139195676054659 -0.09604498171313422 0 0.25600715976498267 -0.073169543009763707 0 0.23254394358768951 -0.077605598854023877 0 0.24139195676054659 -0.09604498171313422 0 0.24251875031267911 -0.098393235191617495 0 0.23698611304110859 -0.10294092478760369 0 0.2488493395450567 -0.111586271447214 0 0.24251875031267911 -0.098393235191617495 0 0.2488493395450567 -0.111586271447214 0 0.25531397820072871 -0.098382170177095732 0 0.24251875031267911 -0.098393235191617495 0 0.2488493395450567 -0.111586271447214 0 0.2308223217180107 -0.093514068128606659 0 0.23698611304110859 -0.10294092478760369 0 0.24139195676054659 -0.09604498171313422 0 0.24251875031267911 -0.098393235191617495 0 0.24139195676054659 -0.09604498171313422 0 0.24251875031267911 -0.098393235191617495 0 0.23698611304110859 -0.10294092478760369 0 0.24139195676054659 -0.09604498171313422 0 0.23698611304110859 -0.10294092478760369 0 0.24139195676054659 -0.09604498171313422 0 0.24251875031267911 -0.098393235191617495 0 0.23698611304110859 -0.10294092478760369 0 0.2308223217180107 -0.093514068128606659 0 0.23698611304110859 -0.10294092478760369 0 0.22910069984832929 -0.10942253740318909 0 0.2308223217180107 -0.093514068128606659 0 0.22910069984832929 -0.10942253740318909 0 0.2308223217180107 -0.093514068128606659 0 0.22072563622205479 -0.1020572233880498 0 0.22910069984832929 -0.10942253740318909 0 0.23698611304110859 -0.10294092478760369 0 0.22910069984832929 -0.10942253740318909 0 0.2164690574611296 -0.087636485145646273 0 0.2308223217180107 -0.093514068128606659 0 0.22072563622205479 -0.1020572233880498 0 0.2184666104185195 -0.1181634932058032 0 0.22072563622205479 -0.1020572233880498 0 0.22910069984832929 -0.10942253740318909 0 0.2184666104185195 -0.1181634932058032 0 0.22266485190698199 -0.1253562912473743 0 0.21620608219327669 -0.12814183879314381 0 0.22833713999518179 -0.11647813345306091 0 0.2271749956026419 -0.1272168088190041 0 0.22266485190698199 -0.1253562912473743 0 0.22833713999518179 -0.11647813345306091 0 0.22266485190698199 -0.1253562912473743 0 0.2184666104185195 -0.1181634932058032 0 0.22833713999518179 -0.11647813345306091 0 0.22266485190698199 -0.1253562912473743 0 0.2184666104185195 -0.1181634932058032 0 0.22266485190698199 -0.1253562912473743 0 0.2184666104185195 -0.1181634932058032 0 0.22833713999518179 -0.11647813345306091 0 0.22910069984832929 -0.10942253740318909 0 0.2184666104185195 -0.1181634932058032 0 0.22910069984832929 -0.10942253740318909 0 0.23698611304110859 -0.10294092478760369 0 0.22833713999518179 -0.11647813345306091 0 0.23698611304110859 -0.10294092478760369 0 0.22833713999518179 -0.11647813345306091 0 0.22910069984832929 -0.10942253740318909 0 0.22833713999518179 -0.11647813345306091 0 0.22910069984832929 -0.10942253740318909 0 0.22833713999518179 -0.11647813345306091 0 0.2271749956026419 -0.1272168088190041 0 0.2488493395450567 -0.111586271447214 0 0.2426601436047848 -0.13258649190178989 0 0.2271749956026419 -0.1272168088190041 0 0.22833713999518179 -0.11647813345306091 0 0.2488493395450567 -0.111586271447214 0 0.2271749956026419 -0.1272168088190041 0 0.23698611304110859 -0.10294092478760369 0 0.22833713999518179 -0.11647813345306091 0 0.2488493395450567 -0.111586271447214 0 0.2488493395450567 -0.111586271447214 0 0.2271749956026419 -0.1272168088190041 0 0.2426601436047848 -0.13258649190178989 0 0.23723283217694929 -0.15031544146383441 0 0.22663940791691631 -0.1321658515747052 0 0.25233178883659441 -0.1504326262112218 0 0.2426601436047848 -0.13258649190178989 0 0.23723283217694929 -0.15031544146383441 0 0.23723283217694929 -0.15031544146383441 0 0.22663940791691631 -0.1321658515747052 0 0.22351001465862069 -0.1610826871321811 0 0.22663940791691631 -0.1321658515747052 0 0.2196765173343308 -0.1398643172723085 0 0.22351001465862069 -0.1610826871321811 0 0.2196765173343308 -0.1398643172723085 0 0.21497207112913319 -0.14340752859257189 0 0.22351001465862069 -0.1610826871321811 0 0.22663940791691631 -0.1321658515747052 0 0.22351001465862069 -0.1610826871321811 0 0.23723283217694929 -0.15031544146383441 0 0.22663940791691631 -0.1321658515747052 0 0.2426601436047848 -0.13258649190178989 0 0.22663940791691631 -0.1321658515747052 0 0.2271749956026419 -0.1272168088190041 0 0.22663940791691631 -0.1321658515747052 0 0.2271749956026419 -0.1272168088190041 0 0.22663940791691631 -0.1321658515747052 0 0.2196765173343308 -0.1398643172723085 0 0.21660696007442329 -0.1348379887130334 0 0.22266485190698199 -0.1253562912473743 0 0.21660696007442329 -0.1348379887130334 0 0.22663940791691631 -0.1321658515747052 0 0.2247651380609971 -0.12895468695111481 0 0.21660696007442329 -0.1348379887130334 0 0.2247651380609971 -0.12895468695111481 0 0.22266485190698199 -0.1253562912473743 0 0.21660696007442329 -0.1348379887130334 0 0.2247651380609971 -0.12895468695111481 0 0.21660696007442329 -0.1348379887130334 0 0.22663940791691631 -0.1321658515747052 0 0.2271749956026419 -0.1272168088190041 0 0.2247651380609971 -0.12895468695111481 0 0.22663940791691631 -0.1321658515747052 0 0.2247651380609971 -0.12895468695111481 0 0.2271749956026419 -0.1272168088190041 0 0.2247651380609971 -0.12895468695111481 0 0.22266485190698199 -0.1253562912473743 0 0.2271749956026419 -0.1272168088190041 0 0.2247651380609971 -0.12895468695111481 0 0.2247651380609971 -0.12895468695111481 0 0.22266485190698199 -0.1253562912473743 0 0.21000007854549149 -0.1251227708564315 0 0.2132919100209682 -0.13722864994307621 0 0.21620608219327669 -0.12814183879314381 0 0.21000007854549149 -0.1251227708564315 0 0.2132919100209682 -0.13722864994307621 0 0.22266485190698199 -0.1253562912473743 0 0.21620608219327669 -0.12814183879314381 0 0.21660696007442329 -0.1348379887130334 0 0.21000007854549149 -0.1251227708564315 0 0.2132919100209682 -0.13722864994307621 0 0.19489983106464681 -0.13753479698333659 0 0.21620608219327669 -0.12814183879314381 0 0.2132919100209682 -0.13722864994307621 0 0.21660696007442329 -0.1348379887130334 0 0.2132919100209682 -0.13722864994307621 0 0.2138255997264368 -0.13919132120749619 0 0.21660696007442329 -0.1348379887130334 0 0.2132919100209682 -0.13722864994307621 0 0.2138255997264368 -0.13919132120749619 0 0.2132919100209682 -0.13722864994307621 0 0.21660696007442329 -0.1348379887130334 0 0.2196765173343308 -0.1398643172723085 0 0.2138255997264368 -0.13919132120749619 0 0.21660696007442329 -0.1348379887130334 0 0.2138255997264368 -0.13919132120749619 0 0.21660696007442329 -0.1348379887130334 0 0.2138255997264368 -0.13919132120749619 0 0.21497207112913319 -0.14340752859257189 0 0.2007736306988642 -0.15962001572221801 0 0.2138255997264368 -0.13919132120749619 0 0.2007736306988642 -0.15962001572221801 0 0.21245235088321041 -0.155524369482365 0 0.21497207112913319 -0.14340752859257189 0 0.2007736306988642 -0.15962001572221801 0 0.2132919100209682 -0.13722864994307621 0 0.2138255997264368 -0.13919132120749619 0 0.1969485890026926 -0.14901469941401119 0 0.21245235088321041 -0.155524369482365 0 0.21497207112913319 -0.14340752859257189 0 0.22351001465862069 -0.1610826871321811 0 0.2196765173343308 -0.1398643172723085 0 0.2138255997264368 -0.13919132120749619 0 0.21497207112913319 -0.14340752859257189 0 0.2138255997264368 -0.13919132120749619 0 0.1969485890026926 -0.14901469941401119 0 0.2007736306988642 -0.15962001572221801 0 0.2132919100209682 -0.13722864994307621 0 0.1969485890026926 -0.14901469941401119 0 0.2138255997264368 -0.13919132120749619 0 0.21497207112913319 -0.14340752859257189 0 0.1969485890026926 -0.14901469941401119 0 0.18060526798441509 -0.1608007488849437 0 0.1969485890026926 -0.14901469941401119 0 0.19489983106464681 -0.13753479698333659 0 0.17979958358380099 -0.14994682311024071 0 0.2132919100209682 -0.13722864994307621 0 0.1969485890026926 -0.14901469941401119 0 0.19489983106464681 -0.13753479698333659 0 0.19397351427128109 -0.1157622154379553 0 0.21000007854549149 -0.1251227708564315 0 0.19489983106464681 -0.13753479698333659 0 0.19397351427128109 -0.1157622154379553 0 0.19489983106464681 -0.13753479698333659 0 0.18203748077938281 -0.12653673462608189 0 0.21000007854549149 -0.1251227708564315 0 0.19489983106464681 -0.13753479698333659 0 0.18772166167129131 -0.18004871023693961 0 0.2007736306988642 -0.15962001572221801 0 0.20443513443279579 -0.17634318717204631 0 0.18933093079533461 -0.1844013572752434 0 0.18772166167129131 -0.18004871023693961 0 0.20443513443279579 -0.17634318717204631 0 0.18933093079533461 -0.1844013572752434 0 0.20443513443279579 -0.17634318717204631 0 0.20171981035486561 -0.19103738746461099 0 0.18933093079533461 -0.1844013572752434 0 0.18772166167129131 -0.18004871023693961 0 0.1969485890026926 -0.14901469941401119 0 0.2007736306988642 -0.15962001572221801 0 0.18060526798441509 -0.1608007488849437 0 0.18772166167129131 -0.18004871023693961 0 0.2007736306988642 -0.15962001572221801 0 0.18772166167129131 -0.18004871023693961 0 0.2007736306988642 -0.15962001572221801 0 0.18060526798441509 -0.1608007488849437 0 0.21245235088321041 -0.155524369482365 0 0.2007736306988642 -0.15962001572221801 0 0.20443513443279579 -0.17634318717204631 0 0.21245235088321041 -0.155524369482365 0 0.20443513443279579 -0.17634318717204631 0 0.22351001465862069 -0.1610826871321811 0 0.20443513443279579 -0.17634318717204631 0 0.2203806214003248 -0.18999952268965689 0 0.20171981035486561 -0.19103738746461099 0 0.20443513443279579 -0.17634318717204631 0 0.22351001465862069 -0.1610826871321811 0 0.2203806214003248 -0.18999952268965689 0 0.23206668734715971 -0.1766364441586917 0 0.22351001465862069 -0.1610826871321811 0 0.2203806214003248 -0.18999952268965689 0 0.22351001465862069 -0.1610826871321811 0 0.2203806214003248 -0.18999952268965689 0 0.23206668734715971 -0.1766364441586917 0 0.23649650827117041 -0.19166966439674921 0 0.2203806214003248 -0.18999952268965689 0 0.23723283217694929 -0.15031544146383441 0 0.22351001465862069 -0.1610826871321811 0 0.2478262564369825 -0.16846503135296359 0 0.23206668734715971 -0.1766364441586917 0 0.22351001465862069 -0.1610826871321811 0 0.2478262564369825 -0.16846503135296359 0 0.23723283217694929 -0.15031544146383441 0 0.2478262564369825 -0.16846503135296359 0 0.25233178883659441 -0.1504326262112218 0 0.23723283217694929 -0.15031544146383441 0 0.2478262564369825 -0.16846503135296359 0 0.23206668734715971 -0.1766364441586917 0 0.2478262564369825 -0.16846503135296359 0 0.23649650827117041 -0.19166966439674921 0 0.25253281716246961 -0.1946012503644951 0 0.2478262564369825 -0.16846503135296359 0 0.23649650827117041 -0.19166966439674921 0 0.23649650827117041 -0.19166966439674921 0 0.2451515947274199 -0.2102663818032002 0 0.22843236609725151 -0.20575570761415371 0 0.25253281716246961 -0.1946012503644951 0 0.23649650827117041 -0.19166966439674921 0 0.2451515947274199 -0.2102663818032002 0 0.2451515947274199 -0.2102663818032002 0 0.22843236609725151 -0.20575570761415371 0 0.2360146095107355 -0.22497672812059441 0 0.2203806214003248 -0.18999952268965689 0 0.2172512281420276 -0.21891635824713279 0 0.22843236609725151 -0.20575570761415371 0 0.2360146095107355 -0.22497672812059441 0 0.2172512281420276 -0.21891635824713279 0 0.22843236609725151 -0.20575570761415371 0 0.2203806214003248 -0.18999952268965689 0 0.2172512281420276 -0.21891635824713279 0 0.22843236609725151 -0.20575570761415371 0 0.2172512281420276 -0.21891635824713279 0 0.23649650827117041 -0.19166966439674921 0 0.22843236609725151 -0.20575570761415371 0 0.2203806214003248 -0.18999952268965689 0 0.23256339064272161 -0.25123977470111808 0 0.24650617052236279 -0.23839701510874189 0 0.25125052346109411 -0.23416890696817641 0 0.24650617052236279 -0.23839701510874189 0 0.24053373182780199 -0.2361975027947068 0 0.25125052346109411 -0.23416890696817641 0 0.24650617052236279 -0.23839701510874189 0 0.23256339064272161 -0.25123977470111808 0 0.24650617052236279 -0.23839701510874189 0 0.24053373182780199 -0.2361975027947068 0 0.25544481618998532 -0.22487536750541859 0 0.24053373182780199 -0.2361975027947068 0 0.2360146095107355 -0.22497672812059441 0 0.25544481618998532 -0.22487536750541859 0 0.2451515947274199 -0.2102663818032002 0 0.2360146095107355 -0.22497672812059441 0 0.25544481618998532 -0.22487536750541859 0 0.2360146095107355 -0.22497672812059441 0 0.24053373182780199 -0.2361975027947068 0 0.2360146095107355 -0.22497672812059441 0 0.22702500862628511 -0.23481749114701159 0 0.25544481618998532 -0.22487536750541859 0 0.24053373182780199 -0.2361975027947068 0 0.25125052346109411 -0.23416890696817641 0 0.25544481618998532 -0.22487536750541859 0 0.24053373182780199 -0.2361975027947068 0 0.2360146095107355 -0.22497672812059441 0 0.2165844028314857 -0.22507808873576959 0 0.2360146095107355 -0.22497672812059441 0 0.2165844028314857 -0.22507808873576959 0 0.2172512281420276 -0.21891635824713279 0 0.2360146095107355 -0.22497672812059441 0 0.22702500862628511 -0.23481749114701159 0 0.2165844028314857 -0.22507808873576959 0 0.22702500862628511 -0.23481749114701159 0 0.21493797435563161 -0.24029174121206781 0 0.2165844028314857 -0.22507808873576959 0 0.24053373182780199 -0.2361975027947068 0 0.22702500862628511 -0.23481749114701159 0 0.22562264746561889 -0.24751963808399541 0 0.24053373182780199 -0.2361975027947068 0 0.22562264746561889 -0.24751963808399541 0 0.22702500862628511 -0.23481749114701159 0 0.22562264746561889 -0.24751963808399541 0 0.21493797435563161 -0.24029174121206781 0 0.23256339064272161 -0.25123977470111808 0 0.24053373182780199 -0.2361975027947068 0 0.22562264746561889 -0.24751963808399541 0 0.21329154587977761 -0.25550539368836589 0 0.2027203469422876 -0.23843663408758439 0 0.21329154587977761 -0.25550539368836589 0 0.21493797435563161 -0.24029174121206781 0 0.2027203469422876 -0.23843663408758439 0 0.21329154587977761 -0.25550539368836589 0 0.20730421866483389 -0.25345525673254138 0 0.2027203469422876 -0.23843663408758439 0 0.20730421866483389 -0.25345525673254138 0 0.2027203469422876 -0.23843663408758439 0 0.21329154587977761 -0.25550539368836589 0 0.21493797435563161 -0.24029174121206781 0 0.21329154587977761 -0.25550539368836589 0 0.22562264746561889 -0.24751963808399541 0 0.21493797435563161 -0.24029174121206781 0 0.21493797435563161 -0.24029174121206781 0 0.20968326744051691 -0.2331134098881821 0 0.2027203469422876 -0.23843663408758439 0 0.20968326744051691 -0.2331134098881821 0 0.2021776565675901 -0.23665856034469851 0 0.2027203469422876 -0.23843663408758439 0 0.2119959565055887 -0.22510202506079019 0 0.2021776565675901 -0.23665856034469851 0 0.20968326744051691 -0.2331134098881821 0 0.2119959565055887 -0.22510202506079019 0 0.2021776565675901 -0.23665856034469851 0 0.2119959565055887 -0.22510202506079019 0 0.19867167202350419 -0.22517153320829361 0 0.2021776565675901 -0.23665856034469851 0 0.20968326744051691 -0.2331134098881821 0 0.2119959565055887 -0.22510202506079019 0 0.2165844028314857 -0.22507808873576959 0 0.21493797435563161 -0.24029174121206781 0 0.2165844028314857 -0.22507808873576959 0 0.21493797435563161 -0.24029174121206781 0 0.20968326744051691 -0.2331134098881821 0 0.2165844028314857 -0.22507808873576959 0 0.2119959565055887 -0.22510202506079019 0 0.2165844028314857 -0.22507808873576959 0 0.2119959565055887 -0.22510202506079019 0 0.2172512281420276 -0.21891635824713279 0 0.20711502919766489 -0.21907921030603861 0 0.2119959565055887 -0.22510202506079019 0 0.2165844028314857 -0.22507808873576959 0 0.2172512281420276 -0.21891635824713279 0 0.2165844028314857 -0.22507808873576959 0 0.2172512281420276 -0.21891635824713279 0 0.2119959565055887 -0.22510202506079019 0 0.2172512281420276 -0.21891635824713279 0 0.2119959565055887 -0.22510202506079019 0 0.20711502919766489 -0.21907921030603861 0 0.19867167202350419 -0.22517153320829361 0 0.2119959565055887 -0.22510202506079019 0 0.19867167202350419 -0.22517153320829361 0 0.19867167202350419 -0.22517153320829361 0 0.18271087880629139 -0.21067476655978021 0 0.18670278270224541 -0.22523397073171281 0 0.19867167202350419 -0.22517153320829361 0 0.18670278270224541 -0.22523397073171281 0 0.19404944363069099 -0.229588350824764 0 0.19533493762872381 -0.23431332413114639 0 0.18651461144105791 -0.23327132605850981 0 0.19404944363069099 -0.229588350824764 0 0.18651461144105791 -0.23327132605850981 0 0.18670278270224541 -0.22523397073171281 0 0.19867167202350419 -0.22517153320829361 0 0.19404944363069099 -0.229588350824764 0 0.18670278270224541 -0.22523397073171281 0 0.19404944363069099 -0.229588350824764 0 0.18670278270224541 -0.22523397073171281 0 0.19867167202350419 -0.22517153320829361 0 0.2021776565675901 -0.23665856034469851 0 0.19533493762872381 -0.23431332413114639 0 0.1968199240487335 -0.2289095312009026 0 0.2027203469422876 -0.23843663408758439 0 0.1968199240487335 -0.2289095312009026 0 0.2027203469422876 -0.23843663408758439 0 0.19867167202350419 -0.22517153320829361 0 0.1968199240487335 -0.2289095312009026 0 0.2021776565675901 -0.23665856034469851 0 0.19404944363069099 -0.229588350824764 0 0.19533493762872381 -0.23431332413114639 0 0.1968199240487335 -0.2289095312009026 0 0.19867167202350419 -0.22517153320829361 0 0.19404944363069099 -0.229588350824764 0 0.1968199240487335 -0.2289095312009026 0 0.20730421866483389 -0.25345525673254138 0 0.18775999181847311 -0.25362873363711003 0 0.2027203469422876 -0.23843663408758439 0 0.1968199240487335 -0.2289095312009026 0 0.2021776565675901 -0.23665856034469851 0 0.2027203469422876 -0.23843663408758439 0 0.19533493762872381 -0.23431332413114639 0 0.2027203469422876 -0.23843663408758439 0 0.1905106121299687 -0.241109297045146 0 0.2021776565675901 -0.23665856034469851 0 0.2027203469422876 -0.23843663408758439 0 0.19533493762872381 -0.23431332413114639 0 0.1905106121299687 -0.241109297045146 0 0.18651461144105791 -0.23327132605850981 0 0.18775999181847311 -0.25362873363711003 0 0.2027203469422876 -0.23843663408758439 0 0.1905106121299687 -0.241109297045146 0 0.18775999181847311 -0.25362873363711003 0 0.2027203469422876 -0.23843663408758439 0 0.2203806214003248 -0.18999952268965689 0 0.20344967189461921 -0.2086427480695372 0 0.20171981035486561 -0.19103738746461099 0 0.2203806214003248 -0.18999952268965689 0 0.2172512281420276 -0.21891635824713279 0 0.20344967189461921 -0.2086427480695372 0 0.2172512281420276 -0.21891635824713279 0 0.20711502919766489 -0.21907921030603861 0 0.20344967189461921 -0.2086427480695372 0 0.19867167202350419 -0.22517153320829361 0 0.1902562131294056 -0.19759907717883499 0 0.19867167202350419 -0.22517153320829361 0 0.1902562131294056 -0.19759907717883499 0 0.18271087880629139 -0.21067476655978021 0 0.20711502919766489 -0.21907921030603861 0 0.19867167202350419 -0.22517153320829361 0 0.20344967189461921 -0.2086427480695372 0 0.19867167202350419 -0.22517153320829361 0 0.20344967189461921 -0.2086427480695372 0 0.1902562131294056 -0.19759907717883499 0 0.20344967189461921 -0.2086427480695372 0 0.1902562131294056 -0.19759907717883499 0 0.20171981035486561 -0.19103738746461099 0 0.18933093079533461 -0.1844013572752434 0 0.1902562131294056 -0.19759907717883499 0 0.20171981035486561 -0.19103738746461099 0 0.18933093079533461 -0.1844013572752434 0 0.1902562131294056 -0.19759907717883499 0 0.17711192226035419 -0.19665487324951411 0 0.18772166167129131 -0.18004871023693961 0 0.17711192226035419 -0.19665487324951411 0 0.1902562131294056 -0.19759907717883499 0 0.17711192226035419 -0.19665487324951411 0 0.18271087880629139 -0.21067476655978021 0 0.17711192226035419 -0.19665487324951411 0 0.18271087880629139 -0.21067476655978021 0 0.16650218284941831 -0.21326103626208931 0 0.18271087880629139 -0.21067476655978021 0 0.16650218284941831 -0.21326103626208931 0 0.18670278270224541 -0.22523397073171281 0 0.16650218284941831 -0.21326103626208931 0 0.14659314159117631 -0.20146090913345829 0 0.17711192226035419 -0.19665487324951411 0 0.16650218284941831 -0.21326103626208931 0 0.16650218284941831 -0.21326103626208931 0 0.16344175141428699 -0.19554668125081781 0 0.14659314159117631 -0.20146090913345829 0 0.17711192226035419 -0.19665487324951411 0 0.16650218284941831 -0.21326103626208931 0 0.16344175141428699 -0.19554668125081781 0 0.17711192226035419 -0.19665487324951411 0 0.16344175141428699 -0.19554668125081781 0 0.17258526119072889 -0.18307813156339731 0 0.17615348000576159 -0.25461732995610198 0 0.17864159535374299 -0.2390159812617263 0 0.1681290861844684 -0.24006155691823119 0 0.17615348000576159 -0.25461732995610198 0 0.17864159535374299 -0.2390159812617263 0 0.18775999181847311 -0.25362873363711003 0 0.1905106121299687 -0.241109297045146 0 0.17864159535374299 -0.2390159812617263 0 0.18775999181847311 -0.25362873363711003 0 0.17615348000576159 -0.25461732995610198 0 0.17864159535374299 -0.2390159812617263 0 0.17864159535374299 -0.2390159812617263 0 0.1761067886252036 -0.2322686021850657 0 0.18651461144105791 -0.23327132605850981 0 0.1905106121299687 -0.241109297045146 0 0.17864159535374299 -0.2390159812617263 0 0.18651461144105791 -0.23327132605850981 0 0.17864159535374299 -0.2390159812617263 0 0.1761067886252036 -0.2322686021850657 0 0.1681290861844684 -0.24006155691823119 0 0.16650218284941831 -0.21326103626208931 0 0.18670278270224541 -0.22523397073171281 0 0.16650218284941831 -0.21326103626208931 0 0.18142851324481349 -0.22526148475694269 0 0.18670278270224541 -0.22523397073171281 0 0.1761067886252036 -0.2322686021850657 0 0.18142851324481349 -0.22526148475694269 0 0.16892469408152119 -0.2288055872223273 0 0.18651461144105791 -0.23327132605850981 0 0.18142851324481349 -0.22526148475694269 0 0.18670278270224541 -0.22523397073171281 0 0.1761067886252036 -0.2322686021850657 0 0.18651461144105791 -0.23327132605850981 0 0.18142851324481349 -0.22526148475694269 0 0.18142851324481349 -0.22526148475694269 0 0.18670278270224541 -0.22523397073171281 0 0.16650218284941831 -0.21326103626208931 0 0.18142851324481349 -0.22526148475694269 0 0.16892469408152119 -0.2288055872223273 0 0.16892469408152119 -0.2288055872223273 0 0.1681290861844684 -0.24006155691823119 0 0.1531036822494494 -0.23423211542522621 0 0.16650218284941831 -0.21326103626208931 0 0.16892469408152119 -0.2288055872223273 0 0.1531036822494494 -0.23423211542522621 0 0.16650218284941831 -0.21326103626208931 0 0.1531036822494494 -0.23423211542522621 0 0.16650218284941831 -0.21326103626208931 0 0.1531036822494494 -0.23423211542522621 0 0.15085081583595841 -0.2169726275953279 0 0.1761067886252036 -0.2322686021850657 0 0.16892469408152119 -0.2288055872223273 0 0.1681290861844684 -0.24006155691823119 0 0.1681290861844684 -0.24006155691823119 0 0.1613336587090777 -0.2481503295639583 0 0.1531036822494494 -0.23423211542522621 0 0.17615348000576159 -0.25461732995610198 0 0.1681290861844684 -0.24006155691823119 0 0.1613336587090777 -0.2481503295639583 0 0.13970518164948389 -0.25520319458836538 0 0.1531036822494494 -0.23423211542522621 0 0.13970518164948389 -0.25520319458836538 0 0.15107794618063 -0.25338955067562619 0 0.1531036822494494 -0.23423211542522621 0 0.13970518164948389 -0.25520319458836538 0 0.1531036822494494 -0.23423211542522621 0 0.13919002617526169 -0.24010923969231879 0 0.15107794618063 -0.25338955067562619 0 0.1613336587090777 -0.2481503295639583 0 0.1531036822494494 -0.23423211542522621 0 0.1531036822494494 -0.23423211542522621 0 0.13628372800659591 -0.2237947351719223 0 0.15085081583595841 -0.2169726275953279 0 0.1531036822494494 -0.23423211542522621 0 0.13628372800659591 -0.2237947351719223 0 0.13919002617526169 -0.24010923969231879 0 0.12261234646571691 -0.23410549314603871 0 0.13628372800659591 -0.2237947351719223 0 0.1259743144220184 -0.2461285612103877 0 0.13628372800659591 -0.2237947351719223 0 0.1259743144220184 -0.2461285612103877 0 0.13628372800659591 -0.2237947351719223 0 0.13919002617526169 -0.24010923969231879 0 0.1259743144220184 -0.2461285612103877 0 0.13970518164948389 -0.25520319458836538 0 0.13919002617526169 -0.24010923969231879 0 0.1259743144220184 -0.2461285612103877 0 0.14659314159117631 -0.20146090913345829 0 0.15775574625825831 -0.1772787702828236 0 0.16344175141428699 -0.19554668125081781 0 0.14659314159117631 -0.20146090913345829 0 0.15775574625825831 -0.1772787702828236 0 0.14659314159117631 -0.20146090913345829 0 0.1482644486365797 -0.18412345645078859 0 0.15775574625825831 -0.1772787702828236 0 0.14659314159117631 -0.20146090913345829 0 0.12947317609517439 -0.1913138725850754 0 0.1482644486365797 -0.18412345645078859 0 0.13628372800659591 -0.2237947351719223 0 0.14659314159117631 -0.20146090913345829 0 0.15085081583595841 -0.2169726275953279 0 0.13628372800659591 -0.2237947351719223 0 0.14659314159117631 -0.20146090913345829 0 0.16650218284941831 -0.21326103626208931 0 0.14659314159117631 -0.20146090913345829 0 0.15085081583595841 -0.2169726275953279 0 0.1191998781712655 -0.21529725730209409 0 0.13628372800659591 -0.2237947351719223 0 0.1287545693191898 -0.20747198480377921 0 0.13628372800659591 -0.2237947351719223 0 0.14659314159117631 -0.20146090913345829 0 0.1287545693191898 -0.20747198480377921 0 0.14659314159117631 -0.20146090913345829 0 0.12947317609517439 -0.1913138725850754 0 0.14659314159117631 -0.20146090913345829 0 0.1287545693191898 -0.20747198480377921 0 0.12947317609517439 -0.1913138725850754 0 0.12947317609517439 -0.1913138725850754 0 0.14542873454796579 -0.17819880221045159 0 0.12947317609517439 -0.1913138725850754 0 0.1257015484282723 -0.17598733567650349 0 0.14542873454796579 -0.17819880221045159 0 0.12947317609517439 -0.1913138725850754 0 0.1482644486365797 -0.18412345645078859 0 0.14542873454796579 -0.17819880221045159 0 0.14542873454796579 -0.17819880221045159 0 0.1584786444749523 -0.1757127177733683 0 0.1613842930007596 -0.1650837318358305 0 0.14542873454796579 -0.17819880221045159 0 0.15775574625825831 -0.1772787702828236 0 0.1584786444749523 -0.1757127177733683 0 0.1482644486365797 -0.18412345645078859 0 0.15775574625825831 -0.1772787702828236 0 0.1482644486365797 -0.18412345645078859 0 0.14542873454796579 -0.17819880221045159 0 0.15775574625825831 -0.1772787702828236 0 0.14542873454796579 -0.17819880221045159 0 0.14732548691455771 -0.1586079492106553 0 0.13152724517839759 -0.16131800828077181 0 0.14542873454796579 -0.17819880221045159 0 0.1613842930007596 -0.1650837318358305 0 0.14542873454796579 -0.17819880221045159 0 0.14732548691455771 -0.1586079492106553 0 0.1613842930007596 -0.1650837318358305 0 0.1257015484282723 -0.17598733567650349 0 0.14542873454796579 -0.17819880221045159 0 0.13152724517839759 -0.16131800828077181 0 0.11903817523872071 -0.1648496235264173 0 0.1257015484282723 -0.17598733567650349 0 0.13152724517839759 -0.16131800828077181 0 0.12361385061520851 -0.1517193845165076 0 0.13152724517839759 -0.16131800828077181 0 0.13803751781825699 -0.14839067220423319 0 0.14732548691455771 -0.1586079492106553 0 0.13152724517839759 -0.16131800828077181 0 0.13803751781825699 -0.14839067220423319 0 0.12361385061520851 -0.1517193845165076 0 0.13803751781825699 -0.14839067220423319 0 0.12793483583695781 -0.14060179434438391 0 0.13803751781825699 -0.14839067220423319 0 0.12793483583695781 -0.14060179434438391 0 0.140526493796503 -0.13343368543928361 0 0.1229530066037904 -0.12712088987018169 0 0.12793483583695781 -0.14060179434438391 0 0.140526493796503 -0.13343368543928361 0 0.1229530066037904 -0.12712088987018169 0 0.13462084544285091 -0.1158821033417763 0 0.140526493796503 -0.13343368543928361 0 0.140526493796503 -0.13343368543928361 0 0.1517986577227162 -0.1443693295127321 0 0.15781678966207929 -0.13328165001967551 0 0.1499983316955591 -0.12436127373602909 0 0.140526493796503 -0.13343368543928361 0 0.15781678966207929 -0.13328165001967551 0 0.14732548691455771 -0.1586079492106553 0 0.13803751781825699 -0.14839067220423319 0 0.1517986577227162 -0.1443693295127321 0 0.13803751781825699 -0.14839067220423319 0 0.140526493796503 -0.13343368543928361 0 0.1517986577227162 -0.1443693295127321 0 0.14732548691455771 -0.1586079492106553 0 0.1517986577227162 -0.1443693295127321 0 0.16035067399442629 -0.15256109396452591 0 0.16035067399442629 -0.15256109396452591 0 0.16308373366179171 -0.14182065006751809 0 0.1773398514535541 -0.15196866146121041 0 0.1517986577227162 -0.1443693295127321 0 0.16035067399442629 -0.15256109396452591 0 0.16308373366179171 -0.14182065006751809 0 0.1499983316955591 -0.12436127373602909 0 0.15781678966207929 -0.13328165001967551 0 0.16805488669107971 -0.12685528932830131 0 0.16308373366179171 -0.14182065006751809 0 0.16805488669107971 -0.12685528932830131 0 0.1773398514535541 -0.15196866146121041 0 0.1517986577227162 -0.1443693295127321 0 0.16308373366179171 -0.14182065006751809 0 0.15781678966207929 -0.13328165001967551 0 0.16308373366179171 -0.14182065006751809 0 0.15781678966207929 -0.13328165001967551 0 0.16805488669107971 -0.12685528932830131 0 0.16805488669107971 -0.12685528932830131 0 0.1773398514535541 -0.15196866146121041 0 0.18203748077938281 -0.12653673462608189 0 0.17979958358380099 -0.14994682311024071 0 0.19489983106464681 -0.13753479698333659 0 0.18203748077938281 -0.12653673462608189 0 0.17979958358380099 -0.14994682311024071 0 0.16805488669107971 -0.12685528932830131 0 0.18203748077938281 -0.12653673462608189 0 0.17979958358380099 -0.14994682311024071 0 0.1969485890026926 -0.14901469941401119 0 0.18060526798441509 -0.1608007488849437 0 0.179140681847859 -0.15683943103302539 0 0.1969485890026926 -0.14901469941401119 0 0.17979958358380099 -0.14994682311024071 0 0.179140681847859 -0.15683943103302539 0 0.16805488669107971 -0.12685528932830131 0 0.1773398514535541 -0.15196866146121041 0 0.17979958358380099 -0.14994682311024071 0 0.1773398514535541 -0.15196866146121041 0 0.17979958358380099 -0.14994682311024071 0 0.1773398514535541 -0.15196866146121041 0 0.17979958358380099 -0.14994682311024071 0 0.179140681847859 -0.15683943103302539 0 0.17979958358380099 -0.14994682311024071 0 0.179140681847859 -0.15683943103302539 0 0.1773398514535541 -0.15196866146121041 0 0.179140681847859 -0.15683943103302539 0 0.19489983106464681 -0.13753479698333659 0 0.17979958358380099 -0.14994682311024071 0 0.18772166167129131 -0.18004871023693961 0 0.18060526798441509 -0.1608007488849437 0 0.179140681847859 -0.15683943103302539 0 0.17862551586603009 -0.1622284548194573 0 0.1613842930007596 -0.1650837318358305 0 0.1773398514535541 -0.15196866146121041 0 0.179140681847859 -0.15683943103302539 0 0.1613842930007596 -0.1650837318358305 0 0.18772166167129131 -0.18004871023693961 0 0.18060526798441509 -0.1608007488849437 0 0.17862551586603009 -0.1622284548194573 0 0.18060526798441509 -0.1608007488849437 0 0.179140681847859 -0.15683943103302539 0 0.18060526798441509 -0.1608007488849437 0 0.179140681847859 -0.15683943103302539 0 0.17862551586603009 -0.1622284548194573 0 0.179140681847859 -0.15683943103302539 0 0.17862551586603009 -0.1622284548194573 0 0.18060526798441509 -0.1608007488849437 0 0.17862551586603009 -0.1622284548194573 0 0.18772166167129131 -0.18004871023693961 0 0.17862551586603009 -0.1622284548194573 0 0.17258526119072889 -0.18307813156339731 0 0.18772166167129131 -0.18004871023693961 0 0.17711192226035419 -0.19665487324951411 0 0.17258526119072889 -0.18307813156339731 0 0.18933093079533461 -0.1844013572752434 0 0.18772166167129131 -0.18004871023693961 0 0.17711192226035419 -0.19665487324951411 0 0.17862551586603009 -0.1622284548194573 0 0.17258526119072889 -0.18307813156339731 0 0.15775574625825831 -0.1772787702828236 0 0.16344175141428699 -0.19554668125081781 0 0.17258526119072889 -0.18307813156339731 0 0.15775574625825831 -0.1772787702828236 0 0.15775574625825831 -0.1772787702828236 0 0.1584786444749523 -0.1757127177733683 0 0.17862551586603009 -0.1622284548194573 0 0.15775574625825831 -0.1772787702828236 0 0.1584786444749523 -0.1757127177733683 0 0.17862551586603009 -0.1622284548194573 0 0.15775574625825831 -0.1772787702828236 0 0.17862551586603009 -0.1622284548194573 0 0.1584786444749523 -0.1757127177733683 0 0.1613842930007596 -0.1650837318358305 0 0.16035067399442629 -0.15256109396452591 0 0.1773398514535541 -0.15196866146121041 0 0.1613842930007596 -0.1650837318358305 0 0.1773398514535541 -0.15196866146121041 0 0.1613842930007596 -0.1650837318358305 0 0.14732548691455771 -0.1586079492106553 0 0.16035067399442629 -0.15256109396452591 0 0.1613842930007596 -0.1650837318358305 0 
</DataArray>
</Points>
<Cells>
<DataArray type="UInt32" Name="connectivity" format="ascii">
0 1 2 3 4 5 6 7 8 9 10 11 12 13 14 15 16 17 18 19 20 21 22 23 24 25 26 27 28 29 30 31 32 33 34 35 36 37 38 39 40 41 42 43 44 45 46 47 48 49 50 51 52 53 54 55 56 57 58 59 60 61 62 63 64 65 66 67 68 69 70 71 72 73 74 75 76 77 78 79 80 81 82 83 84 85 86 87 88 89 90 91 92 93 94 95 96 97 98 99 100 101 102 103 104 105 106 107 108 109 110 111 112 113 114 115 116 117 118 119 120 121 122 123 124 125 126 127 128 129 130 131 132 133 134 135 136 137 138 139 140 141 142 143 144 145 146 147 148 149 150 151 152 153 154 155 156 157 158 159 160 161 162 163 164 165 166 167 168 169 170 171 172 173 174 175 176 177 178 179 180 181 182 183 184 185 186 187 188 189 190 191 192 193 194 195 196 197 198 199 200 201 202 203 204 205 206 207 208 209 210 211 212 213 214 215 216 217 218 219 220 221 222 223 224 225 226 227 228 229 230 231 232 233 234 235 236 237 238 239 240 241 242 243 244 245 246 247 248 249 250 251 252 253 254 255 256 257 258 259 260 261 262 263 264 265 266 267 268 269 270 271 272 273 274 275 276 277 278 279 280 281 282 283 284 285 286 287 288 289 290 291 292 293 294 295 296 297 298 299 300 301 302 303 304 305 306 307 308 309 310 311 312 313 314 315 316 317 318 319 320 321 322 323 324 325 326 327 328 329 330 331 332 333 334 335 336 337 338 339 340 341 342 343 344 345 346 347 348 349 350 351 352 353 354 355 356 357 358 359 360 361 362 363 364 365 366 367 368 369 370 371 372 373 374 375 376 377 378 379 380 381 382 383 384 385 386 387 388 389 390 391 392 393 394 395 396 397 398 399 400 401 402 403 404 405 406 407 408 409 410 411 412 413 414 415 416 417 418 419 420 421 422 423 424 425 426 427 428 429 430 431 432 433 434 435 436 437 438 439 440 441 442 443 444 445 446 447 448 449 450 451 452 453 454 455 456 457 458 459 460 461 462 463 464 465 466 467 468 469 470 471 472 473 474 475 476 477 478 479 480 481 482 483 484 485 486 487 488 489 490 491 492 493 494 495 496 497 498 499 500 501 502 503 504 505 506 507 508 509 510 511 512 513 514 515 516 517 518 519 520 521 522 523 524 525 526 527 528 529 530 531 532 533 534 535 536 537 538 539 540 541 542 543 544 545 546 547 548 549 550 551 552 553 554 555 556 557 558 559 560 561 562 563 564 565 566 567 568 569 570 571 572 573 574 575 576 577 578 579 580 581 582 583 584 585 586 587 588 589 590 591 592 593 594 595 596 597 598 599 600 601 602 603 604 605 606 607 608 609 610 611 612 613 614 615 616 617 618 619 620 621 622 623 624 625 626 627 628 629 630 631 632 633 634 635 636 637 638 639 640 641 642 643 644 645 646 647 648 649 650 651 652 653 654 655 656 657 658 659 660 661 662 663 664 665 666 667 668 669 670 671 672 673 674 675 676 677 678 679 680 681 682 683 684 685 686 687 688 689 690 691 692 693 694 695 696 697 698 699 700 701 702 703 704 705 706 707 708 709 710 711 712 713 714 715 716 717 718 719 720 721 722 723 724 725 726 727 728 729 730 731 732 733 734 735 736 737 738 739 740 741 742 743 744 745 746 747 748 749 750 751 752 753 754 755 756 757 758 759 760 761 762 763 764 765 766 767 768 769 770 771 772 773 774 775 776 777 778 779 780 781 782 783 784 785 786 787 788 789 790 791 792 793 794 795 796 797 798 799 800 801 802 803 804 805 806 807 808 809 810 811 812 813 814 815 816 817 818 819 820 821 822 823 824 825 826 827 828 829 830 831 832 833 834 835 836 837 838 839 840 841 842 843 844 845 846 847 848 849 850 851 852 853 854 855 856 857 858 859 860 861 862 863 864 865 866 867 868 869 870 871 872 873 874 875 876 877 878 879 880 881 882 883 884 885 886 887 888 889 890 891 892 893 894 895 896 897 898 899 900 901 902 903 904 905 906 907 908 909 910 911 912 913 914 915 916 917 918 919 920 921 922 923 924 925 926 927 928 929 930 931 932 933 934 935 936 937 938 939 940 941 942 943 944 945 946 947 948 949 950 951 952 953 954 955 956 957 958 959 960 961 962 963 964 965 966 967 968 969 970 971 972 973 974 975 976 977 978 979 980 981 982 983 984 985 986 987 988 989 990 991 992 993 994 995 996 997 998 999 1000 1001 1002 1003 1004 1005 1006 1007 1008 1009 1010 1011 1012 1013 1014 1015 1016 1017 1018 1019 1020 1021 1022 1023 1024 1025 1026 1027 1028 1029 1030 1031 1032 1033 1034 1035 1036 1037 1038 1039 1040 1041 1042 1043 1044 1045 1046 1047 1048 1049 1050 1051 1052 1053 1054 1055 1056 1057 1058 1059 1060 1061 1062 1063 1064 1065 1066 1067 1068 1069 1070 1071 1072 1073 1074 1075 1076 1077 1078 1079 1080 1081 1082 1083 1084 1085 1086 1087 1088 1089 1090 1091 1092 1093 1094 1095 1096 1097 1098 1099 1100 1101 1102 1103 1104 1105 1106 1107 1108 1109 1110 1111 1112 1113 1114 1115 1116 1117 1118 1119 1120 1121 1122 1123 1124 1125 1126 1127 1128 1129 1130 1131 1132 1133 1134 1135 1136 1137 1138 1139 1140 1141 1142 1143 1144 1145 1146 1147 1148 1149 1150 1151 1152 1153 1154 1155 1156 1157 1158 1159 1160 1161 1162 1163 1164 1165 1166 1167 1168 1169 1170 1171 1172 1173 1174 1175 1176 1177 1178 1179 1180 1181 1182 1183 1184 1185 1186 1187 1188 1189 1190 1191 1192 1193 1194 1195 1196 1197 1198 1199 1200 1201 1202 1203 1204 1205 1206 1207 1208 1209 1210 1211 1212 1213 1214 1215 1216 1217 1218 1219 1220 1221 1222 1223 1224 1225 1226 1227 1228 1229 1230 1231 1232 1233 1234 1235 1236 1237 1238 1239 1240 1241 1242 1243 1244 1245 1246 1247 1248 1249 1250 1251 1252 1253 1254 1255 1256 1257 1258 1259 1260 1261 1262 1263 1264 1265 1266 1267 1268 1269 1270 1271 1272 1273 1274 1275 1276 1277 1278 1279 1280 1281 1282 1283 1284 1285 1286 1287 1288 1289 1290 1291 1292 1293 1294 1295 1296 1297 1298 1299 1300 1301 1302 1303 1304 1305 1306 1307 1308 1309 1310 1311 1312 1313 1314 1315 1316 1317 1318 1319 1320 1321 1322 1323 1324 1325 1326 1327 1328 1329 1330 1331 1332 1333 1334 1335 1336 1337 1338 1339 1340 1341 1342 1343 1344 1345 1346 1347 1348 1349 1350 1351 1352 1353 1354 1355 1356 1357 1358 1359 1360 1361 1362 1363 1364 1365 1366 1367 1368 1369 1370 1371 1372 1373 1374 1375 1376 1377 1378 1379 1380 1381 1382 1383 1384 1385 1386 1387 1388 1389 1390 1391 1392 1393 1394 1395 1396 1397 1398 1399 1400 1401 1402 1403 1404 1405 1406 1407 1408 1409 1410 1411 1412 1413 1414 1415 1416 1417 1418 1419 1420 1421 1422 1423 1424 1425 1426 1427 1428 1429 1430 1431 1432 1433 1434 1435 1436 1437 1438 1439 1440 1441 1442 1443 1444 1445 1446 1447 1448 1449 1450 1451 1452 1453 1454 1455 1456 1457 1458 1459 1460 1461 1462 1463 1464 1465 1466 1467 1468 1469 1470 1471 1472 1473 1474 1475 1476 1477 1478 1479 1480 1481 1482 1483 1484 1485 1486 1487 1488 1489 1490 1491 1492 1493 1494 1495 1496 1497 1498 1499 1500 1501 1502 1503 1504 1505 1506 1507 1508 1509 1510 1511 1512 1513 1514 1515 1516 1517 1518 1519 1520 1521 1522 1523 1524 1525 1526 1527 1528 1529 1530 1531 1532 1533 1534 1535 1536 1537 1538 1539 1540 1541 1542 1543 1544 1545 1546 1547 1548 1549 1550 1551 1552 1553 1554 1555 1556 1557 1558 1559 1560 1561 1562 1563 1564 1565 1566 1567 1568 1569 1570 1571 1572 1573 1574 1575 1576 1577 1578 1579 1580 1581 1582 1583 1584 1585 1586 1587 1588 1589 1590 1591 1592 1593 1594 1595 1596 1597 1598 1599 1600 1601 1602 1603 1604 1605 1606 1607 1608 1609 1610 1611 1612 1613 1614 1615 1616 1617 1618 1619 1620 1621 1622 1623 1624 1625 1626 1627 1628 1629 1630 1631 1632 1633 1634 1635 1636 1637 1638 1639 1640 1641 1642 1643 1644 1645 1646 1647 1648 1649 1650 1651 1652 1653 1654 1655 1656 1657 1658 1659 1660 1661 1662 1663 1664 1665 1666 1667 1668 1669 1670 1671 1672 1673 1674 1675 1676 1677 1678 1679 1680 1681 1682 1683 1684 1685 1686 1687 1688 1689 1690 1691 1692 1693 1694 1695 1696 1697 1698 1699 1700 1701 1702 1703 1704 1705 1706 1707 1708 1709 1710 1711 1712 1713 1714 1715 1716 1717 1718 1719 1720 1721 1722 1723 1724 1725 1726 1727 1728 1729 1730 1731 1732 1733 1734 1735 1736 1737 1738 1739 1740 1741 1742 1743 1744 1745 1746 1747 1748 1749 1750 1751 1752 1753 1754 1755 1756 1757 1758 1759 1760 1761 1762 1763 1764 1765 1766 1767 1768 1769 1770 1771 1772 1773 1774 1775 1776 1777 1778 1779 1780 1781 1782 1783 1784 1785 1786 1787 1788 1789 1790 1791 1792 1793 1794 1795 1796 1797 1798 1799 1800 1801 1802 1803 1804 1805 1806 1807 1808 1809 1810 1811 1812 1813 1814 1815 1816 1817 1818 1819 1820 1821 1822 1823 1824 1825 1826 1827 1828 1829 1830 1831 1832 1833 1834 1835 1836 1837 1838 1839 1840 1841 1842 1843 1844 1845 1846 1847 1848 1849 1850 1851 1852 1853 1854 1855 1856 1857 1858 1859 1860 1861 1862 1863 1864 1865 1866 1867 1868 1869 1870 1871 1872 1873 1874 1875 1876 1877 1878 1879 1880 1881 1882 1883 1884 1885 1886 1887 1888 1889 1890 1891 1892 1893 1894 1895 1896 1897 1898 1899 1900 1901 1902 1903 1904 1905 1906 1907 1908 1909 1910 1911 1912 1913 1914 1915 1916 1917 1918 1919 1920 1921 1922 1923 1924 1925 1926 1927 1928 1929 1930 1931 1932 1933 1934 1935 1936 1937 1938 1939 1940 1941 1942 1943 1944 1945 1946 1947 1948 1949 1950 1951 1952 1953 1954 1955 1956 1957 1958 1959 1960 1961 1962 1963 1964 1965 1966 1967 1968 1969 1970 1971 1972 1973 1974 1975 1976 1977 1978 1979 1980 1981 1982 1983 1984 1985 1986 1987 1988 1989 1990 1991 1992 1993 1994 1995 1996 1997 1998 1999 2000 2001 2002 2003 2004 2005 2006 2007 2008 2009 2010 2011 2012 2013 2014 2015 2016 2017 2018 2019 2020 2021 2022 2023 2024 2025 2026 2027 2028 2029 2030 2031 2032 2033 2034 2035 2036 2037 2038 2039 2040 2041 2042 2043 2044 2045 2046 2047 2048 2049 2050 2051 2052 2053 2054 2055 2056 2057 2058 2059 2060 2061 2062 2063 2064 2065 2066 2067 2068 2069 2070 2071 2072 2073 2074 2075 2076 2077 2078 2079 2080 2081 2082 2083 2084 2085 2086 2087 2088 2089 2090 2091 2092 2093 2094 2095 2096 2097 2098 2099 2100 2101 2102 2103 2104 2105 2106 2107 2108 2109 2110 2111 2112 2113 2114 2115 2116 2117 2118 2119 2120 2121 2122 2123 2124 2125 2126 2127 2128 2129 2130 2131 2132 2133 2134 2135 2136 2137 2138 2139 2140 2141 2142 2143 2144 2145 2146 2147 2148 2149 2150 2151 2152 2153 2154 2155 2156 2157 2158 2159 2160 2161 2162 2163 2164 2165 2166 2167 2168 2169 2170 2171 2172 2173 2174 2175 2176 2177 2178 2179 2180 2181 2182 2183 2184 2185 2186 2187 2188 2189 2190 2191 2192 2193 2194 2195 2196 2197 2198 2199 2200 2201 2202 2203 2204 2205 2206 2207 2208 2209 2210 2211 2212 2213 2214 2215 2216 2217 2218 2219 2220 2221 2222 2223 2224 2225 2226 2227 2228 2229 2230 2231 2232 2233 2234 2235 2236 2237 2238 2239 2240 2241 2242 2243 2244 2245 2246 2247 2248 2249 2250 2251 2252 2253 2254 2255 2256 2257 2258 2259 2260 2261 2262 2263 2264 2265 2266 2267 2268 2269 2270 2271 2272 2273 2274 2275 2276 2277 2278 2279 2280 2281 2282 2283 2284 2285 2286 2287 2288 2289 2290 2291 2292 2293 2294 2295 2296 2297 2298 2299 2300 2301 2302 2303 2304 2305 2306 2307 2308 2309 2310 2311 2312 2313 2314 2315 2316 2317 2318 2319 2320 2321 2322 2323 2324 2325 2326 2327 2328 2329 2330 2331 2332 2333 2334 2335 2336 2337 2338 2339 2340 2341 2342 2343 2344 2345 2346 2347 2348 2349 2350 2351 2352 2353 2354 2355 2356 2357 2358 2359 2360 2361 2362 2363 2364 2365 2366 2367 2368 2369 2370 2371 2372 2373 2374 2375 2376 2377 2378 2379 2380 2381 2382 2383 2384 2385 2386 2387 2388 2389 2390 2391 2392 2393 2394 2395 2396 2397 2398 2399 2400 2401 2402 2403 2404 2405 2406 2407 2408 2409 2410 2411 2412 2413 2414 2415 2416 2417 2418 2419 2420 2421 2422 2423 2424 2425 2426 2427 2428 2429 2430 2431 2432 2433 2434 2435 2436 2437 2438 2439 2440 2441 2442 2443 2444 2445 2446 2447 2448 2449 2450 2451 2452 2453 2454 2455 2456 2457 2458 2459 2460 2461 2462 2463 2464 2465 2466 2467 2468 2469 2470 2471 2472 2473 2474 2475 2476 2477 2478 2479 2480 2481 2482 2483 2484 2485 2486 2487 2488 2489 2490 2491 2492 2493 2494 2495 2496 2497 2498 2499 2500 2501 2502 2503 2504 2505 2506 2507 2508 2509 2510 2511 2512 2513 2514 2515 2516 2517 2518 2519 2520 2521 2522 2523 2524 2525 2526 2527 2528 2529 2530 2531 2532 2533 2534 2535 2536 2537 2538 2539 2540 2541 2542 2543 2544 2545 2546 2547 2548 2549 2550 2551 2552 2553 2554 2555 2556 2557 2558 2559 2560 2561 2562 2563 2564 2565 2566 2567 2568 2569 2570 2571 2572 2573 2574 2575 2576 2577 2578 2579 2580 2581 2582 2583 2584 2585 2586 2587 2588 2589 2590 2591 2592 2593 2594 2595 2596 2597 2598 2599 2600 2601 2602 2603 2604 2605 2606 2607 2608 2609 2610 2611 2612 2613 2614 2615 2616 2617 2618 2619 2620 2621 2622 2623 2624 2625 2626 2627 2628 2629 2630 2631 2632 2633 2634 2635 2636 2637 2638 2639 2640 2641 2642 2643 2644 2645 2646 2647 2648 2649 2650 2651 2652 2653 2654 2655 2656 2657 2658 2659 2660 2661 2662 2663 2664 2665 2666 2667 2668 2669 2670 2671 2672 2673 2674 2675 2676 2677 2678 2679 2680 2681 2682 2683 2684 2685 2686 2687 2688 2689 2690 2691 2692 2693 2694 2695 2696 2697 2698 2699 2700 2701 2702 2703 2704 2705 2706 2707 2708 2709 2710 2711 2712 2713 2714 2715 2716 2717 2718 2719 2720 2721 2722 2723 2724 2725 2726 2727 2728 2729 2730 2731 2732 2733 2734 2735 2736 2737 2738 2739 2740 2741 2742 2743 2744 2745 2746 2747 2748 2749 2750 2751 2752 2753 2754 2755 2756 2757 2758 2759 2760 2761 2762 2763 2764 2765 2766 2767 2768 2769 2770 2771 2772 2773 2774 2775 2776 2777 2778 2779 2780 2781 2782 2783 2784 2785 2786 2787 2788 2789 2790 2791 2792 2793 2794 2795 2796 2797 2798 2799 2800 2801 2802 2803 2804 2805 2806 2807 2808 2809 2810 2811 2812 2813 2814 2815 2816 2817 2818 2819 2820 2821 2822 2823 2824 2825 2826 2827 2828 2829 2830 2831 2832 2833 2834 2835 2836 2837 2838 2839 2840 2841 2842 2843 2844 2845 2846 2847 2848 2849 2850 2851 2852 2853 2854 2855 2856 2857 2858 2859 2860 2861 2862 2863 2864 2865 2866 2867 2868 2869 2870 2871 2872 2873 2874 2875 2876 2877 2878 2879 2880 2881 2882 2883 2884 2885 2886 2887 2888 2889 2890 2891 2892 2893 2894 2895 2896 2897 2898 2899 2900 2901 2902 2903 2904 2905 2906 2907 2908 2909 2910 2911 2912 2913 2914 2915 2916 2917 2918 2919 2920 2921 2922 2923 2924 2925 2926 2927 2928 2929 2930 2931 2932 2933 2934 2935 2936 2937 2938 2939 2940 2941 2942 2943 2944 2945 2946 2947 2948 2949 2950 2951 2952 2953 2954 2955 2956 2957 2958 2959 2960 2961 2962 2963 2964 2965 2966 2967 2968 2969 2970 2971 2972 2973 2974 2975 2976 2977 2978 2979 2980 2981 2982 2983 2984 2985 2986 2987 2988 2989 2990 2991 2992 2993 2994 2995 2996 2997 2998 2999 3000 3001 3002 3003 3004 3005 3006 3007 3008 3009 3010 3011 3012 3013 3014 3015 3016 3017 3018 3019 3020 3021 3022 3023 3024 3025 3026 3027 3028 3029 3030 3031 3032 3033 3034 3035 3036 3037 3038 3039 3040 3041 3042 3043 3044 3045 3046 3047 3048 3049 3050 3051 3052 3053 3054 3055 3056 3057 3058 3059 3060 3061 3062 3063 3064 3065 3066 3067 3068 3069 3070 3071 3072 3073 3074 3075 3076 3077 3078 3079 3080 3081 3082 3083 3084 3085 3086 3087 3088 3089 3090 3091 3092 3093 3094 3095 3096 3097 3098 3099 3100 3101 3102 3103 3104 3105 3106 3107 3108 3109 3110 3111 3112 3113 3114 3115 3116 3117 3118 3119 3120 3121 3122 3123 3124 3125 3126 3127 3128 3129 3130 3131 3132 3133 3134 3135 3136 3137 3138 3139 3140 3141 3142 3143 3144 3145 3146 3147 3148 3149 3150 3151 3152 3153 3154 3155 3156 3157 3158 3159 3160 3161 3162 3163 3164 3165 3166 3167 3168 3169 3170 3171 3172 3173 3174 3175 3176 3177 3178 3179 3180 3181 3182 3183 3184 3185 3186 3187 3188 3189 3190 3191 3192 3193 3194 3195 3196 3197 3198 3199 3200 3201 3202 3203 3204 3205 3206 3207 3208 3209 3210 3211 3212 3213 3214 3215 3216 3217 3218 3219 3220 3221 3222 3223 3224 3225 3226 3227 3228 3229 3230 3231 3232 3233 3234 3235 3236 3237 3238 3239 3240 3241 3242 3243 3244 3245 3246 3247 3248 3249 3250 3251 3252 3253 3254 3255 3256 3257 3258 3259 3260 3261 3262 3263 3264 3265 3266 3267 3268 3269 3270 3271 3272 3273 3274 3275 3276 3277 3278 3279 3280 3281 3282 3283 3284 3285 3286 3287 3288 3289 3290 3291 3292 3293 3294 3295 3296 3297 3298 3299 3300 3301 3302 3303 3304 3305 3306 3307 3308 3309 3310 3311 3312 3313 3314 3315 3316 3317 3318 3319 3320 3321 3322 3323 3324 3325 3326 3327 3328 3329 3330 3331 3332 3333 3334 3335 3336 3337 3338 3339 3340 3341 3342 3343 3344 3345 3346 3347 3348 3349 3350 3351 3352 3353 3354 3355 3356 3357 3358 3359 3360 3361 3362 3363 3364 3365 3366 3367 3368 3369 3370 3371 3372 3373 3374 3375 3376 3377 3378 3379 3380 3381 3382 3383 3384 3385 3386 3387 3388 3389 3390 3391 3392 3393 3394 3395 3396 3397 3398 3399 3400 3401 3402 3403 3404 3405 3406 3407 3408 3409 3410 3411 3412 3413 3414 3415 3416 3417 3418 3419 3420 3421 3422 3423 3424 3425 3426 3427 3428 3429 3430 3431 3432 3433 3434 3435 3436 3437 3438 3439 3440 3441 3442 3443 3444 3445 3446 3447 3448 3449 3450 3451 3452 3453 3454 3455 3456 3457 3458 3459 3460 3461 3462 3463 3464 3465 3466 3467 3468 3469 3470 3471 3472 3473 3474 3475 3476 3477 3478 3479 3480 3481 3482 3483 3484 3485 3486 3487 3488 3489 3490 3491 3492 3493 3494 3495 3496 3497 3498 3499 3500 3501 3502 3503 3504 3505 3506 3507 3508 3509 3510 3511 3512 3513 3514 3515 3516 3517 3518 3519 3520 3521 3522 3523 3524 3525 3526 3527 3528 3529 3530 3531 3532 3533 3534 3535 3536 3537 3538 3539 3540 3541 3542 3543 3544 3545 3546 3547 3548 3549 3550 3551 3552 3553 3554 3555 3556 3557 3558 3559 3560 3561 3562 3563 3564 3565 3566 3567 3568 3569 3570 3571 3572 3573 3574 3575 3576 3577 3578 3579 3580 3581 3582 3583 3584 3585 3586 3587 3588 3589 3590 3591 3592 3593 3594 3595 3596 3597 3598 3599 3600 3601 3602 3603 3604 3605 3606 3607 3608 3609 3610 3611 3612 3613 3614 3615 3616 3617 3618 3619 3620 3621 3622 3623 3624 3625 3626 3627 3628 3629 3630 3631 3632 3633 3634 3635 3636 3637 3638 3639 3640 3641 3642 3643 3644 3645 3646 3647 3648 3649 3650 3651 3652 3653 3654 3655 3656 3657 3658 3659 3660 3661 3662 3663 3664 3665 3666 3667 3668 3669 3670 3671 3672 3673 3674 3675 3676 3677 3678 3679 3680 3681 3682 3683 3684 3685 3686 3687 3688 3689 3690 3691 3692 3693 3694 3695 3696 3697 3698 3699 3700 3701 3702 3703 3704 3705 3706 3707 3708 3709 3710 3711 3712 3713 3714 3715 3716 3717 3718 3719 3720 3721 3722 3723 3724 3725 3726 3727 3728 3729 3730 3731 3732 3733 3734 3735 3736 3737 3738 3739 3740 3741 3742 3743 3744 3745 3746 3747 3748 3749 3750 3751 3752 3753 3754 3755 3756 3757 3758 3759 3760 3761 3762 3763 3764 3765 3766 3767 3768 3769 3770 3771 3772 3773 3774 3775 3776 3777 3778 3779 3780 3781 3782 3783 3784 3785 3786 3787 3788 3789 3790 3791 3792 3793 3794 3795 3796 3797 3798 3799 3800 3801 3802 3803 3804 3805 3806 3807 3808 3809 3810 3811 3812 3813 3814 3815 3816 3817 3818 3819 3820 3821 3822 3823 3824 3825 3826 3827 3828 3829 3830 3831 3832 3833 3834 3835 3836 3837 3838 3839 3840 3841 3842 3843 3844 3845 3846 3847 3848 3849 3850 3851 3852 3853 3854 3855 3856 3857 3858 3859 3860 3861 3862 3863 3864 3865 3866 3867 3868 3869 3870 3871 3872 3873 3874 3875 3876 3877 3878 3879 3880 3881 3882 3883 3884 3885 3886 3887 3888 3889 3890 3891 3892 3893 3894 3895 3896 3897 3898 3899 3900 3901 3902 3903 3904 3905 3906 3907 3908 3909 3910 3911 3912 3913 3914 3915 3916 3917 3918 3919 3920 3921 3922 3923 3924 3925 3926 3927 3928 3929 3930 3931 3932 3933 3934 3935 3936 3937 3938 3939 3940 3941 3942 3943 3944 3945 3946 3947 3948 3949 3950 3951 3952 3953 3954 3955 3956 3957 3958 3959 3960 3961 3962 3963 3964 3965 3966 3967 3968 3969 3970 3971 3972 3973 3974 3975 3976 3977 3978 3979 3980 3981 3982 3983 3984 3985 3986 3987 3988 3989 3990 3991 3992 3993 3994 3995 3996 3997 3998 3999 4000 4001 4002 4003 4004 4005 4006 4007 4008 4009 4010 4011 4012 4013 4014 4015 4016 4017 4018 4019 4020 4021 4022 4023 4024 4025 4026 4027 4028 4029 4030 4031 4032 4033 4034 4035 4036 4037 4038 4039 4040 4041 4042 4043 4044 4045 4046 4047 4048 4049 4050 4051 4052 4053 4054 4055 4056 4057 4058 4059 4060 4061 4062 4063 4064 4065 4066 4067 4068 4069 4070 4071 4072 4073 4074 4075 4076 4077 4078 4079 4080 4081 4082 4083 4084 4085 4086 4087 4088 4089 4090 4091 4092 4093 4094 4095 4096 4097 4098 4099 4100 4101 4102 4103 4104 4105 4106 4107 4108 4109 4110 4111 4112 4113 4114 4115 4116 4117 4118 4119 4120 4121 4122 4123 4124 4125 4126 4127 4128 4129 4130 4131 4132 4133 4134 4135 4136 4137 4138 4139 4140 4141 4142 4143 4144 4145 4146 4147 4148 4149 4150 4151 4152 4153 4154 4155 4156 4157 4158 4159 4160 4161 4162 4163 4164 4165 4166 4167 4168 4169 4170 4171 4172 4173 4174 4175 4176 4177 4178 4179 4180 4181 4182 4183 4184 4185 4186 4187 4188 4189 4190 4191 4192 4193 4194 4195 4196 4197 4198 4199 4200 4201 4202 4203 4204 4205 4206 4207 4208 4209 4210 4211 4212 4213 4214 4215 4216 4217 4218 4219 4220 4221 4222 4223 4224 4225 4226 4227 4228 4229 4230 4231 4232 4233 4234 4235 4236 4237 4238 4239 4240 4241 4242 4243 4244 4245 4246 4247 4248 4249 4250 4251 4252 4253 4254 4255 4256 4257 4258 4259 4260 4261 4262 4263 4264 4265 4266 4267 4268 4269 4270 4271 4272 4273 4274 4275 4276 4277 4278 4279 4280 4281 4282 4283 4284 4285 4286 4287 4288 4289 4290 4291 4292 4293 4294 4295 4296 4297 4298 4299 4300 4301 4302 4303 4304 4305 4306 4307 4308 4309 4310 4311 4312 4313 4314 4315 4316 4317 4318 4319 4320 4321 4322 4323 4324 4325 4326 4327 4328 4329 4330 4331 4332 4333 4334 4335 4336 4337 4338 4339 4340 4341 4342 4343 4344 4345 4346 4347 4348 4349 4350 4351 4352 4353 4354 4355 4356 4357 4358 4359 4360 4361 4362 4363 4364 4365 4366 4367 4368 4369 4370 4371 4372 4373 4374 4375 4376 4377 4378 4379 4380 4381 4382 4383 4384 4385 4386 4387 4388 4389 4390 4391 4392 4393 4394 4395 4396 4397 4398 4399 4400 4401 4402 4403 4404 4405 4406 4407 4408 4409 4410 4411 4412 4413 4414 4415 4416 4417 4418 4419 4420 4421 4422 4423 4424 4425 4426 4427 4428 4429 4430 4431 4432 4433 4434 4435 4436 4437 4438 4439 4440 4441 4442 4443 4444 4445 4446 4447 4448 4449 4450 4451 4452 4453 4454 4455 4456 4457 4458 4459 4460 4461 4462 4463 4464 4465 4466 4467 4468 4469 4470 4471 4472 4473 4474 4475 4476 4477 4478 4479 4480 4481 4482 4483 4484 4485 4486 4487 4488 4489 4490 4491 4492 4493 4494 4495 4496 4497 4498 4499 4500 4501 4502 4503 4504 4505 4506 4507 4508 4509 4510 4511 4512 4513 4514 4515 4516 4517 4518 4519 4520 4521 4522 4523 4524 4525 4526 4527 4528 4529 4530 4531 4532 4533 4534 4535 4536 4537 4538 4539 4540 4541 4542 4543 4544 4545 4546 4547 4548 4549 4550 4551 4552 4553 4554 4555 4556 4557 4558 4559 4560 4561 4562 4563 4564 4565 4566 4567 4568 4569 4570 4571 4572 4573 4574 4575 4576 4577 4578 4579 4580 4581 4582 4583 4584 4585 4586 4587 4588 4589 4590 4591 4592 4593 4594 4595 4596 4597 4598 4599 4600 4601 4602 4603 4604 4605 4606 4607 4608 4609 4610 4611 4612 4613 4614 4615 4616 4617 4618 4619 4620 4621 4622 4623 4624 4625 4626 4627 4628 4629 4630 4631 4632 4633 4634 4635 4636 4637 4638 4639 4640 4641 4642 4643 4644 4645 4646 4647 4648 4649 4650 4651 4652 4653 4654 4655 4656 4657 4658 4659 4660 4661 4662 4663 4664 4665 4666 4667 4668 4669 4670 4671 4672 4673 4674 4675 4676 4677 4678 4679 4680 4681 4682 4683 4684 4685 4686 4687 4688 4689 4690 4691 4692 4693 4694 4695 4696 4697 4698 4699 4700 4701 4702 4703 4704 4705 4706 4707 4708 4709 4710 4711 4712 4713 4714 4715 4716 4717 4718 4719 4720 4721 4722 4723 4724 4725 4726 4727 4728 4729 4730 4731 4732 4733 4734 4735 4736 4737 4738 4739 4740 4741 4742 4743 4744 4745 4746 4747 4748 4749 4750 4751 4752 4753 4754 4755 4756 4757 4758 4759 4760 4761 4762 4763 4764 4765 4766 4767 4768 4769 4770 4771 4772 4773 4774 4775 4776 4777 4778 4779 4780 4781 4782 4783 4784 4785 4786 4787 4788 4789 4790 4791 4792 4793 4794 4795 4796 4797 4798 4799 4800 4801 4802 4803 4804 4805 4806 4807 4808 4809 4810 4811 4812 4813 4814 4815 4816 4817 4818 4819 4820 4821 4822 4823 4824 4825 4826 4827 4828 4829 4830 4831 4832 4833 4834 4835 4836 4837 4838 4839 4840 4841 4842 4843 4844 4845 4846 4847 4848 4849 4850 4851 4852 4853 4854 4855 4856 4857 4858 4859 4860 4861 4862 4863 4864 4865 4866 4867 4868 4869 4870 4871 4872 4873 4874 4875 4876 4877 4878 4879 4880 4881 4882 4883 4884 4885 4886 4887 4888 4889 4890 4891 4892 4893 4894 4895 4896 4897 4898 4899 4900 4901 4902 4903 4904 4905 4906 4907 4908 4909 4910 4911 4912 4913 4914 4915 4916 4917 4918 4919 4920 4921 4922 4923 4924 4925 4926 4927 4928 4929 4930 4931 4932 4933 4934 4935 4936 4937 4938 4939 4940 4941 4942 4943 4944 4945 4946 4947 4948 4949 4950 4951 4952 4953 4954 4955 4956 4957 4958 4959 4960 4961 4962 4963 4964 4965 4966 4967 4968 4969 4970 4971 4972 4973 4974 4975 4976 4977 4978 4979 4980 4981 4982 4983 4984 4985 4986 4987 4988 4989 4990 4991 4992 4993 4994 4995 4996 4997 4998 4999 5000 5001 5002 5003 5004 5005 5006 5007 5008 5009 5010 5011 5012 5013 5014 5015 5016 5017 5018 5019 5020 5021 5022 5023 5024 5025 5026 5027 5028 5029 5030 5031 5032 5033 5034 5035 5036 5037 5038 5039 5040 5041 5042 5043 5044 5045 5046 5047 5048 5049 5050 5051 5052 5053 5054 5055 5056 5057 5058 5059 5060 5061 5062 5063 5064 5065 5066 5067 5068 5069 5070 5071 5072 5073 5074 5075 5076 5077 5078 5079 5080 5081 5082 5083 5084 5085 5086 5087 5088 5089 5090 5091 5092 5093 5094 5095 5096 5097 5098 5099 5100 5101 5102 5103 5104 5105 5106 5107 5108 5109 5110 5111 5112 5113 5114 5115 5116 5117 5118 5119 5120 5121 5122 5123 5124 5125 5126 5127 5128 5129 5130 5131 5132 5133 5134 5135 5136 5137 5138 5139 5140 5141 5142 5143 5144 5145 5146 5147 5148 5149 5150 5151 5152 5153 5154 5155 5156 5157 5158 5159 5160 5161 5162 5163 5164 5165 5166 5167 5168 5169 5170 5171 5172 5173 5174 5175 5176 5177 5178 5179 5180 5181 5182 5183 5184 5185 5186 5187 5188 5189 5190 5191 5192 5193 5194 5195 5196 5197 5198 5199 5200 5201 5202 5203 5204 5205 5206 5207 5208 5209 5210 5211 5212 5213 5214 5215 5216 5217 5218 5219 5220 5221 5222 5223 5224 5225 5226 5227 5228 5229 5230 5231 5232 5233 5234 5235 5236 5237 5238 5239 5240 5241 5242 5243 5244 5245 5246 5247 5248 5249 5250 5251 5252 5253 5254 5255 5256 5257 5258 5259 5260 5261 5262 5263 5264 5265 5266 5267 5268 5269 5270 5271 5272 5273 5274 5275 5276 5277 5278 5279 5280 5281 5282 5283 5284 5285 5286 5287 5288 5289 5290 5291 5292 5293 5294 5295 5296 5297 5298 5299 5300 5301 5302 5303 5304 5305 5306 5307 5308 5309 5310 5311 5312 5313 5314 5315 5316 5317 5318 5319 5320 5321 5322 5323 5324 5325 5326 5327 5328 5329 5330 5331 5332 5333 5334 5335 5336 5337 5338 5339 5340 5341 5342 5343 5344 5345 5346 5347 5348 5349 5350 5351 5352 5353 5354 5355 5356 5357 5358 5359 5360 5361 5362 5363 5364 5365 5366 5367 5368 5369 5370 5371 5372 5373 5374 5375 5376 5377 5378 5379 5380 5381 5382 5383 5384 5385 5386 5387 5388 5389 5390 5391 5392 5393 5394 5395 5396 5397 5398 5399 5400 5401 5402 5403 5404 5405 5406 5407 5408 5409 5410 5411 5412 5413 5414 5415 5416 5417 5418 5419 5420 5421 5422 5423 5424 5425 5426 5427 5428 5429 5430 5431 5432 5433 5434 5435 5436 5437 5438 5439 5440 5441 5442 5443 5444 5445 5446 5447 5448 5449 5450 5451 5452 5453 5454 5455 5456 5457 5458 5459 5460 5461 5462 5463 5464 5465 5466 5467 5468 5469 5470 5471 5472 5473 5474 5475 5476 5477 5478 5479 5480 5481 5482 5483 5484 5485 5486 5487 5488 5489 5490 5491 5492 5493 5494 5495 5496 5497 5498 5499 5500 5501 5502 5503 5504 5505 5506 5507 5508 5509 5510 5511 5512 5513 5514 5515 5516 5517 5518 5519 5520 5521 5522 5523 5524 5525 5526 5527 5528 5529 5530 5531 5532 5533 5534 5535 5536 5537 5538 5539 5540 5541 5542 5543 5544 5545 5546 5547 5548 5549 5550 5551 5552 5553 5554 5555 5556 5557 5558 5559 5560 5561 5562 5563 5564 5565 5566 5567 5568 5569 5570 5571 5572 5573 5574 5575 5576 5577 5578 5579 5580 5581 5582 5583 5584 5585 5586 5587 5588 5589 5590 5591 5592 5593 5594 5595 5596 5597 5598 5599 5600 5601 5602 5603 5604 5605 5606 5607 5608 5609 5610 5611 5612 5613 5614 5615 5616 5617 5618 5619 5620 5621 5622 5623 5624 5625 5626 5627 5628 5629 5630 5631 5632 5633 5634 5635 5636 5637 5638 5639 5640 5641 5642 5643 5644 5645 5646 5647 5648 5649 5650 5651 5652 5653 5654 5655 5656 5657 5658 5659 5660 5661 5662 5663 5664 5665 5666 5667 5668 5669 5670 5671 5672 5673 5674 5675 5676 5677 5678 5679 5680 5681 5682 5683 5684 5685 5686 5687 5688 5689 5690 5691 5692 5693 5694 5695 5696 5697 5698 5699 5700 5701 5702 5703 5704 5705 5706 5707 5708 5709 5710 5711 5712 5713 5714 5715 5716 5717 5718 5719 5720 5721 5722 5723 5724 5725 5726 5727 5728 5729 5730 5731 5732 5733 5734 5735 5736 5737 5738 5739 5740 5741 5742 5743 5744 5745 5746 5747 5748 5749 5750 5751 5752 5753 5754 5755 5756 5757 5758 5759 5760 5761 5762 5763 5764 5765 5766 5767 5768 5769 5770 5771 5772 5773 5774 5775 5776 5777 5778 5779 5780 5781 5782 5783 5784 5785 5786 5787 5788 5789 5790 5791 5792 5793 5794 5795 5796 5797 5798 5799 5800 5801 5802 5803 5804 5805 5806 5807 5808 5809 5810 5811 5812 5813 5814 5815 5816 5817 5818 5819 5820 5821 5822 5823 5824 5825 5826 5827 5828 5829 5830 5831 5832 5833 5834 5835 5836 5837 5838 5839 5840 5841 5842 5843 5844 5845 5846 5847 5848 5849 5850 5851 5852 5853 5854 5855 5856 5857 5858 5859 5860 5861 5862 5863 5864 5865 5866 5867 5868 5869 5870 5871 5872 5873 5874 5875 5876 5877 5878 5879 5880 5881 5882 5883 5884 5885 5886 5887 5888 5889 5890 5891 5892 5893 5894 5895 5896 5897 5898 5899 5900 5901 5902 5903 5904 5905 5906 5907 5908 5909 5910 5911 5912 5913 5914 5915 5916 5917 5918 5919 5920 5921 5922 5923 5924 5925 5926 5927 5928 5929 5930 5931 5932 5933 5934 5935 5936 5937 5938 5939 5940 5941 5942 5943 5944 5945 5946 5947 5948 5949 5950 5951 5952 5953 5954 5955 5956 5957 5958 5959 5960 5961 5962 5963 5964 5965 5966 5967 5968 5969 5970 5971 5972 5973 5974 5975 5976 5977 5978 5979 5980 5981 5982 5983 5984 5985 5986 5987 5988 5989 5990 5991 5992 5993 5994 5995 5996 5997 5998 5999 6000 6001 6002 6003 6004 6005 6006 6007 6008 6009 6010 6011 6012 6013 6014 6015 6016 6017 6018 6019 6020 6021 6022 6023 6024 6025 6026 6027 6028 6029 6030 6031 6032 6033 6034 6035 6036 6037 6038 6039 6040 6041 6042 6043 6044 6045 6046 6047 6048 6049 6050 6051 6052 6053 6054 6055 6056 6057 6058 6059 6060 6061 6062 6063 6064 6065 6066 6067 6068 6069 6070 6071 6072 6073 6074 6075 6076 6077 6078 6079 6080 6081 6082 6083 6084 6085 6086 6087 6088 6089 6090 6091 6092 6093 6094 6095 6096 6097 6098 6099 6100 6101 6102 6103 6104 6105 6106 6107 6108 6109 6110 6111 6112 6113 6114 6115 6116 6117 6118 6119 6120 6121 6122 6123 6124 6125 6126 6127 6128 6129 6130 6131 6132 6133 6134 6135 6136 6137 6138 6139 6140 6141 6142 6143 6144 6145 6146 6147 6148 6149 6150 6151 6152 6153 6154 6155 6156 6157 6158 6159 6160 6161 6162 6163 6164 6165 6166 6167 6168 6169 6170 6171 6172 6173 6174 6175 6176 6177 6178 6179 6180 6181 6182 6183 6184 6185 6186 6187 6188 6189 6190 6191 6192 6193 6194 6195 6196 6197 6198 6199 6200 6201 6202 6203 6204 6205 6206 6207 6208 6209 6210 6211 6212 6213 6214 6215 6216 6217 6218 6219 6220 6221 6222 6223 6224 6225 6226 6227 6228 6229 6230 6231 6232 6233 6234 6235 6236 6237 6238 6239 6240 6241 6242 6243 6244 6245 6246 6247 6248 6249 6250 6251 6252 6253 6254 6255 6256 6257 6258 6259 6260 6261 6262 6263 6264 6265 6266 6267 6268 6269 6270 6271 6272 6273 6274 6275 6276 6277 6278 6279 6280 6281 6282 6283 6284 6285 6286 6287 6288 6289 6290 6291 6292 6293 6294 6295 6296 6297 6298 6299 6300 6301 6302 6303 6304 6305 6306 6307 6308 6309 6310 6311 6312 6313 6314 6315 6316 6317 6318 6319 6320 6321 6322 6323 6324 6325 6326 6327 6328 6329 6330 6331 6332 6333 6334 6335 6336 6337 6338 6339 6340 6341 6342 6343 6344 6345 6346 6347 6348 6349 6350 6351 6352 6353 6354 6355 6356 6357 6358 6359 6360 6361 6362 6363 6364 6365 6366 6367 6368 6369 6370 6371 6372 6373 6374 6375 6376 6377 6378 6379 6380 6381 6382 6383 6384 6385 6386 6387 6388 6389 6390 6391 6392 6393 6394 6395 6396 6397 6398 6399 6400 6401 6402 6403 6404 6405 6406 6407 6408 6409 6410 6411 6412 6413 6414 6415 6416 6417 6418 6419 6420 6421 6422 6423 6424 6425 6426 6427 6428 6429 6430 6431 6432 6433 6434 6435 6436 6437 6438 6439 6440 6441 6442 6443 6444 6445 6446 6447 6448 6449 6450 6451 6452 6453 6454 6455 6456 6457 6458 6459 6460 6461 6462 6463 6464 6465 6466 6467 6468 6469 6470 6471 6472 6473 6474 6475 6476 6477 6478 6479 6480 6481 6482 6483 6484 6485 6486 6487 6488 6489 6490 6491 6492 6493 6494 6495 6496 6497 6498 6499 6500 6501 6502 6503 6504 6505 6506 6507 6508 6509 6510 6511 6512 6513 6514 6515 6516 6517 6518 6519 6520 6521 6522 6523 6524 6525 6526 6527 6528 6529 6530 6531 6532 6533 6534 6535 6536 6537 6538 6539 6540 6541 6542 6543 6544 6545 6546 6547 6548 6549 6550 6551 6552 6553 6554 6555 6556 6557 6558 6559 6560 6561 6562 6563 6564 6565 6566 6567 6568 6569 6570 6571 6572 6573 6574 6575 6576 6577 6578 6579 6580 6581 6582 6583 6584 6585 6586 6587 6588 6589 6590 6591 6592 6593 6594 6595 6596 6597 6598 6599 6600 6601 6602 6603 6604 6605 6606 6607 6608 6609 6610 6611 6612 6613 6614 6615 6616 6617 6618 6619 6620 6621 6622 6623 6624 6625 6626 6627 6628 6629 6630 6631 6632 6633 6634 6635 6636 6637 6638 6639 6640 6641 6642 6643 6644 6645 6646 6647 6648 6649 6650 6651 6652 6653 6654 6655 6656 6657 6658 6659 6660 6661 6662 6663 6664 6665 6666 6667 6668 6669 6670 6671 6672 6673 6674 6675 6676 6677 6678 6679 6680 6681 6682 6683 6684 6685 6686 6687 6688 6689 6690 6691 6692 6693 6694 6695 6696 6697 6698 6699 6700 6701 6702 6703 6704 6705 6706 6707 6708 6709 6710 6711 6712 6713 6714 6715 6716 6717 6718 6719 6720 6721 6722 6723 6724 6725 6726 6727 6728 6729 6730 6731 6732 6733 6734 6735 6736 6737 6738 6739 6740 6741 6742 6743 6744 6745 6746 6747 6748 6749 6750 6751 6752 6753 6754 6755 6756 6757 6758 6759 6760 6761 6762 6763 6764 6765 6766 6767 6768 6769 6770 6771 6772 6773 6774 6775 6776 6777 6778 6779 6780 6781 6782 6783 6784 6785 6786 6787 6788 6789 6790 6791 6792 6793 6794 6795 6796 6797 6798 6799 6800 6801 6802 6803 6804 6805 6806 6807 6808 6809 6810 6811 6812 6813 6814 6815 6816 6817 6818 6819 6820 6821 6822 6823 6824 6825 6826 6827 6828 6829 6830 6831 6832 6833 6834 6835 6836 6837 6838 6839 6840 6841 6842 6843 6844 6845 6846 6847 6848 6849 6850 6851 6852 6853 6854 6855 6856 6857 6858 6859 6860 6861 6862 6863 6864 6865 6866 6867 6868 6869 6870 6871 6872 6873 6874 6875 6876 6877 6878 6879 6880 6881 6882 6883 6884 6885 6886 6887 6888 6889 6890 6891 6892 6893 6894 6895 6896 6897 6898 6899 6900 6901 6902 6903 6904 6905 6906 6907 6908 6909 6910 6911 6912 6913 6914 6915 6916 6917 6918 6919 6920 6921 6922 6923 6924 6925 6926 6927 6928 6929 6930 6931 6932 6933 6934 6935 6936 6937 6938 6939 6940 6941 6942 6943 6944 6945 6946 6947 6948 6949 6950 6951 6952 6953 6954 6955 6956 6957 6958 6959 6960 6961 6962 6963 6964 6965 6966 6967 6968 6969 6970 6971 6972 6973 6974 6975 6976 6977 6978 6979 6980 6981 6982 6983 6984 6985 6986 6987 6988 6989 6990 6991 6992 6993 6994 6995 6996 6997 6998 6999 7000 7001 7002 7003 7004 7005 7006 7007 7008 7009 7010 7011 7012 7013 7014 7015 7016 7017 7018 7019 7020 7021 7022 7023 7024 7025 7026 7027 7028 7029 7030 7031 7032 7033 7034 7035 7036 7037 7038 7039 7040 7041 7042 7043 7044 7045 7046 7047 7048 7049 7050 7051 7052 7053 7054 7055 7056 7057 7058 7059 7060 7061 7062 7063 7064 7065 7066 7067 7068 7069 7070 7071 7072 7073 7074 7075 7076 7077 7078 7079 7080 7081 7082 7083 7084 7085 7086 7087 7088 7089 7090 7091 7092 7093 7094 7095 7096 7097 7098 7099 7100 7101 7102 7103 7104 7105 7106 7107 7108 7109 7110 7111 7112 7113 7114 7115 7116 7117 7118 7119 7120 7121 7122 7123 7124 7125 7126 7127 7128 7129 7130 7131 7132 7133 7134 7135 7136 7137 7138 7139 7140 7141 7142 7143 7144 7145 7146 7147 7148 7149 7150 7151 7152 7153 7154 7155 7156 7157 7158 7159 7160 7161 7162 7163 7164 7165 7166 7167 7168 7169 7170 7171 7172 7173 7174 7175 7176 7177 7178 7179 7180 7181 7182 7183 7184 7185 7186 7187 7188 7189 7190 7191 7192 7193 7194 7195 7196 7197 7198 7199 7200 7201 7202 7203 7204 7205 7206 7207 7208 7209 7210 7211 7212 7213 7214 7215 7216 7217 7218 7219 7220 7221 7222 7223 7224 7225 7226 7227 7228 7229 7230 7231 7232 7233 7234 7235 7236 7237 7238 7239 7240 7241 7242 7243 7244 7245 7246 7247 7248 7249 7250 7251 7252 7253 7254 7255 7256 7257 7258 7259 7260 7261 7262 7263 7264 7265 7266 7267 7268 7269 7270 7271 7272 7273 7274 7275 7276 7277 7278 7279 7280 7281 7282 7283 7284 7285 7286 7287 7288 7289 7290 7291 7292 7293 7294 7295 7296 7297 7298 7299 7300 7301 7302 7303 7304 7305 7306 7307 7308 7309 7310 7311 7312 7313 7314 7315 7316 7317 7318 7319 7320 7321 7322 7323 7324 7325 7326 7327 7328 7329 7330 7331 7332 7333 7334 7335 7336 7337 7338 7339 7340 7341 7342 7343 7344 7345 7346 7347 7348 7349 7350 7351 7352 7353 7354 7355 7356 7357 7358 7359 7360 7361 7362 7363 7364 7365 7366 7367 7368 7369 7370 7371 7372 7373 7374 7375 7376 7377 7378 7379 7380 7381 7382 7383 7384 7385 7386 7387 7388 7389 7390 7391 7392 7393 7394 7395 7396 7397 7398 7399 7400 7401 7402 7403 7404 7405 7406 7407 7408 7409 7410 7411 7412 7413 7414 7415 7416 7417 7418 7419 7420 7421 7422 7423 7424 7425 7426 7427 7428 7429 7430 7431 7432 7433 7434 7435 7436 7437 7438 7439 7440 7441 7442 7443 7444 7445 7446 7447 7448 7449 7450 7451 7452 7453 7454 7455 7456 7457 7458 7459 7460 7461 7462 7463 7464 7465 7466 7467 7468 7469 7470 7471 7472 7473 7474 7475 7476 7477 7478 7479 7480 7481 7482 7483 7484 7485 7486 7487 7488 7489 7490 7491 7492 7493 7494 7495 7496 7497 7498 7499 7500 7501 7502 7503 7504 7505 7506 7507 7508 7509 7510 7511 7512 7513 7514 7515 7516 7517 7518 7519 7520 7521 7522 7523 7524 7525 7526 7527 7528 7529 7530 7531 7532 7533 7534 7535 7536 7537 7538 7539 7540 7541 7542 7543 7544 7545 7546 7547 7548 7549 7550 7551 7552 7553 7554 7555 7556 7557 7558 7559 7560 7561 7562 7563 7564 7565 7566 7567 7568 7569 7570 7571 7572 7573 7574 7575 7576 7577 7578 7579 7580 7581 7582 7583 7584 7585 7586 7587 7588 7589 7590 7591 7592 7593 7594 7595 7596 7597 7598 7599 7600 7601 7602 7603 7604 7605 7606 7607 7608 7609 7610 7611 7612 7613 7614 7615 7616 7617 7618 7619 7620 7621 7622 7623 7624 7625 7626 7627 7628 7629 7630 7631 7632 7633 7634 7635 7636 7637 7638 7639 7640 7641 7642 7643 7644 7645 7646 7647 7648 7649 7650 7651 7652 7653 7654 7655 7656 7657 7658 7659 7660 7661 7662 7663 7664 7665 7666 7667 7668 7669 7670 7671 7672 7673 7674 7675 7676 7677 7678 7679 7680 7681 7682 7683 7684 7685 7686 7687 7688 7689 7690 7691 7692 7693 7694 7695 7696 7697 7698 7699 7700 7701 7702 7703 7704 7705 7706 7707 7708 7709 7710 7711 7712 7713 7714 7715 7716 7717 7718 7719 7720 7721 7722 7723 7724 7725 7726 7727 7728 7729 7730 7731 7732 7733 7734 7735 7736 7737 7738 7739 7740 7741 7742 7743 7744 7745 7746 7747 7748 7749 7750 7751 7752 7753 7754 7755 7756 7757 7758 7759 7760 7761 7762 7763 7764 7765 7766 7767 7768 7769 7770 7771 7772 7773 7774 7775 7776 7777 7778 7779 7780 7781 7782 7783 7784 7785 7786 7787 7788 7789 7790 7791 7792 7793 7794 7795 7796 7797 7798 7799 7800 7801 7802 7803 7804 7805 7806 7807 7808 7809 7810 7811 7812 7813 7814 7815 7816 7817 7818 7819 7820 7821 7822 7823 7824 7825 7826 7827 7828 7829 7830 7831 7832 7833 7834 7835 7836 7837 7838 7839 7840 7841 7842 7843 7844 7845 7846 7847 7848 7849 7850 7851 7852 7853 7854 7855 7856 7857 7858 7859 7860 7861 7862 7863 7864 7865 7866 7867 7868 7869 7870 7871 7872 7873 7874 7875 7876 7877 7878 7879 7880 7881 7882 7883 7884 7885 7886 7887 7888 7889 7890 7891 7892 7893 7894 7895 7896 7897 7898 7899 7900 7901 7902 7903 7904 7905 7906 7907 7908 7909 7910 7911 7912 7913 7914 7915 7916 7917 7918 7919 7920 7921 7922 7923 7924 7925 7926 7927 7928 7929 7930 7931 7932 7933 7934 7935 7936 7937 7938 7939 7940 7941 7942 7943 7944 7945 7946 7947 7948 7949 7950 7951 7952 7953 7954 7955 7956 7957 7958 7959 7960 7961 7962 7963 7964 7965 7966 7967 7968 7969 7970 7971 7972 7973 7974 7975 7976 7977 7978 7979 7980 7981 7982 7983 7984 7985 7986 7987 7988 7989 7990 7991 7992 7993 7994 7995 7996 7997 7998 7999 8000 8001 8002 8003 8004 8005 8006 8007 8008 8009 8010 8011 8012 8013 8014 8015 8016 8017 8018 8019 8020 8021 8022 8023 8024 8025 8026 8027 8028 8029 8030 8031 8032 8033 8034 8035 8036 8037 8038 8039 8040 8041 8042 8043 8044 8045 8046 8047 8048 8049 8050 8051 8052 8053 8054 8055 8056 8057 8058 8059 8060 8061 8062 8063 8064 8065 8066 8067 8068 8069 8070 8071 8072 8073 8074 8075 8076 8077 8078 8079 8080 8081 8082 8083 8084 8085 8086 8087 8088 8089 8090 8091 8092 8093 8094 8095 8096 8097 8098 8099 8100 8101 8102 8103 8104 8105 8106 8107 8108 8109 8110 8111 8112 8113 8114 8115 8116 8117 8118 8119 8120 8121 8122 8123 8124 8125 8126 8127 8128 8129 8130 8131 8132 8133 8134 8135 8136 8137 8138 8139 8140 8141 8142 8143 8144 8145 8146 8147 8148 8149 8150 8151 8152 8153 8154 8155 8156 8157 8158 8159 8160 8161 8162 8163 8164 8165 8166 8167 8168 8169 8170 8171 8172 8173 8174 8175 8176 8177 8178 8179 8180 8181 8182 8183 8184 8185 8186 8187 8188 8189 8190 8191 8192 8193 8194 8195 8196 8197 8198 8199 8200 8201 8202 8203 8204 8205 8206 8207 8208 8209 8210 8211 8212 8213 8214 8215 8216 8217 8218 8219 8220 8221 8222 8223 8224 8225 8226 8227 8228 8229 8230 8231 8232 8233 8234 8235 8236 8237 8238 8239 8240 8241 8242 8243 8244 8245 8246 8247 8248 8249 8250 8251 8252 8253 8254 8255 8256 8257 8258 8259 8260 8261 8262 8263 8264 8265 8266 8267 8268 8269 8270 8271 8272 8273 8274 8275 8276 8277 8278 8279 8280 8281 8282 8283 8284 8285 8286 8287 8288 8289 8290 8291 8292 8293 8294 8295 8296 8297 8298 8299 8300 8301 8302 8303 8304 8305 8306 8307 8308 8309 8310 8311 8312 8313 8314 8315 8316 8317 8318 8319 8320 8321 8322 8323 8324 8325 8326 8327 8328 8329 8330 8331 8332 8333 8334 8335 8336 8337 8338 8339 8340 8341 8342 8343 8344 8345 8346 8347 8348 8349 8350 8351 8352 8353 8354 8355 8356 8357 8358 8359 8360 8361 8362 8363 8364 8365 8366 8367 8368 8369 8370 8371 8372 8373 8374 8375 8376 8377 8378 8379 8380 8381 8382 8383 8384 8385 8386 8387 8388 8389 8390 8391 8392 8393 8394 8395 8396 8397 8398 8399 8400 8401 8402 8403 8404 8405 8406 8407 8408 8409 8410 8411 8412 8413 8414 8415 8416 8417 8418 8419 8420 8421 8422 8423 8424 8425 8426 8427 8428 8429 8430 8431 8432 8433 8434 8435 8436 8437 8438 8439 8440 8441 8442 8443 8444 8445 8446 8447 8448 8449 8450 8451 8452 8453 8454 8455 8456 8457 8458 8459 8460 8461 8462 8463 8464 8465 8466 8467 8468 8469 8470 8471 8472 8473 8474 8475 8476 8477 8478 8479 8480 8481 8482 8483 8484 8485 8486 8487 8488 8489 8490 8491 8492 8493 8494 8495 8496 8497 8498 8499 8500 8501 8502 8503 8504 8505 8506 8507 8508 8509 8510 8511 8512 8513 8514 8515 8516 8517 8518 8519 8520 8521 8522 8523 8524 8525 8526 8527 8528 8529 8530 8531 8532 8533 8534 8535 8536 8537 8538 8539 8540 8541 8542 8543 8544 8545 8546 8547 8548 8549 8550 8551 8552 8553 8554 8555 8556 8557 8558 8559 8560 8561 8562 8563 8564 8565 8566 8567 8568 8569 8570 8571 8572 8573 8574 8575 8576 8577 8578 8579 8580 8581 8582 8583 8584 8585 8586 8587 8588 8589 8590 8591 8592 8593 8594 8595 8596 8597 8598 8599 8600 8601 8602 8603 8604 8605 8606 8607 8608 8609 8610 8611 8612 8613 8614 8615 8616 8617 8618 8619 8620 8621 8622 8623 8624 8625 8626 8627 8628 8629 8630 8631 8632 8633 8634 8635 8636 8637 8638 8639 8640 8641 8642 8643 8644 8645 8646 8647 8648 8649 8650 8651 8652 8653 8654 8655 8656 8657 8658 8659 8660 8661 8662 8663 8664 8665 8666 8667 8668 8669 8670 8671 8672 8673 8674 8675 8676 8677 8678 8679 8680 8681 8682 8683 8684 8685 8686 8687 8688 8689 8690 8691 8692 8693 8694 8695 8696 8697 8698 8699 8700 8701 8702 8703 8704 8705 8706 8707 8708 8709 8710 8711 8712 8713 8714 8715 8716 8717 8718 8719 8720 8721 8722 8723 8724 8725 8726 8727 8728 8729 8730 8731 8732 8733 8734 8735 8736 8737 8738 8739 8740 8741 8742 8743 8744 8745 8746 8747 8748 8749 8750 8751 8752 8753 8754 8755 8756 8757 8758 8759 8760 8761 8762 8763 8764 8765 8766 8767 8768 8769 8770 8771 8772 8773 8774 8775 8776 8777 8778 8779 8780 8781 8782 8783 8784 8785 8786 8787 8788 8789 8790 8791 8792 8793 8794 8795 8796 8797 8798 8799 8800 8801 8802 8803 8804 8805 8806 8807 8808 8809 8810 8811 8812 8813 8814 8815 8816 8817 8818 8819 8820 8821 8822 8823 8824 8825 8826 8827 8828 8829 8830 8831 8832 8833 8834 8835 8836 8837 8838 8839 8840 8841 8842 8843 8844 8845 8846 8847 8848 8849 8850 8851 8852 8853 8854 8855 8856 8857 8858 8859 8860 8861 8862 8863 8864 8865 8866 8867 8868 8869 8870 8871 8872 8873 8874 8875 8876 8877 8878 8879 8880 8881 8882 8883 8884 8885 8886 8887 8888 8889 8890 8891 8892 8893 8894 8895 8896 8897 8898 8899 8900 8901 8902 8903 8904 8905 8906 8907 8908 8909 8910 8911 8912 8913 8914 8915 8916 8917 8918 8919 8920 8921 8922 8923 8924 8925 8926 8927 8928 8929 8930 8931 8932 8933 8934 8935 8936 8937 8938 8939 8940 8941 8942 8943 8944 8945 8946 8947 8948 8949 8950 8951 8952 8953 8954 8955 8956 8957 8958 8959 8960 8961 8962 8963 8964 8965 8966 8967 8968 8969 8970 8971 8972 8973 8974 8975 8976 8977 8978 8979 8980 8981 8982 8983 8984 8985 8986 8987 8988 8989 8990 8991 8992 8993 8994 8995 8996 8997 8998 8999 9000 9001 9002 9003 9004 9005 9006 9007 9008 9009 9010 9011 9012 9013 9014 9015 9016 9017 9018 9019 9020 9021 9022 9023 9024 9025 9026 9027 9028 9029 9030 9031 9032 9033 9034 9035 9036 9037 9038 9039 9040 9041 9042 9043 9044 9045 9046 9047 9048 9049 9050 9051 9052 9053 9054 9055 9056 9057 9058 9059 9060 9061 9062 9063 9064 9065 9066 9067 9068 9069 9070 9071 9072 9073 9074 9075 9076 9077 9078 9079 9080 9081 9082 9083 9084 9085 9086 9087 9088 9089 9090 9091 9092 9093 9094 9095 9096 9097 9098 9099 9100 9101 9102 9103 9104 9105 9106 9107 9108 9109 9110 9111 9112 9113 9114 9115 9116 9117 9118 9119 9120 9121 9122 9123 9124 9125 9126 9127 9128 9129 9130 9131 9132 9133 9134 9135 9136 9137 9138 9139 9140 9141 9142 9143 9144 9145 9146 9147 9148 9149 9150 9151 9152 9153 9154 9155 9156 9157 9158 9159 9160 9161 9162 9163 9164 9165 9166 9167 9168 9169 9170 9171 9172 9173 9174 9175 9176 9177 9178 9179 9180 9181 9182 9183 9184 9185 9186 9187 9188 9189 9190 9191 9192 9193 9194 9195 9196 9197 9198 9199 9200 9201 9202 9203 9204 9205 9206 9207 9208 9209 9210 9211 9212 9213 9214 9215 9216 9217 9218 9219 9220 9221 9222 9223 9224 9225 9226 9227 9228 9229 9230 9231 9232 9233 9234 9235 9236 9237 9238 9239 9240 9241 9242 9243 9244 9245 9246 9247 9248 9249 9250 9251 9252 9253 9254 9255 9256 9257 9258 9259 9260 9261 9262 9263 9264 9265 9266 9267 9268 9269 9270 9271 9272 9273 9274 9275 9276 9277 9278 9279 9280 9281 9282 9283 9284 9285 9286 9287 9288 9289 9290 9291 9292 9293 9294 9295 9296 9297 9298 9299 9300 9301 9302 9303 9304 9305 9306 9307 9308 9309 9310 9311 9312 9313 9314 9315 9316 9317 9318 9319 9320 9321 9322 9323 9324 9325 9326 9327 9328 9329 9330 9331 9332 9333 9334 9335 9336 9337 9338 9339 9340 9341 9342 9343 9344 9345 9346 9347 9348 9349 9350 9351 9352 9353 9354 9355 9356 9357 9358 9359 9360 9361 9362 9363 9364 9365 9366 9367 9368 9369 9370 9371 9372 9373 9374 9375 9376 9377 9378 9379 9380 9381 9382 9383 9384 9385 9386 9387 9388 9389 9390 9391 9392 9393 9394 9395 9396 9397 9398 9399 9400 9401 9402 9403 9404 9405 9406 9407 9408 9409 9410 9411 9412 9413 9414 9415 9416 9417 9418 9419 9420 9421 9422 9423 9424 9425 9426 9427 9428 9429 9430 9431 9432 9433 9434 9435 9436 9437 9438 9439 9440 9441 9442 9443 9444 9445 9446 9447 9448 9449 9450 9451 9452 9453 9454 9455 9456 9457 9458 9459 9460 9461 9462 9463 9464 9465 9466 9467 9468 9469 9470 9471 9472 9473 9474 9475 9476 9477 9478 9479 9480 9481 9482 9483 9484 9485 9486 9487 9488 9489 9490 9491 9492 9493 9494 9495 9496 9497 9498 9499 9500 9501 9502 9503 9504 9505 9506 9507 9508 9509 9510 9511 9512 9513 9514 9515 9516 9517 9518 9519 9520 9521 9522 9523 9524 9525 9526 9527 9528 9529 9530 9531 9532 9533 9534 9535 9536 9537 9538 9539 9540 9541 9542 9543 9544 9545 9546 9547 9548 9549 9550 9551 9552 9553 9554 9555 9556 9557 9558 9559 9560 9561 9562 9563 9564 9565 9566 9567 9568 9569 9570 9571 9572 9573 9574 9575 9576 9577 9578 9579 9580 9581 9582 9583 9584 9585 9586 9587 9588 9589 9590 9591 9592 9593 9594 9595 9596 9597 9598 9599 9600 9601 9602 9603 9604 9605 9606 9607 9608 9609 9610 9611 9612 9613 9614 9615 9616 9617 9618 9619 9620 9621 9622 9623 9624 9625 9626 9627 9628 9629 9630 9631 9632 9633 9634 9635 9636 9637 9638 9639 9640 9641 9642 9643 9644 9645 9646 9647 9648 9649 9650 9651 9652 9653 9654 9655 9656 9657 9658 9659 9660 9661 9662 9663 9664 9665 9666 9667 9668 9669 9670 9671 9672 9673 9674 9675 9676 9677 9678 9679 9680 9681 9682 9683 9684 9685 9686 9687 9688 9689 9690 9691 9692 9693 9694 9695 9696 9697 9698 9699 9700 9701 9702 9703 9704 9705 9706 9707 9708 9709 9710 9711 9712 9713 9714 9715 9716 9717 9718 9719 9720 9721 9722 9723 9724 9725 9726 9727 9728 9729 9730 9731 9732 9733 9734 9735 9736 9737 9738 9739 9740 9741 9742 9743 9744 9745 9746 9747 9748 9749 9750 9751 9752 9753 9754 9755 9756 9757 9758 9759 9760 9761 9762 9763 9764 9765 9766 9767 9768 9769 9770 9771 9772 9773 9774 9775 9776 9777 9778 9779 9780 9781 9782 9783 9784 9785 9786 9787 9788 9789 9790 9791 9792 9793 9794 9795 9796 9797 9798 9799 9800 9801 9802 9803 9804 9805 9806 9807 9808 9809 9810 9811 9812 9813 9814 9815 9816 9817 9818 9819 9820 9821 9822 9823 9824 9825 9826 9827 9828 9829 9830 9831 9832 9833 9834 9835 9836 9837 9838 9839 9840 9841 9842 9843 9844 9845 9846 9847 9848 9849 9850 9851 9852 9853 9854 9855 9856 9857 9858 9859 9860 9861 9862 9863 9864 9865 9866 9867 9868 9869 9870 9871 9872 9873 9874 9875 9876 9877 9878 9879 9880 9881 9882 9883 9884 9885 9886 9887 9888 9889 9890 9891 9892 9893 9894 9895 9896 9897 9898 9899 9900 9901 9902 9903 9904 9905 9906 9907 9908 9909 9910 9911 9912 9913 9914 9915 9916 9917 9918 9919 9920 9921 9922 9923 9924 9925 9926 9927 9928 9929 9930 9931 9932 9933 9934 9935 9936 9937 9938 9939 9940 9941 9942 9943 9944 9945 9946 9947 9948 9949 9950 9951 9952 9953 9954 9955 9956 9957 9958 9959 9960 9961 9962 9963 9964 9965 9966 9967 9968 9969 9970 9971 9972 9973 9974 9975 9976 9977 9978 9979 9980 9981 9982 9983 9984 9985 9986 9987 9988 9989 9990 9991 9992 9993 9994 9995 9996 9997 9998 9999 10000 10001 10002 10003 10004 10005 10006 10007 10008 10009 10010 10011 10012 10013 10014 10015 10016 10017 10018 10019 10020 10021 10022 10023 10024 10025 10026 10027 10028 10029 10030 10031 10032 10033 10034 10035 10036 10037 10038 10039 10040 10041 10042 10043 10044 10045 10046 10047 10048 10049 10050 10051 10052 10053 10054 10055 10056 10057 10058 10059 10060 10061 10062 10063 10064 10065 10066 10067 10068 10069 10070 10071 10072 10073 10074 10075 10076 10077 10078 10079 10080 10081 10082 10083 10084 10085 10086 10087 10088 10089 10090 10091 10092 10093 10094 10095 10096 10097 10098 10099 10100 10101 10102 10103 10104 10105 10106 10107 10108 10109 10110 10111 10112 10113 10114 10115 10116 10117 10118 10119 10120 10121 10122 10123 10124 10125 10126 10127 10128 10129 10130 10131 10132 10133 10134 10135 10136 10137 10138 10139 10140 10141 10142 10143 10144 10145 10146 10147 10148 10149 10150 10151 10152 10153 10154 10155 10156 10157 10158 10159 10160 10161 10162 10163 10164 10165 10166 10167 10168 10169 10170 10171 10172 10173 10174 10175 10176 10177 10178 10179 10180 10181 10182 10183 10184 10185 10186 10187 10188 10189 10190 10191 10192 10193 10194 10195 10196 10197 10198 10199 10200 10201 10202 10203 10204 10205 10206 10207 10208 10209 10210 10211 10212 10213 10214 10215 10216 10217 10218 10219 10220 10221 10222 10223 10224 10225 10226 10227 10228 10229 10230 10231 10232 10233 10234 10235 10236 10237 10238 10239 10240 10241 10242 10243 10244 10245 10246 10247 10248 10249 10250 10251 10252 10253 10254 10255 10256 10257 10258 10259 10260 10261 10262 10263 10264 10265 10266 10267 10268 10269 10270 10271 10272 10273 10274 10275 10276 10277 10278 10279 10280 10281 10282 10283 10284 10285 10286 10287 10288 10289 10290 10291 10292 10293 10294 10295 10296 10297 10298 10299 10300 10301 10302 10303 10304 10305 10306 10307 10308 10309 10310 10311 10312 10313 10314 10315 10316 10317 10318 10319 10320 10321 10322 10323 10324 10325 10326 10327 10328 10329 10330 10331 10332 10333 10334 10335 10336 10337 10338 10339 10340 10341 10342 10343 10344 10345 10346 10347 10348 10349 10350 10351 10352 10353 10354 10355 10356 10357 10358 10359 10360 10361 10362 10363 10364 10365 10366 10367 10368 10369 10370 10371 10372 10373 10374 10375 10376 10377 10378 10379 10380 10381 10382 10383 10384 10385 10386 10387 10388 10389 10390 10391 10392 10393 10394 10395 10396 10397 10398 10399 10400 10401 10402 10403 10404 10405 10406 10407 10408 10409 10410 10411 10412 10413 10414 10415 10416 10417 10418 10419 10420 10421 10422 10423 10424 10425 10426 10427 10428 10429 10430 10431 10432 10433 10434 10435 10436 10437 10438 10439 10440 10441 10442 10443 10444 10445 10446 10447 10448 10449 10450 10451 10452 10453 10454 10455 10456 10457 10458 10459 10460 10461 10462 10463 10464 10465 10466 10467 10468 10469 10470 10471 10472 10473 10474 10475 10476 10477 10478 10479 10480 10481 10482 10483 10484 10485 10486 10487 10488 10489 10490 10491 10492 10493 10494 10495 10496 10497 10498 10499 10500 10501 10502 10503 10504 10505 10506 10507 10508 10509 10510 10511 10512 10513 10514 10515 10516 10517 10518 10519 10520 10521 10522 10523 10524 10525 10526 10527 10528 10529 10530 10531 10532 10533 10534 10535 10536 10537 10538 10539 10540 10541 10542 10543 10544 10545 10546 10547 10548 10549 10550 10551 10552 10553 10554 10555 10556 10557 10558 10559 10560 10561 10562 10563 10564 10565 10566 10567 10568 10569 10570 10571 10572 10573 10574 10575 10576 10577 10578 10579 10580 10581 10582 10583 10584 10585 10586 10587 10588 10589 10590 10591 10592 10593 10594 10595 10596 10597 10598 10599 10600 10601 10602 10603 10604 10605 10606 10607 10608 10609 10610 10611 10612 10613 10614 10615 10616 10617 10618 10619 10620 10621 10622 10623 10624 10625 10626 10627 10628 10629 10630 10631 10632 10633 10634 10635 10636 10637 10638 10639 10640 10641 10642 10643 10644 10645 10646 10647 10648 10649 10650 10651 10652 10653 10654 10655 10656 10657 10658 10659 10660 10661 10662 10663 10664 10665 10666 10667 10668 10669 10670 10671 10672 10673 10674 10675 10676 10677 10678 10679 10680 10681 10682 10683 10684 10685 10686 10687 10688 10689 10690 10691 10692 10693 10694 10695 10696 10697 10698 10699 10700 10701 10702 10703 10704 10705 10706 10707 10708 10709 10710 10711 10712 10713 10714 10715 10716 10717 10718 10719 10720 10721 10722 10723 10724 10725 10726 10727 10728 10729 10730 10731 10732 10733 10734 10735 10736 10737 10738 10739 10740 10741 10742 10743 10744 10745 10746 10747 10748 10749 10750 10751 10752 10753 10754 10755 10756 10757 10758 10759 10760 10761 10762 10763 10764 10765 10766 10767 10768 10769 10770 10771 10772 10773 10774 10775 10776 10777 10778 10779 10780 10781 10782 10783 10784 10785 10786 10787 10788 10789 10790 10791 10792 10793 10794 10795 10796 10797 10798 10799 10800 10801 10802 10803 10804 10805 10806 10807 10808 10809 10810 10811 10812 10813 10814 10815 10816 10817 10818 10819 10820 10821 10822 10823 10824 10825 10826 10827 10828 10829 10830 10831 10832 10833 10834 10835 10836 10837 10838 10839 10840 10841 10842 10843 10844 10845 10846 10847 10848 10849 10850 10851 10852 10853 10854 10855 10856 10857 10858 10859 10860 10861 10862 10863 10864 10865 10866 10867 10868 10869 10870 10871 10872 10873 10874 10875 10876 10877 10878 10879 10880 10881 10882 10883 10884 10885 10886 10887 10888 10889 10890 10891 10892 10893 10894 10895 10896 10897 10898 10899 10900 10901 10902 10903 10904 10905 10906 10907 10908 10909 10910 10911 10912 10913 10914 10915 10916 10917 10918 10919 10920 10921 10922 10923 10924 10925 10926 10927 10928 10929 10930 10931 10932 10933 10934 10935 10936 10937 10938 10939 10940 10941 10942 10943 10944 10945 10946 10947 10948 10949 10950 10951 10952 10953 10954 10955 10956 10957 10958 10959 10960 10961 10962 10963 10964 10965 10966 10967 10968 10969 10970 10971 10972 10973 10974 10975 10976 10977 10978 10979 10980 10981 10982 10983 10984 10985 10986 10987 10988 10989 10990 10991 10992 10993 10994 10995 10996 10997 10998 10999 11000 11001 11002 11003 11004 11005 11006 11007 11008 11009 11010 11011 11012 11013 11014 11015 11016 11017 11018 11019 11020 11021 11022 11023 11024 11025 11026 11027 11028 11029 11030 11031 11032 11033 11034 11035 11036 11037 11038 11039 11040 11041 11042 11043 11044 11045 11046 11047 11048 11049 11050 11051 11052 11053 11054 11055 11056 11057 11058 11059 11060 11061 11062 11063 11064 11065 11066 11067 11068 11069 11070 11071 11072 11073 11074 11075 11076 11077 11078 11079 11080 11081 11082 11083 11084 11085 11086 11087 11088 11089 11090 11091 11092 11093 11094 11095 11096 11097 11098 11099 11100 11101 11102 11103 11104 11105 11106 11107 11108 11109 11110 11111 11112 11113 11114 11115 11116 11117 11118 11119 11120 11121 11122 11123 11124 11125 11126 11127 11128 11129 11130 11131 11132 11133 11134 11135 11136 11137 11138 11139 11140 11141 11142 11143 11144 11145 11146 11147 11148 11149 11150 11151 11152 11153 11154 11155 11156 11157 11158 11159 11160 11161 11162 11163 11164 11165 11166 11167 11168 11169 11170 11171 11172 11173 11174 11175 11176 11177 11178 11179 11180 11181 11182 11183 11184 11185 11186 11187 11188 11189 11190 11191 11192 11193 11194 11195 11196 11197 11198 11199 11200 11201 11202 11203 11204 11205 11206 11207 11208 11209 11210 11211 11212 11213 11214 11215 11216 11217 11218 11219 11220 11221 11222 11223 11224 11225 11226 11227 11228 11229 11230 11231 11232 11233 11234 11235 11236 11237 11238 11239 11240 11241 11242 11243 11244 11245 11246 11247 11248 11249 11250 11251 11252 11253 11254 11255 11256 11257 11258 11259 11260 11261 11262 11263 11264 11265 11266 11267 11268 11269 11270 11271 11272 11273 11274 11275 11276 11277 11278 11279 11280 11281 11282 11283 11284 11285 11286 11287 11288 11289 11290 11291 11292 11293 11294 11295 11296 11297 11298 11299 11300 11301 11302 11303 11304 11305 11306 11307 11308 11309 11310 11311 11312 11313 11314 11315 11316 11317 11318 11319 11320 11321 11322 11323 11324 11325 11326 11327 11328 11329 11330 11331 11332 11333 11334 11335 11336 11337 11338 11339 11340 11341 11342 11343 11344 11345 11346 11347 11348 11349 11350 11351 11352 11353 11354 11355 11356 11357 11358 11359 11360 11361 11362 11363 11364 11365 11366 11367 11368 11369 11370 11371 11372 11373 11374 11375 11376 11377 11378 11379 11380 11381 11382 11383 11384 11385 11386 11387 11388 11389 11390 11391 11392 11393 11394 11395 11396 11397 11398 11399 11400 11401 11402 11403 11404 11405 11406 11407 11408 11409 11410 11411 11412 11413 11414 11415 11416 11417 11418 11419 11420 11421 11422 11423 11424 11425 11426 11427 11428 11429 11430 11431 11432 11433 11434 11435 11436 11437 11438 11439 11440 11441 11442 11443 11444 11445 11446 11447 11448 11449 11450 11451 11452 11453 11454 11455 11456 11457 11458 11459 11460 11461 11462 11463 11464 11465 11466 11467 11468 11469 11470 11471 11472 11473 11474 11475 11476 11477 11478 11479 11480 11481 11482 11483 11484 11485 11486 11487 11488 11489 11490 11491 11492 11493 11494 11495 11496 11497 11498 11499 11500 11501 11502 11503 11504 11505 11506 11507 11508 11509 11510 11511 11512 11513 11514 11515 11516 11517 11518 11519 11520 11521 11522 11523 11524 11525 11526 11527 11528 11529 11530 11531 11532 11533 11534 11535 11536 11537 11538 11539 11540 11541 11542 11543 11544 11545 11546 11547 11548 11549 11550 11551 11552 11553 11554 11555 11556 11557 11558 11559 11560 11561 11562 11563 11564 11565 11566 11567 11568 11569 11570 11571 11572 11573 11574 11575 11576 11577 11578 11579 11580 11581 11582 11583 11584 11585 11586 11587 11588 11589 11590 11591 11592 11593 11594 11595 11596 11597 11598 11599 11600 11601 11602 11603 11604 11605 11606 11607 11608 11609 11610 11611 11612 11613 11614 11615 11616 11617 11618 11619 11620 11621 11622 11623 11624 11625 11626 11627 11628 11629 11630 11631 11632 11633 11634 11635 11636 11637 11638 11639 11640 11641 11642 11643 11644 11645 11646 11647 11648 11649 11650 11651 11652 11653 11654 11655 11656 11657 11658 11659 11660 11661 11662 11663 11664 11665 11666 11667 11668 11669 11670 11671 11672 11673 11674 11675 11676 11677 11678 11679 11680 11681 11682 11683 11684 11685 11686 11687 11688 11689 11690 11691 11692 11693 11694 11695 11696 11697 11698 11699 11700 11701 11702 11703 11704 11705 11706 11707 11708 11709 11710 11711 11712 11713 11714 11715 11716 11717 11718 11719 11720 11721 11722 11723 11724 11725 11726 11727 11728 11729 11730 11731 11732 11733 11734 11735 11736 11737 11738 11739 11740 11741 11742 11743 11744 11745 11746 11747 11748 11749 11750 11751 11752 11753 11754 11755 11756 11757 11758 11759 11760 11761 11762 11763 11764 11765 11766 11767 11768 11769 11770 11771 11772 11773 11774 11775 11776 11777 11778 11779 11780 11781 11782 11783 11784 11785 11786 11787 11788 11789 11790 11791 11792 11793 11794 11795 11796 11797 11798 11799 11800 11801 11802 11803 11804 11805 11806 11807 11808 11809 11810 11811 11812 11813 11814 11815 11816 11817 11818 11819 11820 11821 11822 11823 11824 11825 11826 11827 11828 11829 11830 11831 11832 11833 11834 11835 11836 11837 11838 11839 11840 11841 11842 11843 11844 11845 11846 11847 11848 11849 11850 11851 11852 11853 11854 11855 11856 11857 11858 11859 11860 11861 11862 11863 11864 11865 11866 11867 11868 11869 11870 11871 11872 11873 11874 11875 11876 11877 11878 11879 11880 11881 11882 11883 11884 11885 11886 11887 11888 11889 11890 11891 11892 11893 11894 11895 11896 11897 11898 11899 11900 11901 11902 11903 11904 11905 11906 11907 11908 11909 11910 11911 11912 11913 11914 11915 11916 11917 11918 11919 11920 11921 11922 11923 11924 11925 11926 11927 11928 11929 11930 11931 11932 11933 11934 11935 11936 11937 11938 11939 11940 11941 11942 11943 11944 11945 11946 11947 11948 11949 11950 11951 11952 11953 11954 11955 11956 11957 11958 11959 11960 11961 11962 11963 11964 11965 11966 11967 11968 11969 11970 11971 11972 11973 11974 11975 11976 11977 11978 11979 11980 11981 11982 11983 11984 11985 11986 11987 11988 11989 11990 11991 11992 11993 11994 11995 11996 11997 11998 11999 12000 12001 12002 12003 12004 12005 12006 12007 12008 12009 12010 12011 12012 12013 12014 12015 12016 12017 12018 12019 12020 12021 12022 12023 12024 12025 12026 12027 12028 12029 12030 12031 12032 12033 12034 12035 12036 12037 12038 12039 12040 12041 12042 12043 12044 12045 12046 12047 12048 12049 12050 12051 12052 12053 12054 12055 12056 12057 12058 12059 12060 12061 12062 12063 12064 12065 12066 12067 12068 12069 12070 12071 12072 12073 12074 12075 12076 12077 12078 12079 12080 12081 12082 12083 12084 12085 12086 12087 12088 12089 12090 12091 12092 12093 12094 12095 12096 12097 12098 12099 12100 12101 12102 12103 12104 12105 12106 12107 12108 12109 12110 12111 12112 12113 12114 12115 12116 12117 12118 12119 12120 12121 12122 12123 12124 12125 12126 12127 12128 12129 12130 12131 12132 12133 12134 12135 12136 12137 12138 12139 12140 12141 12142 12143 12144 12145 12146 12147 12148 12149 12150 12151 12152 12153 12154 12155 12156 12157 12158 12159 12160 12161 12162 12163 12164 12165 12166 12167 12168 12169 12170 12171 12172 12173 12174 12175 12176 12177 12178 12179 12180 12181 12182 12183 12184 12185 12186 12187 12188 12189 12190 12191 12192 12193 12194 12195 12196 12197 12198 12199 12200 12201 12202 12203 12204 12205 12206 12207 12208 12209 12210 12211 12212 12213 12214 12215 12216 12217 12218 12219 12220 12221 12222 12223 12224 12225 12226 12227 12228 12229 12230 12231 12232 12233 12234 12235 12236 12237 12238 12239 12240 12241 12242 12243 12244 12245 12246 12247 12248 12249 12250 12251 12252 12253 12254 12255 12256 12257 12258 12259 12260 12261 12262 12263 12264 12265 12266 12267 12268 12269 12270 12271 12272 12273 12274 12275 12276 12277 12278 12279 12280 12281 12282 12283 12284 12285 12286 12287 12288 12289 12290 12291 12292 12293 12294 12295 12296 12297 12298 12299 12300 12301 12302 12303 12304 12305 12306 12307 12308 12309 12310 12311 12312 12313 12314 12315 12316 12317 12318 12319 12320 12321 12322 12323 12324 12325 12326 12327 12328 12329 12330 12331 12332 12333 12334 12335 12336 12337 12338 12339 12340 12341 12342 12343 12344 12345 12346 12347 12348 12349 12350 12351 12352 12353 12354 12355 12356 12357 12358 12359 12360 12361 12362 12363 12364 12365 12366 12367 12368 12369 12370 12371 12372 12373 12374 12375 12376 12377 12378 12379 12380 12381 12382 12383 12384 12385 12386 12387 12388 12389 12390 12391 12392 12393 12394 12395 12396 12397 12398 12399 12400 12401 12402 12403 12404 12405 12406 12407 12408 12409 12410 12411 12412 12413 12414 12415 12416 12417 12418 12419 12420 12421 12422 12423 12424 12425 12426 12427 12428 12429 12430 12431 12432 12433 12434 12435 12436 12437 12438 12439 12440 12441 12442 12443 12444 12445 12446 12447 12448 12449 12450 12451 12452 12453 12454 12455 12456 12457 12458 12459 12460 12461 12462 12463 12464 12465 12466 12467 12468 12469 12470 12471 12472 12473 12474 12475 12476 12477 12478 12479 12480 12481 12482 12483 12484 12485 12486 12487 12488 12489 12490 12491 12492 12493 12494 12495 12496 12497 12498 12499 12500 12501 12502 12503 12504 12505 12506 12507 12508 12509 12510 12511 12512 12513 12514 12515 12516 12517 12518 12519 12520 12521 12522 12523 12524 12525 12526 12527 12528 12529 12530 12531 12532 12533 12534 12535 12536 12537 12538 12539 12540 12541 12542 12543 12544 12545 12546 12547 12548 12549 12550 12551 12552 12553 12554 12555 12556 12557 12558 12559 12560 12561 12562 12563 12564 12565 12566 12567 12568 12569 12570 12571 12572 12573 12574 12575 12576 12577 12578 12579 12580 12581 12582 12583 12584 12585 12586 12587 12588 12589 12590 12591 12592 12593 12594 12595 12596 12597 12598 12599 12600 12601 12602 12603 12604 12605 12606 12607 12608 12609 12610 12611 12612 12613 12614 12615 12616 12617 12618 12619 12620 12621 12622 12623 12624 12625 12626 12627 12628 12629 12630 12631 12632 12633 12634 12635 12636 12637 12638 12639 12640 12641 12642 12643 12644 12645 12646 12647 12648 12649 12650 12651 12652 12653 12654 12655 12656 12657 12658 12659 12660 12661 12662 12663 12664 12665 12666 12667 12668 12669 12670 12671 12672 12673 12674 12675 12676 12677 12678 12679 12680 12681 12682 12683 12684 12685 12686 12687 12688 12689 12690 12691 12692 12693 12694 12695 12696 12697 12698 12699 12700 12701 12702 12703 12704 12705 12706 12707 12708 12709 12710 12711 12712 12713 12714 12715 12716 12717 12718 12719 12720 12721 12722 12723 12724 12725 12726 12727 12728 12729 12730 12731 12732 12733 12734 12735 12736 12737 12738 12739 12740 12741 12742 12743 12744 12745 12746 12747 12748 12749 12750 12751 12752 12753 12754 12755 12756 12757 12758 12759 12760 12761 12762 12763 12764 12765 12766 12767 12768 12769 12770 12771 12772 12773 12774 12775 12776 12777 12778 12779 12780 12781 12782 12783 12784 12785 12786 12787 12788 12789 12790 12791 12792 12793 12794 12795 12796 12797 12798 12799 12800 12801 12802 12803 12804 12805 12806 12807 12808 12809 12810 12811 12812 12813 12814 12815 12816 12817 12818 12819 12820 12821 12822 12823 12824 12825 12826 12827 12828 12829 12830 12831 12832 12833 12834 12835 12836 12837 12838 12839 12840 12841 12842 12843 12844 12845 12846 12847 12848 12849 12850 12851 12852 12853 12854 12855 12856 12857 12858 12859 12860 12861 12862 12863 12864 12865 12866 12867 12868 12869 12870 12871 12872 12873 12874 12875 12876 12877 12878 12879 12880 12881 12882 12883 12884 12885 12886 12887 12888 12889 12890 12891 12892 12893 12894 12895 12896 12897 12898 12899 12900 12901 12902 12903 12904 12905 12906 12907 12908 12909 12910 12911 12912 12913 12914 12915 12916 12917 12918 12919 12920 12921 12922 12923 12924 12925 12926 12927 12928 12929 12930 12931 12932 12933 12934 12935 12936 12937 12938 12939 12940 12941 12942 12943 12944 12945 12946 12947 12948 12949 12950 12951 12952 12953 12954 12955 12956 12957 12958 12959 12960 12961 12962 12963 12964 12965 12966 12967 12968 12969 12970 12971 12972 12973 12974 12975 12976 12977 12978 12979 12980 12981 12982 12983 12984 12985 12986 12987 12988 12989 12990 12991 12992 12993 12994 12995 12996 12997 12998 12999 13000 13001 13002 13003 13004 13005 13006 13007 13008 13009 13010 13011 13012 13013 13014 13015 13016 13017 13018 13019 13020 13021 13022 13023 13024 13025 13026 13027 13028 13029 13030 13031 13032 13033 13034 13035 13036 13037 13038 13039 13040 13041 13042 13043 13044 13045 13046 13047 13048 13049 13050 13051 13052 13053 13054 13055 13056 13057 13058 13059 13060 13061 13062 13063 13064 13065 13066 13067 13068 13069 13070 13071 13072 13073 13074 13075 13076 13077 13078 13079 13080 13081 13082 13083 13084 13085 13086 13087 13088 13089 13090 13091 13092 13093 13094 13095 13096 13097 13098 13099 13100 13101 13102 13103 13104 13105 13106 13107 13108 13109 13110 13111 13112 13113 13114 13115 13116 13117 13118 13119 13120 13121 13122 13123 13124 13125 13126 13127 13128 13129 13130 13131 13132 13133 13134 13135 13136 13137 13138 13139 13140 13141 13142 13143 13144 13145 13146 13147 13148 13149 13150 13151 13152 13153 13154 13155 13156 13157 13158 13159 13160 13161 13162 13163 13164 13165 13166 13167 13168 13169 13170 13171 13172 13173 13174 13175 13176 13177 13178 13179 13180 13181 13182 13183 13184 13185 13186 13187 13188 13189 13190 13191 13192 13193 13194 13195 13196 13197 13198 13199 13200 13201 13202 13203 13204 13205 13206 13207 13208 13209 13210 13211 13212 13213 13214 13215 13216 13217 13218 13219 13220 13221 13222 13223 13224 13225 13226 13227 13228 13229 13230 13231 13232 13233 13234 13235 13236 13237 13238 13239 13240 13241 13242 13243 13244 13245 13246 13247 13248 13249 13250 13251 13252 13253 13254 13255 13256 13257 13258 13259 13260 13261 13262 13263 13264 13265 13266 13267 13268 13269 13270 13271 13272 13273 13274 13275 13276 13277 13278 13279 13280 13281 13282 13283 13284 13285 13286 13287 13288 13289 13290 13291 13292 13293 13294 13295 13296 13297 13298 13299 13300 13301 13302 13303 13304 13305 13306 13307 13308 13309 13310 13311 13312 13313 13314 13315 13316 13317 13318 13319 13320 13321 13322 13323 13324 13325 13326 13327 13328 13329 13330 13331 13332 13333 13334 13335 13336 13337 13338 13339 13340 13341 13342 13343 13344 13345 13346 13347 13348 13349 13350 13351 13352 13353 13354 13355 13356 13357 13358 13359 13360 13361 13362 13363 13364 13365 13366 13367 13368 13369 13370 13371 13372 13373 13374 13375 13376 13377 13378 13379 13380 13381 13382 13383 13384 13385 13386 13387 13388 13389 13390 13391 13392 13393 13394 13395 13396 13397 13398 13399 13400 13401 13402 13403 13404 13405 13406 13407 13408 13409 13410 13411 13412 13413 13414 13415 13416 13417 13418 13419 13420 13421 13422 13423 13424 13425 13426 13427 13428 13429 13430 13431 13432 13433 13434 13435 13436 13437 13438 13439 13440 13441 13442 13443 13444 13445 13446 13447 13448 13449 13450 13451 13452 13453 13454 13455 13456 13457 13458 13459 13460 13461 13462 13463 13464 13465 13466 13467 13468 13469 13470 13471 13472 13473 13474 13475 13476 13477 13478 13479 13480 13481 13482 13483 13484 13485 13486 13487 13488 13489 13490 13491 13492 13493 13494 13495 13496 13497 13498 13499 13500 13501 13502 13503 13504 13505 13506 13507 13508 13509 13510 13511 13512 13513 13514 13515 13516 13517 13518 13519 13520 13521 13522 13523 13524 13525 13526 13527 13528 13529 13530 13531 13532 13533 13534 13535 13536 13537 13538 13539 13540 13541 13542 13543 13544 13545 13546 13547 13548 13549 13550 13551 13552 13553 13554 13555 13556 13557 13558 13559 13560 13561 13562 13563 13564 13565 13566 13567 13568 13569 13570 13571 13572 13573 13574 13575 13576 13577 13578 13579 13580 13581 13582 13583 13584 13585 13586 13587 13588 13589 13590 13591 13592 13593 13594 13595 13596 13597 13598 13599 13600 13601 13602 13603 13604 13605 13606 13607 13608 13609 13610 13611 13612 13613 13614 13615 13616 13617 13618 13619 13620 13621 13622 13623 13624 13625 13626 13627 13628 13629 13630 13631 13632 13633 13634 13635 13636 13637 13638 13639 13640 13641 13642 13643 13644 13645 13646 13647 13648 13649 13650 13651 13652 13653 13654 13655 13656 13657 13658 13659 13660 13661 13662 13663 13664 13665 13666 13667 13668 13669 13670 13671 13672 13673 13674 13675 13676 13677 13678 13679 13680 13681 13682 13683 13684 13685 13686 13687 13688 13689 13690 13691 13692 13693 13694 13695 13696 13697 13698 13699 13700 13701 13702 13703 13704 13705 13706 13707 13708 13709 13710 13711 13712 13713 13714 13715 13716 13717 13718 13719 13720 13721 13722 13723 13724 13725 13726 13727 13728 13729 13730 13731 13732 13733 13734 13735 13736 13737 13738 13739 13740 13741 13742 13743 13744 13745 13746 13747 13748 13749 13750 13751 13752 13753 13754 13755 13756 13757 13758 13759 13760 13761 13762 13763 13764 13765 13766 13767 13768 13769 13770 13771 13772 13773 13774 13775 13776 13777 13778 13779 13780 13781 13782 13783 13784 13785 13786 13787 13788 13789 13790 13791 13792 13793 13794 13795 13796 13797 13798 13799 13800 13801 13802 13803 13804 13805 13806 13807 13808 13809 13810 13811 13812 13813 13814 13815 13816 13817 13818 13819 13820 13821 13822 13823 13824 13825 13826 13827 13828 13829 13830 13831 13832 13833 13834 13835 13836 13837 13838 13839 13840 13841 13842 13843 13844 13845 13846 13847 13848 13849 13850 13851 13852 13853 13854 13855 13856 13857 13858 13859 13860 13861 13862 13863 13864 13865 13866 13867 13868 13869 13870 13871 13872 13873 13874 13875 13876 13877 13878 13879 13880 13881 13882 13883 13884 13885 13886 13887 13888 13889 13890 13891 13892 13893 13894 13895 13896 13897 13898 13899 13900 13901 13902 13903 13904 13905 13906 13907 13908 13909 13910 13911 13912 13913 13914 13915 13916 13917 13918 13919 13920 13921 13922 13923 13924 13925 13926 13927 13928 13929 13930 13931 13932 13933 13934 13935 13936 13937 13938 13939 13940 13941 13942 13943 13944 13945 13946 13947 13948 13949 13950 13951 13952 13953 13954 13955 13956 13957 13958 13959 13960 13961 13962 13963 13964 13965 13966 13967 13968 13969 13970 13971 13972 13973 13974 13975 13976 13977 13978 13979 13980 13981 13982 13983 13984 13985 13986 13987 13988 13989 13990 13991 13992 13993 13994 13995 13996 13997 13998 13999 14000 14001 14002 14003 14004 14005 14006 14007 14008 14009 14010 14011 14012 14013 14014 14015 14016 14017 14018 14019 14020 14021 14022 14023 14024 14025 14026 14027 14028 14029 14030 14031 14032 14033 14034 14035 14036 14037 14038 14039 14040 14041 14042 14043 14044 14045 14046 14047 14048 14049 14050 14051 14052 14053 14054 14055 14056 14057 14058 14059 14060 14061 14062 14063 14064 14065 14066 14067 14068 14069 14070 14071 14072 14073 14074 14075 14076 14077 14078 14079 14080 14081 14082 14083 14084 14085 14086 14087 14088 14089 14090 14091 14092 14093 14094 14095 14096 14097 14098 14099 14100 14101 14102 14103 14104 14105 14106 14107 14108 14109 14110 14111 14112 14113 14114 14115 14116 14117 14118 14119 14120 14121 14122 14123 14124 14125 14126 14127 14128 14129 14130 14131 14132 14133 14134 14135 14136 14137 14138 14139 14140 14141 14142 14143 14144 14145 14146 14147 14148 14149 14150 14151 14152 14153 14154 14155 14156 14157 14158 14159 14160 14161 14162 14163 14164 14165 14166 14167 14168 14169 14170 14171 14172 14173 14174 14175 14176 14177 14178 14179 14180 14181 14182 14183 14184 14185 14186 14187 14188 14189 14190 14191 14192 14193 14194 14195 14196 14197 14198 14199 14200 14201 14202 14203 14204 14205 14206 14207 14208 14209 14210 14211 14212 14213 14214 14215 14216 14217 14218 14219 14220 14221 14222 14223 14224 14225 14226 14227 14228 14229 14230 14231 14232 14233 14234 14235 14236 14237 14238 14239 14240 14241 14242 14243 14244 14245 14246 14247 14248 14249 14250 14251 14252 14253 14254 14255 14256 14257 14258 14259 14260 14261 14262 14263 14264 14265 14266 14267 14268 14269 14270 14271 14272 14273 14274 14275 14276 14277 14278 14279 14280 14281 14282 14283 14284 14285 14286 14287 14288 14289 14290 14291 14292 14293 14294 14295 14296 14297 14298 14299 14300 14301 14302 14303 14304 14305 14306 14307 14308 14309 14310 14311 14312 14313 14314 14315 14316 14317 14318 14319 14320 14321 14322 14323 14324 14325 14326 14327 14328 14329 14330 14331 14332 14333 14334 14335 14336 14337 14338 14339 14340 14341 14342 14343 14344 14345 14346 14347 14348 14349 14350 14351 14352 14353 14354 14355 14356 14357 14358 14359 14360 14361 14362 14363 14364 14365 14366 14367 14368 14369 14370 14371 14372 14373 14374 14375 14376 14377 14378 14379 14380 14381 14382 14383 14384 14385 14386 14387 14388 14389 14390 14391 14392 14393 14394 14395 14396 14397 14398 14399 14400 14401 14402 14403 14404 14405 14406 14407 14408 14409 14410 14411 14412 14413 14414 14415 14416 14417 14418 14419 14420 14421 14422 14423 14424 14425 14426 14427 14428 14429 14430 14431 14432 14433 14434 14435 14436 14437 14438 14439 14440 14441 14442 14443 14444 14445 14446 14447 14448 14449 14450 14451 14452 14453 14454 14455 14456 14457 14458 14459 14460 14461 14462 14463 14464 14465 14466 14467 14468 14469 14470 14471 14472 14473 14474 14475 14476 14477 14478 14479 14480 14481 14482 14483 14484 14485 14486 14487 14488 14489 14490 14491 14492 14493 14494 14495 14496 14497 14498 14499 14500 14501 14502 14503 14504 14505 14506 14507 14508 14509 14510 14511 14512 14513 14514 14515 14516 14517 14518 14519 14520 14521 14522 14523 14524 14525 14526 14527 14528 14529 14530 14531 14532 14533 14534 14535 14536 14537 14538 14539 14540 14541 14542 14543 14544 14545 14546 14547 14548 14549 14550 14551 14552 14553 14554 14555 14556 14557 14558 14559 14560 14561 14562 14563 14564 14565 14566 14567 14568 14569 14570 14571 14572 14573 14574 14575 14576 14577 14578 14579 14580 14581 14582 14583 14584 14585 14586 14587 14588 14589 14590 14591 14592 14593 14594 14595 14596 14597 14598 14599 14600 14601 14602 14603 14604 14605 14606 14607 14608 14609 14610 14611 14612 14613 14614 14615 14616 14617 14618 14619 14620 14621 14622 14623 14624 14625 14626 14627 14628 14629 14630 14631 14632 14633 14634 14635 14636 14637 14638 14639 14640 14641 14642 14643 14644 14645 14646 14647 14648 14649 14650 14651 14652 14653 14654 14655 14656 14657 14658 14659 14660 14661 14662 14663 14664 14665 14666 14667 14668 14669 14670 14671 14672 14673 14674 14675 14676 14677 14678 14679 14680 14681 14682 14683 14684 14685 14686 14687 14688 14689 14690 14691 14692 14693 14694 14695 14696 14697 14698 14699 14700 14701 14702 14703 14704 14705 14706 14707 14708 14709 14710 14711 14712 14713 14714 14715 14716 14717 14718 14719 14720 14721 14722 14723 14724 14725 14726 14727 14728 14729 14730 14731 14732 14733 14734 14735 14736 14737 14738 14739 14740 14741 14742 14743 14744 14745 14746 14747 14748 14749 14750 14751 14752 14753 14754 14755 14756 14757 14758 14759 14760 14761 14762 14763 14764 14765 14766 14767 14768 14769 14770 14771 14772 14773 14774 14775 14776 14777 14778 14779 14780 14781 14782 14783 14784 14785 14786 14787 14788 14789 14790 14791 14792 14793 14794 14795 14796 14797 14798 14799 14800 14801 14802 14803 14804 14805 14806 14807 14808 14809 14810 14811 14812 14813 14814 14815 14816 14817 14818 14819 14820 14821 14822 14823 14824 14825 14826 14827 14828 14829 14830 14831 14832 14833 14834 14835 14836 14837 14838 14839 14840 14841 14842 14843 14844 14845 14846 14847 14848 14849 14850 14851 14852 14853 14854 14855 14856 14857 14858 14859 14860 14861 14862 14863 14864 14865 14866 14867 14868 14869 14870 14871 14872 14873 14874 14875 14876 14877 14878 14879 14880 14881 14882 14883 14884 14885 14886 14887 14888 14889 14890 14891 14892 14893 14894 14895 14896 14897 14898 14899 14900 14901 14902 14903 14904 14905 14906 14907 14908 14909 14910 14911 14912 14913 14914 14915 14916 14917 14918 14919 14920 14921 14922 14923 14924 14925 14926 14927 14928 14929 14930 14931 14932 14933 14934 14935 14936 14937 14938 14939 14940 14941 14942 14943 14944 14945 14946 14947 14948 14949 14950 14951 14952 14953 14954 14955 14956 14957 14958 14959 14960 14961 14962 14963 14964 14965 14966 14967 14968 14969 14970 14971 14972 14973 14974 14975 14976 14977 14978 14979 14980 14981 14982 14983 14984 14985 14986 14987 14988 14989 14990 14991 14992 14993 14994 14995 14996 14997 14998 14999 15000 15001 15002 15003 15004 15005 15006 15007 15008 15009 15010 15011 15012 15013 15014 15015 15016 15017 15018 15019 15020 15021 15022 15023 15024 15025 15026 15027 15028 15029 15030 15031 15032 15033 15034 15035 15036 15037 15038 15039 15040 15041 15042 15043 15044 15045 15046 15047 15048 15049 15050 15051 15052 15053 15054 15055 15056 15057 15058 15059 15060 15061 15062 15063 15064 15065 15066 15067 15068 15069 15070 15071 15072 15073 15074 15075 15076 15077 15078 15079 15080 15081 15082 15083 15084 15085 15086 15087 15088 15089 15090 15091 15092 15093 15094 15095 15096 15097 15098 15099 15100 15101 15102 15103 15104 15105 15106 15107 15108 15109 15110 15111 15112 15113 15114 15115 15116 15117 15118 15119 15120 15121 15122 15123 15124 15125 15126 15127 15128 15129 15130 15131 15132 15133 15134 15135 15136 15137 15138 15139 15140 15141 15142 15143 15144 15145 15146 15147 15148 15149 15150 15151 15152 15153 15154 15155 15156 15157 15158 15159 15160 15161 15162 15163 15164 15165 15166 15167 15168 15169 15170 15171 15172 15173 15174 15175 15176 15177 15178 15179 15180 15181 15182 15183 15184 15185 15186 15187 15188 15189 15190 15191 15192 15193 15194 15195 15196 15197 15198 15199 15200 15201 15202 15203 15204 15205 15206 15207 15208 15209 15210 15211 15212 15213 15214 15215 15216 15217 15218 15219 15220 15221 15222 15223 15224 15225 15226 15227 15228 15229 15230 15231 15232 15233 15234 15235 15236 15237 15238 15239 15240 15241 15242 15243 15244 15245 15246 15247 15248 15249 15250 15251 15252 15253 15254 15255 15256 15257 15258 15259 15260 15261 15262 15263 15264 15265 15266 15267 15268 15269 15270 15271 15272 15273 15274 15275 15276 15277 15278 15279 15280 15281 15282 15283 15284 15285 15286 15287 15288 15289 15290 15291 15292 15293 15294 15295 15296 15297 15298 15299 15300 15301 15302 15303 15304 15305 15306 15307 15308 15309 15310 15311 15312 15313 15314 15315 15316 15317 15318 15319 15320 15321 15322 15323 15324 15325 15326 15327 15328 15329 15330 15331 15332 15333 15334 15335 15336 15337 15338 15339 15340 15341 15342 15343 15344 15345 15346 15347 15348 15349 15350 15351 15352 15353 15354 15355 15356 15357 15358 15359 15360 15361 15362 15363 15364 15365 15366 15367 15368 15369 15370 15371 15372 15373 15374 15375 15376 15377 15378 15379 15380 15381 15382 15383 15384 15385 15386 15387 15388 15389 15390 15391 15392 15393 15394 15395 15396 15397 15398 15399 15400 15401 15402 15403 15404 15405 15406 15407 15408 15409 15410 15411 15412 15413 15414 15415 15416 15417 15418 15419 15420 15421 15422 15423 15424 15425 15426 15427 15428 15429 15430 15431 15432 15433 15434 15435 15436 15437 15438 15439 15440 15441 15442 15443 15444 15445 15446 15447 15448 15449 15450 15451 15452 15453 15454 15455 15456 15457 15458 15459 15460 15461 15462 15463 15464 15465 15466 15467 15468 15469 15470 15471 15472 15473 15474 15475 15476 15477 15478 15479 15480 15481 15482 15483 15484 15485 15486 15487 15488 15489 15490 15491 15492 15493 15494 15495 15496 15497 15498 15499 15500 15501 15502 15503 15504 15505 15506 15507 15508 15509 15510 15511 15512 15513 15514 15515 15516 15517 15518 15519 15520 15521 15522 15523 15524 15525 15526 15527 15528 15529 15530 15531 15532 15533 15534 15535 15536 15537 15538 15539 15540 15541 15542 15543 15544 15545 15546 15547 15548 15549 15550 15551 15552 15553 15554 15555 15556 15557 15558 15559 15560 15561 15562 15563 15564 15565 15566 15567 15568 15569 15570 15571 15572 15573 15574 15575 15576 15577 15578 15579 15580 15581 15582 15583 15584 15585 15586 15587 15588 15589 15590 15591 15592 15593 15594 15595 15596 15597 15598 15599 15600 15601 15602 15603 15604 15605 15606 15607 15608 15609 15610 15611 15612 15613 15614 15615 15616 15617 15618 15619 15620 15621 15622 15623 15624 15625 15626 15627 15628 15629 15630 15631 15632 15633 15634 15635 15636 15637 15638 15639 15640 15641 15642 15643 15644 15645 15646 15647 15648 15649 15650 15651 15652 15653 15654 15655 15656 15657 15658 15659 15660 15661 15662 15663 15664 15665 15666 15667 15668 15669 15670 15671 15672 15673 15674 15675 15676 15677 15678 15679 15680 15681 15682 15683 15684 15685 15686 15687 15688 15689 15690 15691 15692 15693 15694 15695 15696 15697 15698 15699 15700 15701 15702 15703 15704 15705 15706 15707 15708 15709 15710 15711 15712 15713 15714 15715 15716 15717 15718 15719 15720 15721 15722 15723 15724 15725 15726 15727 15728 15729 15730 15731 15732 15733 15734 15735 15736 15737 15738 15739 15740 15741 15742 15743 15744 15745 15746 15747 15748 15749 15750 15751 15752 15753 15754 15755 15756 15757 15758 15759 15760 15761 15762 15763 15764 15765 15766 15767 15768 15769 15770 15771 15772 15773 15774 15775 15776 15777 15778 15779 15780 15781 15782 15783 15784 15785 15786 15787 15788 15789 15790 15791 15792 15793 15794 15795 15796 15797 15798 15799 15800 15801 15802 15803 15804 15805 15806 15807 15808 15809 15810 15811 15812 15813 15814 15815 15816 15817 15818 15819 15820 15821 15822 15823 15824 15825 15826 15827 15828 15829 15830 15831 15832 15833 15834 15835 15836 15837 15838 15839 15840 15841 15842 15843 15844 15845 15846 15847 15848 15849 15850 15851 15852 15853 15854 15855 15856 15857 15858 15859 15860 15861 15862 15863 15864 15865 15866 15867 15868 15869 15870 15871 15872 15873 15874 15875 15876 15877 15878 15879 15880 15881 15882 15883 15884 15885 15886 15887 15888 15889 15890 15891 15892 15893 15894 15895 15896 15897 15898 15899 15900 15901 15902 15903 15904 15905 15906 15907 15908 15909 15910 15911 15912 15913 15914 15915 15916 15917 15918 15919 15920 15921 15922 15923 15924 15925 15926 15927 15928 15929 15930 15931 15932 15933 15934 15935 15936 15937 15938 15939 15940 15941 15942 15943 15944 15945 15946 15947 15948 15949 15950 15951 15952 15953 15954 15955 15956 15957 15958 15959 15960 15961 15962 15963 15964 15965 15966 15967 15968 15969 15970 15971 15972 15973 15974 15975 15976 15977 15978 15979 15980 15981 15982 15983 15984 15985 15986 15987 15988 15989 15990 15991 15992 15993 15994 15995 15996 15997 15998 15999 16000 16001 16002 16003 16004 16005 16006 16007 16008 16009 16010 16011 16012 16013 16014 16015 16016 16017 16018 16019 16020 16021 16022 16023 16024 16025 16026 16027 16028 16029 16030 16031 16032 16033 16034 16035 16036 16037 16038 16039 16040 16041 16042 16043 16044 16045 16046 16047 16048 16049 16050 16051 16052 16053 16054 16055 16056 16057 16058 16059 16060 16061 16062 16063 16064 16065 16066 16067 16068 16069 16070 16071 16072 16073 16074 16075 16076 16077 16078 16079 16080 16081 16082 16083 16084 16085 16086 16087 16088 16089 16090 16091 16092 16093 16094 16095 16096 16097 16098 16099 16100 16101 16102 16103 16104 16105 16106 16107 16108 16109 16110 16111 16112 16113 16114 16115 16116 16117 16118 16119 16120 16121 16122 16123 16124 16125 16126 16127 16128 16129 16130 16131 16132 16133 16134 16135 16136 16137 16138 16139 16140 16141 16142 16143 16144 16145 16146 16147 16148 16149 16150 16151 16152 16153 16154 16155 16156 16157 16158 16159 16160 16161 16162 16163 16164 16165 16166 16167 16168 16169 16170 16171 16172 16173 16174 16175 16176 16177 16178 16179 16180 16181 16182 16183 16184 16185 16186 16187 16188 16189 16190 16191 16192 16193 16194 16195 16196 16197 16198 16199 16200 16201 16202 16203 16204 16205 16206 16207 16208 16209 16210 16211 16212 16213 16214 16215 16216 16217 16218 16219 16220 16221 16222 16223 16224 16225 16226 16227 16228 16229 16230 16231 16232 16233 16234 16235 16236 16237 16238 16239 16240 16241 16242 16243 16244 16245 16246 16247 16248 16249 16250 16251 16252 16253 16254 16255 16256 16257 16258 16259 16260 16261 16262 16263 16264 16265 16266 16267 16268 16269 16270 16271 16272 16273 16274 16275 16276 16277 16278 16279 16280 16281 16282 16283 16284 16285 16286 16287 16288 16289 16290 16291 16292 16293 16294 16295 16296 16297 16298 16299 16300 16301 16302 16303 16304 16305 16306 16307 16308 16309 16310 16311 16312 16313 16314 16315 16316 16317 16318 16319 16320 16321 16322 16323 16324 16325 16326 16327 16328 16329 16330 16331 16332 16333 16334 16335 16336 16337 16338 16339 16340 16341 16342 16343 16344 16345 16346 16347 16348 16349 16350 16351 16352 16353 16354 16355 16356 16357 16358 16359 16360 16361 16362 16363 16364 16365 16366 16367 16368 16369 16370 16371 16372 16373 16374 16375 16376 16377 16378 16379 16380 16381 16382 16383 16384 16385 16386 16387 16388 16389 16390 16391 16392 16393 16394 16395 16396 16397 16398 16399 16400 16401 16402 16403 16404 16405 16406 16407 16408 16409 16410 16411 16412 16413 16414 16415 16416 16417 16418 16419 16420 16421 16422 16423 16424 16425 16426 16427 16428 16429 16430 16431 16432 16433 16434 16435 16436 16437 16438 16439 16440 16441 16442 16443 16444 16445 16446 16447 16448 16449 16450 16451 16452 16453 16454 16455 16456 16457 16458 16459 16460 16461 16462 16463 16464 16465 16466 16467 16468 16469 16470 16471 16472 16473 16474 16475 16476 16477 16478 16479 16480 16481 16482 16483 16484 16485 16486 16487 16488 16489 16490 16491 16492 16493 16494 16495 16496 16497 16498 16499 16500 16501 16502 16503 16504 16505 16506 16507 16508 16509 16510 16511 16512 16513 16514 16515 16516 16517 16518 16519 16520 16521 16522 16523 16524 16525 16526 16527 16528 16529 16530 16531 16532 16533 16534 16535 16536 16537 16538 16539 16540 16541 16542 16543 16544 16545 16546 16547 16548 16549 16550 16551 16552 16553 16554 16555 16556 16557 16558 16559 16560 16561 16562 16563 16564 16565 16566 16567 16568 16569 16570 16571 16572 16573 16574 16575 16576 16577 16578 16579 16580 16581 16582 16583 16584 16585 16586 16587 16588 16589 16590 16591 16592 16593 16594 16595 16596 16597 16598 16599 16600 16601 16602 16603 16604 16605 16606 16607 16608 16609 16610 16611 16612 16613 16614 16615 16616 16617 16618 16619 16620 16621 16622 16623 16624 16625 16626 16627 16628 16629 16630 16631 16632 16633 16634 16635 16636 16637 16638 16639 16640 16641 16642 16643 16644 16645 16646 16647 16648 16649 16650 16651 16652 16653 16654 16655 16656 16657 16658 16659 16660 16661 16662 16663 16664 16665 16666 16667 16668 16669 16670 16671 16672 16673 16674 16675 16676 16677 16678 16679 16680 16681 16682 16683 16684 16685 16686 16687 16688 16689 16690 16691 16692 16693 16694 16695 16696 16697 16698 16699 16700 16701 16702 16703 16704 16705 16706 16707 16708 16709 16710 16711 16712 16713 16714 16715 16716 16717 16718 16719 16720 16721 16722 16723 16724 16725 16726 16727 16728 16729 16730 16731 16732 16733 16734 16735 16736 16737 16738 16739 16740 16741 16742 16743 16744 16745 16746 16747 16748 16749 16750 16751 16752 16753 16754 16755 16756 16757 16758 16759 16760 16761 16762 16763 16764 16765 16766 16767 16768 16769 16770 16771 16772 16773 16774 16775 16776 16777 16778 16779 16780 16781 16782 16783 16784 16785 16786 16787 16788 16789 16790 16791 16792 16793 16794 16795 16796 16797 16798 16799 16800 16801 16802 16803 16804 16805 16806 16807 16808 16809 16810 16811 16812 16813 16814 16815 16816 16817 16818 16819 16820 16821 16822 16823 16824 16825 16826 16827 16828 16829 16830 16831 16832 16833 16834 16835 16836 16837 16838 16839 16840 16841 16842 16843 16844 16845 16846 16847 16848 16849 16850 16851 16852 16853 16854 16855 16856 16857 16858 16859 16860 16861 16862 16863 16864 16865 16866 16867 16868 16869 16870 16871 16872 16873 16874 16875 16876 16877 16878 16879 16880 16881 16882 16883 16884 16885 16886 16887 16888 16889 16890 16891 16892 16893 16894 16895 16896 16897 16898 16899 16900 16901 16902 16903 16904 16905 16906 16907 16908 16909 16910 16911 16912 16913 16914 16915 16916 16917 16918 16919 16920 16921 16922 16923 16924 16925 16926 16927 16928 16929 16930 16931 16932 16933 16934 16935 16936 16937 16938 16939 16940 16941 16942 16943 16944 16945 16946 16947 16948 16949 16950 16951 16952 16953 16954 16955 16956 16957 16958 16959 16960 16961 16962 16963 16964 16965 16966 16967 16968 16969 16970 16971 16972 16973 16974 16975 16976 16977 16978 16979 16980 16981 16982 16983 16984 16985 16986 16987 16988 16989 16990 16991 16992 16993 16994 16995 16996 16997 16998 16999 17000 17001 17002 17003 17004 17005 17006 17007 17008 17009 17010 17011 17012 17013 17014 17015 17016 17017 17018 17019 17020 17021 17022 17023 17024 17025 17026 17027 17028 17029 17030 17031 17032 17033 17034 17035 17036 17037 17038 17039 17040 17041 17042 17043 17044 17045 17046 17047 17048 17049 17050 17051 17052 17053 17054 17055 17056 17057 17058 17059 17060 17061 17062 17063 17064 17065 17066 17067 17068 17069 17070 17071 17072 17073 17074 17075 17076 17077 17078 17079 17080 17081 17082 17083 17084 17085 17086 17087 17088 17089 17090 17091 17092 17093 17094 17095 17096 17097 17098 17099 17100 17101 17102 17103 17104 17105 17106 17107 17108 17109 17110 17111 17112 17113 17114 17115 17116 17117 17118 17119 17120 17121 17122 17123 17124 17125 17126 17127 17128 17129 17130 17131 17132 17133 17134 17135 17136 17137 17138 17139 17140 17141 17142 17143 17144 17145 17146 17147 17148 17149 17150 17151 17152 17153 17154 17155 17156 17157 17158 17159 17160 17161 17162 17163 17164 17165 17166 17167 17168 17169 17170 17171 17172 17173 17174 17175 17176 17177 17178 17179 17180 17181 17182 17183 17184 17185 17186 17187 17188 17189 17190 17191 17192 17193 17194 17195 17196 17197 17198 17199 17200 17201 17202 17203 17204 17205 17206 17207 17208 17209 17210 17211 17212 17213 17214 17215 17216 17217 17218 17219 17220 17221 17222 17223 17224 17225 17226 17227 17228 17229 17230 17231 17232 17233 17234 17235 17236 17237 17238 17239 17240 17241 17242 17243 17244 17245 17246 17247 17248 17249 17250 17251 17252 17253 17254 17255 17256 17257 17258 17259 17260 17261 17262 17263 17264 17265 17266 17267 17268 17269 17270 17271 17272 17273 17274 17275 17276 17277 17278 17279 17280 17281 17282 17283 17284 17285 17286 17287 17288 17289 17290 17291 17292 17293 17294 17295 17296 17297 17298 17299 17300 17301 17302 17303 17304 17305 17306 17307 17308 17309 17310 17311 17312 17313 17314 17315 17316 17317 17318 17319 17320 17321 17322 17323 17324 17325 17326 17327 17328 17329 17330 17331 17332 17333 17334 17335 17336 17337 17338 17339 17340 17341 17342 17343 17344 17345 17346 17347 17348 17349 17350 17351 17352 17353 17354 17355 17356 17357 17358 17359 17360 17361 17362 17363 17364 17365 17366 17367 17368 17369 17370 17371 17372 17373 17374 17375 17376 17377 17378 17379 17380 17381 17382 17383 17384 17385 17386 17387 17388 17389 17390 17391 17392 17393 17394 17395 17396 17397 17398 17399 17400 17401 17402 17403 17404 17405 17406 17407 17408 17409 17410 17411 17412 17413 17414 17415 17416 17417 17418 17419 17420 17421 17422 17423 17424 17425 17426 17427 17428 17429 17430 17431 17432 17433 17434 17435 17436 17437 17438 17439 17440 17441 17442 17443 17444 17445 17446 17447 17448 17449 17450 17451 17452 17453 17454 17455 17456 17457 17458 17459 17460 17461 17462 17463 17464 17465 17466 17467 17468 17469 17470 17471 17472 17473 17474 17475 17476 17477 17478 17479 17480 17481 17482 17483 17484 17485 17486 17487 17488 17489 17490 17491 17492 17493 17494 17495 17496 17497 17498 17499 17500 17501 17502 17503 17504 17505 17506 17507 17508 17509 17510 17511 17512 17513 17514 17515 17516 17517 17518 17519 17520 17521 17522 17523 17524 17525 17526 17527 17528 17529 17530 17531 17532 17533 17534 17535 17536 17537 17538 17539 17540 17541 17542 17543 17544 17545 17546 17547 17548 17549 17550 17551 17552 17553 17554 17555 17556 17557 17558 17559 17560 17561 17562 17563 17564 17565 17566 17567 17568 17569 17570 17571 17572 17573 17574 17575 17576 17577 17578 17579 17580 17581 17582 17583 17584 17585 17586 17587 17588 17589 17590 17591 17592 17593 17594 17595 17596 17597 17598 17599 17600 17601 17602 17603 17604 17605 17606 17607 17608 17609 17610 17611 17612 17613 17614 17615 17616 17617 17618 17619 17620 17621 17622 17623 17624 17625 17626 17627 17628 17629 17630 17631 17632 17633 17634 17635 17636 17637 17638 17639 17640 17641 17642 17643 17644 17645 17646 17647 17648 17649 17650 17651 17652 17653 17654 17655 17656 17657 17658 17659 17660 17661 17662 17663 17664 17665 17666 17667 17668 17669 17670 17671 17672 17673 17674 17675 17676 17677 17678 17679 17680 17681 17682 17683 17684 17685 17686 17687 17688 17689 17690 17691 17692 17693 17694 17695 17696 17697 17698 17699 17700 17701 17702 17703 17704 17705 17706 17707 17708 17709 17710 17711 17712 17713 17714 17715 17716 17717 17718 17719 17720 17721 17722 17723 17724 17725 17726 17727 17728 17729 17730 17731 17732 17733 17734 17735 17736 17737 17738 17739 17740 17741 17742 17743 17744 17745 17746 17747 17748 17749 17750 17751 17752 17753 17754 17755 17756 17757 17758 17759 17760 17761 17762 17763 17764 17765 17766 17767 17768 17769 17770 17771 17772 17773 17774 17775 17776 17777 17778 17779 17780 17781 17782 17783 17784 17785 17786 17787 17788 17789 17790 17791 17792 17793 17794 17795 17796 17797 17798 17799 17800 17801 17802 17803 17804 17805 17806 17807 17808 17809 17810 17811 17812 17813 17814 17815 17816 17817 17818 17819 17820 17821 17822 17823 17824 17825 17826 17827 17828 17829 17830 17831 17832 17833 17834 17835 17836 17837 17838 17839 17840 17841 17842 17843 17844 17845 17846 17847 17848 17849 17850 17851 17852 17853 17854 17855 17856 17857 17858 17859 17860 17861 17862 17863 17864 17865 17866 17867 17868 17869 17870 17871 17872 17873 17874 17875 17876 17877 17878 17879 17880 17881 17882 17883 17884 17885 17886 17887 17888 17889 17890 17891 17892 17893 17894 17895 17896 17897 17898 17899 17900 17901 17902 17903 17904 17905 17906 17907 17908 17909 17910 17911 17912 17913 17914 17915 17916 17917 17918 17919 17920 17921 17922 17923 17924 17925 17926 17927 17928 17929 17930 17931 17932 17933 17934 17935 17936 17937 17938 17939 17940 17941 17942 17943 17944 17945 17946 17947 17948 17949 17950 17951 17952 17953 17954 17955 17956 17957 17958 17959 17960 17961 17962 17963 17964 17965 17966 17967 17968 17969 17970 17971 17972 17973 17974 17975 17976 17977 17978 17979 17980 17981 17982 17983 17984 17985 17986 17987 17988 17989 17990 17991 17992 17993 17994 17995 17996 17997 17998 17999 18000 18001 18002 18003 18004 18005 18006 18007 18008 18009 18010 18011 18012 18013 18014 18015 18016 18017 18018 18019 18020 18021 18022 18023 18024 18025 18026 18027 18028 18029 18030 18031 18032 18033 18034 18035 18036 18037 18038 18039 18040 18041 18042 18043 18044 18045 18046 18047 18048 18049 18050 18051 18052 18053 18054 18055 18056 18057 18058 18059 18060 18061 18062 18063 18064 18065 18066 18067 18068 18069 18070 18071 18072 18073 18074 18075 18076 18077 18078 18079 18080 18081 18082 18083 18084 18085 18086 18087 18088 18089 18090 18091 18092 18093 18094 18095 18096 18097 18098 18099 18100 18101 18102 18103 18104 18105 18106 18107 18108 18109 18110 18111 18112 18113 18114 18115 18116 18117 18118 18119 18120 18121 18122 18123 18124 18125 18126 18127 18128 18129 18130 18131 18132 18133 18134 18135 18136 18137 18138 18139 18140 18141 18142 18143 18144 18145 18146 18147 18148 18149 18150 18151 18152 18153 18154 18155 18156 18157 18158 18159 18160 18161 18162 18163 18164 18165 18166 18167 18168 18169 18170 18171 18172 18173 18174 18175 18176 18177 18178 18179 18180 18181 18182 18183 18184 18185 18186 18187 18188 18189 18190 18191 18192 18193 18194 18195 18196 18197 18198 18199 18200 18201 18202 18203 18204 18205 18206 18207 18208 18209 18210 18211 18212 18213 18214 18215 18216 18217 18218 18219 18220 18221 18222 18223 18224 18225 18226 18227 18228 18229 18230 18231 18232 18233 18234 18235 18236 18237 18238 18239 18240 18241 18242 18243 18244 18245 18246 18247 18248 18249 18250 18251 18252 18253 18254 18255 18256 18257 18258 18259 18260 18261 18262 18263 18264 18265 18266 18267 18268 18269 18270 18271 18272 18273 18274 18275 18276 18277 18278 18279 18280 18281 18282 18283 18284 18285 18286 18287 18288 18289 18290 18291 18292 18293 18294 18295 18296 18297 18298 18299 18300 18301 18302 18303 18304 18305 18306 18307 18308 18309 18310 18311 18312 18313 18314 18315 18316 18317 18318 18319 18320 18321 18322 18323 18324 18325 18326 18327 18328 18329 18330 18331 18332 18333 18334 18335 18336 18337 18338 18339 18340 18341 18342 18343 18344 18345 18346 18347 18348 18349 18350 18351 18352 18353 18354 18355 18356 18357 18358 18359 18360 18361 18362 18363 18364 18365 18366 18367 18368 18369 18370 18371 18372 18373 18374 18375 18376 18377 18378 18379 18380 18381 18382 18383 18384 18385 18386 18387 18388 18389 18390 18391 18392 18393 18394 18395 18396 18397 18398 18399 18400 18401 18402 18403 18404 18405 18406 18407 18408 18409 18410 18411 18412 18413 18414 18415 18416 18417 18418 18419 18420 18421 18422 18423 18424 18425 18426 18427 18428 18429 18430 18431 18432 18433 18434 18435 18436 18437 18438 18439 18440 18441 18442 18443 18444 18445 18446 18447 18448 18449 18450 18451 18452 18453 18454 18455 18456 18457 18458 18459 18460 18461 18462 18463 18464 18465 18466 18467 18468 18469 18470 18471 18472 18473 18474 18475 18476 18477 18478 18479 18480 18481 18482 18483 18484 18485 18486 18487 18488 18489 18490 18491 18492 18493 18494 18495 18496 18497 18498 18499 18500 18501 18502 18503 18504 18505 18506 18507 18508 18509 18510 18511 18512 18513 18514 18515 18516 18517 18518 18519 18520 18521 18522 18523 18524 18525 18526 18527 18528 18529 18530 18531 18532 18533 18534 18535 18536 18537 18538 18539 18540 18541 18542 18543 18544 18545 18546 18547 18548 18549 18550 18551 18552 18553 18554 18555 18556 18557 18558 18559 18560 18561 18562 18563 18564 18565 18566 18567 18568 18569 18570 18571 18572 18573 18574 18575 18576 18577 18578 18579 18580 18581 18582 18583 18584 18585 18586 18587 18588 18589 18590 18591 18592 18593 18594 18595 18596 18597 18598 18599 18600 18601 18602 18603 18604 18605 18606 18607 18608 18609 18610 18611 18612 18613 18614 18615 18616 18617 18618 18619 18620 18621 18622 18623 18624 18625 18626 18627 18628 18629 18630 18631 18632 18633 18634 18635 18636 18637 18638 18639 18640 18641 18642 18643 18644 18645 18646 18647 18648 18649 18650 18651 18652 18653 18654 18655 18656 18657 18658 18659 18660 18661 18662 18663 18664 18665 18666 18667 18668 18669 18670 18671 18672 18673 18674 18675 18676 18677 18678 18679 18680 18681 18682 18683 18684 18685 18686 18687 18688 18689 18690 18691 18692 18693 18694 18695 18696 18697 18698 18699 18700 18701 18702 18703 18704 18705 18706 18707 18708 18709 18710 18711 18712 18713 18714 18715 18716 18717 18718 18719 18720 18721 18722 18723 18724 18725 18726 18727 18728 18729 18730 18731 18732 18733 18734 18735 18736 18737 18738 18739 18740 18741 18742 18743 18744 18745 18746 18747 18748 18749 18750 18751 18752 18753 18754 18755 18756 18757 18758 18759 18760 18761 18762 18763 18764 18765 18766 18767 18768 18769 18770 18771 18772 18773 18774 18775 18776 18777 18778 18779 18780 18781 18782 18783 18784 18785 18786 18787 18788 18789 18790 18791 18792 18793 18794 18795 18796 18797 18798 18799 18800 18801 18802 18803 18804 18805 18806 18807 18808 18809 18810 18811 18812 18813 18814 18815 18816 18817 18818 18819 18820 18821 18822 18823 18824 18825 18826 18827 18828 18829 18830 18831 18832 18833 18834 18835 18836 18837 18838 18839 18840 18841 18842 18843 18844 18845 18846 18847 18848 18849 18850 18851 18852 18853 18854 18855 18856 18857 18858 18859 18860 18861 18862 18863 18864 18865 18866 18867 18868 18869 18870 18871 18872 18873 18874 18875 18876 18877 18878 18879 18880 18881 18882 18883 18884 18885 18886 18887 18888 18889 18890 18891 18892 18893 18894 18895 18896 18897 18898 18899 18900 18901 18902 18903 18904 18905 18906 18907 18908 18909 18910 18911 18912 18913 18914 18915 18916 18917 18918 18919 18920 18921 18922 18923 18924 18925 18926 18927 18928 18929 18930 18931 18932 18933 18934 18935 18936 18937 18938 18939 18940 18941 18942 18943 18944 18945 18946 18947 18948 18949 18950 18951 18952 18953 18954 18955 18956 18957 18958 18959 18960 18961 18962 18963 18964 18965 18966 18967 18968 18969 18970 18971 18972 18973 18974 18975 18976 18977 18978 18979 18980 18981 18982 18983 18984 18985 18986 18987 18988 18989 18990 18991 18992 18993 18994 18995 18996 18997 18998 18999 19000 19001 19002 19003 19004 19005 19006 19007 19008 19009 19010 19011 19012 19013 19014 19015 19016 19017 19018 19019 19020 19021 19022 19023 19024 19025 19026 19027 19028 19029 19030 19031 19032 19033 19034 19035 19036 19037 19038 19039 19040 19041 19042 19043 19044 19045 19046 19047 19048 19049 19050 19051 19052 19053 19054 19055 19056 19057 19058 19059 19060 19061 19062 19063 19064 19065 19066 19067 19068 19069 19070 19071 19072 19073 19074 19075 19076 19077 19078 19079 19080 19081 19082 19083 19084 19085 19086 19087 19088 19089 19090 19091 19092 19093 19094 19095 19096 19097 19098 19099 19100 19101 19102 19103 19104 19105 19106 19107 19108 19109 19110 19111 19112 19113 19114 19115 19116 19117 19118 19119 19120 19121 19122 19123 19124 19125 19126 19127 19128 19129 19130 19131 19132 19133 19134 19135 19136 19137 19138 19139 19140 19141 19142 19143 19144 19145 19146 19147 19148 19149 19150 19151 19152 19153 19154 19155 19156 19157 19158 19159 19160 19161 19162 19163 19164 19165 19166 19167 19168 19169 19170 19171 19172 19173 19174 19175 19176 19177 19178 19179 19180 19181 19182 19183 19184 19185 19186 19187 19188 19189 19190 19191 19192 19193 19194 19195 19196 19197 19198 19199 19200 19201 19202 19203 19204 19205 19206 19207 19208 19209 19210 19211 19212 19213 19214 19215 19216 19217 19218 19219 19220 19221 19222 19223 19224 19225 19226 19227 19228 19229 19230 19231 19232 19233 19234 19235 19236 19237 19238 19239 19240 19241 19242 19243 19244 19245 19246 19247 19248 19249 19250 19251 19252 19253 19254 19255 19256 19257 19258 19259 19260 19261 19262 19263 19264 19265 19266 19267 19268 19269 19270 19271 19272 19273 19274 19275 19276 19277 19278 19279 19280 19281 19282 19283 19284 19285 19286 19287 19288 19289 19290 19291 19292 19293 19294 19295 19296 19297 19298 19299 19300 19301 19302 19303 19304 19305 19306 19307 19308 19309 19310 19311 19312 19313 19314 19315 19316 19317 19318 19319 19320 19321 19322 19323 19324 19325 19326 19327 19328 19329 19330 19331 19332 19333 19334 19335 19336 19337 19338 19339 19340 19341 19342 19343 19344 19345 19346 19347 19348 19349 19350 19351 19352 19353 19354 19355 19356 19357 19358 19359 19360 19361 19362 19363 19364 19365 19366 19367 19368 19369 19370 19371 19372 19373 19374 19375 19376 19377 19378 19379 19380 19381 19382 19383 19384 19385 19386 19387 19388 19389 19390 19391 19392 19393 19394 19395 19396 19397 19398 19399 19400 19401 19402 19403 19404 19405 19406 19407 19408 19409 19410 19411 19412 19413 19414 19415 19416 19417 19418 19419 19420 19421 19422 19423 19424 19425 19426 19427 19428 19429 19430 19431 19432 19433 19434 19435 19436 19437 19438 19439 19440 19441 19442 19443 19444 19445 19446 19447 19448 19449 19450 19451 19452 19453 19454 19455 19456 19457 19458 19459 19460 19461 19462 19463 19464 19465 19466 19467 19468 19469 19470 19471 19472 19473 19474 19475 19476 19477 19478 19479 19480 19481 19482 19483 19484 19485 19486 19487 19488 19489 19490 19491 19492 19493 19494 19495 19496 19497 19498 19499 19500 19501 19502 19503 19504 19505 19506 19507 19508 19509 19510 19511 19512 19513 19514 19515 19516 19517 19518 19519 19520 19521 19522 19523 19524 19525 19526 19527 19528 19529 19530 19531 19532 19533 19534 19535 19536 19537 19538 19539 19540 19541 19542 19543 19544 19545 19546 19547 19548 19549 19550 19551 19552 19553 19554 19555 19556 19557 19558 19559 19560 19561 19562 19563 19564 19565 19566 19567 19568 19569 19570 19571 19572 19573 19574 19575 19576 19577 19578 19579 19580 19581 19582 19583 19584 19585 19586 19587 19588 19589 19590 19591 19592 19593 19594 19595 19596 19597 19598 19599 19600 19601 19602 19603 19604 19605 19606 19607 19608 19609 19610 19611 19612 19613 19614 19615 19616 19617 19618 19619 19620 19621 19622 19623 19624 19625 19626 19627 19628 19629 19630 19631 19632 19633 19634 19635 19636 19637 19638 19639 19640 19641 19642 19643 19644 19645 19646 19647 19648 19649 19650 19651 19652 19653 19654 19655 19656 19657 19658 19659 19660 19661 19662 19663 19664 19665 19666 19667 19668 19669 19670 19671 19672 19673 19674 19675 19676 19677 19678 19679 19680 19681 19682 19683 19684 19685 19686 19687 19688 19689 19690 19691 19692 19693 19694 19695 19696 19697 19698 19699 19700 19701 19702 19703 19704 19705 19706 19707 19708 19709 19710 19711 19712 19713 19714 19715 19716 19717 19718 19719 19720 19721 19722 19723 19724 19725 19726 19727 19728 19729 19730 19731 19732 19733 19734 19735 19736 19737 19738 19739 19740 19741 19742 19743 19744 19745 19746 19747 19748 19749 19750 19751 19752 19753 19754 19755 19756 19757 19758 19759 19760 19761 19762 19763 19764 19765 19766 19767 19768 19769 19770 19771 19772 19773 19774 19775 19776 19777 19778 19779 19780 19781 19782 19783 19784 19785 19786 19787 19788 19789 19790 19791 19792 19793 19794 19795 19796 19797 19798 19799 19800 19801 19802 19803 19804 19805 19806 19807 19808 19809 19810 19811 19812 19813 19814 19815 19816 19817 19818 19819 19820 19821 19822 19823 19824 19825 19826 19827 19828 19829 19830 19831 19832 19833 19834 19835 19836 19837 19838 19839 19840 19841 19842 19843 19844 19845 19846 19847 19848 19849 19850 19851 19852 19853 19854 19855 19856 19857 19858 19859 19860 19861 19862 19863 19864 19865 19866 19867 19868 19869 19870 19871 19872 19873 19874 19875 19876 19877 19878 19879 19880 19881 19882 19883 19884 19885 19886 19887 19888 19889 19890 19891 19892 19893 19894 19895 19896 19897 19898 19899 19900 19901 19902 19903 19904 19905 19906 19907 19908 19909 19910 19911 19912 19913 19914 19915 19916 19917 19918 19919 19920 19921 19922 19923 19924 19925 19926 19927 19928 19929 19930 19931 19932 19933 19934 19935 19936 19937 19938 19939 19940 19941 19942 19943 19944 19945 19946 19947 19948 19949 19950 19951 19952 19953 19954 19955 19956 19957 19958 19959 19960 19961 19962 19963 19964 19965 19966 19967 19968 19969 19970 19971 19972 19973 19974 19975 19976 19977 19978 19979 19980 19981 19982 19983 19984 19985 19986 19987 19988 19989 19990 19991 19992 19993 19994 19995 19996 19997 19998 19999 20000 20001 20002 20003 20004 20005 20006 20007 20008 20009 20010 20011 20012 20013 20014 20015 20016 20017 20018 20019 20020 20021 20022 20023 20024 20025 20026 20027 20028 20029 20030 20031 20032 20033 20034 20035 20036 20037 20038 20039 20040 20041 20042 20043 20044 20045 20046 20047 20048 20049 20050 20051 20052 20053 20054 20055 20056 20057 20058 20059 20060 20061 20062 20063 20064 20065 20066 20067 20068 20069 20070 20071 20072 20073 20074 20075 20076 20077 20078 20079 20080 20081 20082 20083 20084 20085 20086 20087 20088 20089 20090 20091 20092 20093 20094 20095 20096 20097 20098 20099 20100 20101 20102 20103 20104 20105 20106 20107 20108 20109 20110 20111 20112 20113 20114 20115 20116 20117 20118 20119 20120 20121 20122 20123 20124 20125 20126 20127 20128 20129 20130 20131 20132 20133 20134 20135 20136 20137 20138 20139 20140 20141 20142 20143 20144 20145 20146 20147 20148 20149 20150 20151 20152 20153 20154 20155 20156 20157 20158 20159 20160 20161 20162 20163 20164 20165 20166 20167 20168 20169 20170 20171 20172 20173 20174 20175 20176 20177 20178 20179 20180 20181 20182 20183 20184 20185 20186 20187 20188 20189 20190 20191 20192 20193 20194 20195 20196 20197 20198 20199 20200 20201 20202 20203 20204 20205 20206 20207 20208 20209 20210 20211 20212 20213 20214 20215 20216 20217 20218 20219 20220 20221 20222 20223 20224 20225 20226 20227 20228 20229 20230 20231 20232 20233 20234 20235 20236 20237 20238 20239 20240 20241 20242 20243 20244 20245 20246 20247 20248 20249 20250 20251 20252 20253 20254 20255 20256 20257 20258 20259 20260 20261 20262 20263 20264 20265 20266 20267 20268 20269 20270 20271 20272 20273 20274 20275 20276 20277 20278 20279 20280 20281 20282 20283 20284 20285 20286 20287 20288 20289 20290 20291 20292 20293 20294 20295 20296 20297 20298 20299 20300 20301 20302 20303 20304 20305 20306 20307 20308 20309 20310 20311 20312 20313 20314 20315 20316 20317 20318 20319 20320 20321 20322 20323 20324 20325 20326 20327 20328 20329 20330 20331 20332 20333 20334 20335 20336 20337 20338 20339 20340 20341 20342 20343 20344 20345 20346 20347 20348 20349 20350 20351 20352 20353 20354 20355 20356 20357 20358 20359 20360 20361 20362 20363 20364 20365 20366 20367 20368 20369 20370 20371 20372 20373 20374 20375 20376 20377 20378 20379 20380 20381 20382 20383 20384 20385 20386 20387 20388 20389 20390 20391 20392 20393 20394 20395 20396 20397 20398 20399 20400 20401 20402 20403 20404 20405 20406 20407 20408 20409 20410 20411 20412 20413 20414 20415 20416 20417 20418 20419 20420 20421 20422 20423 20424 20425 20426 20427 20428 20429 20430 20431 20432 20433 20434 20435 20436 20437 20438 20439 20440 20441 20442 20443 20444 20445 20446 20447 20448 20449 20450 20451 20452 20453 20454 20455 20456 20457 20458 20459 20460 20461 20462 20463 20464 20465 20466 20467 20468 20469 20470 20471 20472 20473 20474 20475 20476 20477 20478 20479 20480 20481 20482 20483 20484 20485 20486 20487 20488 20489 20490 20491 20492 20493 20494 20495 20496 20497 20498 20499 20500 20501 20502 20503 20504 20505 20506 20507 20508 20509 20510 20511 20512 20513 20514 20515 20516 20517 20518 20519 20520 20521 20522 20523 20524 20525 20526 20527 20528 20529 20530 20531 20532 20533 20534 20535 20536 20537 20538 20539 20540 20541 20542 20543 20544 20545 20546 20547 20548 20549 20550 20551 20552 20553 20554 20555 20556 20557 20558 20559 20560 20561 20562 20563 20564 20565 20566 20567 20568 20569 20570 20571 20572 20573 20574 20575 20576 20577 20578 20579 20580 20581 20582 20583 20584 20585 20586 20587 20588 20589 20590 20591 20592 20593 20594 20595 20596 20597 20598 20599 20600 20601 20602 20603 20604 20605 20606 20607 20608 20609 20610 20611 20612 20613 20614 20615 20616 20617 20618 20619 20620 20621 20622 20623 20624 20625 20626 20627 20628 20629 20630 20631 20632 20633 20634 20635 20636 20637 20638 20639 20640 20641 20642 20643 20644 20645 20646 20647 20648 20649 20650 20651 20652 20653 20654 20655 20656 20657 20658 20659 20660 20661 20662 20663 20664 20665 20666 20667 20668 20669 20670 20671 20672 20673 20674 20675 20676 20677 20678 20679 20680 20681 20682 20683 20684 20685 20686 20687 20688 20689 20690 20691 20692 20693 20694 20695 20696 20697 20698 20699 20700 20701 20702 20703 20704 20705 20706 20707 20708 20709 20710 20711 20712 20713 20714 20715 20716 20717 20718 20719 20720 20721 20722 20723 20724 20725 20726 20727 20728 20729 20730 20731 20732 20733 20734 20735 20736 20737 20738 20739 20740 20741 20742 20743 20744 20745 20746 20747 20748 20749 20750 20751 20752 20753 20754 20755 20756 20757 20758 20759 20760 20761 20762 20763 20764 20765 20766 20767 20768 20769 20770 20771 20772 20773 20774 20775 20776 20777 20778 20779 20780 20781 20782 20783 20784 20785 20786 20787 20788 20789 20790 20791 20792 20793 20794 20795 20796 20797 20798 20799 20800 20801 20802 20803 20804 20805 20806 20807 20808 20809 20810 20811 20812 20813 20814 20815 20816 20817 20818 20819 20820 20821 20822 20823 20824 20825 20826 20827 20828 20829 20830 20831 20832 20833 20834 20835 20836 20837 20838 20839 20840 20841 20842 20843 20844 20845 20846 20847 20848 20849 20850 20851 20852 20853 20854 20855 20856 20857 20858 20859 20860 20861 20862 20863 20864 20865 20866 20867 20868 20869 20870 20871 20872 20873 20874 20875 20876 20877 20878 20879 20880 20881 20882 20883 20884 20885 20886 20887 20888 20889 20890 20891 20892 20893 20894 20895 20896 20897 20898 20899 20900 20901 20902 20903 20904 20905 20906 20907 20908 20909 20910 20911 20912 20913 20914 20915 20916 20917 20918 20919 20920 20921 20922 20923 20924 20925 20926 20927 20928 20929 20930 20931 20932 20933 20934 20935 20936 20937 20938 20939 20940 20941 20942 20943 20944 20945 20946 20947 20948 20949 20950 20951 20952 20953 20954 20955 20956 20957 20958 20959 20960 20961 20962 20963 20964 20965 20966 20967 20968 20969 20970 20971 20972 20973 20974 20975 20976 20977 20978 20979 20980 20981 20982 20983 20984 20985 20986 20987 20988 20989 20990 20991 20992 20993 20994 20995 20996 20997 20998 20999 21000 21001 21002 21003 21004 21005 21006 21007 21008 21009 21010 21011 21012 21013 21014 21015 21016 21017 21018 21019 21020 21021 21022 21023 21024 21025 21026 21027 21028 21029 21030 21031 21032 21033 21034 21035 21036 21037 21038 21039 21040 21041 21042 21043 21044 21045 21046 21047 21048 21049 21050 21051 21052 21053 21054 21055 21056 21057 21058 21059 21060 21061 21062 21063 21064 21065 21066 21067 21068 21069 21070 21071 21072 21073 21074 21075 21076 21077 21078 21079 21080 21081 21082 21083 21084 21085 21086 21087 21088 21089 21090 21091 21092 21093 21094 21095 21096 21097 21098 21099 21100 21101 21102 21103 21104 21105 21106 21107 21108 21109 21110 21111 21112 21113 21114 21115 21116 21117 21118 21119 21120 21121 21122 21123 21124 21125 21126 21127 21128 21129 21130 21131 21132 21133 21134 21135 21136 21137 21138 21139 21140 21141 21142 21143 21144 21145 21146 21147 21148 21149 21150 21151 21152 21153 21154 21155 21156 21157 21158 21159 21160 21161 21162 21163 21164 21165 21166 21167 21168 21169 21170 21171 21172 21173 21174 21175 21176 21177 21178 21179 21180 21181 21182 21183 21184 21185 21186 21187 21188 21189 21190 21191 21192 21193 21194 21195 21196 21197 21198 21199 21200 21201 21202 21203 21204 21205 21206 21207 21208 21209 21210 21211 21212 21213 21214 21215 21216 21217 21218 21219 21220 21221 21222 21223 21224 21225 21226 21227 21228 21229 21230 21231 21232 21233 21234 21235 21236 21237 21238 21239 21240 21241 21242 21243 21244 21245 21246 21247 21248 21249 21250 21251 21252 21253 21254 21255 21256 21257 21258 21259 21260 21261 21262 21263 21264 21265 21266 21267 21268 21269 21270 21271 21272 21273 21274 21275 21276 21277 21278 21279 21280 21281 21282 21283 21284 21285 21286 21287 21288 21289 21290 21291 21292 21293 21294 21295 21296 21297 21298 21299 21300 21301 21302 21303 21304 21305 21306 21307 21308 21309 21310 21311 21312 21313 21314 21315 21316 21317 21318 21319 21320 21321 21322 21323 21324 21325 21326 21327 21328 21329 21330 21331 21332 21333 21334 21335 21336 21337 21338 21339 21340 21341 21342 21343 21344 21345 21346 21347 21348 21349 21350 21351 21352 21353 21354 21355 21356 21357 21358 21359 21360 21361 21362 21363 21364 21365 21366 21367 21368 21369 21370 21371 21372 21373 21374 21375 21376 21377 21378 21379 21380 21381 21382 21383 21384 21385 21386 21387 21388 21389 21390 21391 21392 21393 21394 21395 21396 21397 21398 21399 21400 21401 21402 21403 21404 21405 21406 21407 21408 21409 21410 21411 21412 21413 21414 21415 21416 21417 21418 21419 21420 21421 21422 21423 21424 21425 21426 21427 21428 21429 21430 21431 21432 21433 21434 21435 21436 21437 21438 21439 21440 21441 21442 21443 21444 21445 21446 21447 21448 21449 21450 21451 21452 21453 21454 21455 21456 21457 21458 21459 21460 21461 21462 21463 21464 21465 21466 21467 21468 21469 21470 21471 21472 21473 21474 21475 21476 21477 21478 21479 21480 21481 21482 21483 21484 21485 21486 21487 21488 21489 21490 21491 21492 21493 21494 21495 21496 21497 21498 21499 21500 21501 21502 21503 21504 21505 21506 21507 21508 21509 21510 21511 21512 21513 21514 21515 21516 21517 21518 21519 21520 21521 21522 21523 21524 21525 21526 21527 21528 21529 21530 21531 21532 21533 21534 21535 21536 21537 21538 21539 21540 21541 21542 21543 21544 21545 21546 21547 21548 21549 21550 21551 21552 21553 21554 21555 21556 21557 21558 21559 21560 21561 21562 21563 21564 21565 21566 21567 21568 21569 21570 21571 21572 21573 21574 21575 21576 21577 21578 21579 21580 21581 21582 21583 21584 21585 21586 21587 21588 21589 21590 21591 21592 21593 21594 21595 21596 21597 21598 21599 21600 21601 21602 21603 21604 21605 21606 21607 21608 21609 21610 21611 21612 21613 21614 21615 21616 21617 21618 21619 21620 21621 21622 21623 21624 21625 21626 21627 21628 21629 21630 21631 21632 21633 21634 21635 21636 21637 21638 21639 21640 21641 21642 21643 21644 21645 21646 21647 21648 21649 21650 21651 21652 21653 21654 21655 21656 21657 21658 21659 21660 21661 21662 21663 21664 21665 21666 21667 21668 21669 21670 21671 21672 21673 21674 21675 21676 21677 21678 21679 21680 21681 21682 21683 21684 21685 21686 21687 21688 21689 21690 21691 21692 21693 21694 21695 21696 21697 21698 21699 21700 21701 21702 21703 21704 21705 21706 21707 21708 21709 21710 21711 21712 21713 21714 21715 21716 21717 21718 21719 21720 21721 21722 21723 21724 21725 21726 21727 21728 21729 21730 21731 21732 21733 21734 21735 21736 21737 21738 21739 21740 21741 21742 21743 21744 21745 21746 21747 21748 21749 21750 21751 21752 21753 21754 21755 21756 21757 21758 21759 21760 21761 21762 21763 21764 21765 21766 21767 21768 21769 21770 21771 21772 21773 21774 21775 21776 21777 21778 21779 21780 21781 21782 21783 21784 21785 21786 21787 21788 21789 21790 21791 21792 21793 21794 21795 21796 21797 21798 21799 21800 21801 21802 21803 21804 21805 21806 21807 21808 21809 21810 21811 21812 21813 21814 21815 21816 21817 21818 21819 21820 21821 21822 21823 21824 21825 21826 21827 21828 21829 21830 21831 21832 21833 21834 21835 21836 21837 21838 21839 21840 21841 21842 21843 21844 21845 21846 21847 21848 21849 21850 21851 21852 21853 21854 21855 21856 21857 21858 21859 21860 21861 21862 21863 21864 21865 21866 21867 21868 21869 21870 21871 21872 21873 21874 21875 21876 21877 21878 21879 21880 21881 21882 21883 21884 21885 21886 21887 21888 21889 21890 21891 21892 21893 21894 21895 21896 21897 21898 21899 21900 21901 21902 21903 21904 21905 21906 21907 21908 21909 21910 21911 21912 21913 21914 21915 21916 21917 21918 21919 21920 21921 21922 21923 21924 21925 21926 21927 21928 21929 21930 21931 21932 21933 21934 21935 21936 21937 21938 21939 21940 21941 21942 21943 21944 21945 21946 21947 21948 21949 21950 21951 21952 21953 21954 21955 21956 21957 21958 21959 21960 21961 21962 21963 21964 21965 21966 21967 21968 21969 21970 21971 21972 21973 21974 21975 21976 21977 21978 21979 21980 21981 21982 21983 21984 21985 21986 21987 21988 21989 21990 21991 21992 21993 21994 21995 21996 21997 21998 21999 22000 22001 22002 22003 22004 22005 22006 22007 22008 22009 22010 22011 22012 22013 22014 22015 22016 22017 22018 22019 22020 22021 22022 22023 22024 22025 22026 22027 22028 22029 22030 22031 22032 22033 22034 22035 22036 22037 22038 22039 22040 22041 22042 22043 22044 22045 22046 22047 22048 22049 22050 22051 22052 22053 22054 22055 22056 22057 22058 22059 22060 22061 22062 22063 22064 22065 22066 22067 22068 22069 22070 22071 22072 22073 22074 22075 22076 22077 22078 22079 22080 22081 22082 22083 22084 22085 22086 22087 22088 22089 22090 22091 22092 22093 22094 22095 22096 22097 22098 22099 22100 22101 22102 22103 22104 22105 22106 22107 22108 22109 22110 22111 22112 22113 22114 22115 22116 22117 22118 22119 22120 22121 22122 22123 22124 22125 22126 22127 22128 22129 22130 22131 22132 22133 22134 22135 22136 22137 22138 22139 22140 22141 22142 22143 22144 22145 22146 22147 22148 22149 22150 22151 22152 22153 22154 22155 22156 22157 22158 22159 22160 22161 22162 22163 22164 22165 22166 22167 22168 22169 22170 22171 22172 22173 22174 22175 22176 22177 22178 22179 22180 22181 22182 22183 22184 22185 22186 22187 22188 22189 22190 22191 22192 22193 22194 22195 22196 22197 22198 22199 22200 22201 22202 22203 22204 22205 22206 22207 22208 22209 22210 22211 22212 22213 22214 22215 22216 22217 22218 22219 22220 22221 22222 22223 22224 22225 22226 22227 22228 22229 22230 22231 22232 22233 22234 22235 22236 22237 22238 22239 22240 22241 22242 22243 22244 22245 22246 22247 22248 22249 22250 22251 22252 22253 22254 22255 22256 22257 22258 22259 22260 22261 22262 22263 22264 22265 22266 22267 22268 22269 22270 22271 22272 22273 22274 22275 22276 22277 22278 22279 22280 22281 22282 22283 22284 22285 22286 22287 22288 22289 22290 22291 22292 22293 22294 22295 22296 22297 22298 22299 22300 22301 22302 22303 22304 22305 22306 22307 22308 22309 22310 22311 22312 22313 22314 22315 22316 22317 22318 22319 22320 22321 22322 22323 22324 22325 22326 22327 22328 22329 22330 22331 22332 22333 22334 22335 22336 22337 22338 22339 22340 22341 22342 22343 22344 22345 22346 22347 22348 22349 22350 22351 22352 22353 22354 22355 22356 22357 22358 22359 22360 22361 22362 22363 22364 22365 22366 22367 22368 22369 22370 22371 22372 22373 22374 22375 22376 22377 22378 22379 22380 22381 22382 22383 22384 22385 22386 22387 22388 22389 22390 22391 22392 22393 22394 22395 22396 22397 22398 22399 22400 22401 22402 22403 22404 22405 22406 22407 22408 22409 22410 22411 22412 22413 22414 22415 22416 22417 22418 22419 22420 22421 22422 22423 22424 22425 22426 22427 22428 22429 22430 22431 22432 22433 22434 22435 22436 22437 22438 22439 22440 22441 22442 22443 22444 22445 22446 22447 22448 22449 22450 22451 22452 22453 22454 22455 22456 22457 22458 22459 22460 22461 22462 22463 22464 22465 22466 22467 22468 22469 22470 22471 22472 22473 22474 22475 22476 22477 22478 22479 22480 22481 22482 22483 22484 22485 22486 22487 22488 22489 22490 22491 22492 22493 22494 22495 22496 22497 22498 22499 22500 22501 22502 22503 22504 22505 22506 22507 22508 22509 22510 22511 22512 22513 22514 22515 22516 22517 22518 22519 22520 22521 22522 22523 22524 22525 22526 22527 22528 22529 22530 22531 22532 22533 22534 22535 22536 22537 22538 22539 22540 22541 22542 22543 22544 22545 22546 22547 22548 22549 22550 22551 22552 22553 22554 22555 22556 22557 22558 22559 22560 22561 22562 22563 22564 22565 22566 22567 22568 22569 22570 22571 22572 22573 22574 22575 22576 22577 22578 22579 22580 22581 22582 22583 22584 22585 22586 22587 22588 22589 22590 22591 22592 22593 22594 22595 22596 22597 22598 22599 22600 22601 22602 22603 22604 22605 22606 22607 22608 22609 22610 22611 22612 22613 22614 22615 22616 22617 22618 22619 22620 22621 22622 22623 22624 22625 22626 22627 22628 22629 22630 22631 22632 22633 22634 22635 22636 22637 22638 22639 22640 22641 22642 22643 22644 22645 22646 22647 22648 22649 22650 22651 22652 22653 22654 22655 22656 22657 22658 22659 22660 22661 22662 22663 22664 22665 22666 22667 22668 22669 22670 22671 22672 22673 22674 22675 22676 22677 22678 22679 22680 22681 22682 22683 22684 22685 22686 22687 22688 22689 22690 22691 22692 22693 22694 22695 22696 22697 22698 22699 22700 22701 22702 22703 22704 22705 22706 22707 22708 22709 22710 22711 22712 22713 22714 22715 22716 22717 22718 22719 22720 22721 22722 22723 22724 22725 22726 22727 22728 22729 22730 22731 22732 22733 22734 22735 22736 22737 22738 22739 22740 22741 22742 22743 22744 22745 22746 22747 22748 22749 22750 22751 22752 22753 22754 22755 22756 22757 22758 22759 22760 22761 22762 22763 22764 22765 22766 22767 22768 22769 22770 22771 22772 22773 22774 22775 22776 22777 22778 22779 22780 22781 22782 22783 22784 22785 22786 22787 22788 22789 22790 22791 22792 22793 22794 22795 22796 22797 22798 22799 22800 22801 22802 22803 22804 22805 22806 22807 22808 22809 22810 22811 22812 22813 22814 22815 22816 22817 22818 22819 22820 22821 22822 22823 22824 22825 22826 22827 22828 22829 22830 22831 22832 22833 22834 22835 22836 22837 22838 22839 22840 22841 22842 22843 22844 22845 22846 22847 22848 22849 22850 22851 22852 22853 22854 22855 22856 22857 22858 22859 22860 22861 22862 22863 22864 22865 22866 22867 22868 22869 22870 22871 22872 22873 22874 22875 22876 22877 22878 22879 22880 22881 22882 22883 22884 22885 22886 22887 22888 22889 22890 22891 22892 22893 22894 22895 22896 22897 22898 22899 22900 22901 22902 22903 22904 22905 22906 22907 22908 22909 22910 22911 22912 22913 22914 22915 22916 22917 22918 22919 22920 22921 22922 22923 22924 22925 22926 22927 22928 22929 22930 22931 22932 22933 22934 22935 22936 22937 22938 22939 22940 22941 22942 22943 22944 22945 22946 22947 22948 22949 22950 22951 22952 22953 22954 22955 22956 22957 22958 22959 22960 22961 22962 22963 22964 22965 22966 22967 22968 22969 22970 22971 22972 22973 22974 22975 22976 22977 22978 22979 22980 22981 22982 22983 22984 22985 22986 22987 22988 22989 22990 22991 22992 22993 22994 22995 22996 22997 22998 22999 23000 23001 23002 23003 23004 23005 23006 23007 23008 23009 23010 23011 23012 23013 23014 23015 23016 23017 23018 23019 23020 23021 23022 23023 23024 23025 23026 23027 23028 23029 23030 23031 23032 23033 23034 23035 23036 23037 23038 23039 23040 23041 23042 23043 23044 23045 23046 23047 23048 23049 23050 23051 23052 23053 23054 23055 23056 23057 23058 23059 23060 23061 23062 23063 23064 23065 23066 23067 23068 23069 23070 23071 23072 23073 23074 23075 23076 23077 23078 23079 23080 23081 23082 23083 23084 23085 23086 23087 23088 23089 23090 23091 23092 23093 23094 23095 23096 23097 23098 23099 23100 23101 23102 23103 23104 23105 23106 23107 23108 23109 23110 23111 23112 23113 23114 23115 23116 23117 23118 23119 23120 23121 23122 23123 23124 23125 23126 23127 23128 23129 23130 23131 23132 23133 23134 23135 23136 23137 23138 23139 23140 23141 23142 23143 23144 23145 23146 23147 23148 23149 23150 23151 23152 23153 23154 23155 23156 23157 23158 23159 23160 23161 23162 23163 23164 23165 23166 23167 23168 23169 23170 23171 23172 23173 23174 23175 23176 23177 23178 23179 23180 23181 23182 23183 23184 23185 23186 23187 23188 23189 23190 23191 23192 23193 23194 23195 23196 23197 23198 23199 23200 23201 23202 23203 23204 23205 23206 23207 23208 23209 23210 23211 23212 23213 23214 23215 23216 23217 23218 23219 23220 23221 23222 23223 23224 23225 23226 23227 23228 23229 23230 23231 23232 23233 23234 23235 23236 23237 23238 23239 23240 23241 23242 23243 23244 23245 23246 23247 23248 23249 23250 23251 23252 23253 23254 23255 23256 23257 23258 23259 23260 23261 23262 23263 23264 23265 23266 23267 23268 23269 23270 23271 23272 23273 23274 23275 23276 23277 23278 23279 23280 23281 23282 23283 23284 23285 23286 23287 23288 23289 23290 23291 23292 23293 23294 23295 23296 23297 23298 23299 23300 23301 23302 23303 23304 23305 23306 23307 23308 23309 23310 23311 23312 23313 23314 23315 23316 23317 23318 23319 23320 23321 23322 23323 23324 23325 23326 23327 23328 23329 23330 23331 23332 23333 23334 23335 23336 23337 23338 23339 23340 23341 23342 23343 23344 23345 23346 23347 23348 23349 23350 23351 23352 23353 23354 23355 23356 23357 23358 23359 23360 23361 23362 23363 23364 23365 23366 23367 23368 23369 23370 23371 23372 23373 23374 23375 23376 23377 23378 23379 23380 23381 23382 23383 23384 23385 23386 23387 23388 23389 23390 23391 23392 23393 23394 23395 23396 23397 23398 23399 23400 23401 23402 23403 23404 23405 23406 23407 23408 23409 23410 23411 23412 23413 23414 23415 23416 23417 23418 23419 23420 23421 23422 23423 23424 23425 23426 23427 23428 23429 23430 23431 23432 23433 23434 23435 23436 23437 23438 23439 23440 23441 23442 23443 23444 23445 23446 23447 23448 23449 23450 23451 23452 23453 23454 23455 23456 23457 23458 23459 23460 23461 23462 23463 23464 23465 23466 23467 23468 23469 23470 23471 23472 23473 23474 23475 23476 23477 23478 23479 23480 23481 23482 23483 23484 23485 23486 23487 23488 23489 23490 23491 23492 23493 23494 23495 23496 23497 23498 23499 23500 23501 23502 23503 23504 23505 23506 23507 23508 23509 23510 23511 23512 23513 23514 23515 23516 23517 23518 23519 23520 23521 23522 23523 23524 23525 23526 23527 23528 23529 23530 23531 23532 23533 23534 23535 23536 23537 23538 23539 23540 23541 23542 23543 23544 23545 23546 23547 23548 23549 23550 23551 23552 23553 23554 23555 23556 23557 23558 23559 23560 23561 23562 23563 23564 23565 23566 23567 23568 23569 23570 23571 23572 23573 23574 23575 23576 23577 23578 23579 23580 23581 23582 23583 23584 23585 23586 23587 23588 23589 23590 23591 23592 23593 23594 23595 23596 23597 23598 23599 23600 23601 23602 23603 23604 23605 23606 23607 23608 23609 23610 23611 23612 23613 23614 23615 23616 23617 23618 23619 23620 23621 23622 23623 23624 23625 23626 23627 23628 23629 23630 23631 23632 23633 23634 23635 23636 23637 23638 23639 23640 23641 23642 23643 23644 23645 23646 23647 23648 23649 23650 23651 23652 23653 23654 23655 23656 23657 23658 23659 23660 23661 23662 23663 23664 23665 23666 23667 23668 23669 23670 23671 23672 23673 23674 23675 23676 23677 23678 23679 23680 23681 23682 23683 23684 23685 23686 23687 23688 23689 23690 23691 23692 23693 23694 23695 23696 23697 23698 23699 23700 23701 23702 23703 23704 23705 23706 23707 23708 23709 23710 23711 23712 23713 23714 23715 23716 23717 23718 23719 23720 23721 23722 23723 23724 23725 23726 23727 23728 23729 23730 23731 23732 23733 23734 23735 23736 23737 23738 23739 23740 23741 23742 23743 23744 23745 23746 23747 23748 23749 23750 23751 23752 23753 23754 23755 23756 23757 23758 23759 23760 23761 23762 23763 23764 23765 23766 23767 23768 23769 23770 23771 23772 23773 23774 23775 23776 23777 23778 23779 23780 23781 23782 23783 23784 23785 23786 23787 23788 23789 23790 23791 23792 23793 23794 23795 23796 23797 23798 23799 23800 23801 23802 23803 23804 23805 23806 23807 23808 23809 23810 23811 23812 23813 23814 23815 23816 23817 23818 23819 23820 23821 23822 23823 23824 23825 23826 23827 23828 23829 23830 23831 23832 23833 23834 23835 23836 23837 23838 23839 23840 23841 23842 23843 23844 23845 23846 23847 23848 23849 23850 23851 23852 23853 23854 23855 23856 23857 23858 23859 23860 23861 23862 23863 23864 23865 23866 23867 23868 23869 23870 23871 23872 23873 23874 23875 23876 23877 23878 23879 23880 23881 23882 23883 23884 23885 23886 23887 23888 23889 23890 23891 23892 23893 23894 23895 23896 23897 23898 23899 23900 23901 23902 23903 23904 23905 23906 23907 23908 23909 23910 23911 23912 23913 23914 23915 23916 23917 23918 23919 23920 23921 23922 23923 23924 23925 23926 23927 23928 23929 23930 23931 23932 23933 23934 23935 23936 23937 23938 23939 23940 23941 23942 23943 23944 23945 23946 23947 23948 23949 23950 23951 23952 23953 23954 23955 23956 23957 23958 23959 23960 23961 23962 23963 23964 23965 23966 23967 23968 23969 23970 23971 23972 23973 23974 23975 23976 23977 23978 23979 23980 23981 23982 23983 23984 23985 23986 23987 23988 23989 23990 23991 23992 23993 23994 23995 23996 23997 23998 23999 24000 24001 24002 24003 24004 24005 24006 24007 24008 24009 24010 24011 24012 24013 24014 24015 24016 24017 24018 24019 24020 24021 24022 24023 24024 24025 24026 24027 24028 24029 24030 24031 24032 24033 24034 24035 24036 24037 24038 24039 24040 24041 24042 24043 24044 24045 24046 24047 24048 24049 24050 24051 24052 24053 24054 24055 24056 24057 24058 24059 24060 24061 24062 24063 24064 24065 24066 24067 24068 24069 24070 24071 24072 24073 24074 24075 24076 24077 24078 24079 24080 24081 24082 24083 24084 24085 24086 24087 24088 24089 24090 24091 24092 24093 24094 24095 24096 24097 24098 24099 24100 24101 24102 24103 24104 24105 24106 24107 24108 24109 24110 24111 24112 24113 24114 24115 24116 24117 24118 24119 24120 24121 24122 24123 24124 24125 24126 24127 24128 24129 24130 24131 24132 24133 24134 24135 24136 24137 24138 24139 24140 24141 24142 24143 24144 24145 24146 24147 24148 24149 24150 24151 24152 24153 24154 24155 24156 24157 24158 24159 24160 24161 24162 24163 24164 24165 24166 24167 24168 24169 24170 24171 24172 24173 24174 24175 24176 24177 24178 24179 24180 24181 24182 24183 24184 24185 24186 24187 24188 24189 24190 24191 24192 24193 24194 24195 24196 24197 24198 24199 24200 24201 24202 24203 24204 24205 24206 24207 24208 24209 24210 24211 24212 24213 24214 24215 24216 24217 24218 24219 24220 24221 24222 24223 24224 24225 24226 24227 24228 24229 24230 24231 24232 24233 24234 24235 24236 24237 24238 24239 24240 24241 24242 24243 24244 24245 24246 24247 24248 24249 24250 24251 24252 24253 24254 24255 24256 24257 24258 24259 24260 24261 24262 24263 24264 24265 24266 24267 24268 24269 24270 24271 24272 24273 24274 24275 24276 24277 24278 24279 24280 24281 24282 24283 24284 24285 24286 24287 24288 24289 24290 24291 24292 24293 24294 24295 24296 24297 24298 24299 24300 24301 24302 24303 24304 24305 24306 24307 24308 24309 24310 24311 24312 24313 24314 24315 24316 24317 24318 24319 24320 24321 24322 24323 24324 24325 24326 24327 24328 24329 24330 24331 24332 24333 24334 24335 24336 24337 24338 24339 24340 24341 24342 24343 24344 24345 24346 24347 24348 24349 24350 24351 24352 24353 24354 24355 24356 24357 24358 24359 24360 24361 24362 24363 24364 24365 24366 24367 24368 24369 24370 24371 24372 24373 24374 24375 24376 24377 24378 24379 24380 24381 24382 24383 24384 24385 24386 24387 24388 24389 24390 24391 24392 24393 24394 24395 24396 24397 24398 24399 24400 24401 24402 24403 24404 24405 24406 24407 24408 24409 24410 24411 24412 24413 24414 24415 24416 24417 24418 24419 24420 24421 24422 24423 24424 24425 24426 24427 24428 24429 24430 24431 24432 24433 24434 24435 24436 24437 24438 24439 24440 24441 24442 24443 24444 24445 24446 24447 24448 24449 24450 24451 24452 24453 24454 24455 24456 24457 24458 24459 24460 24461 24462 24463 24464 24465 24466 24467 24468 24469 24470 24471 24472 24473 24474 24475 24476 24477 24478 24479 24480 24481 24482 24483 24484 24485 24486 24487 24488 24489 24490 24491 24492 24493 24494 24495 24496 24497 24498 24499 24500 24501 24502 24503 24504 24505 24506 24507 24508 24509 24510 24511 24512 24513 24514 24515 24516 24517 24518 24519 24520 24521 24522 24523 24524 24525 24526 24527 24528 24529 24530 24531 24532 24533 24534 24535 24536 24537 24538 24539 24540 24541 24542 24543 24544 24545 24546 24547 24548 24549 24550 24551 24552 24553 24554 24555 24556 24557 24558 24559 24560 24561 24562 24563 24564 24565 24566 24567 24568 24569 24570 24571 24572 24573 24574 24575 24576 24577 24578 24579 24580 24581 24582 24583 24584 24585 24586 24587 24588 24589 24590 24591 24592 24593 24594 24595 24596 24597 24598 24599 24600 24601 24602 24603 24604 24605 24606 24607 24608 24609 24610 24611 24612 24613 24614 24615 24616 24617 24618 24619 24620 24621 24622 24623 24624 24625 24626 24627 24628 24629 24630 24631 24632 24633 24634 24635 24636 24637 24638 24639 24640 24641 24642 24643 24644 24645 24646 24647 24648 24649 24650 24651 24652 24653 24654 24655 24656 24657 24658 24659 24660 24661 24662 24663 24664 24665 24666 24667 24668 24669 24670 24671 24672 24673 24674 24675 24676 24677 24678 24679 24680 24681 24682 24683 24684 24685 24686 24687 24688 24689 24690 24691 24692 24693 24694 24695 24696 24697 24698 24699 24700 24701 24702 24703 24704 24705 24706 24707 24708 24709 24710 24711 24712 24713 24714 24715 24716 24717 24718 24719 24720 24721 24722 24723 24724 24725 24726 24727 24728 24729 24730 24731 24732 24733 24734 24735 24736 24737 24738 24739 24740 24741 24742 24743 24744 24745 24746 24747 24748 24749 24750 24751 24752 24753 24754 24755 24756 24757 24758 24759 24760 24761 24762 24763 24764 24765 24766 24767 24768 24769 24770 24771 24772 24773 24774 24775 24776 24777 24778 24779 24780 24781 24782 24783 24784 24785 24786 24787 24788 24789 24790 24791 24792 24793 24794 24795 24796 24797 24798 24799 24800 24801 24802 24803 24804 24805 24806 24807 24808 24809 24810 24811 24812 24813 24814 24815 24816 24817 24818 24819 24820 24821 24822 24823 24824 24825 24826 24827 24828 24829 24830 24831 24832 24833 24834 24835 24836 24837 24838 24839 24840 24841 24842 24843 24844 24845 24846 24847 24848 24849 24850 24851 24852 24853 24854 24855 24856 24857 24858 24859 24860 24861 24862 24863 24864 24865 24866 24867 24868 24869 24870 24871 24872 24873 24874 24875 24876 24877 24878 24879 24880 24881 24882 24883 24884 24885 24886 24887 24888 24889 24890 24891 24892 24893 24894 24895 24896 24897 24898 24899 24900 24901 24902 24903 24904 24905 24906 24907 24908 24909 24910 24911 24912 24913 24914 24915 24916 24917 24918 24919 24920 24921 24922 24923 24924 24925 24926 24927 24928 24929 24930 24931 24932 24933 24934 24935 24936 24937 24938 24939 24940 24941 24942 24943 24944 24945 24946 24947 24948 24949 24950 24951 24952 24953 24954 24955 24956 24957 24958 24959 24960 24961 24962 24963 24964 24965 24966 24967 24968 24969 24970 24971 24972 24973 24974 24975 24976 24977 24978 24979 24980 24981 24982 24983 24984 24985 24986 24987 24988 24989 24990 24991 24992 24993 24994 24995 24996 24997 24998 24999 25000 25001 25002 25003 25004 25005 25006 25007 25008 25009 25010 25011 25012 25013 25014 25015 25016 25017 25018 25019 25020 25021 25022 25023 25024 25025 25026 25027 25028 25029 25030 25031 25032 25033 25034 25035 25036 25037 25038 25039 25040 25041 25042 25043 25044 25045 25046 25047 25048 25049 25050 25051 25052 25053 25054 25055 25056 25057 25058 25059 25060 25061 25062 25063 25064 25065 25066 25067 25068 25069 25070 25071 25072 25073 25074 25075 25076 25077 25078 25079 25080 25081 25082 25083 25084 25085 25086 25087 25088 25089 25090 25091 25092 25093 25094 25095 25096 25097 25098 25099 25100 25101 25102 25103 25104 25105 25106 25107 25108 25109 25110 25111 25112 25113 25114 25115 25116 25117 25118 25119 25120 25121 25122 25123 25124 25125 25126 25127 25128 25129 25130 25131 25132 25133 25134 25135 25136 25137 25138 25139 25140 25141 25142 25143 25144 25145 25146 25147 25148 25149 25150 25151 25152 25153 25154 25155 25156 25157 25158 25159 25160 25161 25162 25163 25164 25165 25166 25167 25168 25169 25170 25171 25172 25173 25174 25175 25176 25177 25178 25179 25180 25181 25182 25183 25184 25185 25186 25187 25188 25189 25190 25191 25192 25193 25194 25195 25196 25197 25198 25199 25200 25201 25202 25203 25204 25205 25206 25207 25208 25209 25210 25211 25212 25213 25214 25215 25216 25217 25218 25219 25220 25221 25222 25223 25224 25225 25226 25227 25228 25229 25230 25231 25232 25233 25234 25235 25236 25237 25238 25239 25240 25241 25242 25243 25244 25245 25246 25247 25248 25249 25250 25251 25252 25253 25254 25255 25256 25257 25258 25259 25260 25261 25262 25263 25264 25265 25266 25267 25268 25269 25270 25271 25272 25273 25274 25275 25276 25277 25278 25279 25280 25281 25282 25283 25284 25285 25286 25287 25288 25289 25290 25291 25292 25293 25294 25295 25296 25297 25298 25299 25300 25301 25302 25303 25304 25305 25306 25307 25308 25309 25310 25311 25312 25313 25314 25315 25316 25317 25318 25319 25320 25321 25322 25323 25324 25325 25326 25327 25328 25329 25330 25331 25332 25333 25334 25335 25336 25337 25338 25339 25340 25341 25342 25343 25344 25345 25346 25347 25348 25349 25350 25351 25352 25353 25354 25355 25356 25357 25358 25359 25360 25361 25362 25363 25364 25365 25366 25367 25368 25369 25370 25371 25372 25373 25374 25375 25376 25377 25378 25379 25380 25381 25382 25383 25384 25385 25386 25387 25388 25389 25390 25391 25392 25393 25394 25395 25396 25397 25398 25399 25400 25401 25402 25403 25404 25405 25406 25407 25408 25409 25410 25411 25412 25413 25414 25415 25416 25417 25418 25419 25420 25421 25422 25423 25424 25425 25426 25427 25428 25429 25430 25431 25432 25433 25434 25435 25436 25437 25438 25439 25440 25441 25442 25443 25444 25445 25446 25447 25448 25449 25450 25451 25452 25453 25454 25455 25456 25457 25458 25459 25460 25461 25462 25463 25464 25465 25466 25467 25468 25469 25470 25471 25472 25473 25474 25475 25476 25477 25478 25479 25480 25481 25482 25483 25484 25485 25486 25487 25488 25489 25490 25491 25492 25493 25494 25495 25496 25497 25498 25499 25500 25501 25502 25503 25504 25505 25506 25507 25508 25509 25510 25511 25512 25513 25514 25515 25516 25517 25518 25519 25520 25521 25522 25523 25524 25525 25526 25527 25528 25529 25530 25531 25532 25533 25534 25535 25536 25537 25538 25539 25540 25541 25542 25543 25544 25545 25546 25547 25548 25549 25550 25551 25552 25553 25554 25555 25556 25557 25558 25559 25560 25561 25562 25563 25564 25565 25566 25567 25568 25569 25570 25571 25572 25573 25574 25575 25576 25577 25578 25579 25580 25581 25582 25583 25584 25585 25586 25587 25588 25589 25590 25591 25592 25593 25594 25595 25596 25597 25598 25599 25600 25601 25602 25603 25604 25605 25606 25607 25608 25609 25610 25611 25612 25613 25614 25615 25616 25617 25618 25619 25620 25621 25622 25623 25624 25625 25626 25627 25628 25629 25630 25631 25632 25633 25634 25635 25636 25637 25638 25639 25640 25641 25642 25643 25644 25645 25646 25647 25648 25649 25650 25651 25652 25653 25654 25655 25656 25657 25658 25659 25660 25661 25662 25663 25664 25665 25666 25667 25668 25669 25670 25671 25672 25673 25674 25675 25676 25677 25678 25679 25680 25681 25682 25683 25684 25685 25686 25687 25688 25689 25690 25691 25692 25693 25694 25695 25696 25697 25698 25699 25700 25701 25702 25703 25704 25705 25706 25707 25708 25709 25710 25711 25712 25713 25714 25715 25716 25717 25718 25719 25720 25721 25722 25723 25724 25725 25726 25727 25728 25729 25730 25731 25732 25733 25734 25735 25736 25737 25738 25739 25740 25741 25742 25743 25744 25745 25746 25747 25748 25749 25750 25751 25752 25753 25754 25755 25756 25757 25758 25759 25760 25761 25762 25763 25764 25765 25766 25767 25768 25769 25770 25771 25772 25773 25774 25775 25776 25777 25778 25779 25780 25781 25782 25783 25784 25785 25786 25787 25788 25789 25790 25791 25792 25793 25794 25795 25796 25797 25798 25799 25800 25801 25802 25803 25804 25805 25806 25807 25808 25809 25810 25811 25812 25813 25814 25815 25816 25817 25818 25819 25820 25821 25822 25823 25824 25825 25826 25827 25828 25829 25830 25831 25832 25833 25834 25835 25836 25837 25838 25839 25840 25841 25842 25843 25844 25845 25846 25847 25848 25849 25850 25851 25852 25853 25854 25855 25856 25857 25858 25859 25860 25861 25862 25863 25864 25865 25866 25867 25868 25869 25870 25871 25872 25873 25874 25875 25876 25877 25878 25879 25880 25881 25882 25883 25884 25885 25886 25887 25888 25889 25890 25891 25892 25893 25894 25895 25896 25897 25898 25899 25900 25901 25902 25903 25904 25905 25906 25907 25908 25909 25910 25911 25912 25913 25914 25915 25916 25917 25918 25919 25920 25921 25922 25923 25924 25925 25926 25927 25928 25929 25930 25931 25932 25933 25934 25935 25936 25937 25938 25939 25940 25941 25942 25943 25944 25945 25946 25947 25948 25949 25950 25951 25952 25953 25954 25955 25956 25957 25958 25959 25960 25961 25962 25963 25964 25965 25966 25967 25968 25969 25970 25971 25972 25973 25974 25975 25976 25977 25978 25979 25980 25981 25982 25983 25984 25985 25986 25987 25988 25989 25990 25991 25992 25993 25994 25995 25996 25997 25998 25999 26000 26001 26002 26003 26004 26005 26006 26007 26008 26009 26010 26011 26012 26013 26014 26015 26016 26017 26018 26019 26020 26021 26022 26023 26024 26025 26026 26027 26028 26029 26030 26031 26032 26033 26034 26035 26036 26037 26038 26039 26040 26041 26042 26043 26044 26045 26046 26047 26048 26049 26050 26051 26052 26053 26054 26055 26056 26057 26058 26059 26060 26061 26062 26063 26064 26065 26066 26067 26068 26069 26070 26071 26072 26073 26074 26075 26076 26077 26078 26079 26080 26081 26082 26083 26084 26085 26086 26087 26088 26089 26090 26091 26092 26093 26094 26095 26096 26097 26098 26099 26100 26101 26102 26103 26104 26105 26106 26107 26108 26109 26110 26111 26112 26113 26114 26115 26116 26117 26118 26119 26120 26121 26122 26123 26124 26125 26126 26127 26128 26129 26130 26131 26132 26133 26134 26135 26136 26137 26138 26139 26140 26141 26142 26143 26144 26145 26146 26147 26148 26149 26150 26151 26152 26153 26154 26155 26156 26157 26158 26159 26160 26161 26162 26163 26164 26165 26166 26167 26168 26169 26170 26171 26172 26173 26174 26175 26176 26177 26178 26179 26180 26181 26182 26183 26184 26185 26186 26187 26188 26189 26190 26191 26192 26193 26194 26195 26196 26197 26198 26199 26200 26201 26202 26203 26204 26205 26206 26207 26208 26209 26210 26211 26212 26213 26214 26215 26216 26217 26218 26219 26220 26221 26222 26223 26224 26225 26226 26227 26228 26229 26230 26231 26232 26233 26234 26235 26236 26237 26238 26239 26240 26241 26242 26243 26244 26245 26246 26247 26248 26249 26250 26251 26252 26253 26254 26255 26256 26257 26258 26259 26260 26261 26262 26263 26264 26265 26266 26267 26268 26269 26270 26271 26272 26273 26274 26275 26276 26277 26278 26279 26280 26281 26282 26283 26284 26285 26286 26287 26288 26289 26290 26291 26292 26293 26294 26295 26296 26297 26298 26299 26300 26301 26302 26303 26304 26305 26306 26307 26308 26309 26310 26311 26312 26313 26314 26315 26316 26317 26318 26319 26320 26321 26322 26323 26324 26325 26326 26327 26328 26329 26330 26331 26332 26333 26334 26335 26336 26337 26338 26339 26340 26341 26342 26343 26344 26345 26346 26347 26348 26349 26350 26351 26352 26353 26354 26355 26356 26357 26358 26359 26360 26361 26362 26363 26364 26365 26366 26367 26368 26369 26370 26371 26372 26373 26374 26375 26376 26377 26378 26379 26380 26381 26382 26383 26384 26385 26386 26387 26388 26389 26390 26391 26392 26393 26394 26395 26396 26397 26398 26399 26400 26401 26402 26403 26404 26405 26406 26407 26408 26409 26410 26411 26412 26413 26414 26415 26416 26417 26418 26419 26420 26421 26422 26423 26424 26425 26426 26427 26428 26429 26430 26431 26432 26433 26434 26435 26436 26437 26438 26439 26440 26441 26442 26443 26444 26445 26446 26447 26448 26449 26450 26451 26452 26453 26454 26455 26456 26457 26458 26459 26460 26461 26462 26463 26464 26465 26466 26467 26468 26469 26470 26471 26472 26473 26474 26475 26476 26477 26478 26479 26480 26481 26482 26483 26484 26485 26486 26487 26488 26489 26490 26491 26492 26493 26494 26495 26496 26497 26498 26499 26500 26501 26502 26503 26504 26505 26506 26507 26508 26509 26510 26511 26512 26513 26514 26515 26516 26517 26518 26519 26520 26521 26522 26523 26524 26525 26526 26527 26528 26529 26530 26531 26532 26533 26534 26535 26536 26537 26538 26539 26540 26541 26542 26543 26544 26545 26546 26547 26548 26549 26550 26551 26552 26553 26554 26555 26556 26557 26558 26559 26560 26561 26562 26563 26564 26565 26566 26567 26568 26569 26570 26571 26572 26573 26574 26575 26576 26577 26578 26579 26580 26581 26582 26583 26584 26585 26586 26587 26588 26589 26590 26591 26592 26593 26594 26595 26596 26597 26598 26599 26600 26601 26602 26603 26604 26605 26606 26607 26608 26609 26610 26611 26612 26613 26614 26615 26616 26617 26618 26619 26620 26621 26622 26623 26624 26625 26626 26627 26628 26629 26630 26631 26632 26633 26634 26635 26636 26637 26638 26639 26640 26641 26642 26643 26644 26645 26646 26647 26648 26649 26650 26651 26652 26653 26654 26655 26656 26657 26658 26659 26660 26661 26662 26663 26664 26665 26666 26667 26668 26669 26670 26671 26672 26673 26674 26675 26676 26677 26678 26679 26680 26681 26682 26683 26684 26685 26686 26687 26688 26689 26690 26691 26692 26693 26694 26695 26696 26697 26698 26699 26700 26701 26702 26703 26704 26705 26706 26707 26708 26709 26710 26711 26712 26713 26714 26715 26716 26717 26718 26719 26720 26721 26722 26723 26724 26725 26726 26727 26728 26729 26730 26731 26732 26733 26734 26735 26736 26737 26738 26739 26740 26741 26742 26743 26744 26745 26746 26747 26748 26749 26750 26751 26752 26753 26754 26755 26756 26757 26758 26759 26760 26761 26762 26763 26764 26765 26766 26767 26768 26769 26770 26771 26772 26773 26774 26775 26776 26777 26778 26779 26780 26781 26782 26783 26784 26785 26786 26787 26788 26789 26790 26791 26792 26793 26794 26795 26796 26797 26798 26799 26800 26801 26802 26803 26804 26805 26806 26807 26808 26809 26810 26811 26812 26813 26814 26815 26816 26817 26818 26819 26820 26821 26822 26823 26824 26825 26826 26827 26828 26829 26830 26831 26832 26833 26834 26835 26836 26837 26838 26839 26840 26841 26842 26843 26844 26845 26846 26847 26848 26849 26850 26851 26852 26853 26854 26855 26856 26857 26858 26859 26860 26861 26862 26863 26864 26865 26866 26867 26868 26869 26870 26871 26872 26873 26874 26875 26876 26877 26878 26879 26880 26881 26882 26883 26884 26885 26886 26887 26888 26889 26890 26891 26892 26893 26894 26895 26896 26897 26898 26899 26900 26901 26902 26903 26904 26905 26906 26907 26908 26909 26910 26911 26912 26913 26914 26915 26916 26917 26918 26919 26920 26921 26922 26923 26924 26925 26926 26927 26928 26929 26930 26931 26932 26933 26934 26935 26936 26937 26938 26939 26940 26941 26942 26943 26944 26945 26946 26947 26948 26949 26950 26951 26952 26953 26954 26955 26956 26957 26958 26959 26960 26961 26962 26963 26964 26965 26966 26967 26968 26969 26970 26971 26972 26973 26974 26975 26976 26977 26978 26979 26980 26981 26982 26983 26984 26985 26986 26987 26988 26989 26990 26991 26992 26993 26994 26995 26996 26997 26998 26999 27000 27001 27002 27003 27004 27005 27006 27007 27008 27009 27010 27011 27012 27013 27014 27015 27016 27017 27018 27019 27020 27021 27022 27023 27024 27025 27026 27027 27028 27029 27030 27031 27032 27033 27034 27035 27036 27037 27038 27039 27040 27041 27042 27043 27044 27045 27046 27047 27048 27049 27050 27051 27052 27053 27054 27055 27056 27057 27058 27059 27060 27061 27062 27063 27064 27065 27066 27067 27068 27069 27070 27071 27072 27073 27074 27075 27076 27077 27078 27079 27080 27081 27082 27083 27084 27085 27086 27087 27088 27089 27090 27091 27092 27093 27094 27095 27096 27097 27098 27099 27100 27101 27102 27103 27104 27105 27106 27107 27108 27109 27110 27111 27112 27113 27114 27115 27116 27117 27118 27119 27120 27121 27122 27123 27124 27125 27126 27127 27128 27129 27130 27131 27132 27133 27134 27135 27136 27137 27138 27139 27140 27141 27142 27143 27144 27145 27146 27147 27148 27149 27150 27151 27152 27153 27154 27155 27156 27157 27158 27159 27160 27161 27162 27163 27164 27165 27166 27167 27168 27169 27170 27171 27172 27173 27174 27175 27176 27177 27178 27179 27180 27181 27182 27183 27184 27185 27186 27187 27188 27189 27190 27191 27192 27193 27194 27195 27196 27197 27198 27199 27200 27201 27202 27203 27204 27205 27206 27207 27208 27209 27210 27211 27212 27213 27214 27215 27216 27217 27218 27219 27220 27221 27222 27223 27224 27225 27226 27227 27228 27229 27230 27231 27232 27233 27234 27235 27236 27237 27238 27239 27240 27241 27242 27243 27244 27245 27246 27247 27248 27249 27250 27251 27252 27253 27254 27255 27256 27257 27258 27259 27260 27261 27262 27263 27264 27265 27266 27267 27268 27269 27270 27271 27272 27273 27274 27275 27276 27277 27278 27279 27280 27281 27282 27283 27284 27285 27286 27287 27288 27289 27290 27291 27292 27293 27294 27295 27296 27297 27298 27299 27300 27301 27302 27303 27304 27305 27306 27307 27308 27309 27310 27311 27312 27313 27314 27315 27316 27317 27318 27319 27320 27321 27322 27323 27324 27325 27326 27327 27328 27329 27330 27331 27332 27333 27334 27335 27336 27337 27338 27339 27340 27341 27342 27343 27344 27345 27346 27347 27348 27349 27350 27351 27352 27353 27354 27355 27356 27357 27358 27359 27360 27361 27362 27363 27364 27365 27366 27367 27368 27369 27370 27371 27372 27373 27374 27375 27376 27377 27378 27379 27380 27381 27382 27383 27384 27385 27386 27387 27388 27389 27390 27391 27392 27393 27394 27395 27396 27397 27398 27399 27400 27401 27402 27403 27404 27405 27406 27407 27408 27409 27410 27411 27412 27413 27414 27415 27416 27417 27418 27419 27420 27421 27422 27423 27424 27425 27426 27427 27428 27429 27430 27431 27432 27433 27434 27435 27436 27437 27438 27439 27440 27441 27442 27443 27444 27445 27446 27447 27448 27449 27450 27451 27452 27453 27454 27455 27456 27457 27458 27459 27460 27461 27462 27463 27464 27465 27466 27467 27468 27469 27470 27471 27472 27473 27474 27475 27476 27477 27478 27479 27480 27481 27482 27483 27484 27485 27486 27487 27488 27489 27490 27491 27492 27493 27494 27495 27496 27497 27498 27499 27500 27501 27502 27503 27504 27505 27506 27507 27508 27509 27510 27511 27512 27513 27514 27515 27516 27517 27518 27519 27520 27521 27522 27523 27524 27525 27526 27527 27528 27529 27530 27531 27532 27533 27534 27535 27536 27537 27538 27539 27540 27541 27542 27543 27544 27545 27546 27547 27548 27549 27550 27551 27552 27553 27554 27555 27556 27557 27558 27559 27560 27561 27562 27563 27564 27565 27566 27567 27568 27569 27570 27571 27572 27573 27574 27575 27576 27577 27578 27579 27580 27581 27582 27583 27584 27585 27586 27587 27588 27589 27590 27591 27592 27593 27594 27595 27596 27597 27598 27599 27600 27601 27602 27603 27604 27605 27606 27607 27608 27609 27610 27611 27612 27613 27614 27615 27616 27617 27618 27619 27620 27621 27622 27623 27624 27625 27626 27627 27628 27629 27630 27631 27632 27633 27634 27635 27636 27637 27638 27639 27640 27641 27642 27643 27644 27645 27646 27647 27648 27649 27650 27651 27652 27653 27654 27655 27656 27657 27658 27659 27660 27661 27662 27663 27664 27665 27666 27667 27668 27669 27670 27671 27672 27673 27674 27675 27676 27677 27678 27679 27680 27681 27682 27683 27684 27685 27686 27687 27688 27689 27690 27691 27692 27693 27694 27695 27696 27697 27698 27699 27700 27701 27702 27703 27704 27705 27706 27707 27708 27709 27710 27711 27712 27713 27714 27715 27716 27717 27718 27719 27720 27721 27722 27723 27724 27725 27726 27727 27728 27729 27730 27731 27732 27733 27734 27735 27736 27737 27738 27739 27740 27741 27742 27743 27744 27745 27746 27747 27748 27749 27750 27751 27752 27753 27754 27755 27756 27757 27758 27759 27760 27761 27762 27763 27764 27765 27766 27767 27768 27769 27770 27771 27772 27773 27774 27775 27776 27777 27778 27779 27780 27781 27782 27783 27784 27785 27786 27787 27788 27789 27790 27791 27792 27793 27794 27795 27796 27797 27798 27799 27800 27801 27802 27803 27804 27805 27806 27807 27808 27809 27810 27811 27812 27813 27814 27815 27816 27817 27818 27819 27820 27821 27822 27823 27824 27825 27826 27827 27828 27829 27830 27831 27832 27833 27834 27835 27836 27837 27838 27839 27840 27841 27842 27843 27844 27845 27846 27847 27848 27849 27850 27851 27852 27853 27854 27855 27856 27857 27858 27859 27860 27861 27862 27863 27864 27865 27866 27867 27868 27869 27870 27871 27872 27873 27874 27875 27876 27877 27878 27879 27880 27881 27882 27883 27884 27885 27886 27887 27888 27889 27890 27891 27892 27893 27894 27895 27896 27897 27898 27899 27900 27901 27902 27903 27904 27905 27906 27907 27908 27909 27910 27911 27912 27913 27914 27915 27916 27917 27918 27919 27920 27921 27922 27923 27924 27925 27926 27927 27928 27929 27930 27931 27932 27933 27934 27935 27936 27937 27938 27939 27940 27941 27942 27943 27944 27945 27946 27947 27948 27949 27950 27951 27952 27953 27954 27955 27956 27957 27958 27959 27960 27961 27962 27963 27964 27965 27966 27967 27968 27969 27970 27971 27972 27973 27974 27975 27976 27977 27978 27979 27980 27981 27982 27983 27984 27985 27986 27987 27988 27989 27990 27991 27992 27993 27994 27995 27996 27997 27998 27999 28000 28001 28002 28003 28004 28005 28006 28007 28008 28009 28010 28011 28012 28013 28014 28015 28016 28017 28018 28019 28020 28021 28022 28023 28024 28025 28026 28027 28028 28029 28030 28031 28032 28033 28034 28035 28036 28037 28038 28039 28040 28041 28042 28043 28044 28045 28046 28047 28048 28049 28050 28051 28052 28053 28054 28055 28056 28057 28058 28059 28060 28061 28062 28063 28064 28065 28066 28067 28068 28069 28070 28071 28072 28073 28074 28075 28076 28077 28078 28079 28080 28081 28082 28083 28084 28085 28086 28087 28088 28089 28090 28091 28092 28093 28094 28095 28096 28097 28098 28099 28100 28101 28102 28103 28104 28105 28106 28107 28108 28109 28110 28111 28112 28113 28114 28115 28116 28117 28118 28119 28120 28121 28122 28123 28124 28125 28126 28127 28128 28129 28130 28131 28132 28133 28134 28135 28136 28137 28138 28139 28140 28141 28142 28143 28144 28145 28146 28147 28148 28149 28150 28151 28152 28153 28154 28155 28156 28157 28158 28159 28160 28161 28162 28163 28164 28165 28166 28167 28168 28169 28170 28171 28172 28173 28174 28175 28176 28177 28178 28179 28180 28181 28182 28183 28184 28185 28186 28187 28188 28189 28190 28191 28192 28193 28194 28195 28196 28197 28198 28199 28200 28201 28202 28203 28204 28205 28206 28207 28208 28209 28210 28211 28212 28213 28214 28215 28216 28217 28218 28219 28220 28221 28222 28223 28224 28225 28226 28227 28228 28229 28230 28231 28232 28233 28234 28235 28236 28237 28238 28239 28240 28241 28242 28243 28244 28245 28246 28247 28248 28249 28250 28251 28252 28253 28254 28255 28256 28257 28258 28259 28260 28261 28262 28263 28264 28265 28266 28267 28268 28269 28270 28271 28272 28273 28274 28275 28276 28277 28278 28279 28280 28281 28282 28283 28284 28285 28286 28287 28288 28289 28290 28291 28292 28293 28294 28295 28296 28297 28298 28299 28300 28301 28302 28303 28304 28305 28306 28307 28308 28309 28310 28311 28312 28313 28314 28315 28316 28317 28318 28319 28320 28321 28322 28323 28324 28325 28326 28327 28328 28329 28330 28331 28332 28333 28334 28335 28336 28337 28338 28339 28340 28341 28342 28343 28344 28345 28346 28347 28348 28349 28350 28351 28352 28353 28354 28355 28356 28357 28358 28359 28360 28361 28362 28363 28364 28365 28366 28367 28368 28369 28370 28371 28372 28373 28374 28375 28376 28377 28378 28379 28380 28381 28382 28383 28384 28385 28386 28387 28388 28389 28390 28391 28392 28393 28394 28395 28396 28397 28398 28399 28400 28401 28402 28403 28404 28405 28406 28407 28408 28409 28410 28411 28412 28413 28414 28415 28416 28417 28418 28419 28420 28421 28422 28423 28424 28425 28426 28427 28428 28429 28430 28431 28432 28433 28434 28435 28436 28437 28438 28439 28440 28441 28442 28443 28444 28445 28446 28447 28448 28449 28450 28451 28452 28453 28454 28455 28456 28457 28458 28459 28460 28461 28462 28463 28464 28465 28466 28467 28468 28469 28470 28471 28472 28473 28474 28475 28476 28477 28478 28479 28480 28481 28482 28483 28484 28485 28486 28487 28488 28489 28490 28491 28492 28493 28494 28495 28496 28497 28498 28499 28500 28501 28502 28503 28504 28505 28506 28507 28508 28509 28510 28511 28512 28513 28514 28515 28516 28517 28518 28519 28520 28521 28522 28523 28524 28525 28526 28527 28528 28529 28530 28531 28532 28533 28534 28535 28536 28537 28538 28539 28540 28541 28542 28543 28544 28545 28546 28547 28548 28549 28550 28551 28552 28553 28554 28555 28556 28557 28558 28559 28560 28561 28562 28563 28564 28565 28566 28567 28568 28569 28570 28571 28572 28573 28574 28575 28576 28577 28578 28579 28580 28581 28582 28583 28584 28585 28586 28587 28588 28589 28590 28591 28592 28593 28594 28595 28596 28597 28598 28599 28600 28601 28602 28603 28604 28605 28606 28607 28608 28609 28610 28611 28612 28613 28614 28615 28616 28617 28618 28619 28620 28621 28622 28623 28624 28625 28626 28627 28628 28629 28630 28631 28632 28633 28634 28635 28636 28637 28638 28639 28640 28641 28642 28643 28644 28645 28646 28647 28648 28649 28650 28651 28652 28653 28654 28655 28656 28657 28658 28659 28660 28661 28662 28663 28664 28665 28666 28667 28668 28669 28670 28671 28672 28673 28674 28675 28676 28677 28678 28679 28680 28681 28682 28683 28684 28685 28686 28687 28688 28689 28690 28691 28692 28693 28694 28695 28696 28697 28698 28699 28700 28701 28702 28703 28704 28705 28706 28707 28708 28709 28710 28711 28712 28713 28714 28715 28716 28717 28718 28719 28720 28721 28722 28723 28724 28725 28726 28727 28728 28729 28730 28731 28732 28733 28734 28735 28736 28737 28738 28739 28740 28741 28742 28743 28744 28745 28746 28747 28748 28749 28750 28751 28752 28753 28754 28755 28756 28757 28758 28759 28760 28761 28762 28763 28764 28765 28766 28767 28768 28769 28770 28771 28772 28773 28774 28775 28776 28777 28778 28779 28780 28781 28782 28783 28784 28785 28786 28787 28788 28789 28790 28791 28792 28793 28794 28795 28796 28797 28798 28799 28800 28801 28802 28803 28804 28805 28806 28807 28808 28809 28810 28811 28812 28813 28814 28815 28816 28817 28818 28819 28820 28821 28822 28823 28824 28825 28826 28827 28828 28829 28830 28831 28832 28833 28834 28835 28836 28837 28838 28839 28840 28841 28842 28843 28844 28845 28846 28847 28848 28849 28850 28851 28852 28853 28854 28855 28856 28857 28858 28859 28860 28861 28862 28863 28864 28865 28866 28867 28868 28869 28870 28871 28872 28873 28874 28875 28876 28877 28878 28879 28880 28881 28882 28883 28884 28885 28886 28887 28888 28889 28890 28891 28892 28893 28894 28895 28896 28897 28898 28899 28900 28901 28902 28903 28904 28905 28906 28907 28908 28909 28910 28911 28912 28913 28914 28915 28916 28917 28918 28919 28920 28921 28922 28923 28924 28925 28926 28927 28928 28929 28930 28931 28932 28933 28934 28935 28936 28937 28938 28939 28940 28941 28942 28943 28944 28945 28946 28947 28948 28949 28950 28951 28952 28953 28954 28955 28956 28957 28958 28959 28960 28961 28962 28963 28964 28965 28966 28967 28968 28969 28970 28971 28972 28973 28974 28975 28976 28977 28978 28979 28980 28981 28982 28983 28984 28985 28986 28987 28988 28989 28990 28991 28992 28993 28994 28995 28996 28997 28998 28999 29000 29001 29002 29003 29004 29005 29006 29007 29008 29009 29010 29011 29012 29013 29014 29015 29016 29017 29018 29019 29020 29021 29022 29023 29024 29025 29026 29027 29028 29029 29030 29031 29032 29033 29034 29035 29036 29037 29038 29039 29040 29041 29042 29043 29044 29045 29046 29047 29048 29049 29050 29051 29052 29053 29054 29055 29056 29057 29058 29059 29060 29061 29062 29063 29064 29065 29066 29067 29068 29069 29070 29071 29072 29073 29074 29075 29076 29077 29078 29079 29080 29081 29082 29083 29084 29085 29086 29087 29088 29089 29090 29091 29092 29093 29094 29095 29096 29097 29098 29099 29100 29101 29102 29103 29104 29105 29106 29107 29108 29109 29110 29111 29112 29113 29114 29115 29116 29117 29118 29119 29120 29121 29122 29123 29124 29125 29126 29127 29128 29129 29130 29131 29132 29133 29134 29135 29136 29137 29138 29139 29140 29141 29142 29143 29144 29145 29146 29147 29148 29149 29150 29151 29152 29153 29154 29155 29156 29157 29158 29159 29160 29161 29162 29163 29164 29165 29166 29167 29168 29169 29170 29171 29172 29173 29174 29175 29176 29177 29178 29179 29180 29181 29182 29183 29184 29185 29186 29187 29188 29189 29190 29191 29192 29193 29194 29195 29196 29197 29198 29199 29200 29201 29202 29203 29204 29205 29206 29207 29208 29209 29210 29211 29212 29213 29214 29215 29216 29217 29218 29219 29220 29221 29222 29223 29224 29225 29226 29227 29228 29229 29230 29231 29232 29233 29234 29235 29236 29237 29238 29239 29240 29241 29242 29243 29244 29245 29246 29247 29248 29249 29250 29251 29252 29253 29254 29255 29256 29257 29258 29259 29260 29261 29262 29263 29264 29265 29266 29267 29268 29269 29270 29271 29272 29273 29274 29275 29276 29277 29278 29279 29280 29281 29282 29283 29284 29285 29286 29287 29288 29289 29290 29291 29292 29293 29294 29295 29296 29297 29298 29299 29300 29301 29302 29303 29304 29305 29306 29307 29308 29309 29310 29311 29312 29313 29314 29315 29316 29317 29318 29319 29320 29321 29322 29323 29324 29325 29326 29327 29328 29329 29330 29331 29332 29333 29334 29335 29336 29337 29338 29339 29340 29341 29342 29343 29344 29345 29346 29347 29348 29349 29350 29351 29352 29353 29354 29355 29356 29357 29358 29359 29360 29361 29362 29363 29364 29365 29366 29367 29368 29369 29370 29371 29372 29373 29374 29375 29376 29377 29378 29379 29380 29381 29382 29383 29384 29385 29386 29387 29388 29389 29390 29391 29392 29393 29394 29395 29396 29397 29398 29399 29400 29401 29402 29403 29404 29405 29406 29407 29408 29409 29410 29411 29412 29413 29414 29415 29416 29417 29418 29419 29420 29421 29422 29423 29424 29425 29426 29427 29428 29429 29430 29431 29432 29433 29434 29435 29436 29437 29438 29439 29440 29441 29442 29443 29444 29445 29446 29447 29448 29449 29450 29451 29452 29453 29454 29455 29456 29457 29458 29459 29460 29461 29462 29463 29464 29465 29466 29467 29468 29469 29470 29471 29472 29473 29474 29475 29476 29477 29478 29479 29480 29481 29482 29483 29484 29485 29486 29487 29488 29489 29490 29491 29492 29493 29494 29495 29496 29497 29498 29499 29500 29501 29502 29503 29504 29505 29506 29507 29508 29509 29510 29511 29512 29513 29514 29515 29516 29517 29518 29519 29520 29521 29522 29523 29524 29525 29526 29527 29528 29529 29530 29531 29532 29533 29534 29535 29536 29537 29538 29539 29540 29541 29542 29543 29544 29545 29546 29547 29548 29549 29550 29551 29552 29553 29554 29555 29556 29557 29558 29559 29560 29561 29562 29563 29564 29565 29566 29567 29568 29569 29570 29571 29572 29573 29574 29575 29576 29577 29578 29579 29580 29581 29582 29583 29584 29585 29586 29587 29588 29589 29590 29591 29592 29593 29594 29595 29596 29597 29598 29599 29600 29601 29602 29603 29604 29605 29606 29607 29608 29609 29610 29611 29612 29613 29614 29615 29616 29617 29618 29619 29620 29621 29622 29623 29624 29625 29626 29627 29628 29629 29630 29631 29632 29633 29634 29635 29636 29637 29638 29639 29640 29641 29642 29643 29644 29645 29646 29647 29648 29649 29650 29651 29652 29653 29654 29655 29656 29657 29658 29659 29660 29661 29662 29663 29664 29665 29666 29667 29668 29669 29670 29671 29672 29673 29674 29675 29676 29677 29678 29679 29680 29681 29682 29683 29684 29685 29686 29687 29688 29689 29690 29691 29692 29693 29694 29695 29696 29697 29698 29699 29700 29701 29702 29703 29704 29705 29706 29707 29708 29709 29710 29711 29712 29713 29714 29715 29716 29717 29718 29719 29720 29721 29722 29723 29724 29725 29726 29727 29728 29729 29730 29731 29732 29733 29734 29735 29736 29737 29738 29739 29740 29741 29742 29743 29744 29745 29746 29747 29748 29749 29750 29751 29752 29753 29754 29755 29756 29757 29758 29759 29760 29761 29762 29763 29764 29765 29766 29767 29768 29769 29770 29771 29772 29773 29774 29775 29776 29777 29778 29779 29780 29781 29782 29783 29784 29785 29786 29787 29788 29789 29790 29791 29792 29793 29794 29795 29796 29797 29798 29799 29800 29801 29802 29803 29804 29805 29806 29807 29808 29809 29810 29811 29812 29813 29814 29815 29816 29817 29818 29819 29820 
</DataArray>
<DataArray type="UInt32" Name="offsets" format="ascii">
3 6 9 12 15 18 20 23 26 29 31 34 37 39 42 44 47 50 53 55 57 60 63 65 68 71 74 77 80 83 85 88 91 94 97 100 103 106 109 111 114 116 119 121 124 126 129 132 134 137 139 142 144 147 150 153 156 158 161 164 167 170 173 175 178 181 184 187 190 193 196 199 202 204 207 209 212 215 218 221 223 226 229 232 235 238 241 244 247 249 252 255 258 261 264 267 270 273 276 279 282 285 288 291 294 297 300 303 306 309 312 315 317 320 322 325 328 331 334 337 340 342 345 348 350 353 356 359 362 365 367 370 373 376 379 381 384 387 389 392 394 397 399 402 405 407 410 412 415 418 421 423 426 429 432 435 438 441 444 447 450 453 456 459 462 465 468 471 474 477 480 482 485 487 490 493 496 499 502 504 506 509 512 515 518 521 524 527 530 533 536 538 541 543 546 549 552 554 557 560 562 565 568 570 573 576 579 582 584 587 590 593 595 598 601 604 607 610 612 615 617 620 623 626 629 632 635 637 640 643 646 649 652 655 658 661 664 667 670 673 676 679 682 685 688 691 694 697 700 703 706 709 712 715 718 721 724 727 730 733 736 739 742 745 747 750 753 756 759 762 765 768 771 773 776 779 782 785 788 791 794 797 800 803 806 809 812 815 817 820 823 826 829 832 834 837 839 842 845 847 850 852 854 857 859 862 864 867 869 872 875 877 880 882 885 888 890 893 896 899 902 905 908 911 914 917 919 921 924 927 930 933 935 938 941 943 946 949 951 954 957 959 961 963 965 968 970 973 976 979 981 984 987 990 993 996 999 1002 1005 1007 1010 1013 1015 1018 1020 1023 1026 1029 1032 1035 1038 1041 1043 1045 1048 1051 1054 1057 1060 1063 1066 1069 1072 1075 1077 1079 1081 1084 1086 1088 1090 1092 1094 1097 1099 1102 1104 1107 1109 1112 1115 1117 1120 1122 1125 1127 1129 1132 1135 1137 1140 1142 1145 1148 1151 1154 1157 1159 1162 1165 1168 1171 1174 1177 1180 1183 1186 1189 1192 1195 1198 1201 1203 1205 1208 1211 1214 1217 1220 1223 1226 1229 1231 1234 1237 1240 1243 1246 1249 1252 1255 1258 1261 1263 1266 1269 1272 1274 1277 1280 1283 1286 1289 1292 1295 1298 1301 1304 1307 1310 1313 1316 1319 1322 1325 1328 1331 1334 1337 1340 1343 1346 1349 1352 1355 1358 1361 1364 1367 1370 1373 1376 1379 1382 1385 1388 1391 1394 1397 1400 1403 1406 1409 1412 1415 1418 1421 1424 1427 1430 1433 1436 1439 1442 1445 1448 1451 1454 1457 1460 1463 1466 1469 1472 1475 1478 1481 1484 1486 1489 1491 1494 1497 1500 1503 1506 1509 1512 1514 1517 1520 1523 1526 1529 1532 1535 1538 1541 1544 1546 1548 1551 1554 1557 1560 1562 1565 1568 1570 1573 1575 1577 1580 1583 1585 1588 1591 1594 1597 1600 1603 1606 1609 1612 1615 1617 1620 1623 1625 1627 1630 1633 1636 1639 1642 1645 1648 1651 1654 1657 1660 1663 1666 1669 1672 1675 1678 1681 1684 1687 1690 1693 1696 1699 1702 1705 1708 1711 1714 1716 1719 1721 1724 1727 1730 1733 1736 1739 1742 1745 1748 1751 1754 1757 1760 1763 1766 1769 1772 1775 1778 1781 1784 1787 1790 1793 1796 1799 1802 1805 1808 1810 1813 1816 1819 1821 1824 1827 1830 1832 1835 1837 1840 1843 1846 1848 1851 1854 1857 1860 1863 1866 1869 1872 1875 1878 1881 1884 1887 1890 1893 1896 1899 1901 1904 1906 1909 1912 1915 1918 1921 1924 1927 1930 1933 1936 1939 1942 1945 1948 1951 1954 1957 1960 1963 1966 1969 1972 1975 1978 1981 1984 1987 1990 1993 1996 1999 2002 2005 2008 2011 2014 2017 2020 2023 2025 2028 2031 2033 2036 2039 2042 2045 2048 2051 2053 2055 2058 2061 2064 2067 2070 2073 2076 2079 2082 2085 2088 2091 2094 2097 2100 2103 2106 2109 2112 2115 2118 2121 2124 2127 2130 2133 2136 2139 2141 2144 2146 2149 2152 2155 2158 2161 2164 2167 2170 2173 2176 2179 2182 2185 2188 2191 2194 2197 2200 2203 2206 2209 2212 2215 2218 2221 2224 2227 2230 2233 2235 2238 2241 2244 2247 2250 2252 2255 2258 2261 2264 2267 2270 2273 2276 2279 2282 2284 2287 2290 2293 2295 2298 2301 2304 2307 2310 2313 2316 2318 2321 2324 2327 2330 2333 2336 2339 2342 2345 2348 2350 2353 2356 2359 2361 2364 2367 2369 2372 2375 2378 2381 2384 2386 2389 2392 2395 2398 2401 2403 2406 2408 2411 2414 2417 2420 2423 2426 2429 2432 2435 2438 2441 2444 2447 2450 2453 2456 2459 2462 2465 2468 2471 2473 2476 2479 2481 2484 2487 2490 2493 2496 2499 2502 2505 2508 2511 2514 2517 2520 2523 2526 2528 2531 2534 2537 2540 2543 2546 2549 2552 2554 2557 2559 2561 2564 2567 2570 2573 2576 2579 2582 2585 2588 2591 2593 2596 2599 2602 2605 2608 2610 2613 2616 2619 2622 2625 2628 2631 2634 2637 2639 2641 2644 2647 2650 2653 2656 2659 2662 2665 2668 2671 2674 2677 2680 2683 2686 2689 2692 2695 2698 2701 2704 2707 2709 2711 2714 2717 2720 2723 2726 2729 2732 2735 2738 2741 2744 2747 2750 2753 2756 2759 2762 2765 2768 2770 2773 2776 2779 2782 2785 2788 2791 2793 2796 2799 2802 2805 2808 2811 2814 2817 2820 2822 2825 2828 2831 2833 2836 2839 2842 2845 2848 2851 2854 2857 2860 2862 2865 2868 2871 2874 2877 2880 2883 2886 2889 2892 2895 2898 2901 2904 2907 2910 2913 2916 2919 2922 2925 2928 2931 2933 2936 2939 2942 2945 2948 2951 2954 2957 2960 2963 2966 2969 2972 2974 2977 2980 2983 2985 2988 2991 2994 2997 3000 3003 3005 3008 3011 3014 3017 3020 3023 3026 3029 3032 3035 3038 3041 3044 3047 3050 3053 3056 3059 3062 3065 3068 3071 3074 3077 3080 3083 3086 3089 3092 3095 3098 3100 3103 3106 3108 3111 3114 3117 3120 3123 3126 3128 3131 3134 3137 3140 3143 3146 3149 3152 3155 3158 3161 3164 3167 3170 3173 3176 3179 3181 3184 3187 3190 3193 3196 3198 3201 3203 3206 3209 3212 3215 3218 3221 3223 3226 3229 3232 3234 3237 3240 3242 3245 3248 3251 3253 3256 3259 3262 3265 3268 3271 3274 3277 3280 3283 3286 3289 3292 3295 3297 3300 3303 3305 3307 3310 3312 3315 3318 3321 3324 3327 3330 3333 3336 3339 3342 3344 3347 3350 3353 3356 3359 3362 3365 3368 3371 3373 3376 3379 3382 3385 3388 3391 3393 3396 3399 3402 3405 3407 3410 3412 3415 3418 3421 3424 3426 3429 3432 3435 3438 3440 3443 3446 3449 3452 3454 3457 3460 3463 3466 3469 3471 3473 3476 3479 3482 3485 3488 3491 3494 3497 3500 3503 3506 3509 3512 3515 3517 3520 3523 3526 3528 3531 3534 3537 3540 3543 3546 3549 3552 3555 3558 3561 3563 3565 3568 3571 3574 3577 3580 3583 3586 3589 3592 3595 3598 3601 3604 3607 3610 3613 3616 3619 3622 3625 3627 3630 3633 3636 3639 3642 3645 3647 3650 3653 3655 3658 3661 3664 3666 3669 3672 3675 3678 3681 3684 3687 3689 3692 3694 3697 3700 3703 3706 3709 3712 3715 3718 3720 3723 3726 3729 3732 3735 3738 3741 3744 3747 3749 3752 3755 3758 3761 3764 3767 3770 3773 3776 3779 3782 3785 3788 3791 3794 3797 3800 3803 3806 3809 3811 3813 3816 3819 3822 3824 3827 3830 3832 3835 3838 3841 3844 3847 3850 3853 3855 3858 3861 3864 3867 3870 3873 3876 3879 3882 3885 3888 3891 3894 3897 3899 3902 3904 3907 3910 3913 3916 3919 3922 3925 3928 3931 3934 3937 3940 3943 3946 3949 3952 3955 3958 3961 3964 3967 3970 3972 3975 3977 3979 3982 3985 3988 3991 3994 3997 4000 4002 4005 4008 4011 4014 4017 4020 4023 4025 4028 4031 4034 4037 4040 4043 4046 4049 4052 4055 4058 4061 4064 4067 4070 4073 4076 4079 4082 4085 4088 4091 4094 4097 4100 4103 4106 4108 4111 4114 4116 4119 4122 4125 4128 4130 4133 4136 4139 4142 4145 4148 4151 4154 4157 4159 4162 4164 4167 4170 4173 4175 4178 4181 4184 4187 4190 4193 4196 4199 4202 4205 4208 4211 4213 4216 4218 4221 4224 4227 4230 4233 4235 4238 4241 4244 4246 4248 4250 4253 4256 4259 4262 4264 4267 4270 4273 4276 4279 4282 4284 4287 4290 4293 4296 4299 4301 4304 4307 4309 4311 4313 4316 4319 4322 4325 4328 4330 4333 4336 4339 4342 4345 4348 4351 4354 4357 4360 4363 4366 4368 4371 4374 4377 4380 4383 4386 4389 4392 4395 4398 4401 4404 4407 4410 4413 4416 4419 4422 4425 4428 4431 4434 4437 4440 4442 4445 4447 4449 4452 4455 4457 4460 4463 4466 4469 4472 4475 4478 4481 4484 4487 4490 4492 4495 4498 4501 4504 4507 4510 4513 4516 4519 4522 4524 4527 4530 4533 4536 4538 4541 4544 4547 4550 4553 4556 4559 4562 4565 4568 4571 4574 4577 4580 4583 4585 4588 4591 4594 4597 4600 4603 4606 4609 4612 4615 4618 4621 4624 4627 4630 4633 4635 4637 4640 4642 4645 4647 4650 4652 4655 4657 4660 4662 4665 4668 4671 4674 4677 4680 4683 4685 4687 4690 4693 4695 4698 4701 4704 4707 4709 4712 4715 4718 4721 4723 4726 4728 4731 4734 4737 4740 4743 4746 4748 4751 4754 4757 4759 4762 4765 4768 4771 4774 4776 4779 4782 4785 4788 4791 4794 4797 4800 4803 4806 4808 4811 4814 4817 4820 4823 4826 4828 4831 4834 4836 4839 4841 4844 4847 4849 4852 4855 4858 4860 4862 4865 4868 4871 4874 4876 4879 4881 4884 4887 4890 4893 4896 4899 4902 4905 4908 4911 4913 4916 4919 4921 4924 4926 4929 4932 4935 4938 4941 4944 4946 4949 4952 4954 4957 4960 4963 4966 4969 4972 4975 4978 4980 4982 4985 4988 4991 4994 4996 4999 5002 5004 5007 5010 5012 5015 5018 5021 5024 5026 5029 5032 5034 5036 5039 5041 5043 5046 5048 5051 5054 5056 5058 5061 5063 5066 5069 5072 5074 5077 5080 5082 5085 5088 5091 5094 5097 5100 5103 5106 5109 5112 5115 5118 5121 5124 5126 5129 5132 5135 5137 5140 5143 5146 5149 5152 5155 5158 5160 5163 5166 5169 5172 5175 5178 5180 5183 5186 5189 5192 5194 5197 5200 5202 5205 5208 5211 5214 5217 5220 5223 5226 5229 5232 5235 5238 5241 5244 5247 5250 5252 5255 5258 5260 5263 5266 5269 5271 5274 5277 5280 5283 5285 5288 5291 5294 5296 5299 5302 5305 5307 5310 5313 5316 5319 5321 5324 5327 5330 5333 5336 5339 5342 5345 5347 5350 5352 5355 5358 5361 5364 5367 5370 5373 5376 5379 5382 5385 5388 5390 5393 5396 5398 5400 5402 5405 5408 5411 5413 5416 5419 5422 5425 5428 5431 5434 5437 5440 5443 5445 5447 5450 5453 5456 5458 5461 5464 5466 5469 5472 5475 5478 5481 5484 5487 5490 5493 5496 5498 5501 5504 5506 5509 5512 5515 5517 5519 5522 5525 5528 5531 5533 5536 5538 5541 5543 5546 5548 5550 5553 5556 5559 5562 5565 5568 5571 5573 5576 5579 5582 5584 5586 5589 5592 5595 5598 5601 5603 5606 5608 5610 5613 5616 5619 5622 5625 5628 5630 5633 5635 5638 5640 5643 5646 5649 5652 5654 5657 5660 5663 5665 5668 5671 5673 5676 5679 5682 5685 5687 5690 5693 5696 5699 5702 5705 5708 5710 5713 5716 5719 5722 5725 5728 5731 5734 5737 5740 5743 5746 5748 5751 5754 5757 5760 5763 5766 5769 5772 5775 5778 5781 5784 5787 5790 5792 5795 5798 5800 5803 5806 5809 5812 5814 5817 5820 5823 5826 5829 5832 5835 5838 5841 5843 5846 5848 5851 5854 5856 5859 5861 5864 5867 5870 5873 5876 5879 5882 5885 5888 5891 5893 5896 5899 5902 5904 5907 5910 5912 5915 5918 5921 5924 5927 5930 5933 5936 5939 5942 5945 5948 5951 5954 5957 5960 5963 5966 5969 5972 5974 5977 5979 5981 5984 5987 5989 5991 5994 5996 5999 6002 6005 6008 6010 6013 6016 6019 6021 6023 6026 6028 6031 6034 6037 6040 6042 6044 6046 6048 6051 6054 6056 6059 6062 6065 6067 6069 6072 6075 6077 6079 6082 6085 6087 6090 6093 6095 6098 6101 6103 6106 6109 6111 6114 6116 6118 6121 6124 6126 6129 6131 6134 6136 6138 6141 6144 6146 6149 6152 6154 6157 6160 6162 6164 6167 6169 6172 6174 6177 6179 6182 6185 6188 6191 6193 6196 6199 6201 6204 6206 6209 6212 6215 6217 6220 6223 6226 6229 6231 6233 6236 6239 6242 6244 6247 6250 6253 6256 6259 6262 6264 6267 6270 6273 6276 6278 6280 6283 6286 6289 6291 6294 6297 6299 6302 6304 6307 6310 6313 6315 6318 6321 6324 6327 6330 6333 6336 6339 6342 6345 6348 6351 6354 6357 6360 6363 6366 6368 6371 6374 6377 6380 6383 6386 6389 6392 6395 6398 6401 6404 6407 6410 6413 6416 6419 6422 6425 6428 6431 6434 6436 6439 6441 6444 6447 6450 6453 6456 6459 6461 6464 6467 6470 6473 6476 6478 6481 6483 6486 6488 6491 6494 6497 6500 6503 6506 6509 6511 6514 6516 6519 6522 6525 6528 6531 6533 6535 6538 6541 6543 6545 6548 6550 6553 6556 6559 6561 6564 6567 6570 6573 6576 6579 6581 6584 6587 6590 6593 6596 6599 6602 6605 6608 6611 6614 6617 6619 6622 6624 6627 6629 6631 6634 6637 6640 6643 6646 6648 6650 6653 6655 6658 6660 6663 6666 6669 6672 6675 6678 6681 6684 6687 6690 6693 6696 6698 6700 6703 6706 6709 6712 6714 6717 6720 6723 6726 6729 6732 6735 6738 6741 6744 6747 6750 6753 6756 6759 6762 6765 6768 6771 6774 6777 6780 6783 6786 6789 6792 6795 6798 6801 6803 6806 6809 6812 6815 6818 6821 6824 6827 6830 6833 6836 6838 6841 6844 6847 6850 6853 6856 6859 6862 6865 6867 6870 6872 6875 6877 6880 6883 6885 6888 6891 6894 6896 6899 6902 6905 6908 6911 6914 6917 6920 6923 6926 6929 6932 6935 6938 6941 6944 6946 6949 6952 6954 6957 6960 6962 6965 6967 6970 6973 6975 6978 6980 6983 6986 6989 6992 6994 6996 6999 7002 7005 7008 7011 7014 7017 7020 7023 7026 7029 7031 7034 7036 7039 7042 7044 7047 7050 7053 7056 7059 7062 7065 7067 7069 7071 7074 7077 7080 7082 7085 7088 7091 7094 7097 7100 7103 7105 7108 7111 7114 7116 7119 7121 7123 7126 7129 7132 7135 7138 7140 7143 7146 7149 7152 7155 7158 7161 7164 7167 7169 7172 7175 7178 7181 7184 7187 7190 7193 7196 7199 7202 7204 7207 7210 7213 7216 7219 7222 7225 7228 7231 7234 7237 7240 7243 7245 7248 7251 7254 7256 7259 7261 7264 7267 7270 7273 7276 7279 7282 7285 7288 7291 7294 7297 7300 7303 7305 7307 7310 7313 7316 7319 7322 7325 7328 7331 7334 7337 7340 7343 7345 7348 7351 7354 7357 7360 7362 7365 7368 7371 7374 7377 7380 7382 7385 7388 7391 7394 7397 7399 7402 7405 7408 7411 7414 7417 7420 7422 7425 7427 7430 7433 7436 7439 7441 7444 7447 7450 7453 7456 7459 7461 7463 7466 7469 7472 7475 7478 7481 7484 7487 7490 7493 7495 7497 7500 7503 7505 7508 7511 7514 7517 7520 7523 7526 7529 7531 7534 7536 7539 7542 7545 7548 7551 7554 7557 7560 7563 7566 7569 7572 7574 7577 7579 7582 7585 7588 7590 7593 7596 7599 7602 7605 7608 7611 7614 7617 7620 7623 7626 7629 7631 7634 7637 7640 7643 7646 7649 7652 7655 7658 7661 7664 7667 7670 7673 7676 7679 7682 7684 7687 7690 7692 7694 7697 7700 7702 7705 7708 7711 7714 7717 7720 7723 7726 7729 7731 7733 7736 7739 7742 7745 7748 7751 7754 7757 7760 7763 7765 7768 7771 7774 7777 7780 7783 7786 7788 7791 7794 7797 7800 7803 7806 7809 7812 7815 7818 7821 7824 7827 7830 7833 7836 7838 7840 7843 7846 7849 7852 7855 7858 7861 7864 7867 7870 7873 7876 7879 7882 7884 7887 7890 7893 7896 7899 7902 7905 7908 7911 7914 7917 7919 7922 7925 7928 7930 7933 7936 7939 7942 7945 7948 7951 7954 7957 7959 7962 7965 7968 7970 7973 7976 7979 7982 7985 7988 7991 7994 7997 8000 8003 8006 8009 8012 8015 8018 8021 8024 8027 8030 8033 8036 8039 8041 8044 8047 8050 8053 8055 8058 8061 8064 8067 8070 8073 8076 8078 8081 8084 8087 8090 8093 8096 8099 8102 8105 8108 8111 8114 8116 8119 8122 8125 8128 8131 8134 8137 8140 8143 8146 8149 8152 8155 8157 8160 8163 8166 8168 8171 8174 8176 8178 8181 8184 8187 8190 8193 8196 8199 8202 8204 8207 8209 8212 8214 8217 8219 8222 8225 8228 8231 8234 8237 8240 8243 8246 8249 8252 8255 8257 8260 8263 8266 8268 8271 8274 8277 8279 8281 8283 8286 8289 8292 8295 8297 8300 8303 8306 8309 8312 8315 8318 8321 8324 8327 8329 8332 8335 8338 8341 8344 8346 8349 8352 8354 8357 8360 8362 8365 8368 8371 8374 8377 8380 8383 8386 8389 8391 8394 8397 8400 8403 8406 8409 8412 8414 8417 8420 8422 8425 8427 8430 8432 8435 8438 8440 8443 8446 8449 8452 8455 8458 8461 8463 8466 8469 8471 8474 8477 8480 8482 8485 8488 8491 8493 8495 8498 8501 8504 8507 8510 8513 8516 8519 8522 8525 8528 8531 8533 8536 8539 8541 8544 8547 8550 8553 8556 8559 8562 8565 8568 8570 8573 8576 8579 8582 8585 8588 8591 8594 8597 8600 8602 8605 8608 8611 8614 8617 8620 8622 8625 8628 8631 8633 8636 8639 8642 8645 8648 8651 8654 8657 8659 8662 8665 8668 8671 8673 8676 8679 8682 8684 8687 8690 8693 8696 8699 8702 8705 8708 8711 8714 8716 8719 8722 8725 8728 8731 8734 8737 8740 8742 8745 8748 8751 8754 8757 8760 8763 8765 8768 8771 8773 8776 8778 8781 8784 8787 8790 8792 8794 8797 8800 8802 8805 8808 8811 8813 8816 8819 8822 8825 8827 8830 8833 8836 8839 8842 8845 8848 8851 8854 8857 8860 8863 8866 8869 8872 8875 8878 8880 8883 8886 8889 8891 8894 8897 8900 8903 8905 8908 8911 8913 8915 8918 8920 8922 8925 8927 8930 8933 8936 8939 8941 8944 8947 8950 8953 8955 8958 8961 8964 8967 8969 8971 8973 8976 8979 8981 8984 8986 8989 8992 8994 8997 9000 9003 9005 9008 9011 9014 9017 9020 9022 9025 9028 9031 9034 9037 9040 9043 9045 9048 9050 9053 9056 9059 9062 9065 9068 9071 9074 9077 9080 9083 9086 9089 9092 9095 9098 9101 9104 9107 9110 9113 9116 9119 9122 9125 9128 9131 9134 9137 9140 9143 9146 9149 9152 9154 9157 9160 9162 9165 9168 9171 9174 9177 9180 9183 9186 9189 9192 9195 9197 9200 9203 9206 9209 9212 9215 9218 9221 9224 9227 9230 9233 9236 9238 9241 9244 9247 9249 9252 9255 9258 9261 9264 9266 9269 9272 9275 9278 9281 9284 9287 9290 9293 9296 9299 9302 9305 9308 9311 9314 9317 9320 9323 9326 9329 9332 9335 9338 9341 9344 9347 9350 9353 9356 9359 9362 9365 9368 9371 9374 9377 9380 9383 9386 9389 9392 9395 9398 9401 9403 9406 9409 9412 9414 9417 9420 9422 9425 9428 9431 9434 9437 9440 9443 9446 9449 9451 9454 9457 9459 9462 9465 9468 9471 9474 9477 9480 9483 9486 9489 9492 9495 9497 9500 9503 9506 9509 9512 9514 9517 9520 9523 9525 9528 9531 9533 9536 9539 9541 9544 9547 9550 9553 9556 9559 9561 9564 9566 9569 9571 9574 9577 9579 9582 9585 9587 9590 9592 9595 9598 9600 9603 9606 9609 9612 9615 9618 9621 9623 9626 9629 9632 9635 9638 9641 9644 9647 9650 9653 9656 9659 9662 9665 9668 9671 9673 9676 9679 9682 9685 9688 9691 9694 9697 9699 9702 9705 9708 9711 9714 9716 9719 9722 9725 9728 9731 9734 9737 9740 9743 9746 9749 9752 9755 9758 9760 9763 9766 9769 9772 9775 9778 9780 9783 9786 9788 9791 9794 9797 9800 9803 9806 9809 9812 9815 9818 9820 9823 9826 9829 9831 9833 9836 9839 9841 9844 9847 9849 9852 9855 9858 9861 9864 9867 9869 9872 9874 9877 9880 9883 9885 9888 9891 9894 9897 9900 9903 9906 9909 9912 9914 9917 9919 9922 9924 9927 9929 9932 9935 9937 9940 9943 9946 9949 9952 9955 9958 9961 9963 9965 9968 9971 9974 9977 9980 9983 9986 9989 9992 9995 9998 10001 10004 10007 10010 10013 10016 10019 10022 10025 10028 10031 10034 10036 10039 10042 10045 10048 10051 10054 10057 10060 10062 10065 10068 10071 10074 10077 10080 10083 10086 10089 10092 10095 10098 10101 10104 10107 10110 10113 10116 10119 10122 10124 10127 10130 10133 10136 10139 10142 10145 10148 10151 10154 10157 10160 10163 10166 10169 10172 10175 10178 10181 10184 10187 10190 10193 10195 10198 10201 10204 10207 10209 10212 10214 10216 10219 10222 10225 10228 10231 10233 10235 10238 10241 10244 10247 10250 10253 10256 10259 10262 10265 10267 10270 10273 10276 10278 10281 10284 10287 10290 10293 10296 10299 10302 10304 10307 10310 10313 10316 10319 10322 10325 10328 10331 10334 10337 10340 10343 10345 10348 10351 10354 10357 10360 10362 10365 10368 10371 10374 10377 10379 10382 10385 10388 10391 10394 10397 10400 10403 10406 10408 10410 10413 10416 10419 10422 10425 10428 10431 10434 10437 10440 10443 10446 10449 10451 10454 10457 10460 10463 10466 10469 10472 10474 10477 10480 10483 10485 10488 10491 10494 10497 10500 10503 10506 10509 10512 10514 10517 10520 10523 10525 10528 10530 10533 10536 10539 10542 10545 10547 10550 10553 10556 10559 10562 10565 10568 10571 10574 10577 10580 10583 10586 10589 10592 10595 10598 10601 10604 10607 10610 10613 10616 10619 10622 10625 10628 10631 10634 10637 10640 10643 10646 10649 10652 10655 10658 10661 10664 10667 10670 10673 10676 10679 10681 10684 10687 10689 10692 10695 10697 10700 10703 10706 10709 10711 10713 10716 10719 10722 10725 10728 10731 10733 10736 10739 10742 10745 10748 10751 10754 10757 10760 10763 10766 10768 10771 10774 10777 10780 10783 10786 10789 10792 10795 10798 10801 10804 10807 10810 10813 10816 10819 10822 10824 10827 10829 10832 10835 10837 10840 10843 10846 10849 10852 10855 10858 10861 10863 10866 10869 10872 10875 10878 10881 10884 10887 10890 10893 10896 10899 10902 10905 10908 10911 10914 10917 10920 10923 10926 10929 10932 10935 10938 10941 10944 10947 10950 10953 10956 10959 10962 10965 10968 10970 10973 10976 10978 10981 10984 10987 10989 10992 10995 10998 11001 11004 11007 11009 11012 11015 11018 11020 11023 11026 11029 11032 11035 11038 11041 11044 11047 11050 11053 11055 11058 11060 11063 11066 11069 11072 11074 11077 11080 11083 11086 11089 11092 11095 11097 11100 11103 11106 11108 11111 11114 11117 11120 11123 11126 11129 11132 11135 11138 11141 11144 11146 11148 11150 11153 11156 11158 11161 11164 11167 11170 11173 11175 11178 11181 11184 11186 11189 11192 11194 11197 11200 11203 11205 11208 11210 11213 11216 11219 11222 11225 11228 11231 11234 11236 11239 11242 11244 11247 11250 11253 11256 11259 11262 11265 11268 11271 11274 11277 11280 11283 11285 11288 11291 11294 11297 11300 11303 11306 11308 11311 11314 11317 11319 11322 11325 11328 11331 11334 11337 11340 11343 11346 11349 11352 11355 11358 11361 11364 11366 11369 11372 11375 11378 11381 11384 11387 11390 11393 11396 11398 11400 11403 11406 11409 11412 11415 11418 11421 11424 11427 11430 11433 11436 11439 11442 11445 11448 11451 11454 11456 11459 11462 11464 11467 11469 11472 11475 11478 11481 11484 11487 11490 11493 11495 11498 11501 11504 11507 11509 11512 11515 11517 11520 11523 11526 11528 11531 11534 11537 11539 11542 11545 11548 11551 11553 11555 11558 11561 11564 11567 11570 11573 11575 11578 11581 11584 11587 11590 11593 11596 11599 11602 11605 11608 11611 11614 11617 11620 11623 11626 11629 11632 11635 11638 11641 11644 11647 11650 11653 11656 11659 11662 11665 11668 11671 11674 11677 11680 11683 11686 11689 11692 11695 11698 11701 11704 11707 11710 11713 11716 11719 11721 11724 11727 11730 11733 11736 11739 11742 11745 11748 11751 11754 11757 11760 11763 11766 11769 11772 11775 11778 11781 11784 11787 11790 11793 11796 11799 11802 11805 11807 11810 11813 11816 11819 11822 11824 11827 11830 11833 11836 11839 11842 11845 11848 11851 11854 11857 11860 11863 11865 11868 11871 11874 11877 11880 11882 11885 11888 11890 11893 11896 11899 11902 11905 11907 11910 11913 11916 11919 11922 11925 11928 11931 11934 11937 11940 11943 11946 11949 11952 11955 11958 11961 11963 11966 11969 11972 11974 11977 11980 11983 11986 11989 11992 11995 11997 12000 12003 12006 12009 12012 12015 12018 12021 12024 12027 12030 12033 12035 12038 12041 12044 12046 12049 12052 12055 12058 12061 12064 12067 12070 12073 12076 12079 12081 12084 12087 12089 12091 12093 12096 12099 12102 12105 12108 12111 12114 12117 12120 12123 12125 12128 12131 12133 12135 12138 12141 12144 12147 12150 12153 12156 12159 12162 12165 12168 12171 12173 12176 12179 12182 12185 12188 12191 12194 12197 12200 12203 12206 12209 12212 12215 12218 12221 12224 12227 12230 12233 12236 12239 12242 12245 12248 12251 12254 12257 12259 12262 12265 12268 12271 12274 12277 12280 12283 12286 12289 12292 12294 12297 12299 12302 12305 12308 12311 12313 12316 12319 12321 12324 12327 12330 12333 12336 12338 12341 12344 12346 12348 12351 12354 12357 12360 12363 12366 12368 12371 12374 12377 12379 12382 12384 12387 12390 12392 12395 12398 12401 12403 12406 12409 12412 12415 12418 12421 12424 12427 12429 12432 12435 12438 12441 12444 12447 12450 12452 12455 12458 12461 12464 12466 12469 12472 12475 12478 12481 12484 12487 12490 12493 12496 12499 12502 12505 12508 12511 12514 12517 12520 12523 12526 12528 12531 12534 12537 12540 12543 12546 12549 12552 12555 12558 12561 12564 12566 12568 12571 12574 12577 12580 12583 12586 12588 12591 12594 12597 12600 12603 12606 12609 12612 12615 12618 12621 12624 12627 12630 12633 12636 12638 12641 12644 12646 12649 12652 12655 12658 12661 12664 12666 12668 12671 12674 12677 12679 12682 12685 12688 12691 12693 12696 12698 12701 12704 12707 12710 12713 12716 12719 12721 12724 12727 12730 12733 12735 12738 12741 12743 12746 12749 12752 12755 12758 12761 12764 12767 12770 12773 12776 12778 12781 12784 12787 12789 12792 12795 12798 12801 12803 12806 12809 12812 12815 12818 12821 12824 12827 12830 12833 12836 12839 12842 12845 12848 12851 12854 12857 12860 12863 12866 12869 12872 12875 12878 12881 12883 12886 12888 12891 12894 12897 12900 12902 12905 12908 12911 12913 12916 12918 12921 12924 12927 12929 12932 12935 12938 12941 12944 12947 12949 12952 12955 12958 12961 12964 12967 12970 12973 12976 12978 12981 12984 12987 12990 12993 12995 12998 13001 13003 13006 13008 13011 13013 13016 13018 13021 13024 13027 13030 13033 13036 13039 13042 13044 13046 13049 13052 13055 13057 13060 13062 13065 13068 13071 13074 13076 13079 13082 13085 13088 13091 13094 13097 13100 13103 13105 13108 13111 13114 13117 13120 13123 13125 13127 13130 13133 13136 13139 13142 13145 13148 13151 13154 13157 13160 13163 13166 13168 13171 13174 13176 13178 13181 13184 13187 13189 13191 13194 13197 13200 13203 13206 13209 13212 13215 13218 13221 13224 13226 13229 13232 13235 13237 13240 13243 13246 13248 13251 13253 13256 13259 13262 13264 13267 13270 13273 13276 13278 13281 13284 13287 13290 13292 13295 13297 13299 13302 13304 13306 13309 13312 13314 13316 13318 13321 13323 13326 13329 13331 13334 13337 13339 13341 13344 13347 13350 13352 13355 13358 13361 13364 13367 13369 13372 13374 13377 13379 13382 13384 13387 13390 13392 13395 13398 13401 13404 13406 13409 13412 13414 13417 13420 13423 13426 13429 13432 13435 13438 13441 13444 13447 13450 13453 13456 13458 13461 13464 13467 13469 13472 13475 13477 13479 13482 13485 13488 13491 13494 13497 13500 13503 13506 13508 13511 13514 13517 13520 13523 13526 13528 13531 13534 13537 13539 13541 13543 13546 13549 13552 13554 13557 13560 13562 13565 13568 13571 13574 13577 13580 13583 13586 13588 13591 13593 13596 13599 13602 13605 13607 13610 13613 13616 13619 13622 13625 13628 13631 13634 13637 13640 13643 13646 13649 13652 13655 13658 13661 13664 13667 13669 13672 13674 13677 13680 13683 13686 13689 13692 13695 13698 13701 13704 13707 13710 13713 13716 13719 13722 13725 13728 13731 13734 13737 13740 13743 13746 13749 13752 13755 13758 13761 13764 13767 13770 13773 13776 13779 13782 13785 13787 13790 13793 13796 13799 13802 13805 13808 13811 13814 13817 13820 13823 13826 13829 13832 13835 13838 13841 13844 13847 13850 13853 13856 13859 13862 13865 13868 13871 13874 13877 13880 13883 13886 13889 13892 13895 13898 13901 13904 13907 13910 13913 13916 13919 13922 13925 13928 13931 13934 13937 13940 13943 13946 13949 13952 13955 13958 13961 13964 13967 13970 13973 13976 13979 13982 13984 13987 13989 13992 13995 13998 14001 14004 14006 14009 14012 14015 14018 14021 14024 14027 14030 14033 14036 14039 14042 14045 14048 14051 14054 14057 14060 14062 14065 14068 14071 14074 14076 14078 14081 14084 14086 14089 14092 14095 14097 14100 14103 14106 14109 14112 14114 14117 14120 14123 14126 14129 14132 14135 14137 14140 14143 14146 14149 14152 14155 14158 14161 14164 14167 14170 14172 14175 14178 14181 14183 14186 14189 14192 14195 14198 14201 14204 14207 14209 14212 14215 14218 14220 14222 14225 14228 14231 14234 14237 14240 14243 14246 14249 14252 14255 14258 14261 14264 14267 14270 14273 14276 14279 14282 14285 14288 14291 14293 14296 14299 14302 14305 14308 14311 14313 14316 14319 14322 14325 14328 14331 14334 14337 14340 14343 14346 14349 14352 14355 14358 14361 14364 14367 14370 14373 14376 14379 14382 14385 14388 14391 14394 14397 14400 14403 14406 14409 14412 14414 14417 14420 14423 14426 14429 14432 14435 14438 14441 14444 14446 14449 14452 14455 14458 14461 14464 14466 14469 14472 14475 14478 14481 14484 14487 14489 14492 14495 14498 14501 14504 14507 14510 14513 14516 14519 14522 14525 14528 14531 14533 14536 14539 14542 14545 14548 14550 14553 14556 14559 14562 14565 14568 14571 14574 14577 14580 14583 14586 14589 14592 14595 14598 14601 14604 14606 14609 14612 14615 14618 14621 14623 14626 14629 14631 14634 14637 14640 14642 14645 14648 14651 14654 14656 14659 14661 14664 14667 14670 14673 14675 14678 14681 14683 14686 14689 14692 14694 14697 14700 14703 14706 14709 14712 14715 14718 14721 14724 14727 14730 14733 14736 14738 14740 14743 14746 14748 14751 14754 14757 14760 14763 14766 14769 14772 14775 14778 14780 14783 14786 14789 14792 14795 14798 14801 14804 14807 14810 14813 14816 14819 14822 14824 14827 14830 14833 14835 14838 14841 14843 14846 14849 14852 14855 14858 14861 14864 14866 14869 14872 14874 14877 14880 14883 14886 14889 14892 14895 14898 14901 14904 14907 14910 14913 14916 14919 14922 14925 14928 14931 14933 14936 14938 14941 14943 14946 14949 14952 14955 14958 14961 14964 14967 14969 14971 14974 14977 14979 14982 14985 14988 14991 14994 14997 15000 15003 15006 15009 15012 15015 15018 15021 15023 15026 15028 15031 15034 15037 15040 15042 15045 15048 15051 15054 15057 15060 15063 15066 15069 15072 15075 15078 15081 15084 15087 15090 15093 15096 15099 15102 15105 15107 15110 15113 15116 15118 15121 15124 15127 15130 15133 15136 15139 15142 15145 15148 15151 15154 15157 15160 15163 15166 15169 15172 15175 15178 15181 15184 15187 15190 15193 15196 15199 15202 15205 15208 15211 15214 15217 15220 15223 15226 15229 15232 15235 15238 15240 15243 15246 15249 15252 15255 15258 15261 15263 15266 15269 15272 15274 15277 15280 15283 15286 15289 15292 15295 15298 15301 15304 15307 15310 15313 15316 15319 15321 15324 15327 15330 15333 15336 15339 15342 15345 15347 15350 15353 15356 15359 15362 15365 15368 15371 15374 15377 15380 15383 15386 15389 15391 15394 15397 15400 15403 15406 15409 15412 15415 15418 15421 15424 15427 15430 15433 15436 15438 15440 15443 15445 15448 15451 15454 15457 15459 15462 15464 15467 15470 15473 15476 15479 15481 15484 15486 15489 15491 15494 15497 15500 15503 15506 15509 15512 15515 15518 15520 15523 15525 15528 15531 15534 15537 15540 15543 15546 15549 15552 15555 15558 15561 15564 15566 15569 15572 15575 15578 15581 15584 15587 15590 15592 15595 15597 15600 15603 15606 15609 15612 15614 15617 15620 15623 15626 15629 15632 15635 15638 15641 15643 15646 15648 15651 15654 15657 15659 15662 15665 15668 15671 15673 15676 15678 15681 15684 15687 15690 15693 15696 15699 15702 15705 15707 15710 15713 15716 15719 15722 15725 15728 15730 15732 15735 15737 15740 15743 15746 15749 15752 15755 15758 15761 15764 15767 15770 15773 15776 15778 15781 15784 15786 15789 15792 15795 15797 15800 15803 15806 15809 15812 15815 15818 15821 15824 15827 15830 15833 15836 15839 15842 15845 15848 15851 15854 15857 15860 15863 15866 15869 15872 15875 15877 15880 15882 15885 15888 15891 15894 15897 15900 15903 15906 15909 15912 15915 15918 15921 15924 15927 15930 15933 15935 15938 15940 15943 15945 15948 15951 15954 15957 15959 15962 15964 15967 15970 15973 15976 15979 15982 15985 15988 15991 15994 15997 16000 16002 16005 16008 16011 16014 16017 16020 16023 16026 16029 16032 16035 16037 16040 16043 16046 16049 16052 16055 16058 16061 16064 16066 16069 16072 16075 16078 16081 16083 16086 16089 16092 16095 16098 16101 16103 16106 16109 16112 16114 16116 16119 16122 16125 16128 16131 16134 16136 16139 16142 16144 16147 16150 16152 16155 16157 16159 16162 16165 16167 16170 16173 16176 16179 16181 16183 16186 16189 16192 16195 16198 16201 16204 16207 16210 16213 16215 16218 16221 16224 16227 16230 16233 16236 16239 16242 16245 16248 16251 16254 16257 16260 16262 16265 16268 16271 16274 16277 16280 16283 16286 16289 16292 16295 16298 16301 16303 16306 16309 16312 16315 16317 16320 16323 16326 16329 16332 16334 16337 16340 16343 16346 16349 16352 16355 16358 16360 16363 16366 16369 16372 16374 16377 16380 16383 16386 16389 16392 16395 16398 16401 16404 16407 16410 16413 16416 16419 16422 16425 16428 16431 16434 16437 16440 16443 16446 16449 16452 16455 16458 16461 16464 16466 16469 16472 16475 16478 16481 16484 16487 16490 16493 16496 16499 16501 16503 16506 16509 16512 16515 16518 16521 16524 16527 16530 16533 16536 16539 16542 16545 16548 16551 16554 16557 16560 16563 16566 16569 16572 16575 16578 16581 16584 16586 16589 16592 16595 16598 16601 16604 16607 16610 16613 16616 16618 16621 16624 16627 16630 16633 16636 16639 16642 16645 16648 16651 16654 16657 16660 16663 16666 16669 16672 16675 16678 16680 16683 16686 16689 16692 16695 16698 16701 16703 16705 16708 16711 16714 16717 16719 16722 16725 16727 16730 16733 16736 16739 16742 16745 16748 16751 16754 16757 16760 16763 16766 16769 16772 16775 16778 16780 16783 16786 16789 16792 16795 16798 16801 16804 16806 16809 16812 16815 16818 16821 16823 16826 16829 16832 16834 16836 16839 16842 16844 16846 16849 16852 16855 16857 16859 16862 16864 16867 16870 16872 16875 16877 16880 16883 16886 16889 16891 16894 16897 16900 16903 16906 16909 16912 16915 16918 16921 16924 16927 16930 16933 16935 16938 16941 16943 16945 16948 16951 16954 16957 16960 16963 16965 16968 16971 16974 16977 16980 16983 16985 16988 16991 16993 16996 16999 17001 17004 17006 17009 17012 17015 17017 17020 17023 17026 17029 17032 17035 17038 17041 17044 17047 17050 17053 17056 17059 17062 17064 17067 17070 17073 17076 17079 17082 17085 17088 17091 17094 17097 17100 17103 17106 17109 17112 17115 17118 17121 17124 17126 17129 17132 17135 17138 17141 17144 17147 17150 17153 17156 17159 17161 17163 17166 17168 17171 17174 17176 17178 17181 17184 17187 17189 17191 17194 17196 17198 17201 17204 17207 17210 17213 17215 17217 17220 17222 17225 17227 17230 17233 17236 17239 17242 17245 17248 17250 17253 17256 17259 17261 17264 17266 17268 17270 17273 17276 17278 17281 17284 17286 17289 17292 17294 17297 17300 17303 17305 17307 17310 17313 17316 17319 17322 17325 17328 17331 17333 17335 17338 17341 17344 17347 17349 17352 17355 17358 17361 17363 17366 17368 17371 17373 17376 17379 17381 17384 17387 17390 17393 17396 17398 17400 17403 17406 17409 17412 17415 17418 17421 17423 17425 17427 17430 17432 17434 17436 17439 17441 17444 17447 17450 17452 17455 17458 17461 17464 17467 17469 17472 17474 17477 17479 17482 17485 17488 17490 17493 17496 17499 17502 17505 17508 17511 17514 17516 17519 17522 17525 17528 17531 17534 17537 17540 17543 17545 17548 17551 17554 17557 17560 17563 17566 17569 17572 17575 17578 17581 17584 17587 17590 17593 17596 17599 17602 17605 17608 17610 17613 17616 17619 17622 17625 17628 17631 17634 17637 17639 17642 17645 17648 17651 17654 17656 17659 17662 17665 17668 17671 17674 17677 17680 17683 17686 17689 17692 17695 17698 17701 17704 17707 17710 17713 17716 17719 17722 17725 17728 17731 17734 17736 17738 17741 17744 17747 17750 17753 17756 17759 17762 17765 17768 17771 17774 17777 17780 17782 17785 17788 17791 17794 17797 17800 17803 17806 17809 17812 17815 17818 17821 17824 17827 17830 17833 17836 17839 17841 17843 17846 17849 17852 17855 17857 17860 17863 17866 17869 17872 17875 17877 17880 17883 17886 17889 17892 17895 17898 17901 17903 17905 17908 17910 17913 17916 17919 17922 17925 17928 17931 17934 17937 17940 17943 17946 17949 17951 17954 17957 17960 17963 17966 17969 17972 17975 17978 17981 17984 17987 17990 17993 17995 17998 18001 18004 18007 18010 18013 18016 18019 18022 18025 18028 18031 18034 18037 18040 18043 18046 18049 18052 18055 18058 18061 18064 18067 18070 18073 18076 18078 18081 18084 18087 18090 18093 18096 18099 18102 18105 18108 18111 18114 18116 18119 18122 18125 18128 18131 18134 18137 18140 18143 18146 18149 18152 18155 18158 18161 18164 18167 18170 18173 18176 18179 18182 18184 18187 18190 18193 18196 18199 18202 18205 18208 18210 18212 18215 18217 18220 18223 18226 18229 18231 18234 18236 18239 18242 18244 18247 18250 18253 18256 18259 18262 18265 18268 18271 18274 18276 18279 18282 18285 18288 18291 18294 18297 18300 18303 18306 18309 18312 18315 18318 18321 18323 18326 18329 18332 18335 18337 18340 18343 18346 18349 18352 18355 18358 18361 18364 18367 18370 18373 18376 18379 18382 18385 18388 18391 18394 18397 18400 18403 18406 18409 18411 18414 18416 18419 18422 18424 18427 18430 18433 18436 18438 18441 18444 18446 18449 18452 18455 18458 18461 18464 18467 18470 18472 18475 18478 18480 18482 18485 18488 18491 18494 18496 18499 18502 18505 18507 18509 18512 18514 18517 18520 18522 18525 18527 18530 18533 18536 18539 18541 18544 18547 18550 18553 18556 18559 18562 18564 18567 18570 18573 18575 18578 18581 18583 18586 18589 18592 18595 18598 18601 18604 18607 18610 18613 18616 18618 18621 18624 18627 18629 18632 18635 18638 18641 18644 18647 18650 18653 18656 18659 18662 18665 18668 18671 18673 18676 18679 18682 18684 18687 18690 18693 18696 18699 18701 18704 18707 18710 18713 18716 18719 18722 18725 18728 18731 18734 18737 18740 18742 18745 18748 18751 18754 18756 18759 18762 18765 18768 18771 18774 18777 18780 18783 18786 18789 18792 18795 18798 18801 18804 18807 18809 18812 18814 18817 18820 18823 18826 18829 18832 18835 18838 18840 18842 18845 18848 18851 18854 18857 18859 18862 18865 18867 18870 18873 18876 18879 18882 18885 18888 18891 18894 18897 18899 18902 18905 18908 18911 18914 18917 18920 18923 18926 18929 18932 18934 18937 18940 18943 18945 18948 18951 18954 18957 18960 18963 18966 18968 18971 18974 18977 18980 18983 18986 18989 18992 18995 18998 19001 19004 19007 19010 19013 19016 19019 19022 19025 19027 19029 19032 19035 19038 19040 19043 19045 19048 19051 19054 19057 19060 19063 19066 19069 19072 19075 19078 19081 19084 19087 19090 19093 19096 19099 19102 19105 19108 19111 19114 19117 19120 19123 19125 19128 19131 19133 19136 19139 19142 19145 19148 19151 19154 19157 19159 19162 19164 19167 19170 19173 19176 19179 19182 19185 19188 19191 19194 19197 19200 19203 19206 19209 19212 19215 19217 19220 19223 19226 19228 19231 19234 19237 19240 19242 19244 19246 19249 19252 19255 19258 19261 19264 19267 19269 19272 19275 19277 19280 19283 19286 19289 19292 19295 19298 19301 19304 19307 19309 19312 19315 19318 19321 19324 19327 19330 19333 19336 19339 19342 19345 19348 19351 19354 19357 19360 19363 19366 19369 19372 19375 19378 19381 19384 19387 19389 19392 19395 19398 19401 19404 19407 19410 19413 19416 19419 19421 19424 19427 19430 19433 19435 19438 19441 19444 19447 19450 19452 19455 19458 19461 19464 19467 19469 19472 19475 19477 19480 19483 19486 19489 19492 19495 19498 19501 19504 19507 19510 19513 19516 19519 19522 19525 19528 19531 19534 19537 19540 19543 19546 19549 19552 19555 19558 19561 19564 19567 19570 19573 19576 19579 19582 19585 19588 19590 19593 19596 19599 19602 19605 19608 19611 19614 19617 19620 19622 19625 19628 19631 19634 19637 19640 19643 19646 19649 19652 19655 19658 19661 19664 19667 19670 19673 19676 19679 19681 19684 19687 19689 19692 19695 19698 19701 19704 19706 19708 19711 19714 19717 19720 19723 19725 19727 19730 19733 19736 19739 19742 19744 19747 19750 19753 19755 19758 19760 19763 19766 19768 19771 19774 19777 19779 19782 19784 19787 19790 19792 19795 19798 19801 19804 19806 19809 19811 19814 19816 19818 19821 19824 19827 19829 19832 19835 19838 19841 19843 19846 19849 19852 19854 19857 19860 19863 19866 19869 19872 19875 19878 19881 19884 19887 19890 19893 19896 19899 19902 19905 19908 19911 19914 19917 19920 19923 19926 19929 19932 19935 19938 19941 19944 19947 19950 19953 19956 19959 19962 19965 19968 19971 19974 19977 19980 19983 19986 19989 19992 19995 19998 20001 20004 20006 20009 20012 20015 20018 20021 20024 20027 20030 20033 20036 20039 20042 20045 20048 20051 20054 20057 20060 20063 20066 20069 20072 20075 20078 20081 20083 20086 20089 20092 20095 20098 20101 20104 20107 20110 20113 20116 20119 20122 20125 20128 20131 20134 20136 20139 20142 20145 20148 20150 20153 20156 20159 20162 20165 20168 20171 20174 20177 20180 20182 20185 20188 20191 20194 20197 20200 20203 20206 20209 20212 20215 20218 20221 20224 20227 20230 20233 20235 20237 20240 20243 20246 20249 20252 20255 20258 20261 20264 20267 20270 20272 20275 20278 20281 20284 20286 20289 20292 20295 20298 20300 20302 20305 20308 20311 20314 20317 20319 20322 20325 20327 20330 20333 20336 20339 20342 20345 20348 20351 20353 20356 20359 20362 20365 20368 20371 20374 20377 20380 20383 20386 20389 20392 20395 20398 20400 20403 20406 20409 20412 20415 20418 20421 20424 20427 20430 20433 20436 20439 20442 20445 20448 20451 20454 20457 20460 20463 20466 20469 20472 20475 20478 20481 20484 20487 20490 20493 20496 20499 20502 20505 20508 20511 20514 20517 20520 20523 20526 20529 20532 20535 20538 20541 20544 20547 20550 20553 20556 20559 20562 20565 20568 20571 20574 20577 20580 20583 20586 20589 20592 20595 20598 20600 20603 20606 20609 20612 20615 20618 20621 20624 20627 20630 20633 20635 20638 20641 20644 20647 20650 20653 20656 20659 20662 20665 20668 20671 20673 20676 20679 20682 20684 20687 20690 20692 20694 20696 20699 20701 20704 20706 20709 20712 20715 20717 20719 20722 20725 20728 20731 20733 20736 20739 20742 20744 20747 20750 20753 20756 20759 20762 20765 20768 20771 20773 20776 20779 20781 20784 20787 20789 20792 20795 20797 20800 20803 20805 20808 20810 20812 20815 20818 20821 20824 20827 20829 20831 20834 20837 20840 20843 20846 20849 20852 20854 20857 20860 20863 20865 20868 20870 20873 20875 20877 20879 20882 20885 20888 20891 20894 20896 20899 20902 20905 20907 20910 20913 20916 20919 20922 20925 20927 20930 20933 20935 20938 20941 20944 20947 20950 20953 20955 20958 20961 20963 20966 20969 20972 20975 20978 20980 20982 20985 20988 20991 20993 20996 20999 21002 21005 21008 21010 21013 21016 21018 21020 21023 21026 21029 21031 21034 21037 21039 21041 21044 21047 21049 21051 21053 21056 21059 21062 21065 21068 21071 21074 21077 21080 21083 21086 21088 21091 21094 21097 21100 21103 21105 21108 21111 21114 21117 21120 21123 21126 21129 21132 21135 21138 21141 21144 21146 21149 21152 21155 21157 21160 21163 21166 21169 21172 21175 21177 21180 21183 21185 21188 21191 21194 21197 21199 21201 21204 21207 21209 21211 21213 21215 21218 21221 21224 21226 21228 21231 21234 21237 21240 21243 21246 21249 21252 21255 21257 21259 21262 21265 21268 21270 21272 21275 21278 21281 21283 21286 21289 21292 21295 21298 21301 21304 21307 21310 21313 21316 21319 21322 21325 21328 21331 21333 21336 21339 21342 21345 21347 21349 21351 21354 21356 21359 21362 21365 21368 21371 21374 21377 21380 21382 21384 21387 21389 21392 21395 21398 21401 21404 21407 21410 21413 21416 21419 21422 21425 21428 21431 21434 21437 21440 21443 21446 21448 21451 21454 21457 21459 21462 21465 21467 21470 21473 21476 21479 21482 21485 21488 21491 21494 21497 21500 21502 21505 21508 21511 21514 21517 21520 21523 21526 21529 21532 21534 21537 21540 21543 21546 21549 21552 21555 21558 21561 21564 21567 21570 21573 21575 21578 21581 21584 21587 21590 21593 21596 21599 21602 21605 21608 21611 21614 21617 21620 21622 21625 21628 21631 21634 21637 21640 21643 21646 21649 21652 21655 21658 21661 21664 21667 21669 21672 21675 21678 21681 21684 21686 21689 21692 21695 21698 21701 21704 21707 21710 21713 21715 21718 21720 21723 21725 21728 21731 21733 21735 21738 21740 21743 21746 21749 21752 21755 21758 21761 21764 21767 21770 21773 21776 21779 21782 21785 21788 21791 21794 21797 21800 21803 21806 21809 21812 21814 21817 21820 21823 21826 21829 21831 21834 21837 21840 21843 21845 21848 21851 21854 21856 21858 21861 21864 21867 21870 21872 21874 21877 21879 21882 21884 21886 21889 21892 21895 21897 21900 21903 21906 21909 21911 21914 21917 21920 21922 21925 21928 21931 21934 21937 21940 21942 21944 21947 21950 21953 21955 21958 21961 21964 21967 21970 21973 21976 21979 21981 21984 21987 21990 21993 21996 21999 22002 22004 22007 22010 22013 22016 22019 22022 22025 22028 22031 22033 22036 22039 22042 22045 22048 22051 22054 22057 22060 22063 22065 22068 22071 22074 22077 22080 22083 22085 22087 22090 22093 22096 22099 22101 22104 22107 22110 22112 22115 22118 22121 22123 22126 22129 22132 22134 22137 22140 22143 22146 22149 22151 22154 22157 22160 22163 22166 22169 22171 22174 22177 22179 22182 22185 22188 22191 22194 22197 22200 22203 22206 22209 22212 22215 22218 22221 22224 22227 22230 22233 22236 22239 22242 22245 22248 22251 22254 22257 22260 22263 22266 22269 22272 22275 22278 22281 22284 22287 22290 22293 22296 22299 22302 22305 22308 22311 22314 22317 22320 22323 22326 22329 22332 22335 22338 22341 22344 22347 22350 22353 22356 22358 22361 22364 22367 22370 22372 22375 22378 22381 22384 22387 22390 22393 22396 22399 22402 22405 22408 22411 22414 22417 22420 22423 22426 22429 22432 22434 22437 22440 22442 22445 22448 22450 22453 22456 22459 22462 22465 22467 22470 22473 22476 22479 22482 22484 22486 22489 22491 22493 22496 22499 22502 22504 22507 22510 22512 22514 22516 22519 22521 22524 22527 22530 22532 22535 22538 22541 22544 22547 22550 22553 22555 22557 22560 22562 22565 22568 22570 22572 22574 22577 22580 22582 22585 22588 22590 22593 22596 22599 22601 22604 22607 22610 22613 22616 22619 22621 22624 22627 22630 22633 22636 22639 22641 22644 22647 22649 22652 22655 22658 22661 22664 22667 22670 22673 22676 22679 22682 22685 22688 22691 22693 22696 22699 22702 22705 22708 22711 22714 22716 22719 22721 22724 22727 22730 22733 22735 22738 22741 22744 22747 22750 22753 22756 22759 22762 22765 22768 22771 22774 22777 22780 22783 22786 22789 22792 22795 22798 22801 22804 22807 22810 22813 22816 22819 22822 22825 22828 22831 22834 22837 22840 22843 22846 22848 22851 22854 22857 22860 22863 22866 22869 22872 22875 22878 22880 22883 22886 22889 22892 22895 22898 22901 22904 22907 22910 22913 22916 22919 22922 22925 22928 22931 22934 22937 22940 22943 22946 22949 22952 22955 22958 22961 22964 22966 22969 22972 22975 22977 22980 22983 22986 22988 22990 22993 22996 22999 23002 23005 23008 23011 23014 23017 23019 23022 23025 23028 23031 23034 23037 23040 23043 23046 23049 23052 23055 23058 23061 23064 23067 23070 23073 23076 23079 23082 23085 23087 23090 23093 23095 23098 23101 23104 23107 23110 23113 23116 23119 23122 23124 23127 23130 23133 23136 23139 23142 23144 23147 23149 23152 23154 23157 23160 23163 23166 23169 23172 23175 23178 23180 23183 23186 23189 23191 23194 23197 23200 23203 23206 23208 23211 23214 23216 23218 23221 23224 23227 23229 23232 23235 23238 23241 23243 23246 23249 23252 23255 23258 23261 23264 23267 23270 23273 23276 23279 23282 23285 23288 23291 23294 23297 23300 23303 23306 23309 23312 23315 23318 23321 23323 23326 23328 23331 23334 23337 23340 23343 23346 23349 23352 23355 23358 23361 23363 23366 23369 23372 23374 23377 23380 23383 23386 23389 23392 23395 23398 23401 23404 23407 23410 23413 23415 23418 23421 23424 23427 23430 23433 23436 23438 23441 23444 23447 23450 23452 23455 23457 23460 23463 23466 23469 23472 23474 23477 23480 23483 23486 23489 23492 23495 23498 23501 23504 23507 23509 23512 23515 23518 23521 23524 23527 23530 23533 23536 23539 23542 23545 23548 23551 23554 23557 23559 23562 23565 23568 23570 23573 23576 23579 23582 23585 23588 23591 23594 23596 23599 23602 23605 23608 23611 23614 23617 23620 23623 23626 23629 23632 23635 23638 23641 23644 23647 23650 23653 23656 23659 23662 23665 23668 23671 23674 23677 23680 23683 23686 23689 23692 23694 23697 23700 23703 23706 23709 23712 23715 23718 23721 23724 23727 23730 23733 23736 23739 23742 23745 23748 23751 23754 23757 23760 23763 23765 23768 23771 23774 23777 23780 23782 23784 23787 23790 23793 23796 23799 23802 23804 23807 23810 23812 23815 23818 23821 23824 23827 23830 23833 23835 23838 23841 23844 23846 23849 23852 23855 23857 23860 23863 23866 23869 23871 23874 23877 23880 23883 23885 23888 23891 23893 23896 23899 23901 23904 23907 23910 23913 23916 23919 23922 23925 23928 23931 23934 23937 23940 23943 23946 23949 23952 23955 23958 23961 23964 23967 23970 23973 23976 23978 23981 23983 23986 23989 23991 23994 23997 24000 24002 24005 24008 24011 24014 24017 24020 24023 24026 24029 24032 24035 24038 24041 24044 24047 24050 24053 24056 24059 24062 24065 24068 24070 24073 24076 24079 24082 24085 24088 24091 24093 24096 24099 24102 24105 24107 24110 24113 24116 24119 24122 24125 24128 24131 24133 24135 24138 24141 24144 24147 24150 24152 24155 24158 24161 24164 24167 24170 24173 24176 24179 24182 24184 24187 24190 24193 24195 24198 24201 24204 24207 24210 24213 24216 24218 24221 24224 24226 24228 24231 24234 24237 24240 24243 24246 24249 24251 24254 24257 24260 24263 24266 24269 24271 24274 24277 24280 24283 24286 24289 24292 24294 24297 24300 24303 24306 24309 24311 24314 24316 24319 24321 24324 24327 24330 24333 24336 24338 24341 24344 24347 24350 24353 24356 24359 24362 24365 24368 24371 24374 24377 24380 24383 24386 24389 24392 24395 24398 24401 24404 24407 24410 24413 24416 24419 24422 24425 24428 24431 24434 24437 24440 24443 24445 24448 24451 24454 24457 24460 24462 24465 24467 24470 24473 24475 24478 24481 24483 24486 24489 24492 24495 24498 24501 24504 24507 24510 24513 24515 24518 24521 24524 24527 24529 24532 24535 24538 24540 24542 24545 24548 24550 24553 24556 24559 24562 24565 24568 24571 24574 24577 24580 24582 24585 24587 24590 24592 24595 24598 24600 24602 24604 24607 24610 24613 24616 24618 24621 24624 24627 24630 24633 24636 24639 24642 24645 24648 24650 24653 24656 24659 24662 24664 24667 24670 24673 24675 24678 24681 24684 24687 24690 24692 24695 24698 24701 24704 24707 24710 24713 24715 24718 24721 24724 24727 24730 24733 24736 24739 24742 24745 24748 24751 24754 24757 24759 24762 24765 24767 24770 24773 24776 24779 24782 24785 24788 24791 24794 24797 24800 24803 24806 24809 24812 24815 24817 24820 24823 24826 24829 24832 24835 24838 24841 24843 24846 24849 24852 24855 24858 24861 24864 24867 24870 24873 24876 24879 24882 24885 24887 24890 24893 24896 24898 24901 24904 24907 24910 24913 24916 24919 24921 24924 24927 24930 24933 24936 24939 24942 24945 24948 24951 24954 24957 24960 24963 24966 24969 24971 24974 24976 24979 24982 24985 24988 24991 24993 24996 24999 25002 25005 25008 25011 25014 25017 25020 25023 25026 25029 25032 25035 25038 25041 25044 25047 25049 25052 25055 25058 25061 25064 25066 25069 25072 25075 25078 25081 25083 25086 25089 25092 25095 25098 25100 25103 25106 25109 25112 25114 25117 25120 25123 25126 25129 25132 25135 25138 25140 25143 25146 25149 25152 25155 25158 25161 25164 25167 25170 25173 25176 25179 25182 25185 25188 25191 25194 25197 25200 25203 25206 25209 25211 25214 25217 25220 25223 25226 25229 25232 25235 25237 25240 25243 25246 25249 25252 25255 25258 25261 25263 25266 25269 25272 25275 25278 25281 25284 25287 25290 25293 25296 25299 25302 25305 25308 25310 25313 25316 25318 25321 25324 25327 25330 25333 25336 25339 25342 25345 25348 25351 25354 25357 25360 25363 25366 25368 25371 25374 25377 25380 25383 25386 25389 25392 25395 25398 25401 25404 25407 25410 25413 25416 25419 25422 25425 25428 25431 25434 25437 25440 25443 25445 25448 25451 25453 25456 25458 25461 25464 25467 25470 25472 25474 25477 25480 25482 25484 25487 25489 25491 25493 25496 25499 25502 25505 25508 25510 25513 25516 25519 25522 25524 25527 25530 25533 25535 25538 25541 25543 25546 25549 25551 25554 25557 25560 25562 25565 25568 25570 25572 25575 25578 25581 25584 25587 25590 25593 25596 25599 25602 25604 25607 25610 25613 25615 25618 25621 25624 25626 25629 25632 25635 25638 25640 25643 25646 25649 25651 25654 25657 25660 25662 25665 25668 25671 25673 25676 25679 25682 25685 25688 25691 25694 25696 25699 25702 25704 25707 25710 25713 25716 25719 25721 25724 25727 25730 25733 25736 25738 25741 25744 25747 25750 25753 25756 25759 25762 25765 25768 25770 25773 25776 25779 25782 25785 25788 25791 25794 25797 25800 25803 25806 25809 25812 25815 25818 25820 25823 25826 25829 25831 25834 25837 25840 25843 25846 25848 25851 25854 25857 25860 25863 25866 25869 25872 25875 25878 25881 25884 25887 25890 25893 25896 25899 25902 25904 25907 25910 25913 25916 25918 25921 25924 25927 25929 25932 25934 25937 25940 25943 25946 25949 25951 25954 25956 25958 25960 25963 25966 25969 25971 25974 25977 25980 25983 25986 25988 25991 25994 25997 26000 26003 26006 26009 26012 26015 26018 26021 26023 26026 26029 26031 26033 26036 26039 26042 26045 26048 26051 26054 26056 26059 26061 26064 26067 26070 26073 26076 26079 26082 26085 26088 26091 26094 26097 26100 26102 26105 26108 26111 26114 26116 26118 26121 26124 26126 26129 26132 26134 26137 26140 26143 26145 26147 26150 26153 26156 26159 26162 26164 26167 26170 26173 26176 26179 26182 26185 26188 26191 26194 26197 26199 26202 26205 26208 26211 26214 26217 26220 26223 26225 26228 26231 26234 26237 26240 26243 26246 26249 26251 26254 26257 26260 26263 26266 26269 26272 26274 26277 26280 26283 26286 26289 26292 26294 26297 26300 26302 26305 26308 26311 26314 26317 26319 26322 26325 26328 26330 26332 26334 26337 26339 26342 26345 26348 26351 26354 26357 26360 26363 26366 26369 26372 26375 26378 26381 26384 26387 26390 26393 26396 26399 26401 26404 26406 26409 26412 26415 26418 26421 26424 26427 26430 26433 26436 26439 26442 26445 26448 26451 26454 26457 26460 26463 26466 26469 26472 26475 26478 26481 26484 26487 26490 26493 26496 26499 26502 26504 26507 26510 26513 26516 26519 26522 26525 26528 26531 26534 26537 26540 26542 26544 26547 26550 26553 26556 26559 26562 26565 26567 26570 26573 26576 26579 26582 26584 26587 26590 26593 26596 26598 26601 26604 26607 26609 26612 26615 26618 26621 26623 26626 26629 26632 26634 26636 26639 26642 26645 26648 26651 26653 26656 26659 26661 26663 26666 26669 26671 26674 26677 26679 26682 26685 26688 26690 26692 26695 26698 26701 26704 26707 26710 26713 26716 26719 26722 26724 26727 26730 26732 26735 26738 26740 26743 26746 26748 26750 26753 26756 26759 26762 26765 26768 26771 26774 26777 26780 26783 26786 26789 26792 26795 26798 26800 26802 26805 26808 26811 26814 26817 26820 26823 26826 26828 26831 26834 26837 26839 26842 26845 26848 26851 26853 26856 26859 26862 26865 26868 26871 26873 26876 26879 26882 26884 26887 26890 26893 26896 26899 26902 26905 26908 26911 26914 26917 26920 26923 26926 26929 26932 26935 26938 26941 26944 26947 26950 26953 26956 26959 26962 26965 26967 26970 26973 26976 26979 26981 26984 26987 26990 26993 26996 26999 27002 27005 27008 27011 27014 27017 27020 27023 27025 27028 27031 27034 27037 27040 27043 27046 27048 27051 27053 27056 27059 27062 27065 27067 27070 27073 27076 27079 27081 27084 27087 27090 27093 27095 27098 27101 27103 27106 27109 27112 27115 27117 27120 27123 27126 27128 27131 27133 27136 27138 27141 27143 27145 27148 27151 27154 27157 27160 27163 27166 27169 27172 27175 27178 27181 27184 27187 27190 27193 27196 27199 27202 27205 27208 27211 27214 27217 27220 27223 27226 27229 27232 27235 27238 27241 27244 27247 27250 27253 27256 27259 27262 27264 27267 27270 27273 27276 27279 27282 27284 27287 27290 27293 27296 27299 27302 27305 27308 27311 27314 27317 27320 27323 27326 27329 27332 27335 27338 27341 27344 27347 27350 27353 27356 27359 27362 27365 27368 27371 27374 27377 27380 27383 27386 27389 27392 27395 27398 27401 27404 27407 27410 27413 27416 27419 27421 27424 27427 27430 27433 27436 27439 27442 27444 27447 27450 27453 27456 27459 27462 27465 27468 27471 27474 27477 27480 27483 27486 27489 27492 27495 27498 27501 27504 27507 27510 27513 27516 27519 27522 27525 27528 27531 27534 27537 27540 27543 27546 27549 27552 27555 27558 27561 27564 27567 27570 27573 27576 27579 27582 27585 27588 27591 27594 27597 27600 27603 27606 27609 27612 27615 27618 27621 27623 27625 27628 27631 27634 27637 27640 27643 27646 27648 27651 27654 27656 27658 27660 27663 27665 27668 27671 27674 27677 27680 27682 27685 27688 27690 27693 27696 27699 27702 27705 27708 27711 27714 27717 27720 27723 27726 27729 27732 27735 27738 27741 27744 27747 27750 27752 27755 27758 27761 27763 27766 27769 27771 27773 27775 27778 27781 27784 27787 27790 27792 27794 27797 27800 27803 27806 27809 27812 27815 27817 27820 27823 27826 27829 27832 27835 27838 27841 27844 27847 27850 27853 27856 27859 27862 27865 27868 27871 27874 27877 27880 27883 27886 27889 27892 27895 27898 27901 27904 27906 27909 27912 27915 27917 27920 27923 27926 27929 27932 27934 27937 27940 27943 27945 27947 27950 27953 27956 27959 27962 27964 27967 27970 27973 27975 27978 27981 27983 27985 27988 27991 27993 27996 27998 28001 28004 28006 28009 28012 28015 28018 28021 28023 28026 28029 28032 28035 28038 28041 28044 28047 28050 28053 28056 28059 28062 28065 28068 28071 28074 28077 28080 28083 28086 28089 28092 28095 28097 28100 28103 28106 28109 28112 28115 28118 28121 28124 28127 28130 28133 28136 28139 28142 28145 28147 28150 28153 28156 28159 28162 28165 28168 28171 28174 28177 28180 28183 28186 28189 28192 28195 28198 28201 28204 28207 28210 28213 28216 28218 28221 28224 28227 28230 28233 28236 28239 28242 28245 28248 28251 28254 28257 28260 28263 28265 28268 28271 28274 28277 28280 28283 28286 28289 28292 28294 28297 28300 28303 28306 28308 28311 28313 28316 28318 28321 28324 28327 28330 28333 28336 28338 28341 28344 28347 28349 28351 28354 28357 28360 28363 28366 28369 28372 28374 28377 28380 28383 28385 28388 28390 28392 28395 28398 28401 28404 28407 28410 28412 28415 28418 28421 28424 28427 28430 28433 28436 28439 28442 28445 28447 28450 28453 28456 28458 28461 28464 28467 28470 28473 28476 28479 28482 28485 28487 28490 28493 28496 28499 28502 28504 28507 28510 28513 28516 28518 28521 28524 28527 28530 28533 28536 28539 28541 28544 28547 28550 28553 28556 28559 28561 28564 28567 28570 28573 28576 28579 28582 28585 28588 28591 28594 28597 28600 28603 28606 28609 28612 28615 28618 28621 28624 28627 28629 28632 28635 28638 28641 28644 28647 28650 28653 28656 28659 28661 28664 28667 28670 28673 28676 28678 28681 28684 28687 28689 28691 28694 28697 28700 28702 28705 28708 28711 28713 28716 28719 28722 28724 28727 28730 28733 28736 28739 28742 28745 28747 28750 28753 28756 28758 28761 28764 28767 28770 28772 28775 28778 28781 28784 28787 28790 28793 28796 28798 28801 28804 28807 28809 28811 28814 28817 28820 28822 28825 28827 28830 28833 28835 28838 28841 28844 28847 28850 28852 28855 28858 28861 28864 28867 28870 28872 28875 28878 28881 28884 28887 28890 28893 28895 28898 28901 28903 28906 28909 28912 28915 28917 28920 28923 28925 28928 28930 28933 28936 28939 28942 28945 28947 28950 28953 28956 28959 28962 28965 28968 28970 28973 28975 28977 28980 28983 28985 28988 28991 28994 28997 29000 29003 29006 29008 29010 29013 29016 29019 29022 29025 29027 29029 29032 29035 29038 29041 29043 29045 29048 29051 29053 29056 29058 29061 29064 29067 29069 29072 29075 29077 29080 29082 29084 29087 29089 29092 29094 29097 29100 29103 29106 29108 29111 29113 29116 29118 29120 29123 29125 29127 29130 29133 29136 29138 29141 29144 29147 29150 29153 29155 29157 29160 29162 29165 29167 29170 29173 29175 29178 29180 29183 29185 29187 29189 29192 29195 29198 29201 29204 29206 29208 29211 29213 29216 29218 29221 29224 29227 29230 29233 29235 29237 29239 29242 29245 29248 29251 29253 29256 29259 29262 29264 29267 29269 29272 29275 29278 29281 29284 29287 29289 29292 29295 29298 29300 29303 29306 29309 29312 29315 29318 29320 29323 29326 29328 29331 29333 29336 29338 29341 29344 29347 29349 29352 29354 29357 29359 29362 29365 29368 29371 29373 29376 29379 29381 29384 29387 29389 29391 29394 29397 29400 29402 29405 29408 29411 29413 29416 29418 29421 29424 29426 29428 29431 29433 29436 29438 29441 29444 29447 29449 29451 29454 29456 29459 29462 29465 29468 29471 29474 29476 29479 29482 29484 29487 29490 29493 29495 29498 29501 29504 29507 29510 29513 29515 29518 29521 29524 29526 29528 29531 29534 29537 29540 29542 29545 29548 29551 29554 29557 29559 29562 29565 29568 29571 29573 29576 29579 29582 29584 29587 29590 29593 29596 29598 29601 29604 29607 29610 29613 29616 29618 29621 29624 29626 29629 29632 29635 29638 29640 29643 29646 29649 29651 29654 29656 29659 29662 29665 29668 29670 29673 29676 29678 29681 29684 29687 29690 29693 29696 29699 29702 29705 29708 29711 29714 29717 29720 29723 29726 29729 29732 29735 29738 29740 29742 29745 29748 29751 29754 29757 29759 29762 29764 29766 29768 29770 29773 29776 29779 29781 29784 29786 29788 29791 29794 29797 29800 29803 29805 29808 29810 29813 29816 29818 29821 
</DataArray>
<DataArray type="UInt32" Name="types" format="ascii">
5 5 5 5 5 5 3 5 5 5 3 5 5 3 5 3 5 5 5 3 3 5 5 3 5 5 5 5 5 5 3 5 5 5 5 5 5 5 5 3 5 3 5 3 5 3 5 5 3 5 3 5 3 5 5 5 5 3 5 5 5 5 5 3 5 5 5 5 5 5 5 5 5 3 5 3 5 5 5 5 3 5 5 5 5 5 5 5 5 3 5 5 5 5 5 5 5 5 5 5 5 5 5 5 5 5 5 5 5 5 5 5 3 5 3 5 5 5 5 5 5 3 5 5 3 5 5 5 5 5 3 5 5 5 5 3 5 5 3 5 3 5 3 5 5 3 5 3 5 5 5 3 5 5 5 5 5 5 5 5 5 5 5 5 5 5 5 5 5 5 5 3 5 3 5 5 5 5 5 3 3 5 5 5 5 5 5 5 5 5 5 3 5 3 5 5 5 3 5 5 3 5 5 3 5 5 5 5 3 5 5 5 3 5 5 5 5 5 3 5 3 5 5 5 5 5 5 3 5 5 5 5 5 5 5 5 5 5 5 5 5 5 5 5 5 5 5 5 5 5 5 5 5 5 5 5 5 5 5 5 5 5 5 5 3 5 5 5 5 5 5 5 5 3 5 5 5 5 5 5 5 5 5 5 5 5 5 5 3 5 5 5 5 5 3 5 3 5 5 3 5 3 3 5 3 5 3 5 3 5 5 3 5 3 5 5 3 5 5 5 5 5 5 5 5 5 3 3 5 5 5 5 3 5 5 3 5 5 3 5 5 3 3 3 3 5 3 5 5 5 3 5 5 5 5 5 5 5 5 3 5 5 3 5 3 5 5 5 5 5 5 5 3 3 5 5 5 5 5 5 5 5 5 5 3 3 3 5 3 3 3 3 3 5 3 5 3 5 3 5 5 3 5 3 5 3 3 5 5 3 5 3 5 5 5 5 5 3 5 5 5 5 5 5 5 5 5 5 5 5 5 5 3 3 5 5 5 5 5 5 5 5 3 5 5 5 5 5 5 5 5 5 5 3 5 5 5 3 5 5 5 5 5 5 5 5 5 5 5 5 5 5 5 5 5 5 5 5 5 5 5 5 5 5 5 5 5 5 5 5 5 5 5 5 5 5 5 5 5 5 5 5 5 5 5 5 5 5 5 5 5 5 5 5 5 5 5 5 5 5 5 5 5 5 5 5 5 5 3 5 3 5 5 5 5 5 5 5 3 5 5 5 5 5 5 5 5 5 5 3 3 5 5 5 5 3 5 5 3 5 3 3 5 5 3 5 5 5 5 5 5 5 5 5 5 3 5 5 3 3 5 5 5 5 5 5 5 5 5 5 5 5 5 5 5 5 5 5 5 5 5 5 5 5 5 5 5 5 5 3 5 3 5 5 5 5 5 5 5 5 5 5 5 5 5 5 5 5 5 5 5 5 5 5 5 5 5 5 5 5 5 3 5 5 5 3 5 5 5 3 5 3 5 5 5 3 5 5 5 5 5 5 5 5 5 5 5 5 5 5 5 5 5 3 5 3 5 5 5 5 5 5 5 5 5 5 5 5 5 5 5 5 5 5 5 5 5 5 5 5 5 5 5 5 5 5 5 5 5 5 5 5 5 5 5 3 5 5 3 5 5 5 5 5 5 3 3 5 5 5 5 5 5 5 5 5 5 5 5 5 5 5 5 5 5 5 5 5 5 5 5 5 5 5 5 3 5 3 5 5 5 5 5 5 5 5 5 5 5 5 5 5 5 5 5 5 5 5 5 5 5 5 5 5 5 5 5 3 5 5 5 5 5 3 5 5 5 5 5 5 5 5 5 5 3 5 5 5 3 5 5 5 5 5 5 5 3 5 5 5 5 5 5 5 5 5 5 3 5 5 5 3 5 5 3 5 5 5 5 5 3 5 5 5 5 5 3 5 3 5 5 5 5 5 5 5 5 5 5 5 5 5 5 5 5 5 5 5 5 5 3 5 5 3 5 5 5 5 5 5 5 5 5 5 5 5 5 5 5 3 5 5 5 5 5 5 5 5 3 5 3 3 5 5 5 5 5 5 5 5 5 5 3 5 5 5 5 5 3 5 5 5 5 5 5 5 5 5 3 3 5 5 5 5 5 5 5 5 5 5 5 5 5 5 5 5 5 5 5 5 5 5 3 3 5 5 5 5 5 5 5 5 5 5 5 5 5 5 5 5 5 5 5 3 5 5 5 5 5 5 5 3 5 5 5 5 5 5 5 5 5 3 5 5 5 3 5 5 5 5 5 5 5 5 5 3 5 5 5 5 5 5 5 5 5 5 5 5 5 5 5 5 5 5 5 5 5 5 5 3 5 5 5 5 5 5 5 5 5 5 5 5 5 3 5 5 5 3 5 5 5 5 5 5 3 5 5 5 5 5 5 5 5 5 5 5 5 5 5 5 5 5 5 5 5 5 5 5 5 5 5 5 5 5 5 5 3 5 5 3 5 5 5 5 5 5 3 5 5 5 5 5 5 5 5 5 5 5 5 5 5 5 5 5 3 5 5 5 5 5 3 5 3 5 5 5 5 5 5 3 5 5 5 3 5 5 3 5 5 5 3 5 5 5 5 5 5 5 5 5 5 5 5 5 5 3 5 5 3 3 5 3 5 5 5 5 5 5 5 5 5 5 3 5 5 5 5 5 5 5 5 5 3 5 5 5 5 5 5 3 5 5 5 5 3 5 3 5 5 5 5 3 5 5 5 5 3 5 5 5 5 3 5 5 5 5 5 3 3 5 5 5 5 5 5 5 5 5 5 5 5 5 5 3 5 5 5 3 5 5 5 5 5 5 5 5 5 5 5 3 3 5 5 5 5 5 5 5 5 5 5 5 5 5 5 5 5 5 5 5 5 3 5 5 5 5 5 5 3 5 5 3 5 5 5 3 5 5 5 5 5 5 5 3 5 3 5 5 5 5 5 5 5 5 3 5 5 5 5 5 5 5 5 5 3 5 5 5 5 5 5 5 5 5 5 5 5 5 5 5 5 5 5 5 5 3 3 5 5 5 3 5 5 3 5 5 5 5 5 5 5 3 5 5 5 5 5 5 5 5 5 5 5 5 5 5 3 5 3 5 5 5 5 5 5 5 5 5 5 5 5 5 5 5 5 5 5 5 5 5 5 3 5 3 3 5 5 5 5 5 5 5 3 5 5 5 5 5 5 5 3 5 5 5 5 5 5 5 5 5 5 5 5 5 5 5 5 5 5 5 5 5 5 5 5 5 5 5 3 5 5 3 5 5 5 5 3 5 5 5 5 5 5 5 5 5 3 5 3 5 5 5 3 5 5 5 5 5 5 5 5 5 5 5 5 3 5 3 5 5 5 5 5 3 5 5 5 3 3 3 5 5 5 5 3 5 5 5 5 5 5 3 5 5 5 5 5 3 5 5 3 3 3 5 5 5 5 5 3 5 5 5 5 5 5 5 5 5 5 5 5 3 5 5 5 5 5 5 5 5 5 5 5 5 5 5 5 5 5 5 5 5 5 5 5 5 3 5 3 3 5 5 3 5 5 5 5 5 5 5 5 5 5 5 3 5 5 5 5 5 5 5 5 5 5 3 5 5 5 5 3 5 5 5 5 5 5 5 5 5 5 5 5 5 5 5 3 5 5 5 5 5 5 5 5 5 5 5 5 5 5 5 5 3 3 5 3 5 3 5 3 5 3 5 3 5 5 5 5 5 5 5 3 3 5 5 3 5 5 5 5 3 5 5 5 5 3 5 3 5 5 5 5 5 5 3 5 5 5 3 5 5 5 5 5 3 5 5 5 5 5 5 5 5 5 5 3 5 5 5 5 5 5 3 5 5 3 5 3 5 5 3 5 5 5 3 3 5 5 5 5 3 5 3 5 5 5 5 5 5 5 5 5 5 3 5 5 3 5 3 5 5 5 5 5 5 3 5 5 3 5 5 5 5 5 5 5 5 3 3 5 5 5 5 3 5 5 3 5 5 3 5 5 5 5 3 5 5 3 3 5 3 3 5 3 5 5 3 3 5 3 5 5 5 3 5 5 3 5 5 5 5 5 5 5 5 5 5 5 5 5 5 3 5 5 5 3 5 5 5 5 5 5 5 3 5 5 5 5 5 5 3 5 5 5 5 3 5 5 3 5 5 5 5 5 5 5 5 5 5 5 5 5 5 5 5 3 5 5 3 5 5 5 3 5 5 5 5 3 5 5 5 3 5 5 5 3 5 5 5 5 3 5 5 5 5 5 5 5 5 3 5 3 5 5 5 5 5 5 5 5 5 5 5 5 3 5 5 3 3 3 5 5 5 3 5 5 5 5 5 5 5 5 5 5 3 3 5 5 5 3 5 5 3 5 5 5 5 5 5 5 5 5 5 3 5 5 3 5 5 5 3 3 5 5 5 5 3 5 3 5 3 5 3 3 5 5 5 5 5 5 5 3 5 5 5 3 3 5 5 5 5 5 3 5 3 3 5 5 5 5 5 5 3 5 3 5 3 5 5 5 5 3 5 5 5 3 5 5 3 5 5 5 5 3 5 5 5 5 5 5 5 3 5 5 5 5 5 5 5 5 5 5 5 5 3 5 5 5 5 5 5 5 5 5 5 5 5 5 5 3 5 5 3 5 5 5 5 3 5 5 5 5 5 5 5 5 5 3 5 3 5 5 3 5 3 5 5 5 5 5 5 5 5 5 5 3 5 5 5 3 5 5 3 5 5 5 5 5 5 5 5 5 5 5 5 5 5 5 5 5 5 5 5 3 5 3 3 5 5 3 3 5 3 5 5 5 5 3 5 5 5 3 3 5 3 5 5 5 5 3 3 3 3 5 5 3 5 5 5 3 3 5 5 3 3 5 5 3 5 5 3 5 5 3 5 5 3 5 3 3 5 5 3 5 3 5 3 3 5 5 3 5 5 3 5 5 3 3 5 3 5 3 5 3 5 5 5 5 3 5 5 3 5 3 5 5 5 3 5 5 5 5 3 3 5 5 5 3 5 5 5 5 5 5 3 5 5 5 5 3 3 5 5 5 3 5 5 3 5 3 5 5 5 3 5 5 5 5 5 5 5 5 5 5 5 5 5 5 5 5 5 3 5 5 5 5 5 5 5 5 5 5 5 5 5 5 5 5 5 5 5 5 5 5 3 5 3 5 5 5 5 5 5 3 5 5 5 5 5 3 5 3 5 3 5 5 5 5 5 5 5 3 5 3 5 5 5 5 5 3 3 5 5 3 3 5 3 5 5 5 3 5 5 5 5 5 5 3 5 5 5 5 5 5 5 5 5 5 5 5 3 5 3 5 3 3 5 5 5 5 5 3 3 5 3 5 3 5 5 5 5 5 5 5 5 5 5 5 5 3 3 5 5 5 5 3 5 5 5 5 5 5 5 5 5 5 5 5 5 5 5 5 5 5 5 5 5 5 5 5 5 5 5 5 5 3 5 5 5 5 5 5 5 5 5 5 5 3 5 5 5 5 5 5 5 5 5 3 5 3 5 3 5 5 3 5 5 5 3 5 5 5 5 5 5 5 5 5 5 5 5 5 5 5 5 3 5 5 3 5 5 3 5 3 5 5 3 5 3 5 5 5 5 3 3 5 5 5 5 5 5 5 5 5 5 5 3 5 3 5 5 3 5 5 5 5 5 5 5 3 3 3 5 5 5 3 5 5 5 5 5 5 5 3 5 5 5 3 5 3 3 5 5 5 5 5 3 5 5 5 5 5 5 5 5 5 3 5 5 5 5 5 5 5 5 5 5 5 3 5 5 5 5 5 5 5 5 5 5 5 5 5 3 5 5 5 3 5 3 5 5 5 5 5 5 5 5 5 5 5 5 5 5 3 3 5 5 5 5 5 5 5 5 5 5 5 5 3 5 5 5 5 5 3 5 5 5 5 5 5 3 5 5 5 5 5 3 5 5 5 5 5 5 5 3 5 3 5 5 5 5 3 5 5 5 5 5 5 3 3 5 5 5 5 5 5 5 5 5 5 3 3 5 5 3 5 5 5 5 5 5 5 5 3 5 3 5 5 5 5 5 5 5 5 5 5 5 5 3 5 3 5 5 5 3 5 5 5 5 5 5 5 5 5 5 5 5 5 3 5 5 5 5 5 5 5 5 5 5 5 5 5 5 5 5 5 3 5 5 3 3 5 5 3 5 5 5 5 5 5 5 5 5 3 3 5 5 5 5 5 5 5 5 5 5 3 5 5 5 5 5 5 5 3 5 5 5 5 5 5 5 5 5 5 5 5 5 5 5 5 3 3 5 5 5 5 5 5 5 5 5 5 5 5 5 5 3 5 5 5 5 5 5 5 5 5 5 5 3 5 5 5 3 5 5 5 5 5 5 5 5 5 3 5 5 5 3 5 5 5 5 5 5 5 5 5 5 5 5 5 5 5 5 5 5 5 5 5 5 5 3 5 5 5 5 3 5 5 5 5 5 5 5 3 5 5 5 5 5 5 5 5 5 5 5 5 3 5 5 5 5 5 5 5 5 5 5 5 5 5 3 5 5 5 3 5 5 3 3 5 5 5 5 5 5 5 5 3 5 3 5 3 5 3 5 5 5 5 5 5 5 5 5 5 5 5 3 5 5 5 3 5 5 5 3 3 3 5 5 5 5 3 5 5 5 5 5 5 5 5 5 5 3 5 5 5 5 5 3 5 5 3 5 5 3 5 5 5 5 5 5 5 5 5 3 5 5 5 5 5 5 5 3 5 5 3 5 3 5 3 5 5 3 5 5 5 5 5 5 5 3 5 5 3 5 5 5 3 5 5 5 3 3 5 5 5 5 5 5 5 5 5 5 5 5 3 5 5 3 5 5 5 5 5 5 5 5 5 3 5 5 5 5 5 5 5 5 5 5 3 5 5 5 5 5 5 3 5 5 5 3 5 5 5 5 5 5 5 5 3 5 5 5 5 3 5 5 5 3 5 5 5 5 5 5 5 5 5 5 3 5 5 5 5 5 5 5 5 3 5 5 5 5 5 5 5 3 5 5 3 5 3 5 5 5 5 3 3 5 5 3 5 5 5 3 5 5 5 5 3 5 5 5 5 5 5 5 5 5 5 5 5 5 5 5 5 5 3 5 5 5 3 5 5 5 5 3 5 5 3 3 5 3 3 5 3 5 5 5 5 3 5 5 5 5 3 5 5 5 5 3 3 3 5 5 3 5 3 5 5 3 5 5 5 3 5 5 5 5 5 3 5 5 5 5 5 5 5 3 5 3 5 5 5 5 5 5 5 5 5 5 5 5 5 5 5 5 5 5 5 5 5 5 5 5 5 5 5 5 5 5 5 5 5 5 3 5 5 3 5 5 5 5 5 5 5 5 5 5 5 3 5 5 5 5 5 5 5 5 5 5 5 5 5 3 5 5 5 3 5 5 5 5 5 3 5 5 5 5 5 5 5 5 5 5 5 5 5 5 5 5 5 5 5 5 5 5 5 5 5 5 5 5 5 5 5 5 5 5 5 5 5 5 5 5 5 5 5 5 5 3 5 5 5 3 5 5 3 5 5 5 5 5 5 5 5 5 3 5 5 3 5 5 5 5 5 5 5 5 5 5 5 5 3 5 5 5 5 5 3 5 5 5 3 5 5 3 5 5 3 5 5 5 5 5 5 3 5 3 5 3 5 5 3 5 5 3 5 3 5 5 3 5 5 5 5 5 5 5 3 5 5 5 5 5 5 5 5 5 5 5 5 5 5 5 5 3 5 5 5 5 5 5 5 5 3 5 5 5 5 5 3 5 5 5 5 5 5 5 5 5 5 5 5 5 5 3 5 5 5 5 5 5 3 5 5 3 5 5 5 5 5 5 5 5 5 5 3 5 5 5 3 3 5 5 3 5 5 3 5 5 5 5 5 5 3 5 3 5 5 5 3 5 5 5 5 5 5 5 5 5 3 5 3 5 3 5 3 5 5 3 5 5 5 5 5 5 5 5 3 3 5 5 5 5 5 5 5 5 5 5 5 5 5 5 5 5 5 5 5 5 5 5 5 3 5 5 5 5 5 5 5 5 3 5 5 5 5 5 5 5 5 5 5 5 5 5 5 5 5 5 5 5 5 3 5 5 5 5 5 5 5 5 5 5 5 5 5 5 5 5 5 5 5 5 5 5 5 3 5 5 5 5 3 5 3 3 5 5 5 5 5 3 3 5 5 5 5 5 5 5 5 5 5 3 5 5 5 3 5 5 5 5 5 5 5 5 3 5 5 5 5 5 5 5 5 5 5 5 5 5 3 5 5 5 5 5 3 5 5 5 5 5 3 5 5 5 5 5 5 5 5 5 3 3 5 5 5 5 5 5 5 5 5 5 5 5 5 3 5 5 5 5 5 5 5 3 5 5 5 3 5 5 5 5 5 5 5 5 5 3 5 5 5 3 5 3 5 5 5 5 5 3 5 5 5 5 5 5 5 5 5 5 5 5 5 5 5 5 5 5 5 5 5 5 5 5 5 5 5 5 5 5 5 5 5 5 5 5 5 5 5 5 5 5 5 5 3 5 5 3 5 5 3 5 5 5 5 3 3 5 5 5 5 5 5 3 5 5 5 5 5 5 5 5 5 5 5 3 5 5 5 5 5 5 5 5 5 5 5 5 5 5 5 5 5 5 3 5 3 5 5 3 5 5 5 5 5 5 5 5 3 5 5 5 5 5 5 5 5 5 5 5 5 5 5 5 5 5 5 5 5 5 5 5 5 5 5 5 5 5 5 5 5 5 5 5 3 5 5 3 5 5 5 3 5 5 5 5 5 5 3 5 5 5 3 5 5 5 5 5 5 5 5 5 5 5 3 5 3 5 5 5 5 3 5 5 5 5 5 5 5 3 5 5 5 3 5 5 5 5 5 5 5 5 5 5 5 5 3 3 3 5 5 3 5 5 5 5 5 3 5 5 5 3 5 5 3 5 5 5 3 5 3 5 5 5 5 5 5 5 5 3 5 5 3 5 5 5 5 5 5 5 5 5 5 5 5 5 3 5 5 5 5 5 5 5 3 5 5 5 3 5 5 5 5 5 5 5 5 5 5 5 5 5 5 5 3 5 5 5 5 5 5 5 5 5 5 3 3 5 5 5 5 5 5 5 5 5 5 5 5 5 5 5 5 5 5 3 5 5 3 5 3 5 5 5 5 5 5 5 5 3 5 5 5 5 3 5 5 3 5 5 5 3 5 5 5 3 5 5 5 5 3 3 5 5 5 5 5 5 3 5 5 5 5 5 5 5 5 5 5 5 5 5 5 5 5 5 5 5 5 5 5 5 5 5 5 5 5 5 5 5 5 5 5 5 5 5 5 5 5 5 5 5 5 5 5 5 5 3 5 5 5 5 5 5 5 5 5 5 5 5 5 5 5 5 5 5 5 5 5 5 5 5 5 5 5 5 3 5 5 5 5 5 3 5 5 5 5 5 5 5 5 5 5 5 5 5 3 5 5 5 5 5 3 5 5 3 5 5 5 5 5 3 5 5 5 5 5 5 5 5 5 5 5 5 5 5 5 5 5 5 3 5 5 5 3 5 5 5 5 5 5 5 3 5 5 5 5 5 5 5 5 5 5 5 5 3 5 5 5 3 5 5 5 5 5 5 5 5 5 5 5 3 5 5 3 3 3 5 5 5 5 5 5 5 5 5 5 3 5 5 3 3 5 5 5 5 5 5 5 5 5 5 5 5 3 5 5 5 5 5 5 5 5 5 5 5 5 5 5 5 5 5 5 5 5 5 5 5 5 5 5 5 5 3 5 5 5 5 5 5 5 5 5 5 5 3 5 3 5 5 5 5 3 5 5 3 5 5 5 5 5 3 5 5 3 3 5 5 5 5 5 5 3 5 5 5 3 5 3 5 5 3 5 5 5 3 5 5 5 5 5 5 5 5 3 5 5 5 5 5 5 5 3 5 5 5 5 3 5 5 5 5 5 5 5 5 5 5 5 5 5 5 5 5 5 5 5 5 3 5 5 5 5 5 5 5 5 5 5 5 5 3 3 5 5 5 5 5 5 3 5 5 5 5 5 5 5 5 5 5 5 5 5 5 5 5 3 5 5 3 5 5 5 5 5 5 3 3 5 5 5 3 5 5 5 5 3 5 3 5 5 5 5 5 5 5 3 5 5 5 5 3 5 5 3 5 5 5 5 5 5 5 5 5 5 5 3 5 5 5 3 5 5 5 5 3 5 5 5 5 5 5 5 5 5 5 5 5 5 5 5 5 5 5 5 5 5 5 5 5 5 5 3 5 3 5 5 5 5 3 5 5 5 3 5 3 5 5 5 3 5 5 5 5 5 5 3 5 5 5 5 5 5 5 5 5 3 5 5 5 5 5 3 5 5 3 5 3 5 3 5 3 5 5 5 5 5 5 5 5 3 3 5 5 5 3 5 3 5 5 5 5 3 5 5 5 5 5 5 5 5 5 3 5 5 5 5 5 5 3 3 5 5 5 5 5 5 5 5 5 5 5 5 5 3 5 5 3 3 5 5 5 3 3 5 5 5 5 5 5 5 5 5 5 5 3 5 5 5 3 5 5 5 3 5 3 5 5 5 3 5 5 5 5 3 5 5 5 5 3 5 3 3 5 3 3 5 5 3 3 3 5 3 5 5 3 5 5 3 3 5 5 5 3 5 5 5 5 5 3 5 3 5 3 5 3 5 5 3 5 5 5 5 3 5 5 3 5 5 5 5 5 5 5 5 5 5 5 5 5 5 3 5 5 5 3 5 5 3 3 5 5 5 5 5 5 5 5 5 3 5 5 5 5 5 5 3 5 5 5 3 3 3 5 5 5 3 5 5 3 5 5 5 5 5 5 5 5 3 5 3 5 5 5 5 3 5 5 5 5 5 5 5 5 5 5 5 5 5 5 5 5 5 5 5 5 3 5 3 5 5 5 5 5 5 5 5 5 5 5 5 5 5 5 5 5 5 5 5 5 5 5 5 5 5 5 5 5 5 5 5 5 5 5 5 5 3 5 5 5 5 5 5 5 5 5 5 5 5 5 5 5 5 5 5 5 5 5 5 5 5 5 5 5 5 5 5 5 5 5 5 5 5 5 5 5 5 5 5 5 5 5 5 5 5 5 5 5 5 5 5 5 5 5 5 5 5 5 5 5 5 5 3 5 3 5 5 5 5 5 3 5 5 5 5 5 5 5 5 5 5 5 5 5 5 5 5 5 5 3 5 5 5 5 3 3 5 5 3 5 5 5 3 5 5 5 5 5 3 5 5 5 5 5 5 5 3 5 5 5 5 5 5 5 5 5 5 5 3 5 5 5 3 5 5 5 5 5 5 5 5 3 5 5 5 3 3 5 5 5 5 5 5 5 5 5 5 5 5 5 5 5 5 5 5 5 5 5 5 5 3 5 5 5 5 5 5 3 5 5 5 5 5 5 5 5 5 5 5 5 5 5 5 5 5 5 5 5 5 5 5 5 5 5 5 5 5 5 5 5 5 3 5 5 5 5 5 5 5 5 5 5 3 5 5 5 5 5 5 3 5 5 5 5 5 5 5 3 5 5 5 5 5 5 5 5 5 5 5 5 5 5 3 5 5 5 5 5 3 5 5 5 5 5 5 5 5 5 5 5 5 5 5 5 5 5 5 3 5 5 5 5 5 3 5 5 3 5 5 5 3 5 5 5 5 3 5 3 5 5 5 5 3 5 5 3 5 5 5 3 5 5 5 5 5 5 5 5 5 5 5 5 5 5 3 3 5 5 3 5 5 5 5 5 5 5 5 5 5 3 5 5 5 5 5 5 5 5 5 5 5 5 5 5 3 5 5 5 3 5 5 3 5 5 5 5 5 5 5 3 5 5 3 5 5 5 5 5 5 5 5 5 5 5 5 5 5 5 5 5 5 5 3 5 3 5 3 5 5 5 5 5 5 5 5 3 3 5 5 3 5 5 5 5 5 5 5 5 5 5 5 5 5 5 3 5 3 5 5 5 5 3 5 5 5 5 5 5 5 5 5 5 5 5 5 5 5 5 5 5 5 5 5 3 5 5 5 3 5 5 5 5 5 5 5 5 5 5 5 5 5 5 5 5 5 5 5 5 5 5 5 5 5 5 5 5 5 5 5 5 5 5 5 5 5 5 5 5 3 5 5 5 5 5 5 5 3 5 5 5 3 5 5 5 5 5 5 5 5 5 5 5 5 5 5 5 3 5 5 5 5 5 5 5 5 3 5 5 5 5 5 5 5 5 5 5 5 5 5 5 3 5 5 5 5 5 5 5 5 5 5 5 5 5 5 5 3 3 5 3 5 5 5 5 3 5 3 5 5 5 5 5 3 5 3 5 3 5 5 5 5 5 5 5 5 5 3 5 3 5 5 5 5 5 5 5 5 5 5 5 5 5 3 5 5 5 5 5 5 5 5 3 5 3 5 5 5 5 5 3 5 5 5 5 5 5 5 5 5 3 5 3 5 5 5 3 5 5 5 5 3 5 3 5 5 5 5 5 5 5 5 5 3 5 5 5 5 5 5 5 3 3 5 3 5 5 5 5 5 5 5 5 5 5 5 5 5 3 5 5 3 5 5 5 3 5 5 5 5 5 5 5 5 5 5 5 5 5 5 5 5 5 5 5 5 5 5 5 5 5 5 3 5 3 5 5 5 5 5 5 5 5 5 5 5 5 5 5 5 5 5 3 5 3 5 3 5 5 5 5 3 5 3 5 5 5 5 5 5 5 5 5 5 5 5 3 5 5 5 5 5 5 5 5 5 5 5 3 5 5 5 5 5 5 5 5 5 3 5 5 5 5 5 3 5 5 5 5 5 5 3 5 5 5 3 3 5 5 5 5 5 5 3 5 5 3 5 5 3 5 3 3 5 5 3 5 5 5 5 3 3 5 5 5 5 5 5 5 5 5 5 3 5 5 5 5 5 5 5 5 5 5 5 5 5 5 5 3 5 5 5 5 5 5 5 5 5 5 5 5 5 3 5 5 5 5 3 5 5 5 5 5 3 5 5 5 5 5 5 5 5 3 5 5 5 5 3 5 5 5 5 5 5 5 5 5 5 5 5 5 5 5 5 5 5 5 5 5 5 5 5 5 5 5 5 5 5 3 5 5 5 5 5 5 5 5 5 5 5 3 3 5 5 5 5 5 5 5 5 5 5 5 5 5 5 5 5 5 5 5 5 5 5 5 5 5 5 5 3 5 5 5 5 5 5 5 5 5 5 3 5 5 5 5 5 5 5 5 5 5 5 5 5 5 5 5 5 5 5 5 3 5 5 5 5 5 5 5 3 3 5 5 5 5 3 5 5 3 5 5 5 5 5 5 5 5 5 5 5 5 5 5 5 5 5 3 5 5 5 5 5 5 5 5 3 5 5 5 5 5 3 5 5 5 3 3 5 5 3 3 5 5 5 3 3 5 3 5 5 3 5 3 5 5 5 5 3 5 5 5 5 5 5 5 5 5 5 5 5 5 5 3 5 5 3 3 5 5 5 5 5 5 3 5 5 5 5 5 5 3 5 5 3 5 5 3 5 3 5 5 5 3 5 5 5 5 5 5 5 5 5 5 5 5 5 5 5 3 5 5 5 5 5 5 5 5 5 5 5 5 5 5 5 5 5 5 5 5 3 5 5 5 5 5 5 5 5 5 5 5 3 3 5 3 5 5 3 3 5 5 5 3 3 5 3 3 5 5 5 5 5 3 3 5 3 5 3 5 5 5 5 5 5 5 3 5 5 5 3 5 3 3 3 5 5 3 5 5 3 5 5 3 5 5 5 3 3 5 5 5 5 5 5 5 5 3 3 5 5 5 5 3 5 5 5 5 3 5 3 5 3 5 5 3 5 5 5 5 5 3 3 5 5 5 5 5 5 5 3 3 3 5 3 3 3 5 3 5 5 5 3 5 5 5 5 5 3 5 3 5 3 5 5 5 3 5 5 5 5 5 5 5 5 3 5 5 5 5 5 5 5 5 5 3 5 5 5 5 5 5 5 5 5 5 5 5 5 5 5 5 5 5 5 5 5 3 5 5 5 5 5 5 5 5 5 3 5 5 5 5 5 3 5 5 5 5 5 5 5 5 5 5 5 5 5 5 5 5 5 5 5 5 5 5 5 5 5 5 3 3 5 5 5 5 5 5 5 5 5 5 5 5 5 5 3 5 5 5 5 5 5 5 5 5 5 5 5 5 5 5 5 5 5 5 3 3 5 5 5 5 3 5 5 5 5 5 5 3 5 5 5 5 5 5 5 5 3 3 5 3 5 5 5 5 5 5 5 5 5 5 5 5 5 3 5 5 5 5 5 5 5 5 5 5 5 5 5 5 3 5 5 5 5 5 5 5 5 5 5 5 5 5 5 5 5 5 5 5 5 5 5 5 5 5 5 5 3 5 5 5 5 5 5 5 5 5 5 5 5 3 5 5 5 5 5 5 5 5 5 5 5 5 5 5 5 5 5 5 5 5 5 5 3 5 5 5 5 5 5 5 5 3 3 5 3 5 5 5 5 3 5 3 5 5 3 5 5 5 5 5 5 5 5 5 5 3 5 5 5 5 5 5 5 5 5 5 5 5 5 5 5 3 5 5 5 5 3 5 5 5 5 5 5 5 5 5 5 5 5 5 5 5 5 5 5 5 5 5 5 5 5 3 5 3 5 5 3 5 5 5 5 3 5 5 3 5 5 5 5 5 5 5 5 3 5 5 3 3 5 5 5 5 3 5 5 5 3 3 5 3 5 5 3 5 3 5 5 5 5 3 5 5 5 5 5 5 5 3 5 5 5 3 5 5 3 5 5 5 5 5 5 5 5 5 5 5 3 5 5 5 3 5 5 5 5 5 5 5 5 5 5 5 5 5 5 3 5 5 5 3 5 5 5 5 5 3 5 5 5 5 5 5 5 5 5 5 5 5 5 3 5 5 5 5 3 5 5 5 5 5 5 5 5 5 5 5 5 5 5 5 5 5 3 5 3 5 5 5 5 5 5 5 5 3 3 5 5 5 5 5 3 5 5 3 5 5 5 5 5 5 5 5 5 5 3 5 5 5 5 5 5 5 5 5 5 5 3 5 5 5 3 5 5 5 5 5 5 5 3 5 5 5 5 5 5 5 5 5 5 5 5 5 5 5 5 5 5 5 3 3 5 5 5 3 5 3 5 5 5 5 5 5 5 5 5 5 5 5 5 5 5 5 5 5 5 5 5 5 5 5 5 5 3 5 5 3 5 5 5 5 5 5 5 5 3 5 3 5 5 5 5 5 5 5 5 5 5 5 5 5 5 5 5 5 3 5 5 5 3 5 5 5 5 3 3 3 5 5 5 5 5 5 5 3 5 5 3 5 5 5 5 5 5 5 5 5 5 3 5 5 5 5 5 5 5 5 5 5 5 5 5 5 5 5 5 5 5 5 5 5 5 5 5 5 3 5 5 5 5 5 5 5 5 5 5 3 5 5 5 5 3 5 5 5 5 5 3 5 5 5 5 5 3 5 5 3 5 5 5 5 5 5 5 5 5 5 5 5 5 5 5 5 5 5 5 5 5 5 5 5 5 5 5 5 5 5 5 5 5 5 5 5 5 3 5 5 5 5 5 5 5 5 5 5 3 5 5 5 5 5 5 5 5 5 5 5 5 5 5 5 5 5 5 5 3 5 5 3 5 5 5 5 5 3 3 5 5 5 5 5 3 3 5 5 5 5 5 3 5 5 5 3 5 3 5 5 3 5 5 5 3 5 3 5 5 3 5 5 5 5 3 5 3 5 3 3 5 5 5 3 5 5 5 5 3 5 5 5 3 5 5 5 5 5 5 5 5 5 5 5 5 5 5 5 5 5 5 5 5 5 5 5 5 5 5 5 5 5 5 5 5 5 5 5 5 5 5 5 5 5 5 5 5 5 5 5 5 5 5 3 5 5 5 5 5 5 5 5 5 5 5 5 5 5 5 5 5 5 5 5 5 5 5 5 5 3 5 5 5 5 5 5 5 5 5 5 5 5 5 5 5 5 5 3 5 5 5 5 3 5 5 5 5 5 5 5 5 5 5 3 5 5 5 5 5 5 5 5 5 5 5 5 5 5 5 5 5 3 3 5 5 5 5 5 5 5 5 5 5 5 3 5 5 5 5 3 5 5 5 5 3 3 5 5 5 5 5 3 5 5 3 5 5 5 5 5 5 5 5 3 5 5 5 5 5 5 5 5 5 5 5 5 5 5 5 3 5 5 5 5 5 5 5 5 5 5 5 5 5 5 5 5 5 5 5 5 5 5 5 5 5 5 5 5 5 5 5 5 5 5 5 5 5 5 5 5 5 5 5 5 5 5 5 5 5 5 5 5 5 5 5 5 5 5 5 5 5 5 5 5 5 5 3 5 5 5 5 5 5 5 5 5 5 5 3 5 5 5 5 5 5 5 5 5 5 5 5 3 5 5 5 3 5 5 3 3 3 5 3 5 3 5 5 5 3 3 5 5 5 5 3 5 5 5 3 5 5 5 5 5 5 5 5 5 3 5 5 3 5 5 3 5 5 3 5 5 3 5 3 3 5 5 5 5 5 3 3 5 5 5 5 5 5 5 3 5 5 5 3 5 3 5 3 3 3 5 5 5 5 5 3 5 5 5 3 5 5 5 5 5 5 3 5 5 3 5 5 5 5 5 5 3 5 5 3 5 5 5 5 5 3 3 5 5 5 3 5 5 5 5 5 3 5 5 3 3 5 5 5 3 5 5 3 3 5 5 3 3 3 5 5 5 5 5 5 5 5 5 5 5 3 5 5 5 5 5 3 5 5 5 5 5 5 5 5 5 5 5 5 5 3 5 5 5 3 5 5 5 5 5 5 3 5 5 3 5 5 5 5 3 3 5 5 3 3 3 3 5 5 5 3 3 5 5 5 5 5 5 5 5 5 3 3 5 5 5 3 3 5 5 5 3 5 5 5 5 5 5 5 5 5 5 5 5 5 5 5 5 3 5 5 5 5 3 3 3 5 3 5 5 5 5 5 5 5 5 3 3 5 3 5 5 5 5 5 5 5 5 5 5 5 5 5 5 5 5 5 5 5 3 5 5 5 3 5 5 3 5 5 5 5 5 5 5 5 5 5 5 3 5 5 5 5 5 5 5 5 5 5 3 5 5 5 5 5 5 5 5 5 5 5 5 5 3 5 5 5 5 5 5 5 5 5 5 5 5 5 5 5 3 5 5 5 5 5 5 5 5 5 5 5 5 5 5 5 3 5 5 5 5 5 3 5 5 5 5 5 5 5 5 5 3 5 3 5 3 5 5 3 3 5 3 5 5 5 5 5 5 5 5 5 5 5 5 5 5 5 5 5 5 5 5 5 5 5 5 3 5 5 5 5 5 3 5 5 5 5 3 5 5 5 3 3 5 5 5 5 3 3 5 3 5 3 3 5 5 5 3 5 5 5 5 3 5 5 5 3 5 5 5 5 5 5 3 3 5 5 5 3 5 5 5 5 5 5 5 5 3 5 5 5 5 5 5 5 3 5 5 5 5 5 5 5 5 5 3 5 5 5 5 5 5 5 5 5 5 3 5 5 5 5 5 5 3 3 5 5 5 5 3 5 5 5 3 5 5 5 3 5 5 5 3 5 5 5 5 5 3 5 5 5 5 5 5 3 5 5 3 5 5 5 5 5 5 5 5 5 5 5 5 5 5 5 5 5 5 5 5 5 5 5 5 5 5 5 5 5 5 5 5 5 5 5 5 5 5 5 5 5 5 5 5 5 5 5 5 5 5 5 5 5 5 5 5 5 5 5 3 5 5 5 5 3 5 5 5 5 5 5 5 5 5 5 5 5 5 5 5 5 5 5 5 5 3 5 5 3 5 5 3 5 5 5 5 5 3 5 5 5 5 5 3 3 5 3 3 5 5 5 3 5 5 3 3 3 5 3 5 5 5 3 5 5 5 5 5 5 5 3 3 5 3 5 5 3 3 3 5 5 3 5 5 3 5 5 5 3 5 5 5 5 5 5 3 5 5 5 5 5 5 3 5 5 3 5 5 5 5 5 5 5 5 5 5 5 5 5 5 3 5 5 5 5 5 5 5 3 5 3 5 5 5 5 3 5 5 5 5 5 5 5 5 5 5 5 5 5 5 5 5 5 5 5 5 5 5 5 5 5 5 5 5 5 5 5 5 5 5 5 5 5 3 5 5 5 5 5 5 5 5 5 5 3 5 5 5 5 5 5 5 5 5 5 5 5 5 5 5 5 5 5 5 5 5 5 5 5 5 5 5 5 3 5 5 5 3 5 5 5 3 3 5 5 5 5 5 5 5 5 5 3 5 5 5 5 5 5 5 5 5 5 5 5 5 5 5 5 5 5 5 5 5 5 3 5 5 3 5 5 5 5 5 5 5 5 5 3 5 5 5 5 5 5 3 5 3 5 3 5 5 5 5 5 5 5 5 3 5 5 5 3 5 5 5 5 5 3 5 5 3 3 5 5 5 3 5 5 5 5 3 5 5 5 5 5 5 5 5 5 5 5 5 5 5 5 5 5 5 5 5 5 5 5 5 5 5 3 5 3 5 5 5 5 5 5 5 5 5 5 5 3 5 5 5 3 5 5 5 5 5 5 5 5 5 5 5 5 5 3 5 5 5 5 5 5 5 3 5 5 5 5 3 5 3 5 5 5 5 5 3 5 5 5 5 5 5 5 5 5 5 5 3 5 5 5 5 5 5 5 5 5 5 5 5 5 5 5 5 3 5 5 5 3 5 5 5 5 5 5 5 5 3 5 5 5 5 5 5 5 5 5 5 5 5 5 5 5 5 5 5 5 5 5 5 5 5 5 5 5 5 5 5 5 5 3 5 5 5 5 5 5 5 5 5 5 5 5 5 5 5 5 5 5 5 5 5 5 5 3 5 5 5 5 5 3 3 5 5 5 5 5 5 3 5 5 3 5 5 5 5 5 5 5 3 5 5 5 3 5 5 5 3 5 5 5 5 3 5 5 5 5 3 5 5 3 5 5 3 5 5 5 5 5 5 5 5 5 5 5 5 5 5 5 5 5 5 5 5 5 5 5 5 5 3 5 3 5 5 3 5 5 5 3 5 5 5 5 5 5 5 5 5 5 5 5 5 5 5 5 5 5 5 5 5 5 3 5 5 5 5 5 5 5 3 5 5 5 5 3 5 5 5 5 5 5 5 5 3 3 5 5 5 5 5 3 5 5 5 5 5 5 5 5 5 5 3 5 5 5 3 5 5 5 5 5 5 5 3 5 5 3 3 5 5 5 5 5 5 5 3 5 5 5 5 5 5 3 5 5 5 5 5 5 5 3 5 5 5 5 5 3 5 3 5 3 5 5 5 5 5 3 5 5 5 5 5 5 5 5 5 5 5 5 5 5 5 5 5 5 5 5 5 5 5 5 5 5 5 5 5 5 5 5 5 5 5 3 5 5 5 5 5 3 5 3 5 5 3 5 5 3 5 5 5 5 5 5 5 5 5 5 3 5 5 5 5 3 5 5 5 3 3 5 5 3 5 5 5 5 5 5 5 5 5 5 3 5 3 5 3 5 5 3 3 3 5 5 5 5 3 5 5 5 5 5 5 5 5 5 5 3 5 5 5 5 3 5 5 5 3 5 5 5 5 5 3 5 5 5 5 5 5 5 3 5 5 5 5 5 5 5 5 5 5 5 5 5 5 3 5 5 3 5 5 5 5 5 5 5 5 5 5 5 5 5 5 5 5 3 5 5 5 5 5 5 5 5 3 5 5 5 5 5 5 5 5 5 5 5 5 5 5 3 5 5 5 3 5 5 5 5 5 5 5 3 5 5 5 5 5 5 5 5 5 5 5 5 5 5 5 5 3 5 3 5 5 5 5 5 3 5 5 5 5 5 5 5 5 5 5 5 5 5 5 5 5 5 5 3 5 5 5 5 5 3 5 5 5 5 5 3 5 5 5 5 5 3 5 5 5 5 3 5 5 5 5 5 5 5 5 3 5 5 5 5 5 5 5 5 5 5 5 5 5 5 5 5 5 5 5 5 5 5 5 3 5 5 5 5 5 5 5 5 3 5 5 5 5 5 5 5 5 3 5 5 5 5 5 5 5 5 5 5 5 5 5 5 5 3 5 5 3 5 5 5 5 5 5 5 5 5 5 5 5 5 5 5 5 3 5 5 5 5 5 5 5 5 5 5 5 5 5 5 5 5 5 5 5 5 5 5 5 5 5 3 5 5 3 5 3 5 5 5 5 3 3 5 5 3 3 5 3 3 3 5 5 5 5 5 3 5 5 5 5 3 5 5 5 3 5 5 3 5 5 3 5 5 5 3 5 5 3 3 5 5 5 5 5 5 5 5 5 5 3 5 5 5 3 5 5 5 3 5 5 5 5 3 5 5 5 3 5 5 5 3 5 5 5 3 5 5 5 5 5 5 5 3 5 5 3 5 5 5 5 5 3 5 5 5 5 5 3 5 5 5 5 5 5 5 5 5 5 3 5 5 5 5 5 5 5 5 5 5 5 5 5 5 5 5 3 5 5 5 3 5 5 5 5 5 3 5 5 5 5 5 5 5 5 5 5 5 5 5 5 5 5 5 5 3 5 5 5 5 3 5 5 5 3 5 3 5 5 5 5 5 3 5 3 3 3 5 5 5 3 5 5 5 5 5 3 5 5 5 5 5 5 5 5 5 5 5 3 5 5 3 3 5 5 5 5 5 5 5 3 5 3 5 5 5 5 5 5 5 5 5 5 5 5 5 3 5 5 5 5 3 3 5 5 3 5 5 3 5 5 5 3 3 5 5 5 5 5 3 5 5 5 5 5 5 5 5 5 5 5 3 5 5 5 5 5 5 5 5 3 5 5 5 5 5 5 5 5 3 5 5 5 5 5 5 5 3 5 5 5 5 5 5 3 5 5 3 5 5 5 5 5 3 5 5 5 3 3 3 5 3 5 5 5 5 5 5 5 5 5 5 5 5 5 5 5 5 5 5 5 5 3 5 3 5 5 5 5 5 5 5 5 5 5 5 5 5 5 5 5 5 5 5 5 5 5 5 5 5 5 5 5 5 5 5 5 3 5 5 5 5 5 5 5 5 5 5 5 5 3 3 5 5 5 5 5 5 5 3 5 5 5 5 5 3 5 5 5 5 3 5 5 5 3 5 5 5 5 3 5 5 5 3 3 5 5 5 5 5 3 5 5 3 3 5 5 3 5 5 3 5 5 5 3 3 5 5 5 5 5 5 5 5 5 5 3 5 5 3 5 5 3 5 5 3 3 5 5 5 5 5 5 5 5 5 5 5 5 5 5 5 5 3 3 5 5 5 5 5 5 5 5 3 5 5 5 3 5 5 5 5 3 5 5 5 5 5 5 3 5 5 5 3 5 5 5 5 5 5 5 5 5 5 5 5 5 5 5 5 5 5 5 5 5 5 5 5 5 5 5 3 5 5 5 5 3 5 5 5 5 5 5 5 5 5 5 5 5 5 5 3 5 5 5 5 5 5 5 3 5 3 5 5 5 5 3 5 5 5 5 3 5 5 5 5 3 5 5 3 5 5 5 5 3 5 5 5 3 5 3 5 3 5 3 3 5 5 5 5 5 5 5 5 5 5 5 5 5 5 5 5 5 5 5 5 5 5 5 5 5 5 5 5 5 5 5 5 5 5 5 5 5 5 5 3 5 5 5 5 5 5 3 5 5 5 5 5 5 5 5 5 5 5 5 5 5 5 5 5 5 5 5 5 5 5 5 5 5 5 5 5 5 5 5 5 5 5 5 5 5 5 5 5 5 5 5 5 3 5 5 5 5 5 5 5 3 5 5 5 5 5 5 5 5 5 5 5 5 5 5 5 5 5 5 5 5 5 5 5 5 5 5 5 5 5 5 5 5 5 5 5 5 5 5 5 5 5 5 5 5 5 5 5 5 5 5 5 5 5 5 5 5 5 5 5 3 3 5 5 5 5 5 5 5 3 5 5 3 3 3 5 3 5 5 5 5 5 3 5 5 3 5 5 5 5 5 5 5 5 5 5 5 5 5 5 5 5 5 5 5 5 3 5 5 5 3 5 5 3 3 3 5 5 5 5 5 3 3 5 5 5 5 5 5 5 3 5 5 5 5 5 5 5 5 5 5 5 5 5 5 5 5 5 5 5 5 5 5 5 5 5 5 5 5 5 3 5 5 5 3 5 5 5 5 5 3 5 5 5 3 3 5 5 5 5 5 3 5 5 5 3 5 5 3 3 5 5 3 5 3 5 5 3 5 5 5 5 5 3 5 5 5 5 5 5 5 5 5 5 5 5 5 5 5 5 5 5 5 5 5 5 5 5 3 5 5 5 5 5 5 5 5 5 5 5 5 5 5 5 5 3 5 5 5 5 5 5 5 5 5 5 5 5 5 5 5 5 5 5 5 5 5 5 5 3 5 5 5 5 5 5 5 5 5 5 5 5 5 5 5 3 5 5 5 5 5 5 5 5 5 3 5 5 5 5 3 5 3 5 3 5 5 5 5 5 5 3 5 5 5 3 3 5 5 5 5 5 5 5 3 5 5 5 3 5 3 3 5 5 5 5 5 5 3 5 5 5 5 5 5 5 5 5 5 5 3 5 5 5 3 5 5 5 5 5 5 5 5 5 3 5 5 5 5 5 3 5 5 5 5 3 5 5 5 5 5 5 5 3 5 5 5 5 5 5 3 5 5 5 5 5 5 5 5 5 5 5 5 5 5 5 5 5 5 5 5 5 5 3 5 5 5 5 5 5 5 5 5 5 3 5 5 5 5 5 3 5 5 5 3 3 5 5 5 3 5 5 5 3 5 5 5 3 5 5 5 5 5 5 5 3 5 5 5 3 5 5 5 5 3 5 5 5 5 5 5 5 5 3 5 5 5 3 3 5 5 5 3 5 3 5 5 3 5 5 5 5 5 3 5 5 5 5 5 5 3 5 5 5 5 5 5 5 3 5 5 3 5 5 5 5 3 5 5 3 5 3 5 5 5 5 5 3 5 5 5 5 5 5 5 3 5 3 3 5 5 3 5 5 5 5 5 5 5 3 3 5 5 5 5 5 3 3 5 5 5 5 3 3 5 5 3 5 3 5 5 5 3 5 5 3 5 3 3 5 3 5 3 5 5 5 5 3 5 3 5 3 3 5 3 3 5 5 5 3 5 5 5 5 5 3 3 5 3 5 3 5 5 3 5 3 5 3 3 3 5 5 5 5 5 3 3 5 3 5 3 5 5 5 5 5 3 3 3 5 5 5 5 3 5 5 5 3 5 3 5 5 5 5 5 5 3 5 5 5 3 5 5 5 5 5 5 3 5 5 3 5 3 5 3 5 5 5 3 5 3 5 3 5 5 5 5 3 5 5 3 5 5 3 3 5 5 5 3 5 5 5 3 5 3 5 5 3 3 5 3 5 3 5 5 5 3 3 5 3 5 5 5 5 5 5 3 5 5 3 5 5 5 3 5 5 5 5 5 5 3 5 5 5 3 3 5 5 5 5 3 5 5 5 5 5 3 5 5 5 5 3 5 5 5 3 5 5 5 5 3 5 5 5 5 5 5 3 5 5 3 5 5 5 5 3 5 5 5 3 5 3 5 5 5 5 3 5 5 3 5 5 5 5 5 5 5 5 5 5 5 5 5 5 5 5 5 5 5 5 3 3 5 5 5 5 5 3 5 3 3 3 3 5 5 5 3 5 3 3 5 5 5 5 5 3 5 3 5 5 3 5 
</DataArray>
</Cells>
<PointData Scalars="" Vectors="displacement," Tensors="">
<DataArray type="Float64" Name="displacement" NumberOfComponents="3" format="ascii">
-0.034998116368344913 -1.9680855880863791e-07 0 -0.032173534042601315 -9.716669602594704e-05 0 -0.030271464426887627 -4.5564028019193087e-07 0 -0.034998116368344913 -1.9680855880863791e-07 0 -0.032173534042601315 -9.716669602594704e-05 0 -0.033180170738388727 -6.7253068977521897e-05 0 -0.034998116368344913 -1.9680855880863791e-07 0 -0.033180170738388727 -6.7253068977521897e-05 0 -0.034993335773388874 4.1612839198340805e-07 0 -0.032173534042601315 -9.716669602594704e-05 0 -0.030271464426887627 -4.5564028019193087e-07 0 -0.030615328464835057 -0.00017975430070392361 0 -0.032173534042601315 -9.716669602594704e-05 0 -0.031620404581470578 -0.00013231116366550083 0 -0.030615328464835057 -0.00017975430070392361 0 -0.032173534042601315 -9.716669602594704e-05 0 -0.031620404581470578 -0.00013231116366550083 0 -0.033180170738388727 -6.7253068977521897e-05 0 -0.03204335685574905 -8.7851937706287587e-05 0 -0.032928640545425512 -8.6365536370104721e-05 0 -0.032377130564860995 9.0973294772037913e-05 0 -0.033180170738388727 -6.7253068977521897e-05 0 -0.032823489627368724 1.513160946150854e-06 0 -0.034442207326750143 8.7504263617573528e-06 0 -0.033167438796162338 -1.2165868091961519e-05 0 -0.033783371889705073 -4.2188798890875291e-05 0 -0.034999969784086767 2.0125173084417241e-08 0 -0.035006888111594532 -6.5415603493212815e-06 0 -0.035000137149279208 -7.1416365987985513e-08 0 -0.033991286830611048 0.00096855211459719785 0 -0.032414607341763879 0.00083450748992300002 0 -0.033180170738388727 -6.7253068977521897e-05 0 -0.034993335773388874 4.1612839198340805e-07 0 -0.034688759201138689 -6.675525185274105e-06 0 -0.034993335773388874 4.1612839198340805e-07 0 -0.034688759201138689 -6.675525185274105e-06 0 -0.034475663783433551 1.5597100070675289e-06 0 -0.034998163027857881 1.0846751049278076e-06 0 -0.033991286830611048 0.00096855211459719785 0 -0.034688759201138689 -6.675525185274105e-06 0 -0.034442207326750143 8.7504263617573528e-06 0 -0.033783371889705073 -4.2188798890875291e-05 0 -0.033999850261627017 0.00089307564095435189 0 -0.033991286830611048 0.00096855211459719785 0 -0.035006888111594532 -6.5415603493212815e-06 0 -0.035000137149279208 -7.1416365987985513e-08 0 -0.035004390200682731 -7.2102961138430111e-05 0 -0.032465491506113282 0.0031730445299035441 0 -0.031616017682212672 0.0018890593705562216 0 -0.031282240991364771 0.0021494704354968843 0 -0.035000137149279208 -7.1416365987985513e-08 0 -0.035004390200682731 -7.2102961138430111e-05 0 -0.034913255948075213 -6.1485331417748739e-05 0 -0.033991286830611048 0.00096855211459719785 0 -0.033074284292248041 0.0010348300080539512 0 -0.032414607341763879 0.00083450748992300002 0 -0.031053721556572107 0.0012108833116331276 0 -0.031616017682212672 0.0018890593705562216 0 -0.031282240991364771 0.0021494704354968843 0 -0.030724033665948041 0.00048892049897626981 0 -0.031282240991364771 0.0021494704354968843 0 -0.030005926289886534 0.0010401281554084632 0 -0.030724033665948041 0.00048892049897626981 0 -0.033074284292248041 0.0010348300080539512 0 -0.032952021335943882 0.00049008504762641379 0 -0.033167438796162338 -1.2165868091961519e-05 0 -0.03325197536589513 -4.9607089890343949e-05 0 -0.032934282567633505 2.6291535754743728e-06 0 -0.033180170738388727 -6.7253068977521897e-05 0 -0.034688759201138689 -6.675525185274105e-06 0 -0.033783371889705073 -4.2188798890875291e-05 0 -0.033180170738388727 -6.7253068977521897e-05 0 -0.03325197536589513 -4.9607089890343949e-05 0 -0.033783371889705073 -4.2188798890875291e-05 0 -0.033167438796162338 -1.2165868091961519e-05 0 -0.03325197536589513 -4.9607089890343949e-05 0 -0.033783371889705073 -4.2188798890875291e-05 0 -0.034992655891509281 1.1247828002409763e-06 0 -0.035000006725227024 -3.5534562495852478e-09 0 -0.034999984786645046 8.7206421669727569e-09 0 -0.034573472727229625 1.7307924672133796e-05 0 -0.034999433381447641 2.3832311185394036e-07 0 -0.034913255948075213 -6.1485331417748739e-05 0 -0.035742267046964253 0.00019820648608640648 0 -0.034998927300426773 -5.7144544128374432e-07 0 -0.035000137149279208 -7.1416365987985513e-08 0 -0.034999433381447641 2.3832311185394036e-07 0 -0.034913255948075213 -6.1485331417748739e-05 0 -0.034913255948075213 -6.1485331417748739e-05 0 -0.034679754242533362 -0.00021230393893002005 0 -0.034883833089534522 -0.00025026039306965959 0 -0.035004390200682731 -7.2102961138430111e-05 0 -0.034913255948075213 -6.1485331417748739e-05 0 -0.034883833089534522 -0.00025026039306965959 0 -0.034573472727229625 1.7307924672133796e-05 0 -0.034913255948075213 -6.1485331417748739e-05 0 -0.034679754242533362 -0.00021230393893002005 0 -0.034573472727229625 1.7307924672133796e-05 0 -0.034679754242533362 -0.00021230393893002005 0 -0.034397466396368585 -0.00032299254724648866 0 -0.030005926289886534 0.0010401281554084632 0 -0.02886621378545616 -0.00030827160740342106 0 -0.028660705997512761 -0.00014894244678661169 0 -0.034679754242533362 -0.00021230393893002005 0 -0.034883833089534522 -0.00025026039306965959 0 -0.034598958627285022 -0.00047123565187067747 0 -0.034679754242533362 -0.00021230393893002005 0 -0.034598958627285022 -0.00047123565187067747 0 -0.034397466396368585 -0.00032299254724648866 0 -0.025988339135037127 0.0022301298057202331 0 -0.025284650361126457 0.0028121296243701745 0 -0.018116457978366741 0.0044667024649508039 0 -0.016815749984527065 0.005436853648100968 0 -0.017054971064794967 0.0045630755752475039 0 -0.022726162671281774 0.0030916574919087787 0 -0.031053721556572107 0.0012108833116331276 0 -0.030005926289886534 0.0010401281554084632 0 -0.02886621378545616 -0.00030827160740342106 0 -0.030724033665948041 0.00048892049897626981 0 -0.032952021335943882 0.00049008504762641379 0 -0.025988339135037127 0.0022301298057202331 0 -0.02540140192246991 0.00072320354934725687 0 -0.023534968649743231 0.0021696832966712175 0 -0.027341699759138399 0.0038529287226293303 0 -0.022009045822730392 0.0029373072513457308 0 -0.031053721556572107 0.0012108833116331276 0 -0.032531105355910743 0.00011410439866736227 0 -0.032502631281813535 8.9547303692201078e-06 0 -0.032389994772994514 5.2972274126971591e-05 0 -0.0145355755083258 0.0040836830010616094 0 -0.014274149102034575 0.0040252884164492806 0 -0.01431036362687311 0.0039348329879279331 0 -0.022009045822730392 0.0029373072513457308 0 -0.022726162671281774 0.0030916574919087787 0 -0.02442637171336675 0.003592419070392064 0 -0.022831863079200543 0.0048272906614838466 0 -0.018956043520521292 0.001128244572962668 0 -0.022726162671281774 0.0030916574919087787 0 -0.01679622845739203 0.0024586356855634088 0 -0.014289890848948083 0.0043651035561447548 0 -0.014274149102034575 0.0040252884164492806 0 -0.013980785412243756 0.0042910231811589278 0 -0.022726162671281774 0.0030916574919087787 0 -0.025988339135037127 0.0022301298057202331 0 -0.0145355755083258 0.0040836830010616094 0 -0.014289890848948083 0.0043651035561447548 0 -0.014274149102034575 0.0040252884164492806 0 -0.014078644381521963 0.0038994382778926744 0 -0.013980785412243756 0.0042910231811589278 0 -0.013781069736636136 0.0035442152359797217 0 -0.014274149102034575 0.0040252884164492806 0 -0.014078644381521963 0.0038994382778926744 0 -0.013980785412243756 0.0042910231811589278 0 -0.018116457978366741 0.0044667024649508039 0 -0.017546236161110187 0.0039447012021037505 0 -0.017054971064794967 0.0045630755752475039 0 -0.025988339135037127 0.0022301298057202331 0 -0.01679622845739203 0.0024586356855634088 0 -0.033180170738388727 -6.7253068977521897e-05 0 -0.03325197536589513 -4.9607089890343949e-05 0 -0.032823489627368724 1.513160946150854e-06 0 -0.032823489627368724 1.513160946150854e-06 0 -0.032623415260399295 4.2342403594527167e-06 0 -0.032353187400859656 7.9313871783541113e-05 0 -0.032823489627368724 1.513160946150854e-06 0 -0.032934282567633505 2.6291535754743728e-06 0 -0.032623415260399295 4.2342403594527167e-06 0 -0.03325197536589513 -4.9607089890343949e-05 0 -0.032823489627368724 1.513160946150854e-06 0 -0.032934282567633505 2.6291535754743728e-06 0 -0.033167438796162338 -1.2165868091961519e-05 0 -0.032934282567633505 2.6291535754743728e-06 0 -0.032876807506914088 1.8705445917844158e-05 0 -0.032911804424044892 0.0004581636258727328 0 -0.031053721556572107 0.0012108833116331276 0 -0.032502631281813535 8.9547303692201078e-06 0 -0.032623415260399295 4.2342403594527167e-06 0 -0.032389994772994514 5.2972274126971591e-05 0 -0.032934282567633505 2.6291535754743728e-06 0 -0.032502631281813535 8.9547303692201078e-06 0 -0.032623415260399295 4.2342403594527167e-06 0 -0.032623415260399295 4.2342403594527167e-06 0 -0.032389994772994514 5.2972274126971591e-05 0 -0.032353187400859656 7.9313871783541113e-05 0 -0.032389994772994514 5.2972274126971591e-05 0 -0.032353187400859656 7.9313871783541113e-05 0 -0.031833799206223111 0.00030728728027092485 0 -0.032531105355910743 0.00011410439866736227 0 -0.032389994772994514 5.2972274126971591e-05 0 -0.031833799206223111 0.00030728728027092485 0 -0.032377130564860995 9.0973294772037913e-05 0 -0.032823489627368724 1.513160946150854e-06 0 -0.032353187400859656 7.9313871783541113e-05 0 -0.032377130564860995 9.0973294772037913e-05 0 -0.032353187400859656 7.9313871783541113e-05 0 -0.032047598747091025 0.00017685696233996843 0 -0.032353187400859656 7.9313871783541113e-05 0 -0.032047598747091025 0.00017685696233996843 0 -0.031833799206223111 0.00030728728027092485 0 -0.032047598747091025 0.00017685696233996843 0 -0.031833799206223111 0.00030728728027092485 0 -0.031706643018736533 0.00022232510156039716 0 -0.022009045822730392 0.0029373072513457308 0 -0.027235038755996453 0.0021013512957507837 0 -0.021765863171812221 0.0043841299861276288 0 -0.01654550867383826 0.0044194135527601073 0 -0.016109163113502432 0.0021746542809303873 0 -0.016099243841687191 0.0022671587201183426 0 -0.019174359268014734 -0.0024736949025337194 0 -0.02468283324074623 -0.00099697717159177054 0 -0.016109163113502432 0.0021746542809303873 0 -0.023727123908192524 -0.0056743597160400288 0 -0.021765863171812221 0.0043841299861276288 0 -0.02468283324074623 -0.00099697717159177054 0 -0.016109163113502432 0.0021746542809303873 0 -0.031833799206223111 0.00030728728027092485 0 -0.031706643018736533 0.00022232510156039716 0 -0.030752311501497188 -0.0020112801456594375 0 -0.021765863171812221 0.0043841299861276288 0 -0.02468283324074623 -0.00099697717159177054 0 -0.030752311501497188 -0.0020112801456594375 0 -0.027235038755996453 0.0021013512957507837 0 -0.030612137577270424 -0.001712337437596809 0 -0.02468283324074623 -0.00099697717159177054 0 -0.030697039898296263 -0.0045750474745395037 0 -0.030752311501497188 -0.0020112801456594375 0 -0.013940869751977473 0.0031675911480500492 0 -0.01431036362687311 0.0039348329879279331 0 -0.013781069736636136 0.0035442152359797217 0 -0.014078644381521963 0.0038994382778926744 0 -0.01431036362687311 0.0039348329879279331 0 -0.013781069736636136 0.0035442152359797217 0 -0.014274149102034575 0.0040252884164492806 0 -0.014078644381521963 0.0038994382778926744 0 -0.01431036362687311 0.0039348329879279331 0 -0.013940869751977473 0.0031675911480500492 0 -0.01431036362687311 0.0039348329879279331 0 -0.014490997671653169 0.0024501021394292975 0 -0.015292857094258131 0.0074264727025063889 0 -0.021765863171812221 0.0043841299861276288 0 -0.01654550867383826 0.0044194135527601073 0 -0.01431036362687311 0.0039348329879279331 0 -0.01654550867383826 0.0044194135527601073 0 -0.016109163113502432 0.0021746542809303873 0 -0.015292857094258131 0.0074264727025063889 0 -0.01431036362687311 0.0039348329879279331 0 -0.01654550867383826 0.0044194135527601073 0 -0.022009045822730392 0.0029373072513457308 0 -0.014665758081408435 0.0037095240756013412 0 -0.016109163113502432 0.0021746542809303873 0 -0.014490997671653169 0.0024501021394292975 0 -0.015056402921026934 0.0018783518779629535 0 -0.014490997671653169 0.0024501021394292975 0 -0.01411613158989009 0.0020210796017680775 0 -0.015056402921026934 0.0018783518779629535 0 -0.01431036362687311 0.0039348329879279331 0 -0.016109163113502432 0.0021746542809303873 0 -0.014490997671653169 0.0024501021394292975 0 -0.014490997671653169 0.0024501021394292975 0 -0.01411613158989009 0.0020210796017680775 0 -0.013764680555349098 0.0025379421173492445 0 -0.013940869751977473 0.0031675911480500492 0 -0.014490997671653169 0.0024501021394292975 0 -0.013764680555349098 0.0025379421173492445 0 -0.01411613158989009 0.0020210796017680775 0 -0.013964333260403321 0.0016485476115730149 0 -0.013586693892512306 0.0018748884672782514 0 -0.01411613158989009 0.0020210796017680775 0 -0.013764680555349098 0.0025379421173492445 0 -0.013490367602737694 0.0022330580994221537 0 -0.01411613158989009 0.0020210796017680775 0 -0.01453744917225116 0.0017694289926439581 0 -0.013964333260403321 0.0016485476115730149 0 -0.01411613158989009 0.0020210796017680775 0 -0.01453744917225116 0.0017694289926439581 0 -0.015056402921026934 0.0018783518779629535 0 -0.01453744917225116 0.0017694289926439581 0 -0.015056402921026934 0.0018783518779629535 0 -0.014652761076902724 0.0017643498637107359 0 -0.01453744917225116 0.0017694289926439581 0 -0.014345557768438922 0.0016548092030184277 0 -0.014652761076902724 0.0017643498637107359 0 -0.014345557768438922 0.0016548092030184277 0 -0.013964333260403321 0.0016485476115730149 0 -0.014005291259321149 0.0014653718748514131 0 -0.01453744917225116 0.0017694289926439581 0 -0.014345557768438922 0.0016548092030184277 0 -0.013964333260403321 0.0016485476115730149 0 -0.013964333260403321 0.0016485476115730149 0 -0.01343449974295041 0.0016038716444726079 0 -0.013579255954385045 0.0014648286478467227 0 -0.013964333260403321 0.0016485476115730149 0 -0.013586693892512306 0.0018748884672782514 0 -0.01343449974295041 0.0016038716444726079 0 -0.02468283324074623 -0.00099697717159177054 0 -0.023727123908192524 -0.0056743597160400288 0 -0.030697039898296263 -0.0045750474745395037 0 -0.016109163113502432 0.0021746542809303873 0 -0.015056402921026934 0.0018783518779629535 0 -0.014681415404084771 0.0017403872098783676 0 -0.015056402921026934 0.0018783518779629535 0 -0.014681415404084771 0.0017403872098783676 0 -0.014652761076902724 0.0017643498637107359 0 -0.014345557768438922 0.0016548092030184277 0 -0.014652761076902724 0.0017643498637107359 0 -0.014471793761703955 0.0016173183313318124 0 -0.014345557768438922 0.0016548092030184277 0 -0.014471793761703955 0.0016173183313318124 0 -0.014005291259321149 0.0014653718748514131 0 -0.014681415404084771 0.0017403872098783676 0 -0.014652761076902724 0.0017643498637107359 0 -0.014471793761703955 0.0016173183313318124 0 -0.014681415404084771 0.0017403872098783676 0 -0.014471793761703955 0.0016173183313318124 0 -0.014684987465849862 0.0015537468714594484 0 -0.019174359268014734 -0.0024736949025337194 0 -0.023261482964658409 -0.0023470196879468875 0 -0.023727123908192524 -0.0056743597160400288 0 -0.030697039898296263 -0.0045750474745395037 0 -0.030296785037688404 -0.012779075615406714 0 -0.030619193536384936 -0.0033430030392742785 0 -0.023261482964658409 -0.0023470196879468875 0 -0.029254392197945549 -0.00032191956757366791 0 -0.028283340554372826 -0.00021619298434591799 0 -0.028623273307384036 -6.2349096198147861e-06 0 -0.028283340554372826 -0.00021619298434591799 0 -0.0292347062964745 -0.00021937311126944255 0 -0.029584203730935728 -0.00027603615369184193 0 -0.029254392197945549 -0.00032191956757366791 0 -0.028283340554372826 -0.00021619298434591799 0 -0.029584203730935728 -0.00027603615369184193 0 -0.028283340554372826 -0.00021619298434591799 0 -0.026710596681195586 -4.702162024091208e-07 0 -0.0292347062964745 -0.00021937311126944255 0 -0.026710596681195586 -4.702162024091208e-07 0 -0.030271464426887627 -4.5564028019193087e-07 0 -0.0292347062964745 -0.00021937311126944255 0 -0.030271464426887627 -4.5564028019193087e-07 0 -0.0292347062964745 -0.00021937311126944255 0 -0.030615328464835057 -0.00017975430070392361 0 -0.03204335685574905 -8.7851937706287587e-05 0 -0.030922866608362718 8.2403103641273044e-05 0 -0.031620404581470578 -0.00013231116366550083 0 -0.030615328464835057 -0.00017975430070392361 0 -0.030253058714249988 -0.00023712798518542522 0 -0.032377130564860995 9.0973294772037913e-05 0 -0.032047598747091025 0.00017685696233996843 0 -0.031706643018736533 0.00022232510156039716 0 -0.030619193536384936 -0.0033430030392742785 0 -0.030922866608362718 8.2403103641273044e-05 0 -0.029254392197945549 -0.00032191956757366791 0 -0.030253058714249988 -0.00023712798518542522 0 -0.029584203730935728 -0.00027603615369184193 0 -0.030697039898296263 -0.0045750474745395037 0 -0.031706643018736533 0.00022232510156039716 0 -0.030752311501497188 -0.0020112801456594375 0 -0.0292347062964745 -0.00021937311126944255 0 -0.030615328464835057 -0.00017975430070392361 0 -0.029584203730935728 -0.00027603615369184193 0 -0.030615328464835057 -0.00017975430070392361 0 -0.030253058714249988 -0.00023712798518542522 0 -0.029584203730935728 -0.00027603615369184193 0 -0.034852521488641763 2.4256558044531842e-05 0 -0.034898565227185679 1.5796553073537305e-05 0 -0.034880817095451551 2.1904135430338929e-05 0 -0.035134060726450818 0.00017195928720897252 0 -0.034827793079102366 8.5434149895352961e-05 0 -0.034852521488641763 2.4256558044531842e-05 0 -0.03486089422914599 2.7086704362695212e-05 0 -0.034880817095451551 2.1904135430338929e-05 0 -0.034718759364029406 0.00037301521109252137 0 -0.034594977933434932 0.00037243223835741493 0 -0.034613830944179247 0.00025720893692325879 0 -0.034594977933434932 0.00037243223835741493 0 -0.034613830944179247 0.00025720893692325879 0 -0.034470218337815994 0.00041237303747781366 0 -0.034875045324117518 -3.352574642783753e-05 0 -0.034824404348807188 -3.3884135026193849e-05 0 -0.034828389687853817 -2.1029113809019851e-05 0 -0.03479317522597284 0.00011872057976006488 0 -0.034862328230059386 -1.5450787246449304e-05 0 -0.034613830944179247 0.00025720893692325879 0 -0.034634361203770732 0.00020159818740413357 0 -0.034470218337815994 0.00041237303747781366 0 -0.034718759364029406 0.00037301521109252137 0 -0.034613830944179247 0.00025720893692325879 0 -0.034635503323259154 0.00020938989115618363 0 -0.034757233068287215 0.00018944785601198921 0 -0.03479317522597284 0.00011872057976006488 0 -0.034875045324117518 -3.352574642783753e-05 0 -0.034927748129906698 -2.2206444291300446e-05 0 -0.034900794086934431 -2.8934704860549205e-05 0 -0.03479317522597284 0.00011872057976006488 0 -0.034973565485897425 -3.3926836312401486e-05 0 -0.034875045324117518 -3.352574642783753e-05 0 -0.034900794086934431 -2.8934704860549205e-05 0 -0.03485933443603937 -3.3811854764767523e-05 0 -0.03479317522597284 0.00011872057976006488 0 -0.034909322571228328 4.1499807286066822e-05 0 -0.034718759364029406 0.00037301521109252137 0 -0.034635503323259154 0.00020938989115618363 0 -0.034831521747104681 0.00012639973306984232 0 -0.034635503323259154 0.00020938989115618363 0 -0.034831521747104681 0.00012639973306984232 0 -0.034822774085365597 4.9379143742835e-05 0 -0.034827793079102366 8.5434149895352961e-05 0 -0.034954828033001019 3.3097394013534359e-07 0 -0.034831521747104681 0.00012639973306984232 0 -0.034822774085365597 4.9379143742835e-05 0 -0.034960721599037001 9.4703869457225889e-06 0 -0.034909322571228328 4.1499807286066822e-05 0 -0.034999958444328065 2.0328339897109681e-08 0 -0.034822774085365597 4.9379143742835e-05 0 -0.034999840559360298 -6.3616946939809732e-08 0 -0.034960721599037001 9.4703869457225889e-06 0 -0.034998229845200089 1.0390793580109386e-05 0 -0.035000016897548968 2.1651644188143435e-09 0 -0.034999979733079105 -3.8992583342216789e-10 0 -0.034998229845200089 1.0390793580109386e-05 0 -0.034999979733079105 -3.8992583342216789e-10 0 -0.034992084559297448 1.0749612297737635e-05 0 -0.034999977020514252 1.8317432124947067e-08 0 -0.034973565485897425 -3.3926836312401486e-05 0 -0.034999902822193889 -1.2197527998430519e-08 0 -0.034927748129906698 -2.2206444291300446e-05 0 -0.034944700984223795 -1.7099604754448301e-05 0 -0.034927748129906698 -2.2206444291300446e-05 0 -0.034944700984223795 -1.7099604754448301e-05 0 -0.034900794086934431 -2.8934704860549205e-05 0 -0.034985614706812024 3.8344531101574663e-05 0 -0.034998229845200089 1.0390793580109386e-05 0 -0.034992084559297448 1.0749612297737635e-05 0 -0.034944700984223795 -1.7099604754448301e-05 0 -0.034943299953786297 -1.5422548665716409e-05 0 -0.034889005968354113 -2.8762624104536548e-05 0 -0.034944700984223795 -1.7099604754448301e-05 0 -0.034900794086934431 -2.8934704860549205e-05 0 -0.034889005968354113 -2.8762624104536548e-05 0 -0.034944700984223795 -1.7099604754448301e-05 0 -0.034999912993606032 -1.5968461192652726e-08 0 -0.034943299953786297 -1.5422548665716409e-05 0 -0.034999902822193889 -1.2197527998430519e-08 0 -0.034944700984223795 -1.7099604754448301e-05 0 -0.034999912993606032 -1.5968461192652726e-08 0 -0.034999912993606032 -1.5968461192652726e-08 0 -0.034943299953786297 -1.5422548665716409e-05 0 -0.03499988811529859 -1.2005310535398999e-08 0 -0.034943299953786297 -1.5422548665716409e-05 0 -0.034889005968354113 -2.8762624104536548e-05 0 -0.034863325726673326 -3.2036796868619528e-05 0 -0.034889005968354113 -2.8762624104536548e-05 0 -0.034824689583019049 -3.5434285632291345e-05 0 -0.034863325726673326 -3.2036796868619528e-05 0 -0.034889005968354113 -2.8762624104536548e-05 0 -0.03485933443603937 -3.3811854764767523e-05 0 -0.034824689583019049 -3.5434285632291345e-05 0 -0.034900794086934431 -2.8934704860549205e-05 0 -0.034889005968354113 -2.8762624104536548e-05 0 -0.03485933443603937 -3.3811854764767523e-05 0 -0.034875045324117518 -3.352574642783753e-05 0 -0.03485933443603937 -3.3811854764767523e-05 0 -0.034824404348807188 -3.3884135026193849e-05 0 -0.03485933443603937 -3.3811854764767523e-05 0 -0.034824404348807188 -3.3884135026193849e-05 0 -0.034824689583019049 -3.5434285632291345e-05 0 -0.034824404348807188 -3.3884135026193849e-05 0 -0.034785184911868092 -1.4274436062681094e-05 0 -0.034828389687853817 -2.1029113809019851e-05 0 -0.034824404348807188 -3.3884135026193849e-05 0 -0.034768981367450207 -3.2831380748741561e-05 0 -0.034824689583019049 -3.5434285632291345e-05 0 -0.034824404348807188 -3.3884135026193849e-05 0 -0.034768981367450207 -3.2831380748741561e-05 0 -0.034785184911868092 -1.4274436062681094e-05 0 -0.034824689583019049 -3.5434285632291345e-05 0 -0.034774030545128218 -4.2519430552728707e-05 0 -0.034863325726673326 -3.2036796868619528e-05 0 -0.034768981367450207 -3.2831380748741561e-05 0 -0.034824689583019049 -3.5434285632291345e-05 0 -0.034774030545128218 -4.2519430552728707e-05 0 -0.02394115206058996 0.0013928910015145227 0 -0.021885638269098524 0.0023646929272774964 0 -0.034774030545128218 -4.2519430552728707e-05 0 -0.034816586694650001 -4.0233803680232078e-05 0 -0.034863325726673326 -3.2036796868619528e-05 0 -0.021885638269098524 0.0023646929272774964 0 -0.01259850452776246 0.0027079635530605699 0 -0.013127665965782976 0.0028206110296699538 0 -0.013725791709896591 0.0032392828258974216 0 -0.013363482799779522 0.0026898911449200411 0 -0.013229305660652869 0.0034264080462778914 0 -0.013046946005384492 0.0044497551170446601 0 -0.012695208444535803 0.0030147820952311048 0 -0.013229305660652869 0.0034264080462778914 0 -0.013975440556332768 0.0037154399072571124 0 -0.013046946005384492 0.0044497551170446601 0 -0.025942560976151715 0.00062899875307897524 0 -0.026210868317718187 0.0011485061553321977 0 -0.02643661396278809 0.00096316317470014612 0 -0.013975440556332768 0.0037154399072571124 0 -0.013046946005384492 0.0044497551170446601 0 -0.014257409331042175 0.0054065905416367981 0 -0.021885638269098524 0.0023646929272774964 0 -0.030636217336273353 0.00079404682024834914 0 -0.021885638269098524 0.0023646929272774964 0 -0.019616044837043808 0.0026244944523983464 0 -0.034816586694650001 -4.0233803680232078e-05 0 -0.034863325726673326 -3.2036796868619528e-05 0 -0.034892056085501208 -2.5889849128948516e-05 0 -0.034863325726673326 -3.2036796868619528e-05 0 -0.034929369551907653 -1.6979805510291303e-05 0 -0.034892056085501208 -2.5889849128948516e-05 0 -0.034943299953786297 -1.5422548665716409e-05 0 -0.034863325726673326 -3.2036796868619528e-05 0 -0.034929369551907653 -1.6979805510291303e-05 0 -0.034929369551907653 -1.6979805510291303e-05 0 -0.034955092384593725 -1.122712352288474e-05 0 -0.034935461298299803 -1.6044730435855746e-05 0 -0.034943299953786297 -1.5422548665716409e-05 0 -0.034929369551907653 -1.6979805510291303e-05 0 -0.03499988811529859 -1.2005310535398999e-08 0 -0.034929369551907653 -1.6979805510291303e-05 0 -0.03499988811529859 -1.2005310535398999e-08 0 -0.034955092384593725 -1.122712352288474e-05 0 -0.03499988811529859 -1.2005310535398999e-08 0 -0.034963809985703101 -9.7312445159139019e-06 0 -0.034999967202892779 -1.3654832097711689e-09 0 -0.03499988811529859 -1.2005310535398999e-08 0 -0.034955092384593725 -1.122712352288474e-05 0 -0.034963809985703101 -9.7312445159139019e-06 0 -0.034955092384593725 -1.122712352288474e-05 0 -0.034963809985703101 -9.7312445159139019e-06 0 -0.034935461298299803 -1.6044730435855746e-05 0 -0.034963809985703101 -9.7312445159139019e-06 0 -0.034951307165387815 -1.2678030281223614e-05 0 -0.034935461298299803 -1.6044730435855746e-05 0 -0.033723669865094563 -0.00058973732602817886 0 -0.032400159234637842 -0.00010301924108561292 0 -0.034929369551907653 -1.6979805510291303e-05 0 -0.034892056085501208 -2.5889849128948516e-05 0 -0.034935461298299803 -1.6044730435855746e-05 0 -0.032400159234637842 -0.00010301924108561292 0 -0.030636217336273353 0.00079404682024834914 0 -0.034951307165387815 -1.2678030281223614e-05 0 -0.034892056085501208 -2.5889849128948516e-05 0 -0.034935461298299803 -1.6044730435855746e-05 0 -0.026458156135844388 0.0016460910387105041 0 -0.026210868317718187 0.0011485061553321977 0 -0.026901498184844403 0.0012927280625961435 0 -0.034953811606297645 2.8196991863648384e-06 0 -0.034938420829249604 2.6163402199624222e-07 0 -0.034976665474431949 3.5030137882464838e-06 0 -0.032400159234637842 -0.00010301924108561292 0 -0.027528248311004623 0.0016873670726230432 0 -0.034963809985703101 -9.7312445159139019e-06 0 -0.034966949219567681 -1.6040126323021249e-05 0 -0.034999967202892779 -1.3654832097711689e-09 0 -0.034953811606297645 2.8196991863648384e-06 0 -0.03499990245318526 7.9884221860435067e-09 0 -0.034976665474431949 3.5030137882464838e-06 0 -0.032400159234637842 -0.00010301924108561292 0 -0.035000109022629365 8.1469586536892493e-07 0 -0.03499990245318526 7.9884221860435067e-09 0 -0.034999984786645046 8.7206421669727569e-09 0 -0.034976665474431949 3.5030137882464838e-06 0 -0.034992655891509281 1.1247828002409763e-06 0 -0.034999984786645046 8.7206421669727569e-09 0 -0.034976665474431949 3.5030137882464838e-06 0 -0.035742267046964253 0.00019820648608640648 0 -0.027528248311004623 0.0016873670726230432 0 -0.034573472727229625 1.7307924672133796e-05 0 -0.034141150627852876 -0.00015343746903537204 0 -0.034397466396368585 -0.00032299254724648866 0 -0.034992655891509281 1.1247828002409763e-06 0 -0.034938420829249604 2.6163402199624222e-07 0 -0.034976665474431949 3.5030137882464838e-06 0 -0.016815749984527065 0.005436853648100968 0 -0.017054971064794967 0.0045630755752475039 0 -0.016139415229076866 0.0042487133145045659 0 -0.016815749984527065 0.005436853648100968 0 -0.015494479071611195 0.0052082431931223475 0 -0.016139415229076866 0.0042487133145045659 0 -0.027528248311004623 0.0016873670726230432 0 -0.025284650361126457 0.0028121296243701745 0 -0.015595500022875759 0.0063680108026899166 0 -0.016815749984527065 0.005436853648100968 0 -0.015494479071611195 0.0052082431931223475 0 -0.015595500022875759 0.0063680108026899166 0 -0.014257409331042175 0.0054065905416367981 0 -0.015494479071611195 0.0052082431931223475 0 -0.026210868317718187 0.0011485061553321977 0 -0.026901498184844403 0.0012927280625961435 0 -0.02643661396278809 0.00096316317470014612 0 -0.027528248311004623 0.0016873670726230432 0 -0.019616044837043808 0.0026244944523983464 0 -0.014257409331042175 0.0054065905416367981 0 -0.015494479071611195 0.0052082431931223475 0 -0.015037048440431841 0.004347648033964556 0 -0.015494479071611195 0.0052082431931223475 0 -0.015037048440431841 0.004347648033964556 0 -0.016139415229076866 0.0042487133145045659 0 -0.015037048440431841 0.004347648033964556 0 -0.015362742792100436 0.0031339346697140378 0 -0.016139415229076866 0.0042487133145045659 0 -0.013975440556332768 0.0037154399072571124 0 -0.014257409331042175 0.0054065905416367981 0 -0.015037048440431841 0.004347648033964556 0 -0.013975440556332768 0.0037154399072571124 0 -0.015037048440431841 0.004347648033964556 0 -0.015362742792100436 0.0031339346697140378 0 -0.01679622845739203 0.0024586356855634088 0 -0.012385347789534651 0.0033049158130327512 0 -0.013602519305973995 0.0032666386885240252 0 -0.013238325979422497 0.0031517906175766658 0 -0.013251921606165638 0.0030694052198341811 0 -0.01679622845739203 0.0024586356855634088 0 -0.014125314592561996 0.0032214723519604963 0 -0.017546236161110187 0.0039447012021037505 0 -0.015362742792100436 0.0031339346697140378 0 -0.016139415229076866 0.0042487133145045659 0 -0.017546236161110187 0.0039447012021037505 0 -0.017054971064794967 0.0045630755752475039 0 -0.016139415229076866 0.0042487133145045659 0 -0.013980785412243756 0.0042910231811589278 0 -0.013251921606165638 0.0030694052198341811 0 -0.013781069736636136 0.0035442152359797217 0 -0.013251921606165638 0.0030694052198341811 0 -0.013523941698421166 0.0029567591300680581 0 -0.013260525497752739 0.0027883514024227975 0 -0.013940869751977473 0.0031675911480500492 0 -0.013523941698421166 0.0029567591300680581 0 -0.013781069736636136 0.0035442152359797217 0 -0.013251921606165638 0.0030694052198341811 0 -0.013523941698421166 0.0029567591300680581 0 -0.013781069736636136 0.0035442152359797217 0 -0.014125314592561996 0.0032214723519604963 0 -0.013382566227096699 0.0027556178331456589 0 -0.013238325979422497 0.0031517906175766658 0 -0.01315731728581947 0.0027854189728819725 0 -0.013191615451044922 0.0027136399342921388 0 -0.013975440556332768 0.0037154399072571124 0 -0.015362742792100436 0.0031339346697140378 0 -0.013191615451044922 0.0027136399342921388 0 -0.013238325979422497 0.0031517906175766658 0 -0.013251921606165638 0.0030694052198341811 0 -0.01315731728581947 0.0027854189728819725 0 -0.013251921606165638 0.0030694052198341811 0 -0.013260525497752739 0.0027883514024227975 0 -0.01315731728581947 0.0027854189728819725 0 -0.013260525497752739 0.0027883514024227975 0 -0.01316088871853914 0.0024674278978797136 0 -0.013410944688880967 0.0026047787180738112 0 -0.013260525497752739 0.0027883514024227975 0 -0.01315731728581947 0.0027854189728819725 0 -0.01316088871853914 0.0024674278978797136 0 -0.01315731728581947 0.0027854189728819725 0 -0.01316088871853914 0.0024674278978797136 0 -0.012998362717252996 0.0025319788274930899 0 -0.01316088871853914 0.0024674278978797136 0 -0.012955816361535874 0.0022261784320348329 0 -0.012998362717252996 0.0025319788274930899 0 -0.01316088871853914 0.0024674278978797136 0 -0.013410944688880967 0.0026047787180738112 0 -0.013490367602737694 0.0022330580994221537 0 -0.013523941698421166 0.0029567591300680581 0 -0.013260525497752739 0.0027883514024227975 0 -0.013410944688880967 0.0026047787180738112 0 -0.013523941698421166 0.0029567591300680581 0 -0.013410944688880967 0.0026047787180738112 0 -0.013764680555349098 0.0025379421173492445 0 -0.013940869751977473 0.0031675911480500492 0 -0.013523941698421166 0.0029567591300680581 0 -0.013764680555349098 0.0025379421173492445 0 -0.013410944688880967 0.0026047787180738112 0 -0.013764680555349098 0.0025379421173492445 0 -0.013490367602737694 0.0022330580994221537 0 -0.01411613158989009 0.0020210796017680775 0 -0.013490367602737694 0.0022330580994221537 0 -0.013586693892512306 0.0018748884672782514 0 -0.01316088871853914 0.0024674278978797136 0 -0.013490367602737694 0.0022330580994221537 0 -0.013217139267845764 0.002084284804008798 0 -0.013490367602737694 0.0022330580994221537 0 -0.013586693892512306 0.0018748884672782514 0 -0.013217139267845764 0.002084284804008798 0 -0.013586693892512306 0.0018748884672782514 0 -0.01324664084288729 0.0017966034025780344 0 -0.01343449974295041 0.0016038716444726079 0 -0.013586693892512306 0.0018748884672782514 0 -0.01324664084288729 0.0017966034025780344 0 -0.013217139267845764 0.002084284804008798 0 -0.01324664084288729 0.0017966034025780344 0 -0.01343449974295041 0.0016038716444726079 0 -0.013082045417075671 0.0015335543501665706 0 -0.012898758443799421 0.001639894130572975 0 -0.013054340767665951 0.0017235159842033856 0 -0.012978273656404641 0.001904210620746212 0 -0.012898758443799421 0.001639894130572975 0 -0.012757270242481073 0.0017630698901546383 0 -0.012726462778014886 0.0015051944599062904 0 -0.012898758443799421 0.001639894130572975 0 -0.012978273656404641 0.001904210620746212 0 -0.012757270242481073 0.0017630698901546383 0 -0.012898758443799421 0.001639894130572975 0 -0.013054340767665951 0.0017235159842033856 0 -0.013082045417075671 0.0015335543501665706 0 -0.01324664084288729 0.0017966034025780344 0 -0.013054340767665951 0.0017235159842033856 0 -0.013082045417075671 0.0015335543501665706 0 -0.01324664084288729 0.0017966034025780344 0 -0.012978273656404641 0.001904210620746212 0 -0.013217139267845764 0.002084284804008798 0 -0.01324664084288729 0.0017966034025780344 0 -0.013054340767665951 0.0017235159842033856 0 -0.012978273656404641 0.001904210620746212 0 -0.012978273656404641 0.001904210620746212 0 -0.013217139267845764 0.002084284804008798 0 -0.012955816361535874 0.0022261784320348329 0 -0.01316088871853914 0.0024674278978797136 0 -0.013217139267845764 0.002084284804008798 0 -0.012955816361535874 0.0022261784320348329 0 -0.012955816361535874 0.0022261784320348329 0 -0.012773790544481379 0.002325366741235394 0 -0.012998362717252996 0.0025319788274930899 0 -0.012773790544481379 0.002325366741235394 0 -0.012777308607338882 0.0019966546200216964 0 -0.012615363656457287 0.0019984778544672277 0 -0.012955816361535874 0.0022261784320348329 0 -0.012773790544481379 0.002325366741235394 0 -0.012777308607338882 0.0019966546200216964 0 -0.012978273656404641 0.001904210620746212 0 -0.012955816361535874 0.0022261784320348329 0 -0.012777308607338882 0.0019966546200216964 0 -0.012777308607338882 0.0019966546200216964 0 -0.012593949025314842 0.001868309645515965 0 -0.012757270242481073 0.0017630698901546383 0 -0.012978273656404641 0.001904210620746212 0 -0.012777308607338882 0.0019966546200216964 0 -0.012757270242481073 0.0017630698901546383 0 -0.012777308607338882 0.0019966546200216964 0 -0.012593949025314842 0.001868309645515965 0 -0.012615363656457287 0.0019984778544672277 0 -0.012593949025314842 0.001868309645515965 0 -0.012757270242481073 0.0017630698901546383 0 -0.012605417374167623 0.0016416774457276037 0 -0.011859706156662356 0.0018725612144678847 0 -0.01275311593925175 0.0016277259130644216 0 -0.012593949025314842 0.001868309645515965 0 -0.01241524291161027 0.0019156227026610785 0 -0.012605417374167623 0.0016416774457276037 0 -0.01208728257515846 0.001760586050388547 0 -0.012605417374167623 0.0016416774457276037 0 -0.012411064658534209 0.0015366067057136137 0 -0.01208728257515846 0.001760586050388547 0 -0.012048440182317302 0.0017224272652251852 0 -0.012411064658534209 0.0015366067057136137 0 -0.012593949025314842 0.001868309645515965 0 -0.01241524291161027 0.0019156227026610785 0 -0.012501321105139825 0.0019797705569855693 0 -0.012615363656457287 0.0019984778544672277 0 -0.012501321105139825 0.0019797705569855693 0 -0.012491686561837865 0.0021182524917336969 0 -0.012593949025314842 0.001868309645515965 0 -0.012615363656457287 0.0019984778544672277 0 -0.012501321105139825 0.0019797705569855693 0 -0.01241524291161027 0.0019156227026610785 0 -0.012501321105139825 0.0019797705569855693 0 -0.012364972137976526 0.0020620865860931682 0 -0.012501321105139825 0.0019797705569855693 0 -0.012491686561837865 0.0021182524917336969 0 -0.012364972137976526 0.0020620865860931682 0 -0.013040138767934653 0.0022823438175120793 0 -0.011928924036488649 0.0025305938081166242 0 -0.012773790544481379 0.002325366741235394 0 -0.012491686561837865 0.0021182524917336969 0 -0.012376321787892906 0.0022971930872633969 0 -0.012491686561837865 0.0021182524917336969 0 -0.012378232744518356 0.0021632270139961365 0 -0.012364972137976526 0.0020620865860931682 0 -0.012773790544481379 0.002325366741235394 0 -0.012615363656457287 0.0019984778544672277 0 -0.012491686561837865 0.0021182524917336969 0 -0.012491686561837865 0.0021182524917336969 0 -0.012376321787892906 0.0022971930872633969 0 -0.012378232744518356 0.0021632270139961365 0 -0.012773790544481379 0.002325366741235394 0 -0.012912101210099723 0.0024974517826178923 0 -0.012885983823896012 0.0025077299053058782 0 -0.012912101210099723 0.0024974517826178923 0 -0.012930160972358105 0.0024976436038605171 0 -0.012885983823896012 0.0025077299053058782 0 -0.012930160972358105 0.0024976436038605171 0 -0.012885983823896012 0.0025077299053058782 0 -0.012894554322516859 0.0026547870447430027 0 -0.012773790544481379 0.002325366741235394 0 -0.012885983823896012 0.0025077299053058782 0 -0.012998362717252996 0.0025319788274930899 0 -0.01315731728581947 0.0027854189728819725 0 -0.012998362717252996 0.0025319788274930899 0 -0.013191615451044922 0.0027136399342921388 0 -0.012885983823896012 0.0025077299053058782 0 -0.012998362717252996 0.0025319788274930899 0 -0.013191615451044922 0.0027136399342921388 0 -0.013229305660652869 0.0034264080462778914 0 -0.013975440556332768 0.0037154399072571124 0 -0.013191615451044922 0.0027136399342921388 0 -0.012885983823896012 0.0025077299053058782 0 -0.013191615451044922 0.0027136399342921388 0 -0.012894554322516859 0.0026547870447430027 0 -0.013229305660652869 0.0034264080462778914 0 -0.013191615451044922 0.0027136399342921388 0 -0.012695208444535803 0.0030147820952311048 0 -0.012930160972358105 0.0024976436038605171 0 -0.013363482799779522 0.0026898911449200411 0 -0.013047515854343562 0.0025984371768920799 0 -0.013022762626684593 0.0026817276491374192 0 -0.01259850452776246 0.0027079635530605699 0 -0.012930160972358105 0.0024976436038605171 0 -0.012695208444535803 0.0030147820952311048 0 -0.012894554322516859 0.0026547870447430027 0 -0.013127665965782976 0.0028206110296699538 0 -0.013363482799779522 0.0026898911449200411 0 -0.013047515854343562 0.0025984371768920799 0 -0.013191615451044922 0.0027136399342921388 0 -0.012695208444535803 0.0030147820952311048 0 -0.012894554322516859 0.0026547870447430027 0 -0.034768981367450207 -3.2831380748741561e-05 0 -0.034774030545128218 -4.2519430552728707e-05 0 -0.034721797082516014 -4.6187218842173932e-05 0 -0.013127665965782976 0.0028206110296699538 0 -0.013047515854343562 0.0025984371768920799 0 -0.012964875377000121 0.002561353215146246 0 -0.02394115206058996 0.0013928910015145227 0 -0.026455996961886798 0.00035363766047568094 0 -0.013047515854343562 0.0025984371768920799 0 -0.012964875377000121 0.002561353215146246 0 -0.012971653344985481 0.002512615380712303 0 -0.03182012031583676 0.00017252713702001692 0 -0.026455996961886798 0.00035363766047568094 0 -0.034785184911868092 -1.4274436062681094e-05 0 -0.034766085369283467 2.6309861235973229e-05 0 -0.034828389687853817 -2.1029113809019851e-05 0 -0.034768981367450207 -3.2831380748741561e-05 0 -0.034785184911868092 -1.4274436062681094e-05 0 -0.034740850982116281 1.0858812664370712e-06 0 -0.030516366874907899 0.00041235860888313525 0 -0.034862328230059386 -1.5450787246449304e-05 0 -0.034785184911868092 -1.4274436062681094e-05 0 -0.034740850982116281 1.0858812664370712e-06 0 -0.034766085369283467 2.6309861235973229e-05 0 -0.026455996961886798 0.00035363766047568094 0 -0.030516366874907899 0.00041235860888313525 0 -0.026455996961886798 0.00035363766047568094 0 -0.016626565977344045 0.0022340827601906961 0 -0.023900412454673257 0.0004457976716962288 0 -0.024494611230309632 0.00088793150274905149 0 -0.023929528679278125 0.0014730898489910299 0 -0.030516366874907899 0.00041235860888313525 0 -0.023218241469283196 0.0013328422416118097 0 -0.027414005410292323 -0.00038457819471982881 0 -0.027068785330308619 0.0012863750675902582 0 -0.029080081246650756 0.00085206532072531907 0 -0.023405513405123292 0.0010871376508253194 0 -0.029827759122006667 0.00084797730637137855 0 -0.027414005410292323 -0.00038457819471982881 0 -0.027068785330308619 0.0012863750675902582 0 -0.026720907288890271 0.0013612295998360043 0 -0.023405513405123292 0.0010871376508253194 0 -0.023218241469283196 0.0013328422416118097 0 -0.019536027835656368 0.00021710708973227312 0 -0.019141065557173535 0.0006428007452559583 0 -0.019682726271799129 0.0011549945632251327 0 -0.019536027835656368 0.00021710708973227312 0 -0.019281369870613164 0.00027581999886542376 0 -0.019141065557173535 0.0006428007452559583 0 -0.023218241469283196 0.0013328422416118097 0 -0.022883615370431307 0.0013922296504702291 0 -0.024494611230309632 0.00088793150274905149 0 -0.024273441913106219 0.0014008513998066509 0 -0.023929528679278125 0.0014730898489910299 0 -0.023218241469283196 0.0013328422416118097 0 -0.016626565977344045 0.0022340827601906961 0 -0.019279421975615975 0.00030264768642119849 0 -0.019141065557173535 0.0006428007452559583 0 -0.018466284539428699 0.00048324415057069759 0 -0.012964875377000121 0.002561353215146246 0 -0.012987578805579832 0.0025074111198472174 0 -0.012971653344985481 0.002512615380712303 0 -0.011928924036488649 0.0025305938081166242 0 -0.016626565977344045 0.0022340827601906961 0 -0.012912101210099723 0.0024974517826178923 0 -0.012987578805579832 0.0025074111198472174 0 -0.012971653344985481 0.002512615380712303 0 -0.012930160972358105 0.0024976436038605171 0 -0.013047515854343562 0.0025984371768920799 0 -0.012971653344985481 0.002512615380712303 0 -0.012912101210099723 0.0024974517826178923 0 -0.012930160972358105 0.0024976436038605171 0 -0.012971653344985481 0.002512615380712303 0 -0.012287760982347849 0.0021742988861451341 0 -0.012364972137976526 0.0020620865860931682 0 -0.012142914260363529 0.0020490530717888955 0 -0.012376321787892906 0.0022971930872633969 0 -0.012179234031740807 0.0023183364831596458 0 -0.012287760982347849 0.0021742988861451341 0 -0.012179234031740807 0.0023183364831596458 0 -0.012287760982347849 0.0021742988861451341 0 -0.012142914260363529 0.0020490530717888955 0 -0.012376321787892906 0.0022971930872633969 0 -0.012378232744518356 0.0021632270139961365 0 -0.012287760982347849 0.0021742988861451341 0 -0.012378232744518356 0.0021632270139961365 0 -0.012287760982347849 0.0021742988861451341 0 -0.012364972137976526 0.0020620865860931682 0 -0.01241524291161027 0.0019156227026610785 0 -0.012364972137976526 0.0020620865860931682 0 -0.012142914260363529 0.0020490530717888955 0 -0.011859706156662356 0.0018725612144678847 0 -0.014119248774168905 0.0022516480027471005 0 -0.011855619535986321 0.0017117065206298564 0 -0.013092356913398688 0.0016174622959006723 0 -0.011995558662097271 0.0015733202964511631 0 -0.012030169331777437 0.0015868306051164563 0 -0.011920248784782731 0.0015942437017741902 0 -0.012048440182317302 0.0017224272652251852 0 -0.011955180586789453 0.001771678802891646 0 -0.011955676821142109 0.0017881334503173211 0 -0.011995558662097271 0.0015733202964511631 0 -0.011835956619648343 0.0015523788732242415 0 -0.012014782345695533 0.0014993741761399903 0 -0.01208728257515846 0.001760586050388547 0 -0.012048440182317302 0.0017224272652251852 0 -0.011955676821142109 0.0017881334503173211 0 -0.011731999127642364 0.0017751312907046575 0 -0.013092356913398688 0.0016174622959006723 0 -0.011995558662097271 0.0015733202964511631 0 -0.011835956619648343 0.0015523788732242415 0 -0.011847710221158731 0.001656288888856631 0 -0.011995558662097271 0.0015733202964511631 0 -0.012030169331777437 0.0015868306051164563 0 -0.012014782345695533 0.0014993741761399903 0 -0.01227918737673292 0.0003983384758140651 0 -0.013282498917829618 -0.00090991464984043618 0 -0.012868386648070468 0.0013256583316230022 0 -0.012972215503581654 0.00026908464622567573 0 -0.014596802753334533 0.00015132374109666396 0 -0.011776041283979554 -0.001638557740815925 0 -0.012347206058256009 -0.0020109703889907397 0 -0.012259975975060598 -0.0014528290303252363 0 -0.01227918737673292 0.0003983384758140651 0 -0.013092356913398688 0.0016174622959006723 0 -0.012868386648070468 0.0013256583316230022 0 -0.012972215503581654 0.00026908464622567573 0 -0.012809440169735578 0.00033219679283147375 0 -0.014288636985733971 0.0022715956447239066 0 -0.013879947595329737 0.002428478889475037 0 -0.013831382574789188 0.0016501400251187695 0 -0.013830635620971038 0.0013156293658692999 0 -0.013092356913398688 0.0016174622959006723 0 -0.013092356913398688 0.0016174622959006723 0 -0.014119248774168905 0.0022516480027471005 0 -0.013830635620971038 0.0013156293658692999 0 -0.015470878915122645 2.8432141500510693e-06 0 -0.014119248774168905 0.0022516480027471005 0 -0.018150061934865441 0.00089117519757659269 0 -0.012972215503581654 0.00026908464622567573 0 -0.014649593271240366 -0.00038194559147433833 0 -0.014596802753334533 0.00015132374109666396 0 -0.013830635620971038 0.0013156293658692999 0 -0.018150061934865441 0.00089117519757659269 0 -0.014684015412195429 0.0010203557942770312 0 -0.015905650147565308 0.00032033075033159185 0 -0.016195128863851931 0.00040007201750673945 0 -0.014288636985733971 0.0022715956447239066 0 -0.013831382574789188 0.0016501400251187695 0 -0.017675920023766025 0.00042657812038788813 0 -0.018639561925893625 0.0032690430882264172 0 -0.019658859923955364 0.0020648010437896219 0 -0.020483193858414687 0.0026399232117451489 0 -0.016626565977344045 0.0022340827601906961 0 -0.014119248774168905 0.0022516480027471005 0 -0.018466284539428699 0.00048324415057069759 0 -0.018639561925893625 0.0032690430882264172 0 -0.019191230595386525 0.0014329538954452638 0 -0.018639561925893625 0.0032690430882264172 0 -0.019658859923955364 0.0020648010437896219 0 -0.019191230595386525 0.0014329538954452638 0 -0.019141065557173535 0.0006428007452559583 0 -0.018466284539428699 0.00048324415057069759 0 -0.019191230595386525 0.0014329538954452638 0 -0.019536027835656368 0.00021710708973227312 0 -0.019682726271799129 0.0011549945632251327 0 -0.020901294295166632 0.0014086652000309897 0 -0.019658859923955364 0.0020648010437896219 0 -0.019682726271799129 0.0011549945632251327 0 -0.020901294295166632 0.0014086652000309897 0 -0.019658859923955364 0.0020648010437896219 0 -0.019191230595386525 0.0014329538954452638 0 -0.019682726271799129 0.0011549945632251327 0 -0.019141065557173535 0.0006428007452559583 0 -0.019191230595386525 0.0014329538954452638 0 -0.019682726271799129 0.0011549945632251327 0 -0.019658859923955364 0.0020648010437896219 0 -0.021884832808343441 0.0018558935132557263 0 -0.020483193858414687 0.0026399232117451489 0 -0.020298375366873643 0.0020357279915967576 0 -0.020851533678149223 0.00091066769939841179 0 -0.018622963575475052 0.00027040023233491239 0 -0.018450682753097337 0.0003856701772647431 0 -0.018729386622117733 0.00027768415396031021 0 -0.015905650147565308 0.00032033075033159185 0 -0.016195128863851931 0.00040007201750673945 0 -0.017683569307945939 -0.00020957643448313095 0 -0.018150061934865441 0.00089117519757659269 0 -0.016963269307785699 -0.00053254114635065326 0 -0.019658859923955364 0.0020648010437896219 0 -0.020901294295166632 0.0014086652000309897 0 -0.022237473638328207 0.0018627892879527887 0 -0.013282498917829618 -0.00090991464984043618 0 -0.016963269307785699 -0.00053254114635065326 0 -0.014649593271240366 -0.00038194559147433833 0 -0.014596802753334533 0.00015132374109666396 0 -0.016349812007323421 -0.001030007987224261 0 -0.020901294295166632 0.0014086652000309897 0 -0.021861308980864094 0.0012767509209192284 0 -0.022237473638328207 0.0018627892879527887 0 -0.020901294295166632 0.0014086652000309897 0 -0.021861308980864094 0.0012767509209192284 0 -0.022202085444836279 0.00072652585681564762 0 -0.022218586464720917 0.0013470466179113462 0 -0.021861308980864094 0.0012767509209192284 0 -0.022202085444836279 0.00072652585681564762 0 -0.022218586464720917 0.0013470466179113462 0 -0.023095941440644238 0.0013872821112925087 0 -0.022202085444836279 0.00072652585681564762 0 -0.022218586464720917 0.0013470466179113462 0 -0.022237473638328207 0.0018627892879527887 0 -0.023095941440644238 0.0013872821112925087 0 -0.022218586464720917 0.0013470466179113462 0 -0.021861308980864094 0.0012767509209192284 0 -0.022237473638328207 0.0018627892879527887 0 -0.015470878915122645 2.8432141500510693e-06 0 -0.016963269307785699 -0.00053254114635065326 0 -0.020851533678149223 0.00091066769939841179 0 -0.018150061934865441 0.00089117519757659269 0 -0.012347206058256009 -0.0020109703889907397 0 -0.012911549778032081 -0.0016110511315526989 0 -0.012259975975060598 -0.0014528290303252363 0 -0.012347206058256009 -0.0020109703889907397 0 -0.012994412898083481 -0.0020645216945507855 0 -0.012911549778032081 -0.0016110511315526989 0 -0.012994412898083481 -0.0020645216945507855 0 -0.012911549778032081 -0.0016110511315526989 0 -0.013580339801487219 -0.0019659028737815634 0 -0.012347206058256009 -0.0020109703889907397 0 -0.012994412898083481 -0.0020645216945507855 0 -0.012914160117990412 -0.0023607954692885322 0 -0.012994412898083481 -0.0020645216945507855 0 -0.012988299233546446 -0.0024212336052007195 0 -0.013580339801487219 -0.0019659028737815634 0 -0.018685464850569457 -0.0014450618037913459 0 -0.018532637096887909 -0.0014321818529611974 0 -0.017922410824491978 -0.0020073434214482825 0 -0.012994412898083481 -0.0020645216945507855 0 -0.012914160117990412 -0.0023607954692885322 0 -0.012988299233546446 -0.0024212336052007195 0 -0.018622963575475052 0.00027040023233491239 0 -0.018729386622117733 0.00027768415396031021 0 -0.018761036691541062 0.00024415395828563183 0 -0.020947971552269018 0.0002696437611214119 0 -0.020897947850547976 0.00028811655410112522 0 -0.020868055266485868 0.00026399345837136763 0 -0.024588992675781067 -9.8588845515732744e-05 0 -0.023977744335345042 0.00023435063308255001 0 -0.02543395254183331 0.00053631255889182632 0 -0.025424151656267019 2.904446735190321e-06 0 -0.026368002335401923 0.00061195100952616925 0 -0.020851533678149223 0.00091066769939841179 0 -0.018711153322626805 -0.00071707556979862122 0 -0.020851533678149223 0.00091066769939841179 0 -0.022451554829312749 0.000473948320797089 0 -0.021251647595830786 -0.00015883782763297742 0 -0.021903844835737749 0.00032527597351219293 0 -0.022162486248854238 -0.00066243189143344887 0 -0.022451554829312749 0.000473948320797089 0 -0.018711153322626805 -0.00071707556979862122 0 -0.016963269307785699 -0.00053254114635065326 0 -0.018711153322626805 -0.00071707556979862122 0 -0.022451554829312749 0.000473948320797089 0 -0.025424151656267019 2.904446735190321e-06 0 -0.022451554829312749 0.000473948320797089 0 -0.026368002335401923 0.00061195100952616925 0 -0.019825433182767079 -0.00081481917656182044 0 -0.022403397550239838 -0.00077446379651678826 0 -0.020845122477344206 -0.00041913430171308956 0 -0.021554943485363819 -0.0013833715941893795 0 -0.022725991668675678 -0.0011479324654095407 0 -0.018711153322626805 -0.00071707556979862122 0 -0.023377081794957441 -0.00048777208431733781 0 -0.01979610758568744 -0.00032297697512323871 0 -0.020845122477344206 -0.00041913430171308956 0 -0.021554943485363819 -0.0013833715941893795 0 -0.018711153322626805 -0.00071707556979862122 0 -0.019825433182767079 -0.00081481917656182044 0 -0.021903844835737749 0.00032527597351219293 0 -0.022162486248854238 -0.00066243189143344887 0 -0.023195699652315136 -0.00045763011757010702 0 -0.025424151656267019 2.904446735190321e-06 0 -0.023377081794957441 -0.00048777208431733781 0 -0.034814998948684221 2.969356047330357e-05 0 -0.034840246916378867 2.2700665600133873e-05 0 -0.034838172015144511 3.3322234277270825e-06 0 -0.029128956954856573 0.00045022839327099395 0 -0.028503579454038957 -0.00029316156107595713 0 -0.030152207338934481 -0.00065086614887643662 0 -0.031687726054852462 0.00020302574849338949 0 -0.032624478745691181 -0.00038151065773320449 0 -0.029128956954856573 0.00045022839327099395 0 -0.028364097419871385 0.00029700962143753223 0 -0.028503579454038957 -0.00029316156107595713 0 -0.026368002335401923 0.00061195100952616925 0 -0.031687726054852462 0.00020302574849338949 0 -0.019536027835656368 0.00021710708973227312 0 -0.020901294295166632 0.0014086652000309897 0 -0.022202085444836279 0.00072652585681564762 0 -0.023405513405123292 0.0010871376508253194 0 -0.026368002335401923 0.00061195100952616925 0 -0.029827759122006667 0.00084797730637137855 0 -0.031687726054852462 0.00020302574849338949 0 -0.02509776987847474 0.00083782628046813966 0 -0.027487016735944777 0.0013004371919633209 0 -0.026442788936081745 0.00053883844859226862 0 -0.02911392973332759 0.00075284667743045054 0 -0.029237613595603382 0.00084230781480809853 0 -0.02909655992019447 0.0008698675377273239 0 -0.026368002335401923 0.00061195100952616925 0 -0.029827759122006667 0.00084797730637137855 0 -0.034317271959341318 0.00066717024612551713 0 -0.034445248229536124 0.00076370954512464822 0 -0.034527668554626356 0.00054825993421409437 0 -0.030516366874907899 0.00041235860888313525 0 -0.029827759122006667 0.00084797730637137855 0 -0.034445248229536124 0.00076370954512464822 0 -0.034598944352353389 0.00072974200047307592 0 -0.034527668554626356 0.00054825993421409437 0 -0.034718759364029406 0.00037301521109252137 0 -0.034598944352353389 0.00072974200047307592 0 -0.034527668554626356 0.00054825993421409437 0 -0.034317271959341318 0.00066717024612551713 0 -0.034527668554626356 0.00054825993421409437 0 -0.034470218337815994 0.00041237303747781366 0 -0.034594977933434932 0.00037243223835741493 0 -0.034527668554626356 0.00054825993421409437 0 -0.034470218337815994 0.00041237303747781366 0 -0.034718759364029406 0.00037301521109252137 0 -0.034594977933434932 0.00037243223835741493 0 -0.034527668554626356 0.00054825993421409437 0 -0.035134060726450818 0.00017195928720897252 0 -0.031687726054852462 0.00020302574849338949 0 -0.034852521488641763 2.4256558044531842e-05 0 -0.034814998948684221 2.969356047330357e-05 0 -0.034840246916378867 2.2700665600133873e-05 0 -0.034852521488641763 2.4256558044531842e-05 0 -0.034850192697376825 2.6642060868116425e-05 0 -0.03486089422914599 2.7086704362695212e-05 0 -0.034852521488641763 2.4256558044531842e-05 0 -0.034840246916378867 2.2700665600133873e-05 0 -0.034850192697376825 2.6642060868116425e-05 0 -0.012877208099441534 2.3693874586288013e-05 0 -0.01242467462506546 -0.00043409381754914387 0 -0.01192738383708419 0.00045547646376886653 0 -0.012877208099441534 2.3693874586288013e-05 0 -0.01192738383708419 0.00045547646376886653 0 -0.012468630128287842 0.00061956042172814038 0 -0.012877208099441534 2.3693874586288013e-05 0 -0.012468630128287842 0.00061956042172814038 0 -0.013146687790292386 0.00051835925947121126 0 -0.012877208099441534 2.3693874586288013e-05 0 -0.01242467462506546 -0.00043409381754914387 0 -0.012994678401311612 -0.00093020005264183117 0 -0.012994678401311612 -0.00093020005264183117 0 -0.012911549778032081 -0.0016110511315526989 0 -0.013470727819084117 -0.001373589513647898 0 -0.012994678401311612 -0.00093020005264183117 0 -0.012911549778032081 -0.0016110511315526989 0 -0.012501750585014964 -0.0010778653014342303 0 -0.012911549778032081 -0.0016110511315526989 0 -0.012259975975060598 -0.0014528290303252363 0 -0.012501750585014964 -0.0010778653014342303 0 -0.012259975975060598 -0.0014528290303252363 0 -0.012501750585014964 -0.0010778653014342303 0 -0.011802757435920491 -0.00065346487764055125 0 -0.01242467462506546 -0.00043409381754914387 0 -0.012994678401311612 -0.00093020005264183117 0 -0.012501750585014964 -0.0010778653014342303 0 -0.01242467462506546 -0.00043409381754914387 0 -0.012501750585014964 -0.0010778653014342303 0 -0.011802757435920491 -0.00065346487764055125 0 -0.011776041283979554 -0.001638557740815925 0 -0.012259975975060598 -0.0014528290303252363 0 -0.011802757435920491 -0.00065346487764055125 0 -0.01227918737673292 0.0003983384758140651 0 -0.011751228690420558 -1.1321875276609469e-05 0 -0.01227918737673292 0.0003983384758140651 0 -0.011902465861603428 0.0013872496881417093 0 -0.011835956619648343 0.0015523788732242415 0 -0.012014782345695533 0.0014993741761399903 0 -0.012031330152216184 0.0013783389278615521 0 -0.011831423482122429 0.0012375431548913658 0 -0.011813520943363206 0.00091031828874712161 0 -0.01202912535731562 0.0011166100578312286 0 -0.012014782345695533 0.0014993741761399903 0 -0.012031330152216184 0.0013783389278615521 0 -0.012071557833896223 0.0014982964128903971 0 -0.012030169331777437 0.0015868306051164563 0 -0.012014782345695533 0.0014993741761399903 0 -0.012071557833896223 0.0014982964128903971 0 -0.011813520943363206 0.00091031828874712161 0 -0.01202912535731562 0.0011166100578312286 0 -0.012062865607395255 0.00094488240646876432 0 -0.011813520943363206 0.00091031828874712161 0 -0.0120009397627327 0.00071409666428685263 0 -0.012062865607395255 0.00094488240646876432 0 -0.01242467462506546 -0.00043409381754914387 0 -0.011802757435920491 -0.00065346487764055125 0 -0.01192738383708419 0.00045547646376886653 0 -0.011813520943363206 0.00091031828874712161 0 -0.0120009397627327 0.00071409666428685263 0 -0.01192738383708419 0.00045547646376886653 0 -0.011751228690420558 -1.1321875276609469e-05 0 -0.011927783368781295 0.00050808597269882136 0 -0.0120009397627327 0.00071409666428685263 0 -0.01192738383708419 0.00045547646376886653 0 -0.011930688194493578 0.00059967974485555765 0 -0.0120009397627327 0.00071409666428685263 0 -0.011985332902883835 0.0006669271293013732 0 -0.012177285482552867 0.0008139418402164679 0 -0.0120009397627327 0.00071409666428685263 0 -0.011930688194493578 0.00059967974485555765 0 -0.011985332902883835 0.0006669271293013732 0 -0.011985332902883835 0.0006669271293013732 0 -0.012177285482552867 0.0008139418402164679 0 -0.012090113445362328 0.00071478195364733162 0 -0.012177285482552867 0.0008139418402164679 0 -0.0124063511918993 0.00086194444167406203 0 -0.012090113445362328 0.00071478195364733162 0 -0.012177285482552867 0.0008139418402164679 0 -0.012274847043649737 0.0010681420261271965 0 -0.012458603691456098 0.001030866677521055 0 -0.012177285482552867 0.0008139418402164679 0 -0.012458603691456098 0.001030866677521055 0 -0.0124063511918993 0.00086194444167406203 0 -0.0120009397627327 0.00071409666428685263 0 -0.012177285482552867 0.0008139418402164679 0 -0.012062865607395255 0.00094488240646876432 0 -0.012177285482552867 0.0008139418402164679 0 -0.012062865607395255 0.00094488240646876432 0 -0.012274847043649737 0.0010681420261271965 0 -0.01202912535731562 0.0011166100578312286 0 -0.012062865607395255 0.00094488240646876432 0 -0.012274847043649737 0.0010681420261271965 0 -0.011902465861603428 0.0013872496881417093 0 -0.012328865000227472 0.0010261938862654242 0 -0.012030169331777437 0.0015868306051164563 0 -0.012175857740649585 0.0014833466566473814 0 -0.012411064658534209 0.0015366067057136137 0 -0.012031330152216184 0.0013783389278615521 0 -0.012271524027923683 0.0013610729062416931 0 -0.012274847043649737 0.0010681420261271965 0 -0.012031330152216184 0.0013783389278615521 0 -0.012271524027923683 0.0013610729062416931 0 -0.012175857740649585 0.0014833466566473814 0 -0.011855619535986321 0.0017117065206298564 0 -0.012454173111661916 0.0015140563433546786 0 -0.012271524027923683 0.0013610729062416931 0 -0.012175857740649585 0.0014833466566473814 0 -0.012411064658534209 0.0015366067057136137 0 -0.012031330152216184 0.0013783389278615521 0 -0.012071557833896223 0.0014982964128903971 0 -0.012175857740649585 0.0014833466566473814 0 -0.012030169331777437 0.0015868306051164563 0 -0.012071557833896223 0.0014982964128903971 0 -0.012175857740649585 0.0014833466566473814 0 -0.012605417374167623 0.0016416774457276037 0 -0.012539771160159948 0.0013588964285065857 0 -0.012726462778014886 0.0015051944599062904 0 -0.012757270242481073 0.0017630698901546383 0 -0.012605417374167623 0.0016416774457276037 0 -0.012726462778014886 0.0015051944599062904 0 -0.012605417374167623 0.0016416774457276037 0 -0.012411064658534209 0.0015366067057136137 0 -0.012539771160159948 0.0013588964285065857 0 -0.012271524027923683 0.0013610729062416931 0 -0.012539771160159948 0.0013588964285065857 0 -0.012274847043649737 0.0010681420261271965 0 -0.012271524027923683 0.0013610729062416931 0 -0.012411064658534209 0.0015366067057136137 0 -0.012539771160159948 0.0013588964285065857 0 -0.012539771160159948 0.0013588964285065857 0 -0.012696285345968927 0.0012556918648101443 0 -0.012726462778014886 0.0015051944599062904 0 -0.012539771160159948 0.0013588964285065857 0 -0.012458603691456098 0.001030866677521055 0 -0.012696285345968927 0.0012556918648101443 0 -0.012539771160159948 0.0013588964285065857 0 -0.012274847043649737 0.0010681420261271965 0 -0.012458603691456098 0.001030866677521055 0 -0.012458603691456098 0.001030866677521055 0 -0.012669975672856654 0.0010433845689876203 0 -0.012696285345968927 0.0012556918648101443 0 -0.012669975672856654 0.0010433845689876203 0 -0.01291513170217066 0.0012734235912903406 0 -0.012696285345968927 0.0012556918648101443 0 -0.012696285345968927 0.0012556918648101443 0 -0.012865064593272269 0.0014326033218893816 0 -0.012726462778014886 0.0015051944599062904 0 -0.01291513170217066 0.0012734235912903406 0 -0.012865064593272269 0.0014326033218893816 0 -0.013082045417075671 0.0015335543501665706 0 -0.01291513170217066 0.0012734235912903406 0 -0.012696285345968927 0.0012556918648101443 0 -0.012865064593272269 0.0014326033218893816 0 -0.012898758443799421 0.001639894130572975 0 -0.012865064593272269 0.0014326033218893816 0 -0.013082045417075671 0.0015335543501665706 0 -0.012898758443799421 0.001639894130572975 0 -0.012865064593272269 0.0014326033218893816 0 -0.012726462778014886 0.0015051944599062904 0 -0.01343449974295041 0.0016038716444726079 0 -0.013210381535188763 0.0013575855575184779 0 -0.013579255954385045 0.0014648286478467227 0 -0.01343449974295041 0.0016038716444726079 0 -0.013082045417075671 0.0015335543501665706 0 -0.013210381535188763 0.0013575855575184779 0 -0.01291513170217066 0.0012734235912903406 0 -0.013082045417075671 0.0015335543501665706 0 -0.013210381535188763 0.0013575855575184779 0 -0.013210381535188763 0.0013575855575184779 0 -0.01298030404645939 0.0011290103454494075 0 -0.013384341270284917 0.0012185375809951949 0 -0.01291513170217066 0.0012734235912903406 0 -0.013210381535188763 0.0013575855575184779 0 -0.01298030404645939 0.0011290103454494075 0 -0.012669975672856654 0.0010433845689876203 0 -0.01291513170217066 0.0012734235912903406 0 -0.01298030404645939 0.0011290103454494075 0 -0.012623697093637629 0.00088579470453403579 0 -0.012621475766397687 0.00080768829869681455 0 -0.012926890604495976 0.00094313589753933853 0 -0.012669975672856654 0.0010433845689876203 0 -0.01298030404645939 0.0011290103454494075 0 -0.012623697093637629 0.00088579470453403579 0 -0.01298030404645939 0.0011290103454494075 0 -0.012623697093637629 0.00088579470453403579 0 -0.012926890604495976 0.00094313589753933853 0 -0.012669975672856654 0.0010433845689876203 0 -0.012623697093637629 0.00088579470453403579 0 -0.0124063511918993 0.00086194444167406203 0 -0.012458603691456098 0.001030866677521055 0 -0.012669975672856654 0.0010433845689876203 0 -0.0124063511918993 0.00086194444167406203 0 -0.0124063511918993 0.00086194444167406203 0 -0.012293776329756192 0.00076684850428144059 0 -0.012090113445362328 0.00071478195364733162 0 -0.012623697093637629 0.00088579470453403579 0 -0.0124063511918993 0.00086194444167406203 0 -0.012293776329756192 0.00076684850428144059 0 -0.012623697093637629 0.00088579470453403579 0 -0.012293776329756192 0.00076684850428144059 0 -0.012621475766397687 0.00080768829869681455 0 -0.012293776329756192 0.00076684850428144059 0 -0.012621475766397687 0.00080768829869681455 0 -0.012304256174402152 0.00077001082113700291 0 -0.012293776329756192 0.00076684850428144059 0 -0.012304256174402152 0.00077001082113700291 0 -0.011964019408109868 0.00073555489847777441 0 -0.012304256174402152 0.00077001082113700291 0 -0.011964019408109868 0.00073555489847777441 0 -0.012163173045777145 0.00080270998811487419 0 -0.012293776329756192 0.00076684850428144059 0 -0.011964019408109868 0.00073555489847777441 0 -0.012090113445362328 0.00071478195364733162 0 -0.011964019408109868 0.00073555489847777441 0 -0.011808411683842914 0.00068504267818098844 0 -0.012090113445362328 0.00071478195364733162 0 -0.011964019408109868 0.00073555489847777441 0 -0.01151430971904592 0.00073114124444739075 0 -0.011808411683842914 0.00068504267818098844 0 -0.011964019408109868 0.00073555489847777441 0 -0.011749507637911053 0.00076826311689043227 0 -0.01151430971904592 0.00073114124444739075 0 -0.011964019408109868 0.00073555489847777441 0 -0.011749507637911053 0.00076826311689043227 0 -0.012163173045777145 0.00080270998811487419 0 -0.011749507637911053 0.00076826311689043227 0 -0.012163173045777145 0.00080270998811487419 0 -0.011796139043852183 0.00080211074655534887 0 -0.011749507637911053 0.00076826311689043227 0 -0.011416230503686909 0.00078559199805404846 0 -0.011796139043852183 0.00080211074655534887 0 -0.011416230503686909 0.00078559199805404846 0 -0.011450215640660601 0.00075972420312741271 0 -0.010997256888526595 0.00071460869978772271 0 -0.011416230503686909 0.00078559199805404846 0 -0.011796139043852183 0.00080211074655534887 0 -0.011450215640660601 0.00075972420312741271 0 -0.011416230503686909 0.00078559199805404846 0 -0.011099827350730994 0.00080543562654713261 0 -0.01151430971904592 0.00073114124444739075 0 -0.011416230503686909 0.00078559199805404846 0 -0.011099827350730994 0.00080543562654713261 0 -0.010997256888526595 0.00071460869978772271 0 -0.011749507637911053 0.00076826311689043227 0 -0.011416230503686909 0.00078559199805404846 0 -0.01151430971904592 0.00073114124444739075 0 -0.01151430971904592 0.00073114124444739075 0 -0.011696600182513167 0.00074825732700937704 0 -0.011808411683842914 0.00068504267818098844 0 -0.01151430971904592 0.00073114124444739075 0 -0.011347587407196696 0.00084236573213111428 0 -0.011696600182513167 0.00074825732700937704 0 -0.011099827350730994 0.00080543562654713261 0 -0.01151430971904592 0.00073114124444739075 0 -0.011347587407196696 0.00084236573213111428 0 -0.011347587407196696 0.00084236573213111428 0 -0.011696600182513167 0.00074825732700937704 0 -0.011834967383756055 0.00087998008527469696 0 -0.011696600182513167 0.00074825732700937704 0 -0.011808411683842914 0.00068504267818098844 0 -0.011864431390865359 0.00067085489209833154 0 -0.011985332902883835 0.0006669271293013732 0 -0.011808411683842914 0.00068504267818098844 0 -0.012090113445362328 0.00071478195364733162 0 -0.011985332902883835 0.0006669271293013732 0 -0.011808411683842914 0.00068504267818098844 0 -0.011864431390865359 0.00067085489209833154 0 -0.011930688194493578 0.00059967974485555765 0 -0.011985332902883835 0.0006669271293013732 0 -0.011864431390865359 0.00067085489209833154 0 -0.011930688194493578 0.00059967974485555765 0 -0.012021449233773841 0.00066450516838888977 0 -0.011864431390865359 0.00067085489209833154 0 -0.01192738383708419 0.00045547646376886653 0 -0.012021449233773841 0.00066450516838888977 0 -0.012468630128287842 0.00061956042172814038 0 -0.01192738383708419 0.00045547646376886653 0 -0.011930688194493578 0.00059967974485555765 0 -0.012021449233773841 0.00066450516838888977 0 -0.012021449233773841 0.00066450516838888977 0 -0.01196113391884117 0.00078508830959872066 0 -0.012308158104899682 0.00084468445449677198 0 -0.012021449233773841 0.00066450516838888977 0 -0.01196113391884117 0.00078508830959872066 0 -0.011864431390865359 0.00067085489209833154 0 -0.011696600182513167 0.00074825732700937704 0 -0.01196113391884117 0.00078508830959872066 0 -0.011864431390865359 0.00067085489209833154 0 -0.011696600182513167 0.00074825732700937704 0 -0.01196113391884117 0.00078508830959872066 0 -0.011834967383756055 0.00087998008527469696 0 -0.011834967383756055 0.00087998008527469696 0 -0.01208222677558915 0.0010878470947587183 0 -0.011682112587595966 0.00128357533740187 0 -0.011347587407196696 0.00084236573213111428 0 -0.011834967383756055 0.00087998008527469696 0 -0.011682112587595966 0.00128357533740187 0 -0.011834967383756055 0.00087998008527469696 0 -0.01208222677558915 0.0010878470947587183 0 -0.012125815401094048 0.00092667838905689283 0 -0.01196113391884117 0.00078508830959872066 0 -0.012125815401094048 0.00092667838905689283 0 -0.012308158104899682 0.00084468445449677198 0 -0.01196113391884117 0.00078508830959872066 0 -0.011834967383756055 0.00087998008527469696 0 -0.012125815401094048 0.00092667838905689283 0 -0.01208222677558915 0.0010878470947587183 0 -0.012125815401094048 0.00092667838905689283 0 -0.012466645337064632 0.0010360904594436979 0 -0.012125815401094048 0.00092667838905689283 0 -0.012466645337064632 0.0010360904594436979 0 -0.012308158104899682 0.00084468445449677198 0 -0.011962134479763303 0.0010835495214717968 0 -0.012242424868126387 0.0010257652213655232 0 -0.012261008961586922 0.0012303162141467251 0 -0.012020295632386381 0.0010850978857039964 0 -0.012405258738270284 0.00089571584714527694 0 -0.011962134479763303 0.0010835495214717968 0 -0.012242424868126387 0.0010257652213655232 0 -0.012286468645114859 0.00077346238364795774 0 -0.012418923849008008 0.0010010958847023312 0 -0.012287304068483411 0.0012088802349092132 0 -0.012242424868126387 0.0010257652213655232 0 -0.012485208872141938 0.001005537733240058 0 -0.012261008961586922 0.0012303162141467251 0 -0.012242424868126387 0.0010257652213655232 0 -0.012485208872141938 0.001005537733240058 0 -0.012286468645114859 0.00077346238364795774 0 -0.012286468645114859 0.00077346238364795774 0 -0.012756030559016477 0.0003544861021459963 0 -0.012675838439216864 0.00067905291515293681 0 -0.012485208872141938 0.001005537733240058 0 -0.012532968865687296 0.00080122621204569366 0 -0.012286468645114859 0.00077346238364795774 0 -0.012532968865687296 0.00080122621204569366 0 -0.012286468645114859 0.00077346238364795774 0 -0.012675838439216864 0.00067905291515293681 0 -0.012466645337064632 0.0010360904594436979 0 -0.012629037457589651 0.00089257446465664642 0 -0.012946790310633402 0.00091154001941621231 0 -0.012629037457589651 0.00089257446465664642 0 -0.012821557117359612 0.00085576196639879283 0 -0.012946790310633402 0.00091154001941621231 0 -0.012405258738270284 0.00089571584714527694 0 -0.012762987391253349 0.0006011882269566811 0 -0.012558043747096544 0.00079756193289063834 0 -0.012629037457589651 0.00089257446465664642 0 -0.012821557117359612 0.00085576196639879283 0 -0.012466645337064632 0.0010360904594436979 0 -0.012629037457589651 0.00089257446465664642 0 -0.012308158104899682 0.00084468445449677198 0 -0.012558043747096544 0.00079756193289063834 0 -0.012629037457589651 0.00089257446465664642 0 -0.012308158104899682 0.00084468445449677198 0 -0.012558043747096544 0.00079756193289063834 0 -0.012308158104899682 0.00084468445449677198 0 -0.012468630128287842 0.00061956042172814038 0 -0.012021449233773841 0.00066450516838888977 0 -0.012308158104899682 0.00084468445449677198 0 -0.012468630128287842 0.00061956042172814038 0 -0.012468630128287842 0.00061956042172814038 0 -0.012821557117359612 0.00085576196639879283 0 -0.013146687790292386 0.00051835925947121126 0 -0.012558043747096544 0.00079756193289063834 0 -0.012468630128287842 0.00061956042172814038 0 -0.012821557117359612 0.00085576196639879283 0 -0.020021207885026728 -2.465881702262786e-05 0 -0.019993830272250341 -4.6316568758877331e-05 0 -0.020010533693828613 -1.5624812198786791e-05 0 -0.020021207885026728 -2.465881702262786e-05 0 -0.020055596181523801 -1.9276496101455956e-05 0 -0.019997152875839901 -4.0634051175113014e-05 0 -0.020014113214413268 0.00011391897646021541 0 -0.020089384510353435 -8.8966021637025793e-07 0 -0.020010533693828613 -1.5624812198786791e-05 0 -0.014864356259281227 0.00027172078470835779 0 -0.016950840780740641 0.0012103173792087595 0 -0.017641599269368952 0.0010023296406248866 0 -0.020637306637454878 -0.00040739545777529961 0 -0.020014113214413268 0.00011391897646021541 0 -0.020037251678138111 0.00023081936000549349 0 -0.020089384510353435 -8.8966021637025793e-07 0 -0.020014113214413268 0.00011391897646021541 0 -0.019916597369196033 0.00024660720432838107 0 -0.020010533693828613 -1.5624812198786791e-05 0 -0.012594797747710527 0.0011818533447588674 0 -0.012683158160183922 0.0011752568866946528 0 -0.012543617392022151 0.0010666500784244841 0 -0.020014113214413268 0.00011391897646021541 0 -0.020037251678138111 0.00023081936000549349 0 -0.019916597369196033 0.00024660720432838107 0 -0.014864356259281227 0.00027172078470835779 0 -0.017641599269368952 0.0010023296406248866 0 -0.020021207885026728 -2.465881702262786e-05 0 -0.019993830272250341 -4.6316568758877331e-05 0 -0.020046126739449378 -6.1408345142047828e-05 0 -0.016995717414923884 0.001901639977587732 0 -0.01812886425486283 0.0018692110581674305 0 -0.017642152258948596 0.00099123604629283691 0 -0.017641599269368952 0.0010023296406248866 0 -0.019048671536321799 0.00092366310850825167 0 -0.020046126739449378 -6.1408345142047828e-05 0 -0.020123824196161981 -6.4949337248564745e-05 0 -0.020055596181523801 -1.9276496101455956e-05 0 -0.019048671536321799 0.00092366310850825167 0 -0.021188783192332514 0.00032572855869812575 0 -0.021188783192332514 0.00032572855869812575 0 -0.022990572587766905 4.8173961790676887e-05 0 -0.022013846930027163 2.5171016223729602e-06 0 -0.023345050437949197 0.00053952281119201803 0 -0.024131911275901009 0.00021351946330723872 0 -0.023345050437949197 0.00053952281119201803 0 -0.024131911275901009 0.00021351946330723872 0 -0.025640982820485377 0.0004794865997962321 0 -0.022011824053241723 2.0981677552960641e-07 0 -0.021188783192332514 0.00032572855869812575 0 -0.024131911275901009 0.00021351946330723872 0 -0.024030134296906133 -2.1355232922405981e-07 0 -0.026072759439472151 1.0291216382977261e-05 0 -0.022013846930027163 2.5171016223729602e-06 0 -0.024131911275901009 0.00021351946330723872 0 -0.024030134296906133 -2.1355232922405981e-07 0 -0.024131911275901009 0.00021351946330723872 0 -0.025640982820485377 0.0004794865997962321 0 -0.026072759439472151 1.0291216382977261e-05 0 -0.020021207885026728 -2.465881702262786e-05 0 -0.020046126739449378 -6.1408345142047828e-05 0 -0.020055596181523801 -1.9276496101455956e-05 0 -0.025640982820485377 0.0004794865997962321 0 -0.026072759439472151 1.0291216382977261e-05 0 -0.027472382484456468 0.00025975164360984095 0 -0.026710596681195586 -4.702162024091208e-07 0 -0.024030134296906133 -2.1355232922405981e-07 0 -0.026072759439472151 1.0291216382977261e-05 0 -0.028283340554372826 -0.00021619298434591799 0 -0.026710596681195586 -4.702162024091208e-07 0 -0.026072759439472151 1.0291216382977261e-05 0 -0.028283340554372826 -0.00021619298434591799 0 -0.026072759439472151 1.0291216382977261e-05 0 -0.027472382484456468 0.00025975164360984095 0 -0.028283340554372826 -0.00021619298434591799 0 -0.027472382484456468 0.00025975164360984095 0 -0.028623273307384036 -6.2349096198147861e-06 0 -0.020021207885026728 -2.465881702262786e-05 0 -0.019997152875839901 -4.0634051175113014e-05 0 -0.020010533693828613 -1.5624812198786791e-05 0 -0.022990572587766905 4.8173961790676887e-05 0 -0.023791029688485388 0.00039908342167782623 0 -0.019997152875839901 -4.0634051175113014e-05 0 -0.020089384510353435 -8.8966021637025793e-07 0 -0.020143150964193744 -0.00022559968636565704 0 -0.019997152875839901 -4.0634051175113014e-05 0 -0.020089384510353435 -8.8966021637025793e-07 0 -0.020010533693828613 -1.5624812198786791e-05 0 -0.016950840780740641 0.0012103173792087595 0 -0.023261482964658409 -0.0023470196879468875 0 -0.023791029688485388 0.00039908342167782623 0 -0.023261482964658409 -0.0023470196879468875 0 -0.014593679919530792 0.0011470435214838142 0 -0.014684987465849862 0.0015537468714594484 0 -0.014293700578305557 0.0013507458275795171 0 -0.014471793761703955 0.0016173183313318124 0 -0.014684987465849862 0.0015537468714594484 0 -0.014293700578305557 0.0013507458275795171 0 -0.014471793761703955 0.0016173183313318124 0 -0.014293700578305557 0.0013507458275795171 0 -0.014005291259321149 0.0014653718748514131 0 -0.014293700578305557 0.0013507458275795171 0 -0.013713661237547874 0.001192833247082021 0 -0.013962116795325941 0.0010664318771468071 0 -0.014293700578305557 0.0013507458275795171 0 -0.014005291259321149 0.0014653718748514131 0 -0.013713661237547874 0.001192833247082021 0 -0.013713661237547874 0.001192833247082021 0 -0.013431180600167012 0.00095982518084453627 0 -0.013962116795325941 0.0010664318771468071 0 -0.014593679919530792 0.0011470435214838142 0 -0.014293700578305557 0.0013507458275795171 0 -0.01426939499743618 0.00089622895536099181 0 -0.014293700578305557 0.0013507458275795171 0 -0.01426939499743618 0.00089622895536099181 0 -0.013962116795325941 0.0010664318771468071 0 -0.013579255954385045 0.0014648286478467227 0 -0.014005291259321149 0.0014653718748514131 0 -0.013384341270284917 0.0012185375809951949 0 -0.013964333260403321 0.0016485476115730149 0 -0.013579255954385045 0.0014648286478467227 0 -0.014005291259321149 0.0014653718748514131 0 -0.013210381535188763 0.0013575855575184779 0 -0.013579255954385045 0.0014648286478467227 0 -0.013384341270284917 0.0012185375809951949 0 -0.013713661237547874 0.001192833247082021 0 -0.013384341270284917 0.0012185375809951949 0 -0.013277189002892886 0.0010262132408727668 0 -0.014005291259321149 0.0014653718748514131 0 -0.013713661237547874 0.001192833247082021 0 -0.013384341270284917 0.0012185375809951949 0 -0.013713661237547874 0.001192833247082021 0 -0.013277189002892886 0.0010262132408727668 0 -0.013431180600167012 0.00095982518084453627 0 -0.01298030404645939 0.0011290103454494075 0 -0.013384341270284917 0.0012185375809951949 0 -0.012926890604495976 0.00094313589753933853 0 -0.013384341270284917 0.0012185375809951949 0 -0.012926890604495976 0.00094313589753933853 0 -0.013277189002892886 0.0010262132408727668 0 -0.012621475766397687 0.00080768829869681455 0 -0.012926890604495976 0.00094313589753933853 0 -0.012954349048674863 0.00080395075303242689 0 -0.012926890604495976 0.00094313589753933853 0 -0.013277189002892886 0.0010262132408727668 0 -0.012954349048674863 0.00080395075303242689 0 -0.013277189002892886 0.0010262132408727668 0 -0.013431180600167012 0.00095982518084453627 0 -0.012954349048674863 0.00080395075303242689 0 -0.013431180600167012 0.00095982518084453627 0 -0.01312393188485938 0.00063184616319235875 0 -0.012954349048674863 0.00080395075303242689 0 -0.01312393188485938 0.00063184616319235875 0 -0.012726296892625237 0.00081505496199419769 0 -0.012636654496025228 0.00078210002651051794 0 -0.01312393188485938 0.00063184616319235875 0 -0.012954349048674863 0.00080395075303242689 0 -0.012636654496025228 0.00078210002651051794 0 -0.012621475766397687 0.00080768829869681455 0 -0.012304256174402152 0.00077001082113700291 0 -0.012636654496025228 0.00078210002651051794 0 -0.012621475766397687 0.00080768829869681455 0 -0.012954349048674863 0.00080395075303242689 0 -0.012636654496025228 0.00078210002651051794 0 -0.01426939499743618 0.00089622895536099181 0 -0.013962116795325941 0.0010664318771468071 0 -0.014000476501364073 0.00049656600189963414 0 -0.014550943572246311 0.00044838446118683934 0 -0.014593679919530792 0.0011470435214838142 0 -0.01426939499743618 0.00089622895536099181 0 -0.013431180600167012 0.00095982518084453627 0 -0.013962116795325941 0.0010664318771468071 0 -0.014000476501364073 0.00049656600189963414 0 -0.013431180600167012 0.00095982518084453627 0 -0.01312393188485938 0.00063184616319235875 0 -0.014000476501364073 0.00049656600189963414 0 -0.01312393188485938 0.00063184616319235875 0 -0.012576124589507761 0.00066082558285942379 0 -0.012726296892625237 0.00081505496199419769 0 -0.013224323249931518 0.00060901741674987886 0 -0.013041226444029061 0.00061370614796896368 0 -0.014550943572246311 0.00044838446118683934 0 -0.01426939499743618 0.00089622895536099181 0 -0.014000476501364073 0.00049656600189963414 0 -0.014864356259281227 0.00027172078470835779 0 -0.013041226444029061 0.00061370614796896368 0 -0.012576124589507761 0.00066082558285942379 0 -0.012471782287526935 0.00078658023911298738 0 -0.012517273222272954 0.00086473764272459476 0 -0.012393408060895844 0.00069833318313563706 0 -0.012576124589507761 0.00066082558285942379 0 -0.012471782287526935 0.00078658023911298738 0 -0.012471782287526935 0.00078658023911298738 0 -0.012517273222272954 0.00086473764272459476 0 -0.012413271678760471 0.00088841957897425839 0 -0.012393408060895844 0.00069833318313563706 0 -0.012471782287526935 0.00078658023911298738 0 -0.012413271678760471 0.00088841957897425839 0 -0.012517273222272954 0.00086473764272459476 0 -0.012419246579596003 0.00090913836731643224 0 -0.012413271678760471 0.00088841957897425839 0 -0.012517273222272954 0.00086473764272459476 0 -0.012726296892625237 0.00081505496199419769 0 -0.01244024821672126 0.00087440519820223791 0 -0.012576124589507761 0.00066082558285942379 0 -0.012517273222272954 0.00086473764272459476 0 -0.012726296892625237 0.00081505496199419769 0 -0.012419246579596003 0.00090913836731643224 0 -0.01244024821672126 0.00087440519820223791 0 -0.012259590368094611 0.00086717889273278475 0 -0.012517273222272954 0.00086473764272459476 0 -0.012419246579596003 0.00090913836731643224 0 -0.01244024821672126 0.00087440519820223791 0 -0.012419246579596003 0.00090913836731643224 0 -0.012461699104174334 0.00092306046580499566 0 -0.012413271678760471 0.00088841957897425839 0 -0.012304256174402152 0.00077001082113700291 0 -0.012636654496025228 0.00078210002651051794 0 -0.012163173045777145 0.00080270998811487419 0 -0.012636654496025228 0.00078210002651051794 0 -0.01244024821672126 0.00087440519820223791 0 -0.012163173045777145 0.00080270998811487419 0 -0.012726296892625237 0.00081505496199419769 0 -0.012636654496025228 0.00078210002651051794 0 -0.01244024821672126 0.00087440519820223791 0 -0.01244024821672126 0.00087440519820223791 0 -0.012163173045777145 0.00080270998811487419 0 -0.012068989453721712 0.00083461180887363059 0 -0.012163173045777145 0.00080270998811487419 0 -0.011796139043852183 0.00080211074655534887 0 -0.012068989453721712 0.00083461180887363059 0 -0.011796139043852183 0.00080211074655534887 0 -0.012068989453721712 0.00083461180887363059 0 -0.011762701485452489 0.00075527511231355529 0 -0.012068989453721712 0.00083461180887363059 0 -0.011762701485452489 0.00075527511231355529 0 -0.012027186746391515 0.00075444359446446565 0 -0.011762701485452489 0.00075527511231355529 0 -0.012027186746391515 0.00075444359446446565 0 -0.011833665788359435 0.00053944022829903481 0 -0.011796139043852183 0.00080211074655534887 0 -0.011762701485452489 0.00075527511231355529 0 -0.011450215640660601 0.00075972420312741271 0 -0.012419246579596003 0.00090913836731643224 0 -0.012259590368094611 0.00086717889273278475 0 -0.012461699104174334 0.00092306046580499566 0 -0.012259590368094611 0.00086717889273278475 0 -0.012426521699339773 0.00080052051395819869 0 -0.012461699104174334 0.00092306046580499566 0 -0.012068989453721712 0.00083461180887363059 0 -0.012259590368094611 0.00086717889273278475 0 -0.012027186746391515 0.00075444359446446565 0 -0.01244024821672126 0.00087440519820223791 0 -0.012068989453721712 0.00083461180887363059 0 -0.012259590368094611 0.00086717889273278475 0 -0.012259590368094611 0.00086717889273278475 0 -0.012027186746391515 0.00075444359446446565 0 -0.012202728834518494 0.0006902761975649906 0 -0.012202728834518494 0.0006902761975649906 0 -0.012426521699339773 0.00080052051395819869 0 -0.012474180218443319 0.00066443005407438845 0 -0.012259590368094611 0.00086717889273278475 0 -0.012202728834518494 0.0006902761975649906 0 -0.012426521699339773 0.00080052051395819869 0 -0.012426521699339773 0.00080052051395819869 0 -0.012633126861204333 0.00082310953176394845 0 -0.012474180218443319 0.00066443005407438845 0 -0.016700921526347948 -0.00012601430740532898 0 -0.017003279518512944 -0.00012195006754346297 0 -0.015335142004510385 -8.2962494330832029e-05 0 -0.016700921526347948 -0.00012601430740532898 0 -0.017534152076981283 1.1587417474131431e-05 0 -0.017003279518512944 -0.00012195006754346297 0 -0.014695049110153846 0.00028029731636012662 0 -0.014485884756366876 0.00082043184636625501 0 -0.016700921526347948 -0.00012601430740532898 0 -0.017116293022965721 0.00035160386642357294 0 -0.017534152076981283 1.1587417474131431e-05 0 -0.012426521699339773 0.00080052051395819869 0 -0.012633126861204333 0.00082310953176394845 0 -0.012461699104174334 0.00092306046580499566 0 -0.012633126861204333 0.00082310953176394845 0 -0.012461699104174334 0.00092306046580499566 0 -0.012632266548216501 0.0010129271021573681 0 -0.0124794105277435 0.00087466226428008058 0 -0.01234596458763223 0.0010919911015728301 0 -0.012461699104174334 0.00092306046580499566 0 -0.012632266548216501 0.0010129271021573681 0 -0.012543617392022151 0.0010666500784244841 0 -0.017682149240761131 0.00039003173926600187 0 -0.017116293022965721 0.00035160386642357294 0 -0.017534152076981283 1.1587417474131431e-05 0 -0.017682149240761131 0.00039003173926600187 0 -0.017116293022965721 0.00035160386642357294 0 -0.017642152258948596 0.00099123604629283691 0 -0.017641599269368952 0.0010023296406248866 0 -0.014485884756366876 0.00082043184636625501 0 -0.016995717414923884 0.001901639977587732 0 -0.017116293022965721 0.00035160386642357294 0 -0.017642152258948596 0.00099123604629283691 0 -0.014864356259281227 0.00027172078470835779 0 -0.01234596458763223 0.0010919911015728301 0 -0.012683158160183922 0.0011752568866946528 0 -0.012632266548216501 0.0010129271021573681 0 -0.012543617392022151 0.0010666500784244841 0 -0.019400489930431742 0.00063005293910194354 0 -0.021305937517738755 3.6072016727832265e-06 0 -0.018798111426650964 5.8694857528317951e-05 0 -0.022009168122877461 1.5135608230426672e-08 0 -0.022071577243080783 1.6258685454385264e-06 0 -0.021311353019682407 -1.2864624118094084e-08 0 -0.021188783192332514 0.00032572855869812575 0 -0.021309185663467893 5.3829386724445962e-07 0 -0.019893433262924108 0.0018105920314324436 0 -0.019400489930431742 0.00063005293910194354 0 -0.021305937517738755 3.6072016727832265e-06 0 -0.01812886425486283 0.0018692110581674305 0 -0.019893433262924108 0.0018105920314324436 0 -0.019400489930431742 0.00063005293910194354 0 -0.01812886425486283 0.0018692110581674305 0 -0.017642152258948596 0.00099123604629283691 0 -0.018512522162276102 0.00042396020554552816 0 -0.01812886425486283 0.0018692110581674305 0 -0.019400489930431742 0.00063005293910194354 0 -0.018512522162276102 0.00042396020554552816 0 -0.017682149240761131 0.00039003173926600187 0 -0.017642152258948596 0.00099123604629283691 0 -0.018512522162276102 0.00042396020554552816 0 -0.018512522162276102 0.00042396020554552816 0 -0.018798111426650964 5.8694857528317951e-05 0 -0.017534152076981283 1.1587417474131431e-05 0 -0.019400489930431742 0.00063005293910194354 0 -0.018512522162276102 0.00042396020554552816 0 -0.018798111426650964 5.8694857528317951e-05 0 -0.017682149240761131 0.00039003173926600187 0 -0.018512522162276102 0.00042396020554552816 0 -0.017534152076981283 1.1587417474131431e-05 0 -0.021305937517738755 3.6072016727832265e-06 0 -0.018798111426650964 5.8694857528317951e-05 0 -0.019375940216912968 -1.1092579317295051e-06 0 -0.018798111426650964 5.8694857528317951e-05 0 -0.019375940216912968 -1.1092579317295051e-06 0 -0.017003279518512944 -0.00012195006754346297 0 -0.018798111426650964 5.8694857528317951e-05 0 -0.017534152076981283 1.1587417474131431e-05 0 -0.017003279518512944 -0.00012195006754346297 0 -0.019375940216912968 -1.1092579317295051e-06 0 -0.017003279518512944 -0.00012195006754346297 0 -0.017442738681125364 -9.8891410180382932e-08 0 -0.017003279518512944 -0.00012195006754346297 0 -0.014891716390951722 -7.0409859801206343e-05 0 -0.015335142004510385 -8.2962494330832029e-05 0 -0.017003279518512944 -0.00012195006754346297 0 -0.017442738681125364 -9.8891410180382932e-08 0 -0.014891716390951722 -7.0409859801206343e-05 0 -0.017442738681125364 -9.8891410180382932e-08 0 -0.014891716390951722 -7.0409859801206343e-05 0 -0.015510088166807132 2.4673431053119293e-08 0 -0.012633126861204333 0.00082310953176394845 0 -0.012474180218443319 0.00066443005407438845 0 -0.012816423426704358 0.00049285754457016129 0 -0.012474180218443319 0.00066443005407438845 0 -0.012816423426704358 0.00049285754457016129 0 -0.012255754897622012 0.00037116966106584505 0 -0.014695049110153846 0.00028029731636012662 0 -0.014026056525093977 0.00010770286721522522 0 -0.014891716390951722 -7.0409859801206343e-05 0 -0.015335142004510385 -8.2962494330832029e-05 0 -0.013149455897825974 -0.00014209534173359584 0 -0.014026056525093977 0.00010770286721522522 0 -0.013313971605610717 -0.0002419775657745686 0 -0.012816423426704358 0.00049285754457016129 0 -0.013149455897825974 -0.00014209534173359584 0 -0.012255754897622012 0.00037116966106584505 0 -0.014891716390951722 -7.0409859801206343e-05 0 -0.013149455897825974 -0.00014209534173359584 0 -0.012907283337749325 -0.0002901056698749497 0 -0.013149455897825974 -0.00014209534173359584 0 -0.012214057498961574 -0.00011539334904507148 0 -0.012255754897622012 0.00037116966106584505 0 -0.013149455897825974 -0.00014209534173359584 0 -0.012907283337749325 -0.0002901056698749497 0 -0.012244522464543245 -0.00046128930891241044 0 -0.013149455897825974 -0.00014209534173359584 0 -0.011997287254994556 -0.00047353865010388979 0 -0.012244522464543245 -0.00046128930891241044 0 -0.013149455897825974 -0.00014209534173359584 0 -0.011997287254994556 -0.00047353865010388979 0 -0.012214057498961574 -0.00011539334904507148 0 -0.014891716390951722 -7.0409859801206343e-05 0 -0.012907283337749325 -0.0002901056698749497 0 -0.0135774293231842 -5.0093739413961597e-07 0 -0.014891716390951722 -7.0409859801206343e-05 0 -0.015510088166807132 2.4673431053119293e-08 0 -0.0135774293231842 -5.0093739413961597e-07 0 -0.012907283337749325 -0.0002901056698749497 0 -0.0135774293231842 -5.0093739413961597e-07 0 -0.011969657607288702 -0.00028549944493461675 0 -0.0135774293231842 -5.0093739413961597e-07 0 -0.011644415000494712 -5.1232892264929961e-07 0 -0.011969657607288702 -0.00028549944493461675 0 -0.011644415000494712 -5.1232892264929961e-07 0 -0.011969657607288702 -0.00028549944493461675 0 -0.010605760193145736 -0.00040547112210842745 0 -0.011969657607288702 -0.00028549944493461675 0 -0.011593322686783437 -0.00053296872860983076 0 -0.010605760193145736 -0.00040547112210842745 0 -0.012907283337749325 -0.0002901056698749497 0 -0.011969657607288702 -0.00028549944493461675 0 -0.011593322686783437 -0.00053296872860983076 0 -0.012244522464543245 -0.00046128930891241044 0 -0.011463377028100519 -0.0006566184975081796 0 -0.011593322686783437 -0.00053296872860983076 0 -0.012907283337749325 -0.0002901056698749497 0 -0.012244522464543245 -0.00046128930891241044 0 -0.011593322686783437 -0.00053296872860983076 0 -0.011997287254994556 -0.00047353865010388979 0 -0.012244522464543245 -0.00046128930891241044 0 -0.011463377028100519 -0.0006566184975081796 0 -0.011463377028100519 -0.0006566184975081796 0 -0.011593322686783437 -0.00053296872860983076 0 -0.010751157073590393 -0.00064200847602047663 0 -0.011593322686783437 -0.00053296872860983076 0 -0.010751157073590393 -0.00064200847602047663 0 -0.010605760193145736 -0.00040547112210842745 0 -0.011463377028100519 -0.0006566184975081796 0 -0.010751157073590393 -0.00064200847602047663 0 -0.011160878915844009 -0.00073098856655176201 0 -0.010751157073590393 -0.00064200847602047663 0 -0.0097824703465263212 -0.00046077788285830886 0 -0.010160031169246303 -0.00045007036069738652 0 -0.010751157073590393 -0.00064200847602047663 0 -0.010789644801064128 -0.00062812169200388078 0 -0.010160031169246303 -0.00045007036069738652 0 -0.010751157073590393 -0.00064200847602047663 0 -0.010605760193145736 -0.00040547112210842745 0 -0.0097824703465263212 -0.00046077788285830886 0 -0.0092142711982723495 -0.00025015272323408911 0 -0.010605760193145736 -0.00040547112210842745 0 -0.0097824703465263212 -0.00046077788285830886 0 -0.0092142711982723495 -0.00025015272323408911 0 -0.009711846220531976 -5.4952676632950439e-07 0 -0.0077789255287879092 -3.9703108320163774e-07 0 -0.0092142711982723495 -0.00025015272323408911 0 -0.009711846220531976 -5.4952676632950439e-07 0 -0.010605760193145736 -0.00040547112210842745 0 -0.011644415000494712 -5.1232892264929961e-07 0 -0.009711846220531976 -5.4952676632950439e-07 0 -0.010605760193145736 -0.00040547112210842745 0 -0.011213416740146483 -0.00072389960172424103 0 -0.011194492820231805 -0.00072736238069540972 0 -0.011209034101687542 -0.00074178909892560108 0 -0.011213416740146483 -0.00072389960172424103 0 -0.011209034101687542 -0.00074178909892560108 0 -0.011218572302028613 -0.00073462428992330945 0 -0.011213416740146483 -0.00072389960172424103 0 -0.011223277226615183 -0.00071447623628774547 0 -0.011218572302028613 -0.00073462428992330945 0 -0.011223277226615183 -0.00071447623628774547 0 -0.011218572302028613 -0.00073462428992330945 0 -0.0112494995211928 -0.00069071449017012415 0 -0.011213416740146483 -0.00072389960172424103 0 -0.011223277226615183 -0.00071447623628774547 0 -0.011207598343169858 -0.00070163572764546953 0 -0.011213416740146483 -0.00072389960172424103 0 -0.011207598343169858 -0.00070163572764546953 0 -0.011194492820231805 -0.00072736238069540972 0 -0.011194492820231805 -0.00072736238069540972 0 -0.011138520603946305 -0.00069201623155153342 0 -0.011179561239274978 -0.00073127600513618965 0 -0.011207598343169858 -0.00070163572764546953 0 -0.011194492820231805 -0.00072736238069540972 0 -0.011163191556950763 -0.0006624490507974439 0 -0.011194492820231805 -0.00072736238069540972 0 -0.011163191556950763 -0.0006624490507974439 0 -0.011138520603946305 -0.00069201623155153342 0 -0.011194492820231805 -0.00072736238069540972 0 -0.011179561239274978 -0.00073127600513618965 0 -0.011232882505864981 -0.00074127153138726237 0 -0.011194492820231805 -0.00072736238069540972 0 -0.011209034101687542 -0.00074178909892560108 0 -0.011232882505864981 -0.00074127153138726237 0 -0.011209034101687542 -0.00074178909892560108 0 -0.011232882505864981 -0.00074127153138726237 0 -0.011168298966265323 -0.00074651656877792582 0 -0.011209034101687542 -0.00074178909892560108 0 -0.011218572302028613 -0.00073462428992330945 0 -0.011168298966265323 -0.00074651656877792582 0 -0.0094638148374698687 -0.00057579852070757263 0 -0.010859442425050421 -0.00095681205779576375 0 -0.0071665451194163985 -0.00011744094637546598 0 -0.0074251437233613772 0.00011536165404389491 0 -0.0070717087523810901 -0.00015234054431532794 0 -0.0071665451194163985 -0.00011744094637546598 0 -0.0068360506314177989 -0.00033112282760077734 0 -0.0070717087523810901 -0.00015234054431532794 0 -0.0094638148374698687 -0.00057579852070757263 0 -0.007690214978398331 -0.0019793527035190722 0 -0.0068360506314177989 -0.00033112282760077734 0 -0.0066604539095245514 -0.00042710989385156628 0 -0.0063815023414533463 -0.00055827711216388249 0 -0.0071665451194163985 -0.00011744094637546598 0 -0.0068360506314177989 -0.00033112282760077734 0 -0.0069695435567321716 -0.00027144173882362764 0 -0.0068360506314177989 -0.00033112282760077734 0 -0.0069695435567321716 -0.00027144173882362764 0 -0.0063815023414533463 -0.00055827711216388249 0 -0.0068360506314177989 -0.00033112282760077734 0 -0.0066604539095245514 -0.00042710989385156628 0 -0.0070717087523810901 -0.00015234054431532794 0 -0.0052751434063384546 -0.0042242026602401011 0 -0.0044678930809446621 -0.003542547264154467 0 -0.0050647708094772592 -0.003513995886074739 0 -0.0112494995211928 -0.00069071449017012415 0 -0.011163191556950763 -0.0006624490507974439 0 -0.011059780806578559 -0.00044137733522971797 0 -0.007690214978398331 -0.0019793527035190722 0 -0.0056712592642446727 -0.0019844133220208219 0 -0.007690214978398331 -0.0019793527035190722 0 -0.0078865312193892052 -0.0020832231592351974 0 -0.011207598343169858 -0.00070163572764546953 0 -0.0112494995211928 -0.00069071449017012415 0 -0.011163191556950763 -0.0006624490507974439 0 -0.011223277226615183 -0.00071447623628774547 0 -0.011207598343169858 -0.00070163572764546953 0 -0.0112494995211928 -0.00069071449017012415 0 -0.011163191556950763 -0.0006624490507974439 0 -0.011083483688613491 -0.00062498626124301432 0 -0.011138520603946305 -0.00069201623155153342 0 -0.010927364307458885 -0.00057297845138655631 0 -0.011083483688613491 -0.00062498626124301432 0 -0.011059780806578559 -0.00044137733522971797 0 -0.011163191556950763 -0.0006624490507974439 0 -0.011083483688613491 -0.00062498626124301432 0 -0.011059780806578559 -0.00044137733522971797 0 -0.010927364307458885 -0.00057297845138655631 0 -0.011047436888598317 -0.00068468424089545156 0 -0.010789644801064128 -0.00062812169200388078 0 -0.010927364307458885 -0.00057297845138655631 0 -0.011047436888598317 -0.00068468424089545156 0 -0.011083483688613491 -0.00062498626124301432 0 -0.011047436888598317 -0.00068468424089545156 0 -0.011083483688613491 -0.00062498626124301432 0 -0.011138520603946305 -0.00069201623155153342 0 -0.010927364307458885 -0.00057297845138655631 0 -0.010789644801064128 -0.00062812169200388078 0 -0.010633727300383528 -0.00038799889775597272 0 -0.011047436888598317 -0.00068468424089545156 0 -0.010789644801064128 -0.00062812169200388078 0 -0.011160878915844009 -0.00073098856655176201 0 -0.010751157073590393 -0.00064200847602047663 0 -0.010789644801064128 -0.00062812169200388078 0 -0.011160878915844009 -0.00073098856655176201 0 -0.011047436888598317 -0.00068468424089545156 0 -0.011160878915844009 -0.00073098856655176201 0 -0.011179561239274978 -0.00073127600513618965 0 -0.011160878915844009 -0.00073098856655176201 0 -0.011179561239274978 -0.00073127600513618965 0 -0.011292172833319078 -0.00072276593975684525 0 -0.011047436888598317 -0.00068468424089545156 0 -0.011138520603946305 -0.00069201623155153342 0 -0.011179561239274978 -0.00073127600513618965 0 -0.011292172833319078 -0.00072276593975684525 0 -0.011358076428666021 -0.00064370073349670899 0 -0.011232882505864981 -0.00074127153138726237 0 -0.011179561239274978 -0.00073127600513618965 0 -0.011292172833319078 -0.00072276593975684525 0 -0.011232882505864981 -0.00074127153138726237 0 -0.011160878915844009 -0.00073098856655176201 0 -0.011292172833319078 -0.00072276593975684525 0 -0.011503671179585982 -0.00065280579565986233 0 -0.011292172833319078 -0.00072276593975684525 0 -0.011503671179585982 -0.00065280579565986233 0 -0.011358076428666021 -0.00064370073349670899 0 -0.011463377028100519 -0.0006566184975081796 0 -0.011160878915844009 -0.00073098856655176201 0 -0.011503671179585982 -0.00065280579565986233 0 -0.011997287254994556 -0.00047353865010388979 0 -0.011463377028100519 -0.0006566184975081796 0 -0.011503671179585982 -0.00065280579565986233 0 -0.011997287254994556 -0.00047353865010388979 0 -0.011503671179585982 -0.00065280579565986233 0 -0.011673726476383959 -0.00036074188143426339 0 -0.011503671179585982 -0.00065280579565986233 0 -0.011358076428666021 -0.00064370073349670899 0 -0.011673726476383959 -0.00036074188143426339 0 -0.011358076428666021 -0.00064370073349670899 0 -0.011234211938314061 -0.00047925191420429753 0 -0.011673726476383959 -0.00036074188143426339 0 -0.011358076428666021 -0.00064370073349670899 0 -0.011216607337800529 -0.00068438029636423313 0 -0.011234211938314061 -0.00047925191420429753 0 -0.011358076428666021 -0.00064370073349670899 0 -0.011216607337800529 -0.00068438029636423313 0 -0.011232882505864981 -0.00074127153138726237 0 -0.011216607337800529 -0.00068438029636423313 0 -0.011232882505864981 -0.00074127153138726237 0 -0.011168298966265323 -0.00074651656877792582 0 -0.01122503875282343 -0.00079607203427133413 0 -0.011168298966265323 -0.00074651656877792582 0 -0.01108536785822911 -0.00069502465417910805 0 -0.0071665451194163985 -0.00011744094637546598 0 -0.0077508587056027657 0.00031430558319471411 0 -0.0074251437233613772 0.00011536165404389491 0 -0.0094638148374698687 -0.00057579852070757263 0 -0.0093636248570280311 -0.00011987425946802943 0 -0.011216607337800529 -0.00068438029636423313 0 -0.011168298966265323 -0.00074651656877792582 0 -0.01108536785822911 -0.00069502465417910805 0 -0.0093636248570280311 -0.00011987425946802943 0 -0.0097599914344443702 -6.2740667197427487e-06 0 -0.011216607337800529 -0.00068438029636423313 0 -0.01108536785822911 -0.00069502465417910805 0 -0.011234211938314061 -0.00047925191420429753 0 -0.01108536785822911 -0.00069502465417910805 0 -0.011234211938314061 -0.00047925191420429753 0 -0.010813574163749977 -0.0003960397294947464 0 -0.011234211938314061 -0.00047925191420429753 0 -0.011266082374914261 -4.2375616176256143e-05 0 -0.010813574163749977 -0.0003960397294947464 0 -0.011234211938314061 -0.00047925191420429753 0 -0.011481686675468547 -0.00019165020609620493 0 -0.011673726476383959 -0.00036074188143426339 0 -0.011234211938314061 -0.00047925191420429753 0 -0.011481686675468547 -0.00019165020609620493 0 -0.011266082374914261 -4.2375616176256143e-05 0 -0.011481686675468547 -0.00019165020609620493 0 -0.011266082374914261 -4.2375616176256143e-05 0 -0.011761930790656565 0.00015875006683039783 0 -0.011997287254994556 -0.00047353865010388979 0 -0.011673726476383959 -0.00036074188143426339 0 -0.012214057498961574 -0.00011539334904507148 0 -0.011673726476383959 -0.00036074188143426339 0 -0.012214057498961574 -0.00011539334904507148 0 -0.011761930790656565 0.00015875006683039783 0 -0.011481686675468547 -0.00019165020609620493 0 -0.011673726476383959 -0.00036074188143426339 0 -0.011761930790656565 0.00015875006683039783 0 -0.012214057498961574 -0.00011539334904507148 0 -0.012255754897622012 0.00037116966106584505 0 -0.011761930790656565 0.00015875006683039783 0 -0.012255754897622012 0.00037116966106584505 0 -0.011761930790656565 0.00015875006683039783 0 -0.011833665788359435 0.00053944022829903481 0 -0.012202728834518494 0.0006902761975649906 0 -0.012255754897622012 0.00037116966106584505 0 -0.011833665788359435 0.00053944022829903481 0 -0.012027186746391515 0.00075444359446446565 0 -0.012202728834518494 0.0006902761975649906 0 -0.011833665788359435 0.00053944022829903481 0 -0.012202728834518494 0.0006902761975649906 0 -0.012474180218443319 0.00066443005407438845 0 -0.012255754897622012 0.00037116966106584505 0 -0.011266082374914261 -4.2375616176256143e-05 0 -0.011398845681288957 0.00052863380711527677 0 -0.010323814817046443 0.00028201984994381644 0 -0.011761930790656565 0.00015875006683039783 0 -0.011833665788359435 0.00053944022829903481 0 -0.011398845681288957 0.00052863380711527677 0 -0.011266082374914261 -4.2375616176256143e-05 0 -0.011761930790656565 0.00015875006683039783 0 -0.011398845681288957 0.00052863380711527677 0 -0.011762701485452489 0.00075527511231355529 0 -0.011833665788359435 0.00053944022829903481 0 -0.011398845681288957 0.00052863380711527677 0 -0.011762701485452489 0.00075527511231355529 0 -0.011450215640660601 0.00075972420312741271 0 -0.011398845681288957 0.00052863380711527677 0 -0.011450215640660601 0.00075972420312741271 0 -0.011398845681288957 0.00052863380711527677 0 -0.010997256888526595 0.00071460869978772271 0 -0.011398845681288957 0.00052863380711527677 0 -0.010997256888526595 0.00071460869978772271 0 -0.010323814817046443 0.00028201984994381644 0 -0.010323814817046443 0.00028201984994381644 0 -0.010606887007609528 0.00089297081164022268 0 -0.0098241235017446013 0.00030527934973738428 0 -0.010997256888526595 0.00071460869978772271 0 -0.010323814817046443 0.00028201984994381644 0 -0.010606887007609528 0.00089297081164022268 0 -0.011099827350730994 0.00080543562654713261 0 -0.010997256888526595 0.00071460869978772271 0 -0.010606887007609528 0.00089297081164022268 0 -0.011099827350730994 0.00080543562654713261 0 -0.011347587407196696 0.00084236573213111428 0 -0.010606887007609528 0.00089297081164022268 0 -0.011347587407196696 0.00084236573213111428 0 -0.010606887007609528 0.00089297081164022268 0 -0.01128250114852293 0.0015025995184450318 0 -0.011347587407196696 0.00084236573213111428 0 -0.01128250114852293 0.0015025995184450318 0 -0.011682112587595966 0.00128357533740187 0 -0.01128250114852293 0.0015025995184450318 0 -0.011682112587595966 0.00128357533740187 0 -0.011588458665290962 0.0015552892875114628 0 -0.010606887007609528 0.00089297081164022268 0 -0.0093219767832529218 0.00038614442443709663 0 -0.0098241235017446013 0.00030527934973738428 0 -0.010528329950456569 0.00089485195942537118 0 -0.010323548668021165 0.00091695463084716139 0 -0.0093219767832529218 0.00038614442443709663 0 -0.0098241235017446013 0.00030527934973738428 0 -0.0092821292394177236 0.00016929648019881923 0 -0.0098241235017446013 0.00030527934973738428 0 -0.0092821292394177236 0.00016929648019881923 0 -0.0090149629811772519 0.00017083503303020123 0 -0.0093219767832529218 0.00038614442443709663 0 -0.0092452478878693126 0.00021837887755582554 0 -0.0092153917378126945 0.00020010492647349484 0 -0.01128250114852293 0.0015025995184450318 0 -0.011588458665290962 0.0015552892875114628 0 -0.011635101938759196 0.0017421090973157704 0 -0.0093219767832529218 0.00038614442443709663 0 -0.0092821292394177236 0.00016929648019881923 0 -0.0092452478878693126 0.00021837887755582554 0 -0.010323548668021165 0.00091695463084716139 0 -0.010452629435508622 0.00094656512016200525 0 -0.0092452478878693126 0.00021837887755582554 0 -0.009218880957244914 0.00021966649138980356 0 -0.0092153917378126945 0.00020010492647349484 0 -0.0092821292394177236 0.00016929648019881923 0 -0.0091945329446739936 0.00023406681949331108 0 -0.0090527713310229376 0.00034072201473079553 0 -0.0091945329446739936 0.00023406681949331108 0 -0.0092368295933180963 0.00034832238482113842 0 -0.0090527713310229376 0.00034072201473079553 0 -0.0091945329446739936 0.00023406681949331108 0 -0.009218880957244914 0.00021966649138980356 0 -0.0092430915319698 0.00026062753414356855 0 -0.0092452478878693126 0.00021837887755582554 0 -0.0091945329446739936 0.00023406681949331108 0 -0.009218880957244914 0.00021966649138980356 0 -0.0092821292394177236 0.00016929648019881923 0 -0.0092452478878693126 0.00021837887755582554 0 -0.0091945329446739936 0.00023406681949331108 0 -0.0091945329446739936 0.00023406681949331108 0 -0.0092430915319698 0.00026062753414356855 0 -0.0092368295933180963 0.00034832238482113842 0 -0.0092821292394177236 0.00016929648019881923 0 -0.0090149629811772519 0.00017083503303020123 0 -0.0090527713310229376 0.00034072201473079553 0 -0.0090149629811772519 0.00017083503303020123 0 -0.0086547223905295376 0.00023793871189748661 0 -0.0082221039463632097 0.00037546040298879954 0 -0.011266082374914261 -4.2375616176256143e-05 0 -0.010323814817046443 0.00028201984994381644 0 -0.010813574163749977 -0.0003960397294947464 0 -0.010174287450383764 0.00032414604020513348 0 -0.0097599914344443702 -6.2740667197427487e-06 0 -0.010323814817046443 0.00028201984994381644 0 -0.0090149629811772519 0.00017083503303020123 0 -0.0086547223905295376 0.00023793871189748661 0 -0.010323814817046443 0.00028201984994381644 0 -0.0098241235017446013 0.00030527934973738428 0 -0.0090149629811772519 0.00017083503303020123 0 -0.012405642217980611 0.0014225410755093718 0 -0.012116618830715716 0.0013938968763695116 0 -0.012219944575770542 0.0016187808138804227 0 -0.012356859867403966 0.0014654992874528526 0 -0.012316280009218221 0.0015884304819850828 0 -0.012405642217980611 0.0014225410755093718 0 -0.012261008961586922 0.0012303162141467251 0 -0.012116618830715716 0.0013938968763695116 0 -0.012405642217980611 0.0014225410755093718 0 -0.012261008961586922 0.0012303162141467251 0 -0.01251570574701207 0.0012531578498664422 0 -0.012403011099640237 0.0010223178603840693 0 -0.012261008961586922 0.0012303162141467251 0 -0.01251570574701207 0.0012531578498664422 0 -0.011962134479763303 0.0010835495214717968 0 -0.012261008961586922 0.0012303162141467251 0 -0.012116618830715716 0.0013938968763695116 0 -0.012116618830715716 0.0013938968763695116 0 -0.011958668317605562 0.0015286377217299636 0 -0.012219944575770542 0.0016187808138804227 0 -0.012116618830715716 0.0013938968763695116 0 -0.011958668317605562 0.0015286377217299636 0 -0.011897217963002332 0.0013500937010982093 0 -0.011958668317605562 0.0015286377217299636 0 -0.011897217963002332 0.0013500937010982093 0 -0.011761347236548758 0.0014926282536195589 0 -0.012020295632386381 0.0010850978857039964 0 -0.011707101276427738 0.0012781476204987586 0 -0.011962134479763303 0.0010835495214717968 0 -0.012116618830715716 0.0013938968763695116 0 -0.011897217963002332 0.0013500937010982093 0 -0.011962134479763303 0.0010835495214717968 0 -0.011897217963002332 0.0013500937010982093 0 -0.011682112587595966 0.00128357533740187 0 -0.011897217963002332 0.0013500937010982093 0 -0.011682112587595966 0.00128357533740187 0 -0.011761347236548758 0.0014926282536195589 0 -0.011682112587595966 0.00128357533740187 0 -0.011761347236548758 0.0014926282536195589 0 -0.011588458665290962 0.0015552892875114628 0 -0.011761347236548758 0.0014926282536195589 0 -0.011588458665290962 0.0015552892875114628 0 -0.011666946369147909 0.0017105999566865953 0 -0.011761347236548758 0.0014926282536195589 0 -0.011666946369147909 0.0017105999566865953 0 -0.011829209376348926 0.0016152316233398701 0 -0.011666946369147909 0.0017105999566865953 0 -0.011635101938759196 0.0017421090973157704 0 -0.011640680988128224 0.0017161843484408284 0 -0.011588458665290962 0.0015552892875114628 0 -0.011666946369147909 0.0017105999566865953 0 -0.011635101938759196 0.0017421090973157704 0 -0.009218880957244914 0.00021966649138980356 0 -0.0092153917378126945 0.00020010492647349484 0 -0.0092430915319698 0.00026062753414356855 0 -0.0092153917378126945 0.00020010492647349484 0 -0.0092430915319698 0.00026062753414356855 0 -0.0094116194383924729 0.00032477834570145559 0 -0.010452629435508622 0.00094656512016200525 0 -0.010212068339466565 0.0013006289515680115 0 -0.0092430915319698 0.00026062753414356855 0 -0.0094116194383924729 0.00032477834570145559 0 -0.0092368295933180963 0.00034832238482113842 0 -0.011635101938759196 0.0017421090973157704 0 -0.011640680988128224 0.0017161843484408284 0 -0.011632204259331261 0.0016910433655506004 0 -0.011666946369147909 0.0017105999566865953 0 -0.011640680988128224 0.0017161843484408284 0 -0.0116077583138541 0.0017208218004206191 0 -0.011873702126206122 0.0017508831150858275 0 -0.011260087073988382 0.0018318062639445791 0 -0.011640680988128224 0.0017161843484408284 0 -0.0116077583138541 0.0017208218004206191 0 -0.011632204259331261 0.0016910433655506004 0 -0.0095908385067076628 0.0018789947729352097 0 -0.0095911373548866335 0.0017582509849200562 0 -0.0097008736865638566 0.0017544337527372422 0 -0.011260087073988382 0.0018318062639445791 0 -0.010212068339466565 0.0013006289515680115 0 -0.011666946369147909 0.0017105999566865953 0 -0.012014750001293074 0.0018630572668588269 0 -0.011939155664411345 0.001685220383828664 0 -0.011666946369147909 0.0017105999566865953 0 -0.011939155664411345 0.001685220383828664 0 -0.011829209376348926 0.0016152316233398701 0 -0.011958668317605562 0.0015286377217299636 0 -0.011761347236548758 0.0014926282536195589 0 -0.011829209376348926 0.0016152316233398701 0 -0.011958668317605562 0.0015286377217299636 0 -0.011939155664411345 0.001685220383828664 0 -0.011829209376348926 0.0016152316233398701 0 -0.011958668317605562 0.0015286377217299636 0 -0.011939155664411345 0.001685220383828664 0 -0.012219944575770542 0.0016187808138804227 0 -0.011260087073988382 0.0018318062639445791 0 -0.012316280009218221 0.0015884304819850828 0 -0.012192380247554924 0.0016619512086437284 0 -0.012109477360000044 0.0018560717093940114 0 -0.012212212926875597 0.0018110122263173122 0 -0.012014750001293074 0.0018630572668588269 0 -0.011939155664411345 0.001685220383828664 0 -0.012219944575770542 0.0016187808138804227 0 -0.01206284600447007 0.0018611541818139409 0 -0.012192380247554924 0.0016619512086437284 0 -0.012109477360000044 0.0018560717093940114 0 -0.0095908385067076628 0.0018789947729352097 0 -0.0093646014037611063 0.0017695547735531673 0 -0.0095050788908434183 0.0017429317558470712 0 -0.01206284600447007 0.0018611541818139409 0 -0.012109477360000044 0.0018560717093940114 0 -0.012134154021362168 0.0018694270683042662 0 -0.011260087073988382 0.0018318062639445791 0 -0.010526864459471548 0.0017478300266019606 0 -0.0095908385067076628 0.0018789947729352097 0 -0.0095050788908434183 0.0017429317558470712 0 -0.0095911373548866335 0.0017582509849200562 0 -0.01208584791289685 0.0018416425246753079 0 -0.01234087055848793 0.0019865791638581922 0 -0.012109477360000044 0.0018560717093940114 0 -0.012212212926875597 0.0018110122263173122 0 -0.012279327174595555 0.0018875595454660181 0 -0.012212212926875597 0.0018110122263173122 0 -0.012284408173884305 0.0017920882060271585 0 -0.012279327174595555 0.0018875595454660181 0 -0.012284408173884305 0.0017920882060271585 0 -0.012279327174595555 0.0018875595454660181 0 -0.012381073191260175 0.001852775388740246 0 -0.012109477360000044 0.0018560717093940114 0 -0.012134154021362168 0.0018694270683042662 0 -0.012134099162664863 0.0018686769231456206 0 -0.012109477360000044 0.0018560717093940114 0 -0.012279327174595555 0.0018875595454660181 0 -0.012323891063939505 0.0019816959616737267 0 -0.012279327174595555 0.0018875595454660181 0 -0.012323891063939505 0.0019816959616737267 0 -0.012381073191260175 0.001852775388740246 0 -0.012323891063939505 0.0019816959616737267 0 -0.012381073191260175 0.001852775388740246 0 -0.012491048068172158 0.0019152518276827218 0 -0.012284408173884305 0.0017920882060271585 0 -0.012381073191260175 0.001852775388740246 0 -0.012387681429177422 0.0016808184250031604 0 -0.012381073191260175 0.001852775388740246 0 -0.012387681429177422 0.0016808184250031604 0 -0.012528962040649285 0.001776687866849796 0 -0.012405642217980611 0.0014225410755093718 0 -0.012192380247554924 0.0016619512086437284 0 -0.012387681429177422 0.0016808184250031604 0 -0.012192380247554924 0.0016619512086437284 0 -0.012284408173884305 0.0017920882060271585 0 -0.012387681429177422 0.0016808184250031604 0 -0.012192380247554924 0.0016619512086437284 0 -0.012212212926875597 0.0018110122263173122 0 -0.012284408173884305 0.0017920882060271585 0 -0.0092638686838271284 0.0015062157715938255 0 -0.0092062899863805843 0.0014357842161496692 0 -0.0092686027898768834 0.0013840300728896627 0 -0.0092638686838271284 0.0015062157715938255 0 -0.0092062899863805843 0.0014357842161496692 0 -0.0091621152767783591 0.0015204342076444927 0 -0.0092638686838271284 0.0015062157715938255 0 -0.0093534039550601314 0.0014719939105972205 0 -0.0092686027898768834 0.0013840300728896627 0 -0.0093534039550601314 0.0014719939105972205 0 -0.0093428743317796638 0.0015752607664681088 0 -0.0094385871304175466 0.0015449120945324767 0 -0.0092638686838271284 0.0015062157715938255 0 -0.0093534039550601314 0.0014719939105972205 0 -0.0093428743317796638 0.0015752607664681088 0 -0.0092638686838271284 0.0015062157715938255 0 -0.0093428743317796638 0.0015752607664681088 0 -0.0092457993274425582 0.0015850332586715397 0 -0.0092638686838271284 0.0015062157715938255 0 -0.0092457993274425582 0.0015850332586715397 0 -0.0091621152767783591 0.0015204342076444927 0 -0.0093646014037611063 0.0017695547735531673 0 -0.0093032032358878729 0.0016540072633887428 0 -0.0091590009428391076 0.0016688141549938882 0 -0.0093428743317796638 0.0015752607664681088 0 -0.0092457993274425582 0.0015850332586715397 0 -0.0093032032358878729 0.0016540072633887428 0 -0.010526864459471548 0.0017478300266019606 0 -0.01149221774335085 0.001870809452601885 0 -0.0092457993274425582 0.0015850332586715397 0 -0.0093032032358878729 0.0016540072633887428 0 -0.0091590009428391076 0.0016688141549938882 0 -0.012134154021362168 0.0018694270683042662 0 -0.012134099162664863 0.0018686769231456206 0 -0.012118620213633132 0.001854053834560374 0 -0.01234087055848793 0.0019865791638581922 0 -0.01149221774335085 0.001870809452601885 0 -0.0093646014037611063 0.0017695547735531673 0 -0.0093032032358878729 0.0016540072633887428 0 -0.0094187144780510934 0.0016511131375597536 0 -0.0093428743317796638 0.0015752607664681088 0 -0.0093032032358878729 0.0016540072633887428 0 -0.0094187144780510934 0.0016511131375597536 0 -0.0094187144780510934 0.0016511131375597536 0 -0.0095499750544868079 0.0016205278852489591 0 -0.0094385871304175466 0.0015449120945324767 0 -0.0093646014037611063 0.0017695547735531673 0 -0.0094187144780510934 0.0016511131375597536 0 -0.0095050788908434183 0.0017429317558470712 0 -0.0095050788908434183 0.0017429317558470712 0 -0.0095499750544868079 0.0016205278852489591 0 -0.0095911373548866335 0.0017582509849200562 0 -0.0094187144780510934 0.0016511131375597536 0 -0.0095050788908434183 0.0017429317558470712 0 -0.0095499750544868079 0.0016205278852489591 0 -0.0095499750544868079 0.0016205278852489591 0 -0.0095246332925927879 0.0015070972770602294 0 -0.0094385871304175466 0.0015449120945324767 0 -0.0093428743317796638 0.0015752607664681088 0 -0.0094187144780510934 0.0016511131375597536 0 -0.0094385871304175466 0.0015449120945324767 0 -0.0093534039550601314 0.0014719939105972205 0 -0.0094385871304175466 0.0015449120945324767 0 -0.0094408186867040583 0.0014439016492886494 0 -0.0093534039550601314 0.0014719939105972205 0 -0.0094408186867040583 0.0014439016492886494 0 -0.0093551264643543849 0.0013861961997495102 0 -0.0095246332925927879 0.0015070972770602294 0 -0.0094385871304175466 0.0015449120945324767 0 -0.0094408186867040583 0.0014439016492886494 0 -0.0095246332925927879 0.0015070972770602294 0 -0.0094408186867040583 0.0014439016492886494 0 -0.0095291236064436024 0.0014509741540704119 0 -0.0094408186867040583 0.0014439016492886494 0 -0.0095291236064436024 0.0014509741540704119 0 -0.0094422332441439286 0.001376251724842623 0 -0.0096166526185185904 0.0014241869694385687 0 -0.0096651473215869504 0.0015542783119367343 0 -0.00979777846553633 0.0015679516271279389 0 -0.0091903333730561851 0.00084904530154095322 0 -0.0092688896610932086 0.00077338649762580215 0 -0.0092537994702500143 0.00082719397026159778 0 -0.0098384228874485325 0.0013078630877025475 0 -0.0092993321699380328 0.00098453856058467468 0 -0.0096166526185185904 0.0014241869694385687 0 -0.0096651473215869504 0.0015542783119367343 0 -0.0095969186372209681 0.001506099702322032 0 -0.0095291236064436024 0.0014509741540704119 0 -0.0096166526185185904 0.0014241869694385687 0 -0.0095969186372209681 0.001506099702322032 0 -0.0095246332925927879 0.0015070972770602294 0 -0.0095291236064436024 0.0014509741540704119 0 -0.0095969186372209681 0.001506099702322032 0 -0.0095499750544868079 0.0016205278852489591 0 -0.0096651473215869504 0.0015542783119367343 0 -0.0095969186372209681 0.001506099702322032 0 -0.0095499750544868079 0.0016205278852489591 0 -0.0095246332925927879 0.0015070972770602294 0 -0.0095969186372209681 0.001506099702322032 0 -0.0096651473215869504 0.0015542783119367343 0 -0.0096594283810045711 0.0017249267510256593 0 -0.00979777846553633 0.0015679516271279389 0 -0.0095499750544868079 0.0016205278852489591 0 -0.0096651473215869504 0.0015542783119367343 0 -0.0096594283810045711 0.0017249267510256593 0 -0.0095499750544868079 0.0016205278852489591 0 -0.0095911373548866335 0.0017582509849200562 0 -0.0097008736865638566 0.0017544337527372422 0 -0.0095797559684454806 0.0015992885547741068 0 -0.010212068339466565 0.0013006289515680115 0 -0.0094116194383924729 0.00032477834570145559 0 -0.0092368295933180963 0.00034832238482113842 0 -0.0092789642587212812 0.00049247681713158748 0 -0.010212068339466565 0.0013006289515680115 0 -0.0092993321699380328 0.00098453856058467468 0 -0.0069119257374626987 0.00060756598990549114 0 -0.0075740669710739009 0.00081427126706772621 0 -0.0092688896610932086 0.00077338649762580215 0 -0.0092537994702500143 0.00082719397026159778 0 -0.0090923155596531937 0.00089456550520133806 0 -0.0055484818729714547 0.00031512165312299635 0 -0.0049893794366575508 6.3447600219430599e-05 0 -0.0047893354820825107 0.00054550826556934028 0 -0.0055484818729714547 0.00031512165312299635 0 -0.0047893354820825107 0.00054550826556934028 0 -0.0060361941074915382 0.0007943071037561371 0 -0.0055484818729714547 0.00031512165312299635 0 -0.0049893794366575508 6.3447600219430599e-05 0 -0.0057059725393496285 -1.0425219879806883e-05 0 -0.0053860101752972629 -0.00033276788335826428 0 -0.0049893794366575508 6.3447600219430599e-05 0 -0.0057059725393496285 -1.0425219879806883e-05 0 -0.0053860101752972629 -0.00033276788335826428 0 -0.0049893794366575508 6.3447600219430599e-05 0 -0.004600781966423868 -0.00060749332775290117 0 -0.0049893794366575508 6.3447600219430599e-05 0 -0.0044346433737152613 -0.00012170051989089642 0 -0.0046224299059694947 0.00015621266004679901 0 -0.0049893794366575508 6.3447600219430599e-05 0 -0.0044346433737152613 -0.00012170051989089642 0 -0.004600781966423868 -0.00060749332775290117 0 -0.0044346433737152613 -0.00012170051989089642 0 -0.0043608566098520714 0.00011784232489210476 0 -0.0040934248786464846 -3.7431036934204048e-05 0 -0.0044346433737152613 -0.00012170051989089642 0 -0.0043608566098520714 0.00011784232489210476 0 -0.0046224299059694947 0.00015621266004679901 0 -0.0069119257374626987 0.00060756598990549114 0 -0.0068595730109430285 0.00080690676140838375 0 -0.0091903333730561851 0.00084904530154095322 0 -0.0092537994702500143 0.00082719397026159778 0 -0.0089445004565725031 0.00067151738542023788 0 -0.0043608566098520714 0.00011784232489210476 0 -0.0047893354820825107 0.00054550826556934028 0 -0.0039120071924366841 0.00012770872331613773 0 -0.0049893794366575508 6.3447600219430599e-05 0 -0.0046224299059694947 0.00015621266004679901 0 -0.0047893354820825107 0.00054550826556934028 0 -0.0043608566098520714 0.00011784232489210476 0 -0.0046224299059694947 0.00015621266004679901 0 -0.0047893354820825107 0.00054550826556934028 0 -0.0096166526185185904 0.0014241869694385687 0 -0.0094422332441439286 0.001376251724842623 0 -0.0093914137674387232 0.0012729157189309932 0 -0.0098384228874485325 0.0013078630877025475 0 -0.0068595730109430285 0.00080690676140838375 0 -0.0095291236064436024 0.0014509741540704119 0 -0.0096166526185185904 0.0014241869694385687 0 -0.0094422332441439286 0.001376251724842623 0 -0.0094408186867040583 0.0014439016492886494 0 -0.0094422332441439286 0.001376251724842623 0 -0.0093551264643543849 0.0013861961997495102 0 -0.0094422332441439286 0.001376251724842623 0 -0.0093142022825319516 0.001309741555439427 0 -0.0093551264643543849 0.0013861961997495102 0 -0.0094422332441439286 0.001376251724842623 0 -0.0093914137674387232 0.0012729157189309932 0 -0.0093142022825319516 0.001309741555439427 0 -0.0043608566098520714 0.00011784232489210476 0 -0.0039120071924366841 0.00012770872331613773 0 -0.0040934248786464846 -3.7431036934204048e-05 0 -0.0044346433737152613 -0.00012170051989089642 0 -0.0040934248786464846 -3.7431036934204048e-05 0 -0.0041397870366936167 -0.00034781948698529272 0 -0.0040934248786464846 -3.7431036934204048e-05 0 -0.0039799017968594778 -0.00019671744750631272 0 -0.0041397870366936167 -0.00034781948698529272 0 -0.0040934248786464846 -3.7431036934204048e-05 0 -0.0039799017968594778 -0.00019671744750631272 0 -0.0038913505386319485 0.00011253457015886199 0 -0.0039120071924366841 0.00012770872331613773 0 -0.0040934248786464846 -3.7431036934204048e-05 0 -0.0038913505386319485 0.00011253457015886199 0 -0.0068595730109430285 0.00080690676140838375 0 -0.006999275958451354 0.0011433614122999133 0 -0.0068595730109430285 0.00080690676140838375 0 -0.0038551458588926826 0.00034818461114142981 0 -0.0054386472847355307 0.0012555271398784333 0 -0.0046090985837703808 0.00095606695885927832 0 -0.004647771399845793 0.00075318531090079618 0 -0.0093914137674387232 0.0012729157189309932 0 -0.0093142022825319516 0.001309741555439427 0 -0.0091498190339130182 0.0011977297461191725 0 -0.0039120071924366841 0.00012770872331613773 0 -0.0038913505386319485 0.00011253457015886199 0 -0.0038891735269908608 0.00020834631441464906 0 -0.0038913505386319485 0.00011253457015886199 0 -0.0038627533890525723 0.00026902013672373327 0 -0.0038891735269908608 0.00020834631441464906 0 -0.0092293061473544147 0.0012992642981605644 0 -0.0093142022825319516 0.001309741555439427 0 -0.0091498190339130182 0.0011977297461191725 0 -0.0092293061473544147 0.0012992642981605644 0 -0.0093142022825319516 0.001309741555439427 0 -0.0092686027898768834 0.0013840300728896627 0 -0.0092293061473544147 0.0012992642981605644 0 -0.0092686027898768834 0.0013840300728896627 0 -0.0091902053007749934 0.0013509526111013851 0 -0.0093142022825319516 0.001309741555439427 0 -0.0093551264643543849 0.0013861961997495102 0 -0.0092686027898768834 0.0013840300728896627 0 -0.0093534039550601314 0.0014719939105972205 0 -0.0093551264643543849 0.0013861961997495102 0 -0.0092686027898768834 0.0013840300728896627 0 -0.0092062899863805843 0.0014357842161496692 0 -0.0092686027898768834 0.0013840300728896627 0 -0.0091902053007749934 0.0013509526111013851 0 -0.0077818995060988973 0.00033835035765008995 0 -0.0080376294678247591 0.00060302075489364771 0 -0.0074193993504741741 0.00016905297372002786 0 -0.0080376294678247591 0.00060302075489364771 0 -0.00701209226848192 0.00023281586373383612 0 -0.0074193993504741741 0.00016905297372002786 0 -0.0074251437233613772 0.00011536165404389491 0 -0.0077818995060988973 0.00033835035765008995 0 -0.0074193993504741741 0.00016905297372002786 0 -0.0077508587056027657 0.00031430558319471411 0 -0.0074251437233613772 0.00011536165404389491 0 -0.0077818995060988973 0.00033835035765008995 0 -0.0077508587056027657 0.00031430558319471411 0 -0.0077818995060988973 0.00033835035765008995 0 -0.0082221039463632097 0.00037546040298879954 0 -0.0077508587056027657 0.00031430558319471411 0 -0.0086547223905295376 0.00023793871189748661 0 -0.0082221039463632097 0.00037546040298879954 0 -0.0090149629811772519 0.00017083503303020123 0 -0.0082221039463632097 0.00037546040298879954 0 -0.0080376294678247591 0.00060302075489364771 0 -0.0077818995060988973 0.00033835035765008995 0 -0.0082221039463632097 0.00037546040298879954 0 -0.0080376294678247591 0.00060302075489364771 0 -0.0090149629811772519 0.00017083503303020123 0 -0.0080376294678247591 0.00060302075489364771 0 -0.0090527713310229376 0.00034072201473079553 0 -0.0080376294678247591 0.00060302075489364771 0 -0.0090527713310229376 0.00034072201473079553 0 -0.0090923155596531937 0.00089456550520133806 0 -0.0092368295933180963 0.00034832238482113842 0 -0.0092789642587212812 0.00049247681713158748 0 -0.0090527713310229376 0.00034072201473079553 0 -0.0092688896610932086 0.00077338649762580215 0 -0.0090527713310229376 0.00034072201473079553 0 -0.0090923155596531937 0.00089456550520133806 0 -0.0092993321699380328 0.00098453856058467468 0 -0.0089973931668701299 0.00027147576973361742 0 -0.0079390188863944586 0.00063941900624709107 0 -0.0075740669710739009 0.00081427126706772621 0 -0.0080376294678247591 0.00060302075489364771 0 -0.0060361941074915382 0.0007943071037561371 0 -0.00701209226848192 0.00023281586373383612 0 -0.00701209226848192 0.00023281586373383612 0 -0.0061744913815852823 0.0002100952865988967 0 -0.0064600091434286674 -0.00013966669072737782 0 -0.0060361941074915382 0.0007943071037561371 0 -0.00701209226848192 0.00023281586373383612 0 -0.0061744913815852823 0.0002100952865988967 0 -0.00701209226848192 0.00023281586373383612 0 -0.0064600091434286674 -0.00013966669072737782 0 -0.0069099664003968147 -0.0001843997620725413 0 -0.0061744913815852823 0.0002100952865988967 0 -0.0057059725393496285 -1.0425219879806883e-05 0 -0.0064600091434286674 -0.00013966669072737782 0 -0.0055484818729714547 0.00031512165312299635 0 -0.0060361941074915382 0.0007943071037561371 0 -0.0061744913815852823 0.0002100952865988967 0 -0.0055484818729714547 0.00031512165312299635 0 -0.0061744913815852823 0.0002100952865988967 0 -0.0057059725393496285 -1.0425219879806883e-05 0 -0.0057059725393496285 -1.0425219879806883e-05 0 -0.0060467312116164974 -0.00040452865680731348 0 -0.0064600091434286674 -0.00013966669072737782 0 -0.0053860101752972629 -0.00033276788335826428 0 -0.0057059725393496285 -1.0425219879806883e-05 0 -0.0060467312116164974 -0.00040452865680731348 0 -0.0060467312116164974 -0.00040452865680731348 0 -0.0064600091434286674 -0.00013966669072737782 0 -0.0065108817837932886 -0.0005532394506743137 0 -0.0069099664003968147 -0.0001843997620725413 0 -0.0066451213839472285 -0.00046167926790082153 0 -0.0065108817837932886 -0.0005532394506743137 0 -0.0064600091434286674 -0.00013966669072737782 0 -0.0069099664003968147 -0.0001843997620725413 0 -0.0065108817837932886 -0.0005532394506743137 0 -0.00701209226848192 0.00023281586373383612 0 -0.0069099664003968147 -0.0001843997620725413 0 -0.0074193993504741741 0.00016905297372002786 0 -0.0069099664003968147 -0.0001843997620725413 0 -0.0074193993504741741 0.00016905297372002786 0 -0.0070717087523810901 -0.00015234054431532794 0 -0.0074251437233613772 0.00011536165404389491 0 -0.0074193993504741741 0.00016905297372002786 0 -0.0070717087523810901 -0.00015234054431532794 0 -0.0066604539095245514 -0.00042710989385156628 0 -0.0070717087523810901 -0.00015234054431532794 0 -0.0066451213839472285 -0.00046167926790082153 0 -0.0069099664003968147 -0.0001843997620725413 0 -0.0070717087523810901 -0.00015234054431532794 0 -0.0066451213839472285 -0.00046167926790082153 0 -0.0066604539095245514 -0.00042710989385156628 0 -0.0066451213839472285 -0.00046167926790082153 0 -0.0061854067538868211 -0.00061619019070237205 0 -0.0066451213839472285 -0.00046167926790082153 0 -0.006330511425799679 -0.00065923973180208979 0 -0.0061854067538868211 -0.00061619019070237205 0 -0.0056108934404667712 -0.00058481255876212412 0 -0.005656928446607752 -0.00059854355874164225 0 -0.006330511425799679 -0.00065923973180208979 0 -0.006459244998241429 -0.00067684351770487408 0 -0.005633171431773199 -0.00060764755739825082 0 -0.006330511425799679 -0.00065923973180208979 0 -0.005633171431773199 -0.00060764755739825082 0 -0.0061854067538868211 -0.00061619019070237205 0 -0.006330511425799679 -0.00065923973180208979 0 -0.006459244998241429 -0.00067684351770487408 0 -0.0065108817837932886 -0.0005532394506743137 0 -0.0066451213839472285 -0.00046167926790082153 0 -0.006330511425799679 -0.00065923973180208979 0 -0.0065108817837932886 -0.0005532394506743137 0 -0.006459244998241429 -0.00067684351770487408 0 -0.0065108817837932886 -0.0005532394506743137 0 -0.0059960167864154274 -0.00091857940232232258 0 -0.0060467312116164974 -0.00040452865680731348 0 -0.0065108817837932886 -0.0005532394506743137 0 -0.0059960167864154274 -0.00091857940232232258 0 -0.0053860101752972629 -0.00033276788335826428 0 -0.0060467312116164974 -0.00040452865680731348 0 -0.0059960167864154274 -0.00091857940232232258 0 -0.0056108934404667712 -0.00058481255876212412 0 -0.0051929867081480958 -0.00068366187367874124 0 -0.0047918992330301807 -0.00043424790657975963 0 -0.0044211854598974545 -0.00049781030175332296 0 -0.0045107960177575143 -0.00068612206796727791 0 -0.0044211854598974545 -0.00049781030175332296 0 -0.0045107960177575143 -0.00068612206796727791 0 -0.0042106073512473592 -0.0007516603733805935 0 -0.0045107960177575143 -0.00068612206796727791 0 -0.0042106073512473592 -0.0007516603733805935 0 -0.0043946838747110969 -0.00093627099474478546 0 -0.0045107960177575143 -0.00068612206796727791 0 -0.0048153922745917677 -0.00079576597072044807 0 -0.0043946838747110969 -0.00093627099474478546 0 -0.0051692889253764961 -0.00085937593358851 0 -0.0049934274365446849 -0.00086880491015372836 0 -0.0051285327175546683 -0.00094677279075927416 0 -0.0048153922745917677 -0.00079576597072044807 0 -0.0051692889253764961 -0.00085937593358851 0 -0.0049934274365446849 -0.00086880491015372836 0 -0.0047918992330301807 -0.00043424790657975963 0 -0.0051692889253764961 -0.00085937593358851 0 -0.005633171431773199 -0.00060764755739825082 0 -0.0047918992330301807 -0.00043424790657975963 0 -0.0045107960177575143 -0.00068612206796727791 0 -0.0048153922745917677 -0.00079576597072044807 0 -0.0047918992330301807 -0.00043424790657975963 0 -0.0048153922745917677 -0.00079576597072044807 0 -0.0051692889253764961 -0.00085937593358851 0 -0.0038020687507467408 -5.674092078561376e-05 0 -0.003791197082794729 -0.00011683084158931617 0 -0.0037796119643339434 -0.00052559333444994493 0 -0.0039958549757193344 -0.00060590005278195267 0 -0.0037198293959914992 -0.00080099335006819097 0 -0.0038627533890525723 0.00026902013672373327 0 -0.0038043993736362491 0.00039118047219065152 0 -0.0039183982439995307 0.00039584282185576799 0 -0.0039799017968594778 -0.00019671744750631272 0 -0.0038913505386319485 0.00011253457015886199 0 -0.0037796119643339434 -0.00052559333444994493 0 -0.0038798345170491535 0.00011325489044978239 0 -0.0038020687507467408 -5.674092078561376e-05 0 -0.0038913505386319485 0.00011253457015886199 0 -0.0038627533890525723 0.00026902013672373327 0 -0.0038043993736362491 0.00039118047219065152 0 -0.0039799017968594778 -0.00019671744750631272 0 -0.0037796119643339434 -0.00052559333444994493 0 -0.0041397870366936167 -0.00034781948698529272 0 -0.0037796119643339434 -0.00052559333444994493 0 -0.0041397870366936167 -0.00034781948698529272 0 -0.0039958549757193344 -0.00060590005278195267 0 -0.0039958549757193344 -0.00060590005278195267 0 -0.0040582565131485216 -0.00073285258381161297 0 -0.0037198293959914992 -0.00080099335006819097 0 -0.004600781966423868 -0.00060749332775290117 0 -0.0043054596515560784 -0.00065670326680178348 0 -0.0040582565131485216 -0.00073285258381161297 0 -0.0039958549757193344 -0.00060590005278195267 0 -0.004600781966423868 -0.00060749332775290117 0 -0.0040582565131485216 -0.00073285258381161297 0 -0.0041397870366936167 -0.00034781948698529272 0 -0.0039958549757193344 -0.00060590005278195267 0 -0.004600781966423868 -0.00060749332775290117 0 -0.0044346433737152613 -0.00012170051989089642 0 -0.0041397870366936167 -0.00034781948698529272 0 -0.004600781966423868 -0.00060749332775290117 0 -0.0053860101752972629 -0.00033276788335826428 0 -0.0059960167864154274 -0.00091857940232232258 0 -0.004600781966423868 -0.00060749332775290117 0 -0.0051929867081480958 -0.00068366187367874124 0 -0.0046376111319440701 -0.00060712958988805819 0 -0.0044211854598974545 -0.00049781030175332296 0 -0.004600781966423868 -0.00060749332775290117 0 -0.0043054596515560784 -0.00065670326680178348 0 -0.0043054596515560784 -0.00065670326680178348 0 -0.0042106073512473592 -0.0007516603733805935 0 -0.0040605505015814947 -0.00080336492026936656 0 -0.0044211854598974545 -0.00049781030175332296 0 -0.0043054596515560784 -0.00065670326680178348 0 -0.0042106073512473592 -0.0007516603733805935 0 -0.0042106073512473592 -0.0007516603733805935 0 -0.0039020833020349593 -0.000943965648753365 0 -0.0039241102928563899 -0.0010074915497868845 0 -0.0042106073512473592 -0.0007516603733805935 0 -0.0039020833020349593 -0.000943965648753365 0 -0.0040605505015814947 -0.00080336492026936656 0 -0.0039020833020349593 -0.000943965648753365 0 -0.0040605505015814947 -0.00080336492026936656 0 -0.0038523101239347373 -0.00089874362722633665 0 -0.0043054596515560784 -0.00065670326680178348 0 -0.0040605505015814947 -0.00080336492026936656 0 -0.0040582565131485216 -0.00073285258381161297 0 -0.0040582565131485216 -0.00073285258381161297 0 -0.0038523101239347373 -0.00089874362722633665 0 -0.0037198293959914992 -0.00080099335006819097 0 -0.0040605505015814947 -0.00080336492026936656 0 -0.0040582565131485216 -0.00073285258381161297 0 -0.0038523101239347373 -0.00089874362722633665 0 -0.0039020833020349593 -0.000943965648753365 0 -0.0038523101239347373 -0.00089874362722633665 0 -0.0037426058721993513 -0.0010177486673393341 0 -0.0038523101239347373 -0.00089874362722633665 0 -0.0037426058721993513 -0.0010177486673393341 0 -0.0036768080394290396 -0.00097519715025200931 0 -0.0038523101239347373 -0.00089874362722633665 0 -0.0037198293959914992 -0.00080099335006819097 0 -0.0036768080394290396 -0.00097519715025200931 0 -0.0036918862802021242 -0.0010666948918875581 0 -0.0037426058721993513 -0.0010177486673393341 0 -0.0036857998130102221 -0.0010455245205781797 0 -0.0039020833020349593 -0.000943965648753365 0 -0.0037426058721993513 -0.0010177486673393341 0 -0.0037231378858564061 -0.0010666947899139754 0 -0.0036918862802021242 -0.0010666948918875581 0 -0.0037426058721993513 -0.0010177486673393341 0 -0.0037231378858564061 -0.0010666947899139754 0 -0.0036918862802021242 -0.0010666948918875581 0 -0.0037231378858564061 -0.0010666947899139754 0 -0.0035462023041158059 -0.0010832681462171821 0 -0.0037231378858564061 -0.0010666947899139754 0 -0.0036358892823778826 -0.0011263158234650033 0 -0.0035462023041158059 -0.0010832681462171821 0 -0.0039020833020349593 -0.000943965648753365 0 -0.0037231378858564061 -0.0010666947899139754 0 -0.0039241102928563899 -0.0010074915497868845 0 -0.0037231378858564061 -0.0010666947899139754 0 -0.0039241102928563899 -0.0010074915497868845 0 -0.0036358892823778826 -0.0011263158234650033 0 -0.0036358892823778826 -0.0011263158234650033 0 -0.0032914148723887818 -0.0010531250079040039 0 -0.0035462023041158059 -0.0010832681462171821 0 -0.0032914148723887818 -0.0010531250079040039 0 -0.0033477479740355964 -0.00097456755420606035 0 -0.0031566082848073851 -0.00092925910980719338 0 -0.0032914148723887818 -0.0010531250079040039 0 -0.0033477479740355964 -0.00097456755420606035 0 -0.0035462023041158059 -0.0010832681462171821 0 -0.0036918862802021242 -0.0010666948918875581 0 -0.0035462023041158059 -0.0010832681462171821 0 -0.0036799630288306541 -0.0010009107733108796 0 -0.0033644200800592794 -0.00094241485144802095 0 -0.0034210950280758657 -0.0010440238499795421 0 -0.0033477479740355964 -0.00097456755420606035 0 -0.0035462023041158059 -0.0010832681462171821 0 -0.0036799630288306541 -0.0010009107733108796 0 -0.0033477479740355964 -0.00097456755420606035 0 -0.0032374483347809837 -0.00089429425985478159 0 -0.0032074535661827906 -0.00085095529421487547 0 -0.0036918862802021242 -0.0010666948918875581 0 -0.0036799630288306541 -0.0010009107733108796 0 -0.0036949202711130968 -0.0010376413061413386 0 -0.0036918862802021242 -0.0010666948918875581 0 -0.0036949202711130968 -0.0010376413061413386 0 -0.0036857998130102221 -0.0010455245205781797 0 -0.0048622068896097617 -0.00084924009679955288 0 -0.0050191948986696771 -0.00067559913877462063 0 -0.0048593982088935787 -0.00050431933900058296 0 -0.0049934274365446849 -0.00086880491015372836 0 -0.0048622068896097617 -0.00084924009679955288 0 -0.0048593982088935787 -0.00050431933900058296 0 -0.0049934274365446849 -0.00086880491015372836 0 -0.0048593982088935787 -0.00050431933900058296 0 -0.004724500385358146 -0.00073927262530219351 0 -0.0048153922745917677 -0.00079576597072044807 0 -0.0048622068896097617 -0.00084924009679955288 0 -0.0043946838747110969 -0.00093627099474478546 0 -0.0048153922745917677 -0.00079576597072044807 0 -0.0049934274365446849 -0.00086880491015372836 0 -0.0048622068896097617 -0.00084924009679955288 0 -0.0042106073512473592 -0.0007516603733805935 0 -0.0039241102928563899 -0.0010074915497868845 0 -0.0043946838747110969 -0.00093627099474478546 0 -0.0039241102928563899 -0.0010074915497868845 0 -0.0043946838747110969 -0.00093627099474478546 0 -0.0038500136858837042 -0.00112698556962895 0 -0.0039241102928563899 -0.0010074915497868845 0 -0.0036358892823778826 -0.0011263158234650033 0 -0.0038500136858837042 -0.00112698556962895 0 -0.0048622068896097617 -0.00084924009679955288 0 -0.0043946838747110969 -0.00093627099474478546 0 -0.0050191948986696771 -0.00067559913877462063 0 -0.0043567968914149779 -0.00084834101465084864 0 -0.004301530349593098 -0.00087145551937560582 0 -0.0043946838747110969 -0.00093627099474478546 0 -0.0038500136858837042 -0.00112698556962895 0 -0.0036323527979313245 -0.0011712025239060883 0 -0.0038500136858837042 -0.00112698556962895 0 -0.0036323527979313245 -0.0011712025239060883 0 -0.0033437159979931904 -0.00114342674227543 0 -0.0036323527979313245 -0.0011712025239060883 0 -0.0033437159979931904 -0.00114342674227543 0 -0.0030672737452844181 -0.0011523703236279612 0 -0.004301530349593098 -0.00087145551937560582 0 -0.0041383190350525066 -0.00049560042965860189 0 -0.0036358892823778826 -0.0011263158234650033 0 -0.0032914148723887818 -0.0010531250079040039 0 -0.0033437159979931904 -0.00114342674227543 0 -0.0036358892823778826 -0.0011263158234650033 0 -0.0038500136858837042 -0.00112698556962895 0 -0.0033437159979931904 -0.00114342674227543 0 -0.0032914148723887818 -0.0010531250079040039 0 -0.0033437159979931904 -0.00114342674227543 0 -0.0030103648072448124 -0.0010584689625784312 0 -0.0033437159979931904 -0.00114342674227543 0 -0.0028731759727438646 -0.0011165129664951357 0 -0.0030103648072448124 -0.0010584689625784312 0 -0.0033437159979931904 -0.00114342674227543 0 -0.0030672737452844181 -0.0011523703236279612 0 -0.0028731759727438646 -0.0011165129664951357 0 -0.0051771187420806275 -0.00011825440642441883 0 -0.004938319276226971 0.00012490578559631155 0 -0.0051489704508023383 0.00045948047151258089 0 -0.0041383190350525066 -0.00049560042965860189 0 -0.0032116825332760184 -0.00093983921455899387 0 -0.0030672737452844181 -0.0011523703236279612 0 -0.0025503829490270331 -0.0011117843537761132 0 -0.0028731759727438646 -0.0011165129664951357 0 -0.0051771187420806275 -0.00011825440642441883 0 -0.0048593982088935787 -0.00050431933900058296 0 -0.004938319276226971 0.00012490578559631155 0 -0.0050191948986696771 -0.00067559913877462063 0 -0.0051771187420806275 -0.00011825440642441883 0 -0.0048593982088935787 -0.00050431933900058296 0 -0.0048593982088935787 -0.00050431933900058296 0 -0.004938319276226971 0.00012490578559631155 0 -0.0046590151408819717 6.6092325703679959e-05 0 -0.0046590151408819717 6.6092325703679959e-05 0 -0.004110263773606489 0.00036073832813505373 0 -0.0044957023111490031 -0.00029347091143481368 0 -0.0044957023111490031 -0.00029347091143481368 0 -0.0040753902904825424 -0.00058709954671343743 0 -0.0039237613676695758 -0.00013033217146739382 0 -0.004110263773606489 0.00036073832813505373 0 -0.0044957023111490031 -0.00029347091143481368 0 -0.0039237613676695758 -0.00013033217146739382 0 -0.0048593982088935787 -0.00050431933900058296 0 -0.0046590151408819717 6.6092325703679959e-05 0 -0.0044957023111490031 -0.00029347091143481368 0 -0.0048593982088935787 -0.00050431933900058296 0 -0.0044957023111490031 -0.00029347091143481368 0 -0.004724500385358146 -0.00073927262530219351 0 -0.0044957023111490031 -0.00029347091143481368 0 -0.004724500385358146 -0.00073927262530219351 0 -0.0040753902904825424 -0.00058709954671343743 0 -0.004724500385358146 -0.00073927262530219351 0 -0.0040753902904825424 -0.00058709954671343743 0 -0.0045345591195217168 -0.0011578749406859147 0 -0.0049934274365446849 -0.00086880491015372836 0 -0.004724500385358146 -0.00073927262530219351 0 -0.0051285327175546683 -0.00094677279075927416 0 -0.0040753902904825424 -0.00058709954671343743 0 -0.0029666715196802148 -0.00067172407759885503 0 -0.003383054475858991 -0.0013109806883396212 0 -0.0040753902904825424 -0.00058709954671343743 0 -0.0045345591195217168 -0.0011578749406859147 0 -0.003383054475858991 -0.0013109806883396212 0 -0.0040753902904825424 -0.00058709954671343743 0 -0.0029666715196802148 -0.00067172407759885503 0 -0.0033918419487179909 -0.00025252847260003519 0 -0.0033918419487179909 -0.00025252847260003519 0 -0.0033475571385021556 0.00023367208642336432 0 -0.0025792677376550725 -9.2991935980617953e-05 0 -0.0029666715196802148 -0.00067172407759885503 0 -0.0033918419487179909 -0.00025252847260003519 0 -0.0025792677376550725 -9.2991935980617953e-05 0 -0.0033918419487179909 -0.00025252847260003519 0 -0.0039237613676695758 -0.00013033217146739382 0 -0.0033475571385021556 0.00023367208642336432 0 -0.0040753902904825424 -0.00058709954671343743 0 -0.0033918419487179909 -0.00025252847260003519 0 -0.0039237613676695758 -0.00013033217146739382 0 -0.004110263773606489 0.00036073832813505373 0 -0.0039237613676695758 -0.00013033217146739382 0 -0.0033475571385021556 0.00023367208642336432 0 -0.004110263773606489 0.00036073832813505373 0 -0.0033475571385021556 0.00023367208642336432 0 -0.0032585187713925897 0.00093027892926271006 0 -0.0033475571385021556 0.00023367208642336432 0 -0.0025792677376550725 -9.2991935980617953e-05 0 -0.0023661642059036574 0.00086707900077252406 0 -0.0014966407440929477 4.2368723844617971e-05 0 -0.0025792677376550725 -9.2991935980617953e-05 0 -0.0023661642059036574 0.00086707900077252406 0 -0.0014966407440929477 4.2368723844617971e-05 0 -0.0025792677376550725 -9.2991935980617953e-05 0 -0.0018944186351440831 -0.00043173191186675379 0 -0.00037055673611906823 -1.1249591409117485e-07 0 -0.00046016820223784431 -4.8908168061910065e-05 0 -0.001214186872816011 -0.00020129042740274773 0 -0.0014966407440929477 4.2368723844617971e-05 0 -0.00046016820223784431 -4.8908168061910065e-05 0 -9.5071669696035347e-05 8.5543525443005032e-06 0 -0.0014966407440929477 4.2368723844617971e-05 0 -0.00046016820223784431 -4.8908168061910065e-05 0 -0.001214186872816011 -0.00020129042740274773 0 -0.0014966407440929477 4.2368723844617971e-05 0 -0.001214186872816011 -0.00020129042740274773 0 -0.0018944186351440831 -0.00043173191186675379 0 -0.00037055673611906823 -1.1249591409117485e-07 0 -0.001214186872816011 -0.00020129042740274773 0 -0.0019758921322659169 -4.5891275183425969e-07 0 -0.001214186872816011 -0.00020129042740274773 0 -0.0019758921322659169 -4.5891275183425969e-07 0 -0.001368718696795108 -0.00049087096730666068 0 -0.0019817296559539255 1.6002667009946774e-06 0 -0.0050658587159375622 0.00063099261108748826 0 -0.0039135121025842762 4.6056918189561743e-07 0 -0.0019803859705932133 -2.6452207931916849e-07 0 -0.0033398877576271959 -6.8544510014359155e-05 0 -0.001214186872816011 -0.00020129042740274773 0 -0.001368718696795108 -0.00049087096730666068 0 -0.0018944186351440831 -0.00043173191186675379 0 -0.0050658587159375622 0.00063099261108748826 0 -0.0074678104335514197 0.00066373928861933307 0 -0.0058666472180300029 0.00020874272007610734 0 -0.0033398877576271959 -6.8544510014359155e-05 0 -0.0047365703204544233 -0.000354558847545765 0 -0.001368718696795108 -0.00049087096730666068 0 -0.0018944186351440831 -0.00043173191186675379 0 -0.0019646915529570167 -0.0012756261521268586 0 -0.0050658587159375622 0.00063099261108748826 0 -0.0039135121025842762 4.6056918189561743e-07 0 -0.0058666472180300029 0.00020874272007610734 0 -0.0029666715196802148 -0.00067172407759885503 0 -0.0019646915529570167 -0.0012756261521268586 0 -0.003383054475858991 -0.0013109806883396212 0 -0.0029666715196802148 -0.00067172407759885503 0 -0.0025792677376550725 -9.2991935980617953e-05 0 -0.0018944186351440831 -0.00043173191186675379 0 -0.0029666715196802148 -0.00067172407759885503 0 -0.0018944186351440831 -0.00043173191186675379 0 -0.0019646915529570167 -0.0012756261521268586 0 -0.0019646915529570167 -0.0012756261521268586 0 -0.0027626365502213478 -0.0020022280229890048 0 -0.003383054475858991 -0.0013109806883396212 0 -0.0047365703204544233 -0.000354558847545765 0 -0.0060109203427413851 -0.0008535874700741228 0 -0.0074678104335514197 0.00066373928861933307 0 -0.0092258408648865139 0.00038458384814326138 0 -0.0075119288850201927 9.1041666151043586e-05 0 -0.0092258408648865139 0.00038458384814326138 0 -0.0075119288850201927 9.1041666151043586e-05 0 -0.0092136130596241622 -0.00018259545446286767 0 -0.0039135121025842762 4.6056918189561743e-07 0 -0.0058666472180300029 0.00020874272007610734 0 -0.0058463793792846138 -1.045863954908084e-07 0 -0.0058666472180300029 0.00020874272007610734 0 -0.0075119288850201927 9.1041666151043586e-05 0 -0.0058463793792846138 -1.045863954908084e-07 0 -0.0074678104335514197 0.00066373928861933307 0 -0.0058666472180300029 0.00020874272007610734 0 -0.0075119288850201927 9.1041666151043586e-05 0 -0.0075119288850201927 9.1041666151043586e-05 0 -0.0058463793792846138 -1.045863954908084e-07 0 -0.0082397274472493075 -0.00018825158384455098 0 -0.0058463793792846138 -1.045863954908084e-07 0 -0.0082397274472493075 -0.00018825158384455098 0 -0.0077789255287879092 -3.9703108320163774e-07 0 -0.0092142711982723495 -0.00025015272323408911 0 -0.0082397274472493075 -0.00018825158384455098 0 -0.0097824703465263212 -0.00046077788285830886 0 -0.0092142711982723495 -0.00025015272323408911 0 -0.0082397274472493075 -0.00018825158384455098 0 -0.0077789255287879092 -3.9703108320163774e-07 0 -0.0092258408648865139 0.00038458384814326138 0 -0.0092136130596241622 -0.00018259545446286767 0 -0.010415261738365234 -4.1476341777406805e-05 0 -0.0092136130596241622 -0.00018259545446286767 0 -0.010160031169246303 -0.00045007036069738652 0 -0.010415261738365234 -4.1476341777406805e-05 0 -0.0075119288850201927 9.1041666151043586e-05 0 -0.0082397274472493075 -0.00018825158384455098 0 -0.0092136130596241622 -0.00018259545446286767 0 -0.0082397274472493075 -0.00018825158384455098 0 -0.0092136130596241622 -0.00018259545446286767 0 -0.0097824703465263212 -0.00046077788285830886 0 -0.0092136130596241622 -0.00018259545446286767 0 -0.0097824703465263212 -0.00046077788285830886 0 -0.010160031169246303 -0.00045007036069738652 0 -0.010789644801064128 -0.00062812169200388078 0 -0.010160031169246303 -0.00045007036069738652 0 -0.010633727300383528 -0.00038799889775597272 0 -0.010160031169246303 -0.00045007036069738652 0 -0.010633727300383528 -0.00038799889775597272 0 -0.010415261738365234 -4.1476341777406805e-05 0 -0.0036157181284106436 -0.0027852096156781381 0 -0.0044678930809446621 -0.003542547264154467 0 -0.0047932592002739591 -0.0024393932122713648 0 -0.0069852566804399037 -0.0014064839490915224 0 -0.0078865312193892052 -0.0020832231592351974 0 -0.010633727300383528 -0.00038799889775597272 0 -0.010415261738365234 -4.1476341777406805e-05 0 -0.011059780806578559 -0.00044137733522971797 0 -0.010927364307458885 -0.00057297845138655631 0 -0.010633727300383528 -0.00038799889775597272 0 -0.011059780806578559 -0.00044137733522971797 0 -0.0044678930809446621 -0.003542547264154467 0 -0.0050647708094772592 -0.003513995886074739 0 -0.0047932592002739591 -0.0024393932122713648 0 -0.0066604539095245514 -0.00042710989385156628 0 -0.0063815023414533463 -0.00055827711216388249 0 -0.0061854067538868211 -0.00061619019070237205 0 -0.005633171431773199 -0.00060764755739825082 0 -0.0061854067538868211 -0.00061619019070237205 0 -0.0055450680921768731 -0.00080431239927055125 0 -0.0056712592642446727 -0.0019844133220208219 0 -0.0051460617600498238 -0.0015771514275509113 0 -0.0063815023414533463 -0.00055827711216388249 0 -0.0061854067538868211 -0.00061619019070237205 0 -0.0055450680921768731 -0.00080431239927055125 0 -0.0051460617600498238 -0.0015771514275509113 0 -0.004617808330148061 -0.001114049786521198 0 -0.005633171431773199 -0.00060764755739825082 0 -0.0055450680921768731 -0.00080431239927055125 0 -0.0051285327175546683 -0.00094677279075927416 0 -0.0051692889253764961 -0.00085937593358851 0 -0.005633171431773199 -0.00060764755739825082 0 -0.0051285327175546683 -0.00094677279075927416 0 -0.004724500385358146 -0.00073927262530219351 0 -0.0051285327175546683 -0.00094677279075927416 0 -0.0045345591195217168 -0.0011578749406859147 0 -0.0055450680921768731 -0.00080431239927055125 0 -0.0051285327175546683 -0.00094677279075927416 0 -0.0045345591195217168 -0.0011578749406859147 0 -0.0045345591195217168 -0.0011578749406859147 0 -0.003383054475858991 -0.0013109806883396212 0 -0.003881589153485169 -0.0019739122178346028 0 -0.0027626365502213478 -0.0020022280229890048 0 -0.003383054475858991 -0.0013109806883396212 0 -0.003881589153485169 -0.0019739122178346028 0 -0.0060109203427413851 -0.0008535874700741228 0 -0.0069852566804399037 -0.0014064839490915224 0 -0.0027626365502213478 -0.0020022280229890048 0 -0.0036157181284106436 -0.0027852096156781381 0 -0.003881589153485169 -0.0019739122178346028 0 -0.0036157181284106436 -0.0027852096156781381 0 -0.0047932592002739591 -0.0024393932122713648 0 -0.003881589153485169 -0.0019739122178346028 0 -0.0047932592002739591 -0.0024393932122713648 0 -0.0045345591195217168 -0.0011578749406859147 0 -0.003881589153485169 -0.0019739122178346028 0 -0.0049017225933612385 0.00027772224659925018 0 -0.0056111594179289364 0.00036670194702324225 0 -0.0066165903740993629 8.8109631947858104e-05 0 -0.0066155087944068077 4.865657582190832e-05 0 -0.0066282203121784677 0.00010782531974602419 0 -0.0066165903740993629 8.8109631947858104e-05 0 -0.0066155087944068077 4.865657582190832e-05 0 -0.0065114167088400829 0.00011282357478495315 0 -0.0068447869750700449 0.00013184850506346902 0 -0.006447356357924738 9.9234236816878748e-05 0 -0.0066155087944068077 4.865657582190832e-05 0 -0.0065114167088400829 0.00011282357478495315 0 -0.0064578389947750944 -0.00013356988141804857 0 -0.0034931353141456961 0.0006121564439925866 0 -0.0035389024415155351 0.00059861089483213576 0 -0.0035058006984788007 0.00062739726491880599 0 -0.0034862633274076169 0.00059922013994683008 0 -0.0034931353141456961 0.0006121564439925866 0 -0.0035389024415155351 0.00059861089483213576 0 -0.0049017225933612385 0.00027772224659925018 0 -0.0052160731407683179 0.00029628914187970095 0 -0.0034862633274076169 0.00059922013994683008 0 -0.0034696703009890945 0.00061428958405135715 0 -0.0034671061471625675 0.00061348077764756073 0 -0.0034931353141456961 0.0006121564439925866 0 -0.0034696703009890945 0.00061428958405135715 0 -0.0034746993878874053 0.00062542258232421309 0 -0.0034862633274076169 0.00059922013994683008 0 -0.0034931353141456961 0.0006121564439925866 0 -0.0034696703009890945 0.00061428958405135715 0 -0.0034696703009890945 0.00061428958405135715 0 -0.0034561933139399346 0.00061525044127821516 0 -0.0034551530825276096 0.00061850124303021036 0 -0.0034696703009890945 0.00061428958405135715 0 -0.0034561933139399346 0.00061525044127821516 0 -0.0034671061471625675 0.00061348077764756073 0 -0.0034561933139399346 0.00061525044127821516 0 -0.0034524736859061545 0.00062327491836223429 0 -0.0034448341388433347 0.00061122864707614745 0 -0.0034561933139399346 0.00061525044127821516 0 -0.0034524736859061545 0.00062327491836223429 0 -0.0034594317965384977 0.00062195329796862185 0 -0.0034524736859061545 0.00062327491836223429 0 -0.0034448341388433347 0.00061122864707614745 0 -0.0034380515817954618 0.00060443037747345775 0 -0.0034524736859061545 0.00062327491836223429 0 -0.0034594317965384977 0.00062195329796862185 0 -0.0034658023027098412 0.00065480418891539834 0 -0.0034594317965384977 0.00062195329796862185 0 -0.0034694107008517447 0.00062149148026237832 0 -0.0034658023027098412 0.00065480418891539834 0 -0.0034862633274076169 0.00059922013994683008 0 -0.0034671061471625675 0.00061348077764756073 0 -0.0034694107008517447 0.00062149148026237832 0 -0.0034561933139399346 0.00061525044127821516 0 -0.0034594317965384977 0.00062195329796862185 0 -0.0034671061471625675 0.00061348077764756073 0 -0.0034594317965384977 0.00062195329796862185 0 -0.0034671061471625675 0.00061348077764756073 0 -0.0034694107008517447 0.00062149148026237832 0 -0.0066698067148602876 0.00013725069255814029 0 -0.0068144045645190032 0.00016652290020043492 0 -0.0067883694822189668 0.00022547574376860231 0 -0.0068447869750700449 0.00013184850506346902 0 -0.0056111594179289364 0.00036670194702324225 0 -0.0079060558585998149 0.00048850342010666088 0 -0.0081902750928022471 0.00077849744722835066 0 -0.0085872961658025829 0.00065694577483083375 0 -0.0068144045645190032 0.00016652290020043492 0 -0.0067883694822189668 0.00022547574376860231 0 -0.0069862283491167665 0.00028127663826420625 0 -0.007515558632132463 0.00035807722287413288 0 -0.0070151017161231627 0.00057792453113209746 0 -0.0056111594179289364 0.00036670194702324225 0 -0.0070151017161231627 0.00057792453113209746 0 -0.0059028587606104171 0.00070794617824560013 0 -0.0059572243377249302 0.00072395009920133704 0 -0.0059595282491399244 0.00073906367672362438 0 -0.0056111594179289364 0.00036670194702324225 0 -0.004545226273777782 0.00070426089036028014 0 -0.0081902750928022471 0.00077849744722835066 0 -0.0085872961658025829 0.00065694577483083375 0 -0.0084034822007637879 0.0010791695195472562 0 -0.0081902750928022471 0.00077849744722835066 0 -0.0078572062831902111 0.00089071684218661228 0 -0.0084034822007637879 0.0010791695195472562 0 -0.0079060558585998149 0.00048850342010666088 0 -0.0078572062831902111 0.00089071684218661228 0 -0.0076719928498663959 0.00072865759710416447 0 -0.0079060558585998149 0.00048850342010666088 0 -0.0081902750928022471 0.00077849744722835066 0 -0.0078572062831902111 0.00089071684218661228 0 -0.0078572062831902111 0.00089071684218661228 0 -0.0074744784197610875 0.00095670551322884958 0 -0.0076719928498663959 0.00072865759710416447 0 -0.0078572062831902111 0.00089071684218661228 0 -0.0074744784197610875 0.00095670551322884958 0 -0.0078428268669888251 0.0013122966077290152 0 -0.0074744784197610875 0.00095670551322884958 0 -0.0074477847065029176 0.00057996300236433536 0 -0.0071121500837224606 0.000719570979867136 0 -0.0074744784197610875 0.00095670551322884958 0 -0.0076719928498663959 0.00072865759710416447 0 -0.0074477847065029176 0.00057996300236433536 0 -0.0079060558585998149 0.00048850342010666088 0 -0.0074477847065029176 0.00057996300236433536 0 -0.0071672474154274649 0.00030781682396368974 0 -0.0079060558585998149 0.00048850342010666088 0 -0.0076719928498663959 0.00072865759710416447 0 -0.0074477847065029176 0.00057996300236433536 0 -0.007515558632132463 0.00035807722287413288 0 -0.0068269975665717422 0.00024055887085922719 0 -0.0066698067148602876 0.00013725069255814029 0 -0.0067883694822189668 0.00022547574376860231 0 -0.0065828529297828949 0.00017140343612147084 0 -0.0066698067148602876 0.00013725069255814029 0 -0.0065114167088400829 0.00011282357478495315 0 -0.0065828529297828949 0.00017140343612147084 0 -0.0074477847065029176 0.00057996300236433536 0 -0.0071672474154274649 0.00030781682396368974 0 -0.0071121500837224606 0.000719570979867136 0 -0.0071672474154274649 0.00030781682396368974 0 -0.0071121500837224606 0.000719570979867136 0 -0.006741453592993679 0.00054675058350308963 0 -0.0071121500837224606 0.000719570979867136 0 -0.0067377498278516261 0.00089339702402896229 0 -0.006741453592993679 0.00054675058350308963 0 -0.0074744784197610875 0.00095670551322884958 0 -0.0071121500837224606 0.000719570979867136 0 -0.0070809218691664745 0.0010898327062498971 0 -0.0071121500837224606 0.000719570979867136 0 -0.0067377498278516261 0.00089339702402896229 0 -0.0070809218691664745 0.0010898327062498971 0 -0.0067377498278516261 0.00089339702402896229 0 -0.006359242275148236 0.00065906169544075962 0 -0.0062918610392826042 0.0012089397689187106 0 -0.0067377498278516261 0.00089339702402896229 0 -0.006359242275148236 0.00065906169544075962 0 -0.006741453592993679 0.00054675058350308963 0 -0.0082123263065579048 0.00046836027424996591 0 -0.0083268538240004863 0.0010652049269297751 0 -0.006359242275148236 0.00065906169544075962 0 -0.0059516769837496576 0.00063474702052070749 0 -0.0062918610392826042 0.0012089397689187106 0 -0.006359242275148236 0.00065906169544075962 0 -0.0059516769837496576 0.00063474702052070749 0 -0.0060166916229405076 0.00021540867830189682 0 -0.006359242275148236 0.00065906169544075962 0 -0.0063426349096559077 0.00017508171549062513 0 -0.0060166916229405076 0.00021540867830189682 0 -0.0065114167088400829 0.00011282357478495315 0 -0.0065828529297828949 0.00017140343612147084 0 -0.0063426349096559077 0.00017508171549062513 0 -0.0071672474154274649 0.00030781682396368974 0 -0.006741453592993679 0.00054675058350308963 0 -0.0063426349096559077 0.00017508171549062513 0 -0.006359242275148236 0.00065906169544075962 0 -0.006741453592993679 0.00054675058350308963 0 -0.0063426349096559077 0.00017508171549062513 0 -0.0068269975665717422 0.00024055887085922719 0 -0.0063890700948073731 0.00017388728961256408 0 -0.0099519681699966889 0.00082281188290232754 0 -0.0091736182952554257 1.3959035407974353e-05 0 -0.009320087855691354 0.0010370016181083803 0 -0.0099519681699966889 0.00082281188290232754 0 -0.010281060863797299 0.00024513422410774011 0 -0.0091736182952554257 1.3959035407974353e-05 0 -0.0099519681699966889 0.00082281188290232754 0 -0.010281060863797299 0.00024513422410774011 0 -0.010819208063219298 0.0010616902264819251 0 -0.010281060863797299 0.00024513422410774011 0 -0.0091736182952554257 1.3959035407974353e-05 0 -0.0097616838999301566 -0.00055508660880845091 0 -0.0082123263065579048 0.00046836027424996591 0 -0.0071948250786136193 -6.3195746968895463e-05 0 -0.0059516769837496576 0.00063474702052070749 0 -0.0056916698527395403 0.00014408946926391708 0 -0.0060166916229405076 0.00021540867830189682 0 -0.0072255773698331922 -9.051097562875961e-05 0 -0.0071948250786136193 -6.3195746968895463e-05 0 -0.005519880088327129 -0.00028122834797441058 0 -0.0055507166058864901 -0.00015884059420252677 0 -0.0055103368838128781 -0.00015562413164802013 0 -0.0055507166058864901 -0.00015884059420252677 0 -0.0055883612949919207 -9.6892025019752024e-05 0 -0.0055655974170285621 -0.00012365799736924939 0 -0.0055883612949919207 -9.6892025019752024e-05 0 -0.0055730583497263456 -0.00012119674949543713 0 -0.0055655974170285621 -0.00012365799736924939 0 -0.0055883612949919207 -9.6892025019752024e-05 0 -0.0057394047239073091 -5.5587255154097207e-05 0 -0.005710661741183929 0.00013673684097488171 0 -0.0057349312398003293 -0.00037867282664738502 0 -0.0071948250786136193 -6.3195746968895463e-05 0 -0.0055507166058864901 -0.00015884059420252677 0 -0.0055883612949919207 -9.6892025019752024e-05 0 -0.0055103368838128781 -0.00015562413164802013 0 -0.0057394047239073091 -5.5587255154097207e-05 0 -0.005778727784741514 6.9906131589815438e-05 0 -0.0059262338864345138 1.815628030081809e-06 0 -0.0057394047239073091 -5.5587255154097207e-05 0 -0.005778727784741514 6.9906131589815438e-05 0 -0.005710661741183929 0.00013673684097488171 0 -0.005778727784741514 6.9906131589815438e-05 0 -0.0056916698527395403 0.00014408946926391708 0 -0.0060166916229405076 0.00021540867830189682 0 -0.0065001957593018925 0.00030195985138256381 0 -0.0071948250786136193 -6.3195746968895463e-05 0 -0.005778727784741514 6.9906131589815438e-05 0 -0.0059262338864345138 1.815628030081809e-06 0 -0.0060166916229405076 0.00021540867830189682 0 -0.0059262338864345138 1.815628030081809e-06 0 -0.0058172720334837445 -0.00017550003737792547 0 -0.0060001299248398114 -0.00013883034521733472 0 -0.0057394047239073091 -5.5587255154097207e-05 0 -0.0059262338864345138 1.815628030081809e-06 0 -0.0058172720334837445 -0.00017550003737792547 0 -0.0058172720334837445 -0.00017550003737792547 0 -0.0057103467079583298 -0.00028517876066528458 0 -0.0059600286043910026 -0.00032089283473878794 0 -0.0051187373013921048 -0.00039698864859625399 0 -0.006053496987165263 -0.00034590084992207549 0 -0.0058172720334837445 -0.00017550003737792547 0 -0.0060001299248398114 -0.00013883034521733472 0 -0.0059600286043910026 -0.00032089283473878794 0 -0.0058172720334837445 -0.00017550003737792547 0 -0.0057103467079583298 -0.00028517876066528458 0 -0.0056326858549905212 -0.00015715862857716286 0 -0.0057394047239073091 -5.5587255154097207e-05 0 -0.0058172720334837445 -0.00017550003737792547 0 -0.0056326858549905212 -0.00015715862857716286 0 -0.0057103467079583298 -0.00028517876066528458 0 -0.0056326858549905212 -0.00015715862857716286 0 -0.0055494074124804518 -0.0001299836614636975 0 -0.0061812466090762005 -0.0004332399964784362 0 -0.0061049404658152315 -0.00043704377054376489 0 -0.0061098496311169622 -0.00038383018472792197 0 -0.0051187373013921048 -0.00039698864859625399 0 -0.0059928148865432025 -0.00027780556743349911 0 -0.0051187373013921048 -0.00039698864859625399 0 -0.0045779014714244582 -0.00049623365084602692 0 -0.0055883612949919207 -9.6892025019752024e-05 0 -0.0056326858549905212 -0.00015715862857716286 0 -0.0055730583497263456 -0.00012119674949543713 0 -0.0055883612949919207 -9.6892025019752024e-05 0 -0.0057394047239073091 -5.5587255154097207e-05 0 -0.0056326858549905212 -0.00015715862857716286 0 -0.0056326858549905212 -0.00015715862857716286 0 -0.0055730583497263456 -0.00012119674949543713 0 -0.0055494074124804518 -0.0001299836614636975 0 -0.0065114167088400829 0.00011282357478495315 0 -0.006338610151551822 -7.2341879826412301e-06 0 -0.0064578389947750944 -0.00013356988141804857 0 -0.0065114167088400829 0.00011282357478495315 0 -0.006338610151551822 -7.2341879826412301e-06 0 -0.0063426349096559077 0.00017508171549062513 0 -0.0063426349096559077 0.00017508171549062513 0 -0.0060166916229405076 0.00021540867830189682 0 -0.0061242282118591767 -1.9278815204657753e-05 0 -0.0059262338864345138 1.815628030081809e-06 0 -0.0060166916229405076 0.00021540867830189682 0 -0.0061242282118591767 -1.9278815204657753e-05 0 -0.0059262338864345138 1.815628030081809e-06 0 -0.0061242282118591767 -1.9278815204657753e-05 0 -0.0060001299248398114 -0.00013883034521733472 0 -0.006338610151551822 -7.2341879826412301e-06 0 -0.0063426349096559077 0.00017508171549062513 0 -0.0061242282118591767 -1.9278815204657753e-05 0 -0.0061693878595739044 -0.0001822732390302415 0 -0.0064578389947750944 -0.00013356988141804857 0 -0.0060921540596485498 -0.00042030806553036427 0 -0.006338610151551822 -7.2341879826412301e-06 0 -0.0061242282118591767 -1.9278815204657753e-05 0 -0.0061693878595739044 -0.0001822732390302415 0 -0.0061242282118591767 -1.9278815204657753e-05 0 -0.0060001299248398114 -0.00013883034521733472 0 -0.0061693878595739044 -0.0001822732390302415 0 -0.0060001299248398114 -0.00013883034521733472 0 -0.0061693878595739044 -0.0001822732390302415 0 -0.0059600286043910026 -0.00032089283473878794 0 -0.0061693878595739044 -0.0001822732390302415 0 -0.0060921540596485498 -0.00042030806553036427 0 -0.0059600286043910026 -0.00032089283473878794 0 -0.0052160731407683179 0.00029628914187970095 0 -0.0038034672906981756 4.6567362669051884e-05 0 -0.006338610151551822 -7.2341879826412301e-06 0 -0.0061693878595739044 -0.0001822732390302415 0 -0.0064578389947750944 -0.00013356988141804857 0 -0.0023625174376386356 -0.0001487631829570393 0 -0.0026097794639295398 -0.00030046454778760945 0 -0.0024765911871306792 -8.7724900522033166e-05 0 -0.0035389024415155351 0.00059861089483213576 0 -0.0035293600969242556 0.00065028964954586942 0 -0.0036039645511102996 0.00062502533689633903 0 -0.00280051786080549 0.00025785175364815974 0 -0.0038034672906981756 4.6567362669051884e-05 0 -0.0026097794639295398 -0.00030046454778760945 0 -0.0026306660548972164 -0.00015393019833199315 0 -0.0024765911871306792 -8.7724900522033166e-05 0 -0.0026097794639295398 -0.00030046454778760945 0 -0.0026306660548972164 -0.00015393019833199315 0 -0.0028073544150255623 -0.00024251678129305997 0 -0.0026306660548972164 -0.00015393019833199315 0 -0.0025619611680979962 -2.0672009564064884e-05 0 -0.0024765911871306792 -8.7724900522033166e-05 0 -0.0026306660548972164 -0.00015393019833199315 0 -0.0025619611680979962 -2.0672009564064884e-05 0 -0.0027262640590554272 -3.8231075893113226e-05 0 -0.0025619611680979962 -2.0672009564064884e-05 0 -0.0024765911871306792 -8.7724900522033166e-05 0 -0.002449328062604257 6.130709613726483e-05 0 -0.0023625174376386356 -0.0001487631829570393 0 -0.0024765911871306792 -8.7724900522033166e-05 0 -0.0023388289584334401 4.9993333104852729e-05 0 -0.0029140067851237345 -0.0004927146320788026 0 -0.003077955285751984 -0.00031966795836830191 0 -0.0032945751211747964 -0.00054122392234061238 0 -0.003077955285751984 -0.00031966795836830191 0 -0.0031722453761509279 -0.00014606681175361298 0 -0.0033131721368115682 -0.00030356813665441862 0 -0.0029140067851237345 -0.0004927146320788026 0 -0.002593682067483958 -0.00037715997633847227 0 -0.0028073544150255623 -0.00024251678129305997 0 -0.0029140067851237345 -0.0004927146320788026 0 -0.003077955285751984 -0.00031966795836830191 0 -0.0028073544150255623 -0.00024251678129305997 0 -0.0056771368428913836 -0.00032186601748048816 0 -0.0060921540596485498 -0.00042030806553036427 0 -0.0059600286043910026 -0.00032089283473878794 0 -0.0051187373013921048 -0.00039698864859625399 0 -0.0038034672906981756 4.6567362669051884e-05 0 -0.0038034672906981756 4.6567362669051884e-05 0 -0.0024586486368713065 -0.00045374037663278768 0 -0.0026306660548972164 -0.00015393019833199315 0 -0.0028073544150255623 -0.00024251678129305997 0 -0.0027262640590554272 -3.8231075893113226e-05 0 -0.0027262640590554272 -3.8231075893113226e-05 0 -0.0029531056287646512 -7.694735314245436e-05 0 -0.0028388004542419503 0.00012722258991261918 0 -0.0028073544150255623 -0.00024251678129305997 0 -0.0027262640590554272 -3.8231075893113226e-05 0 -0.0029531056287646512 -7.694735314245436e-05 0 -0.0029531056287646512 -7.694735314245436e-05 0 -0.0031722453761509279 -0.00014606681175361298 0 -0.0031489331282344643 0.00010874080981929626 0 -0.003077955285751984 -0.00031966795836830191 0 -0.0028073544150255623 -0.00024251678129305997 0 -0.0029531056287646512 -7.694735314245436e-05 0 -0.003077955285751984 -0.00031966795836830191 0 -0.0029531056287646512 -7.694735314245436e-05 0 -0.0031722453761509279 -0.00014606681175361298 0 -0.0031489331282344643 0.00010874080981929626 0 -0.0028388004542419503 0.00012722258991261918 0 -0.0029513647690569775 0.00041443310342113116 0 -0.0029531056287646512 -7.694735314245436e-05 0 -0.0031489331282344643 0.00010874080981929626 0 -0.0028388004542419503 0.00012722258991261918 0 -0.0027262640590554272 -3.8231075893113226e-05 0 -0.0028388004542419503 0.00012722258991261918 0 -0.0025975692592777023 0.00011174035016485532 0 -0.0028388004542419503 0.00012722258991261918 0 -0.0026826286005699018 0.00032314250679713302 0 -0.0025975692592777023 0.00011174035016485532 0 -0.0028388004542419503 0.00012722258991261918 0 -0.0026826286005699018 0.00032314250679713302 0 -0.0029513647690569775 0.00041443310342113116 0 -0.0031489331282344643 0.00010874080981929626 0 -0.0029513647690569775 0.00041443310342113116 0 -0.0033178824357888324 0.00037895864581121227 0 -0.0024765911871306792 -8.7724900522033166e-05 0 -0.002449328062604257 6.130709613726483e-05 0 -0.0023388289584334401 4.9993333104852729e-05 0 -0.002449328062604257 6.130709613726483e-05 0 -0.0023797840665250522 0.00020651050749857425 0 -0.0023388289584334401 4.9993333104852729e-05 0 -0.0025619611680979962 -2.0672009564064884e-05 0 -0.002449328062604257 6.130709613726483e-05 0 -0.0025975692592777023 0.00011174035016485532 0 -0.002449328062604257 6.130709613726483e-05 0 -0.0025975692592777023 0.00011174035016485532 0 -0.0023797840665250522 0.00020651050749857425 0 -0.0025619611680979962 -2.0672009564064884e-05 0 -0.0027262640590554272 -3.8231075893113226e-05 0 -0.0025975692592777023 0.00011174035016485532 0 -0.0026826286005699018 0.00032314250679713302 0 -0.0025975692592777023 0.00011174035016485532 0 -0.0023797840665250522 0.00020651050749857425 0 -0.0026826286005699018 0.00032314250679713302 0 -0.0023797840665250522 0.00020651050749857425 0 -0.0024814666773979774 0.00057016736769650313 0 -0.0023797840665250522 0.00020651050749857425 0 -0.0022909531980604245 0.00011660829588017026 0 -0.0022987487036503977 0.00014102747289305192 0 -0.0022435995889599327 0.00035553341946666615 0 -0.0023483368249489992 0.00023014859551971813 0 -0.0022909531980604245 0.00011660829588017026 0 -0.0022434270926527671 9.1432157743677009e-05 0 -0.0022943795419090099 0.00013910070352136624 0 -0.0022909531980604245 0.00011660829588017026 0 -0.0022943795419090099 0.00013910070352136624 0 -0.0022987487036503977 0.00014102747289305192 0 -0.0022434270926527671 9.1432157743677009e-05 0 -0.0022676746463231017 3.7250084648414164e-05 0 -0.0022240857694748955 -4.6613999578446513e-05 0 -0.0022909531980604245 0.00011660829588017026 0 -0.0022434270926527671 9.1432157743677009e-05 0 -0.0022676746463231017 3.7250084648414164e-05 0 -0.0023797840665250522 0.00020651050749857425 0 -0.0022909531980604245 0.00011660829588017026 0 -0.0023388289584334401 4.9993333104852729e-05 0 -0.0022909531980604245 0.00011660829588017026 0 -0.0022676746463231017 3.7250084648414164e-05 0 -0.0023388289584334401 4.9993333104852729e-05 0 -0.00280051786080549 0.00025785175364815974 0 -0.0029198197744937692 0.00053076791785723956 0 -0.0023625174376386356 -0.0001487631829570393 0 -0.0022676746463231017 3.7250084648414164e-05 0 -0.0022240857694748955 -4.6613999578446513e-05 0 -0.0023625174376386356 -0.0001487631829570393 0 -0.0022676746463231017 3.7250084648414164e-05 0 -0.0023388289584334401 4.9993333104852729e-05 0 -0.0022435995889599327 0.00035553341946666615 0 -0.0029198197744937692 0.00053076791785723956 0 -0.0034696703009890945 0.00061428958405135715 0 -0.0034746993878874053 0.00062542258232421309 0 -0.0034551530825276096 0.00061850124303021036 0 -0.0034610132681957059 0.00066732001249684752 0 -0.0034746993878874053 0.00062542258232421309 0 -0.0035058006984788007 0.00062739726491880599 0 -0.0034631481868932033 0.00062740312948894237 0 -0.0034746993878874053 0.00062542258232421309 0 -0.0034551530825276096 0.00061850124303021036 0 -0.0029198197744937692 0.00053076791785723956 0 -0.0034348232672614873 0.00061858609803875026 0 -0.0035389024415155351 0.00059861089483213576 0 -0.0035293600969242556 0.00065028964954586942 0 -0.0035058006984788007 0.00062739726491880599 0 -0.0034931353141456961 0.0006121564439925866 0 -0.0034746993878874053 0.00062542258232421309 0 -0.0035058006984788007 0.00062739726491880599 0 -0.0035293600969242556 0.00065028964954586942 0 -0.0034610132681957059 0.00066732001249684752 0 -0.0035058006984788007 0.00062739726491880599 0 -0.0034448341388433347 0.00061122864707614745 0 -0.0034320615701535348 0.00060567874287576515 0 -0.0034380515817954618 0.00060443037747345775 0 -0.0034448341388433347 0.00061122864707614745 0 -0.0034551530825276096 0.00061850124303021036 0 -0.0034320615701535348 0.00060567874287576515 0 -0.0034561933139399346 0.00061525044127821516 0 -0.0034448341388433347 0.00061122864707614745 0 -0.0034551530825276096 0.00061850124303021036 0 -0.0023455680481873444 0.00062869795529449488 0 -0.00228927092022118 0.00092774652135497397 0 -0.0025715868989243254 0.00084863462126928593 0 -0.0029198197744937692 0.00053076791785723956 0 -0.0029924449402577891 0.00075638311862418221 0 -0.0034631481868932033 0.00062740312948894237 0 -0.0034551530825276096 0.00061850124303021036 0 -0.0034452402492750949 0.00062149549911617234 0 -0.0029924449402577891 0.00075638311862418221 0 -0.0031601449412991429 0.00067753968676564566 0 -0.0034551530825276096 0.00061850124303021036 0 -0.0034452402492750949 0.00062149549911617234 0 -0.0034320615701535348 0.00060567874287576515 0 -0.0034452402492750949 0.00062149549911617234 0 -0.0034320615701535348 0.00060567874287576515 0 -0.00341634112346132 0.00061173698395599046 0 -0.0025715868989243254 0.00084863462126928593 0 -0.002667480795349988 0.00052046280019841758 0 -0.0028907570328618889 0.0007651477040268006 0 -0.0023455680481873444 0.00062869795529449488 0 -0.0025715868989243254 0.00084863462126928593 0 -0.002667480795349988 0.00052046280019841758 0 -0.0023455680481873444 0.00062869795529449488 0 -0.002667480795349988 0.00052046280019841758 0 -0.0023940142472391782 0.00034375929115340701 0 -0.002667480795349988 0.00052046280019841758 0 -0.0028832344613730762 0.00036139922053247833 0 -0.0026559658283408821 0.00021135046776500312 0 -0.002667480795349988 0.00052046280019841758 0 -0.0030354344418693489 0.00051061911365447691 0 -0.0028832344613730762 0.00036139922053247833 0 -0.0030354344418693489 0.00051061911365447691 0 -0.0028832344613730762 0.00036139922053247833 0 -0.0031587996576505741 0.0003169097572249038 0 -0.0031601449412991429 0.00067753968676564566 0 -0.0032910739952635559 0.00060389411522102207 0 -0.002667480795349988 0.00052046280019841758 0 -0.0030354344418693489 0.00051061911365447691 0 -0.0028907570328618889 0.0007651477040268006 0 -0.0030354344418693489 0.00051061911365447691 0 -0.0028907570328618889 0.0007651477040268006 0 -0.0033020967916279199 0.00058524599163381518 0 -0.0030354344418693489 0.00051061911365447691 0 -0.0033020967916279199 0.00058524599163381518 0 -0.0033390682597842724 0.00043736910823085891 0 -0.0030354344418693489 0.00051061911365447691 0 -0.0033390682597842724 0.00043736910823085891 0 -0.0031587996576505741 0.0003169097572249038 0 -0.0033390682597842724 0.00043736910823085891 0 -0.0035052180403768078 0.00037795843278512335 0 -0.0034635427654163527 0.00047952864611548561 0 -0.0033390682597842724 0.00043736910823085891 0 -0.0033972355606647683 0.00027777090082258557 0 -0.0031587996576505741 0.0003169097572249038 0 -0.0033390682597842724 0.00043736910823085891 0 -0.0035052180403768078 0.00037795843278512335 0 -0.0033972355606647683 0.00027777090082258557 0 -0.0035052180403768078 0.00037795843278512335 0 -0.0036283177773108063 0.00046508445346491812 0 -0.0036036806260364629 0.00025318482513728017 0 -0.0035052180403768078 0.00037795843278512335 0 -0.0034635427654163527 0.00047952864611548561 0 -0.0036283177773108063 0.00046508445346491812 0 -0.0034832970108787755 0.00047043449338080143 0 -0.0036246260558633983 0.00043167163033468604 0 -0.0034635427654163527 0.00047952864611548561 0 -0.0034484568948977296 0.00055319474552749371 0 -0.003581242962217593 0.00049444812143022827 0 -0.0034635427654163527 0.00047952864611548561 0 -0.003581242962217593 0.00049444812143022827 0 -0.0036325482610392586 0.0003972314262280772 0 -0.0033020967916279199 0.00058524599163381518 0 -0.0033390682597842724 0.00043736910823085891 0 -0.0034635427654163527 0.00047952864611548561 0 -0.0033020967916279199 0.00058524599163381518 0 -0.0034635427654163527 0.00047952864611548561 0 -0.0034484568948977296 0.00055319474552749371 0 -0.0034484568948977296 0.00055319474552749371 0 -0.0035525376352650655 0.00055553490877408669 0 -0.003461126855512879 0.00057849078968840004 0 -0.0034484568948977296 0.00055319474552749371 0 -0.0035525376352650655 0.00055553490877408669 0 -0.003581242962217593 0.00049444812143022827 0 -0.0035525376352650655 0.00055553490877408669 0 -0.003581242962217593 0.00049444812143022827 0 -0.0036735625411081448 0.00051318578426692862 0 -0.0035525376352650655 0.00055553490877408669 0 -0.0035992677610460306 0.00059152548440063741 0 -0.0035209025203901591 0.00059437580531094929 0 -0.0035525376352650655 0.00055553490877408669 0 -0.0035992677610460306 0.00059152548440063741 0 -0.0036579282489105423 0.00056472728052447312 0 -0.0035992677610460306 0.00059152548440063741 0 -0.0036579282489105423 0.00056472728052447312 0 -0.0036519151567997689 0.00059323740306117454 0 -0.003461126855512879 0.00057849078968840004 0 -0.0035209025203901591 0.00059437580531094929 0 -0.0034542355328223955 0.00060176378190562115 0 -0.0035525376352650655 0.00055553490877408669 0 -0.003461126855512879 0.00057849078968840004 0 -0.0035209025203901591 0.00059437580531094929 0 -0.003461126855512879 0.00057849078968840004 0 -0.0034542355328223955 0.00060176378190562115 0 -0.0033994956979554046 0.00058358882835699716 0 -0.0034542355328223955 0.00060176378190562115 0 -0.0034380515817954618 0.00060443037747345775 0 -0.0033994956979554046 0.00058358882835699716 0 -0.0034320615701535348 0.00060567874287576515 0 -0.0034380515817954618 0.00060443037747345775 0 -0.0033994956979554046 0.00058358882835699716 0 -0.0034320615701535348 0.00060567874287576515 0 -0.00341634112346132 0.00061173698395599046 0 -0.0033994956979554046 0.00058358882835699716 0 -0.00341634112346132 0.00061173698395599046 0 -0.0033020967916279199 0.00058524599163381518 0 -0.0033994956979554046 0.00058358882835699716 0 -0.0033020967916279199 0.00058524599163381518 0 -0.0034484568948977296 0.00055319474552749371 0 -0.0033994956979554046 0.00058358882835699716 0 -0.0034484568948977296 0.00055319474552749371 0 -0.003461126855512879 0.00057849078968840004 0 -0.0033994956979554046 0.00058358882835699716 0 -0.0036949202711130968 -0.0010376413061413386 0 -0.0037141492853346564 -0.001021220248941366 0 -0.0036857998130102221 -0.0010455245205781797 0 -0.0037294630460246105 -0.0003379610002552282 0 -0.0037953156841058896 -0.00028240388902226788 0 -0.0034210950280758657 -0.0010440238499795421 0 -0.0037294630460246105 -0.0003379610002552282 0 -0.0032374483347809837 -0.00089429425985478159 0 -0.0033870485362480999 -0.00093430885621468543 0 -0.0033133027681892693 -0.00086802341746202881 0 -0.0033870485362480999 -0.00093430885621468543 0 -0.0033133027681892693 -0.00086802341746202881 0 -0.0033546114463669174 -0.00082521951391387367 0 -0.0036799630288306541 -0.0010009107733108796 0 -0.0036949202711130968 -0.0010376413061413386 0 -0.0037141492853346564 -0.001021220248941366 0 -0.0037294630460246105 -0.0003379610002552282 0 -0.0038269157820937658 0.00044508545445665429 0 -0.0039083587383390061 0.00031572602459772631 0 -0.0040281319428484902 0.00039732077916146148 0 -0.0038327800754593693 0.00043179374608374603 0 -0.0039083587383390061 0.00031572602459772631 0 -0.0040281319428484902 0.00039732077916146148 0 -0.0039763680171286449 0.00017919921899225456 0 -0.0037294630460246105 -0.0003379610002552282 0 -0.0036736955543637279 -0.00032853131850169243 0 -0.0038632608458328953 0.00035327773399972042 0 -0.0037620278597743067 0.00037151957652632956 0 -0.0037879176332718365 0.00048160801025441842 0 -0.0038632608458328953 0.00035327773399972042 0 -0.0037879176332718365 0.00048160801025441842 0 -0.0038911902438356449 0.00047170706138068924 0 -0.0037620278597743067 0.00037151957652632956 0 -0.0037114215972632791 0.00044726016924659807 0 -0.0037879176332718365 0.00048160801025441842 0 -0.0038327800754593693 0.00043179374608374603 0 -0.0036283177773108063 0.00046508445346491812 0 -0.0037953280281917815 0.0002542948284473968 0 -0.0039083587383390061 0.00031572602459772631 0 -0.0038327800754593693 0.00043179374608374603 0 -0.0037953280281917815 0.0002542948284473968 0 -0.0036283177773108063 0.00046508445346491812 0 -0.0036036806260364629 0.00025318482513728017 0 -0.0037953280281917815 0.0002542948284473968 0 -0.003581242962217593 0.00049444812143022827 0 -0.0036325482610392586 0.0003972314262280772 0 -0.0037114215972632791 0.00044726016924659807 0 -0.0038269157820937658 0.00044508545445665429 0 -0.0036246260558633983 0.00043167163033468604 0 -0.0037620278597743067 0.00037151957652632956 0 -0.0036325482610392586 0.0003972314262280772 0 -0.0037114215972632791 0.00044726016924659807 0 -0.003581242962217593 0.00049444812143022827 0 -0.0037114215972632791 0.00044726016924659807 0 -0.0036735625411081448 0.00051318578426692862 0 -0.0035525376352650655 0.00055553490877408669 0 -0.0036735625411081448 0.00051318578426692862 0 -0.0036579282489105423 0.00056472728052447312 0 -0.0036579282489105423 0.00056472728052447312 0 -0.0037261667897787918 0.00054116086331666279 0 -0.0037124033196415727 0.00059091980313380932 0 -0.0036735625411081448 0.00051318578426692862 0 -0.0036579282489105423 0.00056472728052447312 0 -0.0037261667897787918 0.00054116086331666279 0 -0.0037261667897787918 0.00054116086331666279 0 -0.0037964637782068322 0.00056245801528455298 0 -0.0037124033196415727 0.00059091980313380932 0 -0.0037261667897787918 0.00054116086331666279 0 -0.0037964637782068322 0.00056245801528455298 0 -0.0037879176332718365 0.00048160801025441842 0 -0.0036735625411081448 0.00051318578426692862 0 -0.0037261667897787918 0.00054116086331666279 0 -0.0037879176332718365 0.00048160801025441842 0 -0.0037114215972632791 0.00044726016924659807 0 -0.0036735625411081448 0.00051318578426692862 0 -0.0037879176332718365 0.00048160801025441842 0 -0.0037879176332718365 0.00048160801025441842 0 -0.0038556978857820674 0.00054275664813465741 0 -0.0038911902438356449 0.00047170706138068924 0 -0.0037964637782068322 0.00056245801528455298 0 -0.0038556978857820674 0.00054275664813465741 0 -0.0038683459764051395 0.00058434630344014304 0 -0.0037964637782068322 0.00056245801528455298 0 -0.0037879176332718365 0.00048160801025441842 0 -0.0038556978857820674 0.00054275664813465741 0 -0.0037426058721993513 -0.0010177486673393341 0 -0.0036768080394290396 -0.00097519715025200931 0 -0.0036857998130102221 -0.0010455245205781797 0 -0.0038556978857820674 0.00054275664813465741 0 -0.0039010238029559439 0.00056578118341667541 0 -0.0038911902438356449 0.00047170706138068924 0 -0.0037881867472347544 -0.00020526416711958207 0 -0.0037953156841058896 -0.00028240388902226788 0 -0.0038650644472773047 0.00057739201735380018 0 -0.0039001191986379291 0.0005871163199897999 0 -0.003937609081282413 0.00052331212162297954 0 -0.003791197082794729 -0.00011683084158931617 0 -0.0037881867472347544 -0.00020526416711958207 0 -0.0039010238029559439 0.00056578118341667541 0 -0.0039001191986379291 0.0005871163199897999 0 -0.0038683459764051395 0.00058434630344014304 0 -0.0038650644472773047 0.00057739201735380018 0 -0.0039010238029559439 0.00056578118341667541 0 -0.0039001191986379291 0.0005871163199897999 0 -0.0038556978857820674 0.00054275664813465741 0 -0.0039010238029559439 0.00056578118341667541 0 -0.0038683459764051395 0.00058434630344014304 0 -0.0038683459764051395 0.00058434630344014304 0 -0.0039235344958263012 0.00060310507219542959 0 -0.0038088046941333405 0.00060542989281947763 0 -0.0039001191986379291 0.0005871163199897999 0 -0.0039235344958263012 0.00060310507219542959 0 -0.003937609081282413 0.00052331212162297954 0 -0.0039001191986379291 0.0005871163199897999 0 -0.0038683459764051395 0.00058434630344014304 0 -0.0039235344958263012 0.00060310507219542959 0 -0.0039235344958263012 0.00060310507219542959 0 -0.0038242641654614952 0.00064448413049874047 0 -0.0038088046941333405 0.00060542989281947763 0 -0.0038242641654614952 0.00064448413049874047 0 -0.0038088046941333405 0.00060542989281947763 0 -0.0037137075546374966 0.00064958663082350396 0 -0.0037964637782068322 0.00056245801528455298 0 -0.0038683459764051395 0.00058434630344014304 0 -0.0038088046941333405 0.00060542989281947763 0 -0.0037964637782068322 0.00056245801528455298 0 -0.0038088046941333405 0.00060542989281947763 0 -0.0037124033196415727 0.00059091980313380932 0 -0.0037124033196415727 0.00059091980313380932 0 -0.0037137075546374966 0.00064958663082350396 0 -0.0036377342513301248 0.0006274112909909023 0 -0.0038088046941333405 0.00060542989281947763 0 -0.0037124033196415727 0.00059091980313380932 0 -0.0037137075546374966 0.00064958663082350396 0 -0.0037124033196415727 0.00059091980313380932 0 -0.0036519151567997689 0.00059323740306117454 0 -0.0036377342513301248 0.0006274112909909023 0 -0.0036579282489105423 0.00056472728052447312 0 -0.0037124033196415727 0.00059091980313380932 0 -0.0036519151567997689 0.00059323740306117454 0 -0.0038242641654614952 0.00064448413049874047 0 -0.0037137075546374966 0.00064958663082350396 0 -0.0037628630111702283 0.00070494377272981902 0 -0.0037137075546374966 0.00064958663082350396 0 -0.0036935825010067816 0.00072034831856776288 0 -0.0037628630111702283 0.00070494377272981902 0 -0.0037137075546374966 0.00064958663082350396 0 -0.0036935825010067816 0.00072034831856776288 0 -0.0036524911245954944 0.0006737166985610381 0 -0.0036935825010067816 0.00072034831856776288 0 -0.0037628630111702283 0.00070494377272981902 0 -0.0037557435580318852 0.00076956709711016385 0 -0.0036935825010067816 0.00072034831856776288 0 -0.0037557435580318852 0.00076956709711016385 0 -0.0036943814642168473 0.00079637100463907508 0 -0.006806983916228455 0.0013387460196743123 0 -0.0071098612746870928 0.0012478936580828299 0 -0.0070548611340712072 0.0010086784761615829 0 -0.007084146769043999 0.001447884981575468 0 -0.006806983916228455 0.0013387460196743123 0 -0.0071098612746870928 0.0012478936580828299 0 -0.0037557435580318852 0.00076956709711016385 0 -0.0036943814642168473 0.00079637100463907508 0 -0.0037949033705390587 0.0008371057163339005 0 -0.0053427064581886962 0.0010807882628174042 0 -0.0059679541730848192 0.000851226594713011 0 -0.0086797938489739657 0.0010214472729325745 0 -0.0089299782721357947 0.0011266939249830522 0 -0.0087597808096395152 0.0011703085936676074 0 -0.0059679541730848192 0.000851226594713011 0 -0.0065228412461879924 0.00089902548347268508 0 -0.0059679541730848192 0.000851226594713011 0 -0.0038614438471205564 0.00080547324938554858 0 -0.0039104230356306188 0.00053729774770047819 0 -0.0039845697718330535 0.00050937122463379019 0 -0.0040226238193888609 0.0006825468048809745 0 -0.0039104230356306188 0.00053729774770047819 0 -0.0039845697718330535 0.00050937122463379019 0 -0.0039814119998726107 0.00050237076982330724 0 -0.0039845697718330535 0.00050937122463379019 0 -0.0039814119998726107 0.00050237076982330724 0 -0.0039746338218064657 0.00051281213823585513 0 -0.0037628630111702283 0.00070494377272981902 0 -0.0037557435580318852 0.00076956709711016385 0 -0.003846079211485662 0.00075153024288947387 0 -0.0037557435580318852 0.00076956709711016385 0 -0.0037949033705390587 0.0008371057163339005 0 -0.003846079211485662 0.00075153024288947387 0 -0.0038242641654614952 0.00064448413049874047 0 -0.0037628630111702283 0.00070494377272981902 0 -0.003846079211485662 0.00075153024288947387 0 -0.0039235344958263012 0.00060310507219542959 0 -0.0038242641654614952 0.00064448413049874047 0 -0.003846079211485662 0.00075153024288947387 0 -0.0039551880186729964 0.0005683020732924547 0 -0.0038614438471205564 0.00080547324938554858 0 -0.0039235344958263012 0.00060310507219542959 0 -0.0039746338218064657 0.00051281213823585513 0 -0.003937609081282413 0.00052331212162297954 0 -0.0039235344958263012 0.00060310507219542959 0 -0.0039814119998726107 0.00050237076982330724 0 -0.0039746338218064657 0.00051281213823585513 0 -0.0039746338218064657 0.00051281213823585513 0 -0.0040426782430931047 0.00046171228907366136 0 -0.003937609081282413 0.00052331212162297954 0 -0.0039845697718330535 0.00050937122463379019 0 -0.0039746338218064657 0.00051281213823585513 0 -0.0040426782430931047 0.00046171228907366136 0 -0.0039845697718330535 0.00050937122463379019 0 -0.0040426782430931047 0.00046171228907366136 0 -0.0040226238193888609 0.0006825468048809745 0 -0.0040426782430931047 0.00046171228907366136 0 -0.004647771399845793 0.00075318531090079618 0 -0.0040226238193888609 0.0006825468048809745 0 -0.0040426782430931047 0.00046171228907366136 0 -0.0039183982439995307 0.00039584282185576799 0 -0.0038891735269908608 0.00020834631441464906 0 -0.0042206527347068883 0.00052781021298934359 0 -0.0038551458588926826 0.00034818461114142981 0 -0.0038627533890525723 0.00026902013672373327 0 -0.0039183982439995307 0.00039584282185576799 0 -0.0038891735269908608 0.00020834631441464906 0 -0.0038043993736362491 0.00039118047219065152 0 -0.0039183982439995307 0.00039584282185576799 0 -0.003937609081282413 0.00052331212162297954 0 -0.0038043993736362491 0.00039118047219065152 0 -0.0038650644472773047 0.00057739201735380018 0 -0.003937609081282413 0.00052331212162297954 0 -0.0040426782430931047 0.00046171228907366136 0 -0.0039183982439995307 0.00039584282185576799 0 -0.003937609081282413 0.00052331212162297954 0 -0.0034824393356434639 0.00065306973494843907 0 -0.0035321632115750813 0.00065901128596475658 0 -0.0035265395298006911 0.00068542248714324055 0 -0.0034824393356434639 0.00065306973494843907 0 -0.003497314444882018 0.0006276608016537881 0 -0.0035321632115750813 0.00065901128596475658 0 -0.0034524736859061545 0.00062327491836223429 0 -0.0034824393356434639 0.00065306973494843907 0 -0.0034658023027098412 0.00065480418891539834 0 -0.0034524736859061545 0.00062327491836223429 0 -0.0034824393356434639 0.00065306973494843907 0 -0.0034615590184784214 0.00062071414994243539 0 -0.0034542355328223955 0.00060176378190562115 0 -0.0034380515817954618 0.00060443037747345775 0 -0.0034615590184784214 0.00062071414994243539 0 -0.0034524736859061545 0.00062327491836223429 0 -0.0034380515817954618 0.00060443037747345775 0 -0.0034615590184784214 0.00062071414994243539 0 -0.0035209025203901591 0.00059437580531094929 0 -0.0034542355328223955 0.00060176378190562115 0 -0.003497314444882018 0.0006276608016537881 0 -0.0034542355328223955 0.00060176378190562115 0 -0.0034615590184784214 0.00062071414994243539 0 -0.003497314444882018 0.0006276608016537881 0 -0.0034824393356434639 0.00065306973494843907 0 -0.0034615590184784214 0.00062071414994243539 0 -0.003497314444882018 0.0006276608016537881 0 -0.0035209025203901591 0.00059437580531094929 0 -0.003497314444882018 0.0006276608016537881 0 -0.0035605446686995694 0.00062708101225996164 0 -0.003497314444882018 0.0006276608016537881 0 -0.0035605446686995694 0.00062708101225996164 0 -0.0035321632115750813 0.00065901128596475658 0 -0.0035992677610460306 0.00059152548440063741 0 -0.0036519151567997689 0.00059323740306117454 0 -0.0036377342513301248 0.0006274112909909023 0 -0.0035992677610460306 0.00059152548440063741 0 -0.0035209025203901591 0.00059437580531094929 0 -0.0035605446686995694 0.00062708101225996164 0 -0.0035992677610460306 0.00059152548440063741 0 -0.0035605446686995694 0.00062708101225996164 0 -0.0036377342513301248 0.0006274112909909023 0 -0.0037137075546374966 0.00064958663082350396 0 -0.0036377342513301248 0.0006274112909909023 0 -0.0036524911245954944 0.0006737166985610381 0 -0.0036377342513301248 0.0006274112909909023 0 -0.0035924233143223919 0.0006706019342197885 0 -0.0036524911245954944 0.0006737166985610381 0 -0.0035605446686995694 0.00062708101225996164 0 -0.0036377342513301248 0.0006274112909909023 0 -0.0035924233143223919 0.0006706019342197885 0 -0.0035924233143223919 0.0006706019342197885 0 -0.0035934428010287451 0.00071000220052069049 0 -0.0036322034218977438 0.000711668625896573 0 -0.0035924233143223919 0.0006706019342197885 0 -0.0036524911245954944 0.0006737166985610381 0 -0.0036322034218977438 0.000711668625896573 0 -0.0035605446686995694 0.00062708101225996164 0 -0.0035924233143223919 0.0006706019342197885 0 -0.0035321632115750813 0.00065901128596475658 0 -0.0035924233143223919 0.0006706019342197885 0 -0.0035612685831694349 0.00068895833765659825 0 -0.0035934428010287451 0.00071000220052069049 0 -0.0035924233143223919 0.0006706019342197885 0 -0.0035321632115750813 0.00065901128596475658 0 -0.0035612685831694349 0.00068895833765659825 0 -0.0035321632115750813 0.00065901128596475658 0 -0.0035612685831694349 0.00068895833765659825 0 -0.0035265395298006911 0.00068542248714324055 0 -0.0051224637094222899 0.00084579783067652238 0 -0.0046671017910788802 0.0007144893784496746 0 -0.0035265395298006911 0.00068542248714324055 0 -0.003566210669358175 0.00072153314818133548 0 -0.0035037975437747838 0.00070298443135519964 0 -0.0035612685831694349 0.00068895833765659825 0 -0.0035265395298006911 0.00068542248714324055 0 -0.003566210669358175 0.00072153314818133548 0 -0.0051224637094222899 0.00084579783067652238 0 -0.0068396077432578894 0.0010872059184663671 0 -0.005828827368338175 0.00075964527489380388 0 -0.0059149019022370422 0.00072354468791636136 0 -0.0059427116100768188 0.00075349315184273797 0 -0.003566210669358175 0.00072153314818133548 0 -0.0036136789373818548 0.00075484203318494875 0 -0.0035037975437747838 0.00070298443135519964 0 -0.003566210669358175 0.00072153314818133548 0 -0.0035934428010287451 0.00071000220052069049 0 -0.0036082483876637862 0.00075082656974928053 0 -0.0035612685831694349 0.00068895833765659825 0 -0.003566210669358175 0.00072153314818133548 0 -0.0035934428010287451 0.00071000220052069049 0 -0.0034889340504901311 0.00051259341461171973 0 -0.0051224637094222899 0.00084579783067652238 0 -0.0036935825010067816 0.00072034831856776288 0 -0.0036524911245954944 0.0006737166985610381 0 -0.0036322034218977438 0.000711668625896573 0 -0.0036935825010067816 0.00072034831856776288 0 -0.0036322034218977438 0.000711668625896573 0 -0.0036559366544491488 0.00074559545215860097 0 -0.0036325896865507202 0.00073586306764399599 0 -0.0036322034218977438 0.000711668625896573 0 -0.0036559366544491488 0.00074559545215860097 0 -0.0035934428010287451 0.00071000220052069049 0 -0.0036171587218382043 0.00073183006855490659 0 -0.0036082483876637862 0.00075082656974928053 0 -0.0036325896865507202 0.00073586306764399599 0 -0.0036322034218977438 0.000711668625896573 0 -0.0036171587218382043 0.00073183006855490659 0 -0.0035934428010287451 0.00071000220052069049 0 -0.0036322034218977438 0.000711668625896573 0 -0.0036171587218382043 0.00073183006855490659 0 -0.0036943814642168473 0.00079637100463907508 0 -0.0036184127246227577 0.00075002716182919859 0 -0.0036185620444398763 0.00075837495730183874 0 -0.0073571668389979172 0.001557384692258283 0 -0.0073249450503121297 0.0015441825138702056 0 -0.0074048247852770465 0.0014028157780878012 0 -0.0036171587218382043 0.00073183006855490659 0 -0.0036184127246227577 0.00075002716182919859 0 -0.0036082483876637862 0.00075082656974928053 0 -0.0049216480173605893 0.00089581115506305901 0 -0.0051224637094222899 0.00084579783067652238 0 -0.0036184127246227577 0.00075002716182919859 0 -0.0036136036781118535 0.00075429681896228612 0 -0.0036185620444398763 0.00075837495730183874 0 -0.0051224637094222899 0.00084579783067652238 0 -0.0053155210220572303 0.00096463108867314129 0 -0.0036325896865507202 0.00073586306764399599 0 -0.0036184127246227577 0.00075002716182919859 0 -0.0036559366544491488 0.00074559545215860097 0 -0.0036325896865507202 0.00073586306764399599 0 -0.0036171587218382043 0.00073183006855490659 0 -0.0036184127246227577 0.00075002716182919859 0 -0.0036943814642168473 0.00079637100463907508 0 -0.0036184127246227577 0.00075002716182919859 0 -0.0036559366544491488 0.00074559545215860097 0 -0.0053427064581886962 0.0010807882628174042 0 -0.0053155210220572303 0.00096463108867314129 0 -0.0036935825010067816 0.00072034831856776288 0 -0.0036943814642168473 0.00079637100463907508 0 -0.0036559366544491488 0.00074559545215860097 0 -0.007084146769043999 0.001447884981575468 0 -0.0072467150572885298 0.0013735430341075693 0 -0.0071098612746870928 0.0012478936580828299 0 -0.007084146769043999 0.001447884981575468 0 -0.0073249450503121297 0.0015441825138702056 0 -0.0072467150572885298 0.0013735430341075693 0 -0.0072467150572885298 0.0013735430341075693 0 -0.0073086039612092826 0.001227815438767107 0 -0.0074048247852770465 0.0014028157780878012 0 -0.0073249450503121297 0.0015441825138702056 0 -0.0072467150572885298 0.0013735430341075693 0 -0.0074048247852770465 0.0014028157780878012 0 -0.0073086039612092826 0.001227815438767107 0 -0.0071098612746870928 0.0012478936580828299 0 -0.0071958744716757216 0.0011026865911896101 0 -0.0072467150572885298 0.0013735430341075693 0 -0.0073086039612092826 0.001227815438767107 0 -0.0071098612746870928 0.0012478936580828299 0 -0.0073571668389979172 0.001557384692258283 0 -0.0076842780380436508 0.0014383465062280127 0 -0.0074048247852770465 0.0014028157780878012 0 -0.0076842780380436508 0.0014383465062280127 0 -0.0074830576987501137 0.0012304910167165962 0 -0.0076423336143925241 0.0011254566289061461 0 -0.0076842780380436508 0.0014383465062280127 0 -0.0074048247852770465 0.0014028157780878012 0 -0.0074830576987501137 0.0012304910167165962 0 -0.0073086039612092826 0.001227815438767107 0 -0.0074048247852770465 0.0014028157780878012 0 -0.0074830576987501137 0.0012304910167165962 0 -0.0059149019022370422 0.00072354468791636136 0 -0.0059646309364342776 0.00071150458349537079 0 -0.0059480650849320213 0.00073156261212119439 0 -0.0068396077432578894 0.0010872059184663671 0 -0.0083727987354219845 0.0013223468033599591 0 -0.0076842780380436508 0.0014383465062280127 0 -0.0079854663951026677 0.0013254013618883523 0 -0.0076423336143925241 0.0011254566289061461 0 -0.0083727987354219845 0.0013223468033599591 0 -0.0087733824321078041 0.0016907703119261074 0 -0.0059646309364342776 0.00071150458349537079 0 -0.0059480650849320213 0.00073156261212119439 0 -0.0059715149986148755 0.00073439131081704282 0 -0.0059149019022370422 0.00072354468791636136 0 -0.0059480650849320213 0.00073156261212119439 0 -0.0059427116100768188 0.00075349315184273797 0 -0.0034824393356434639 0.00065306973494843907 0 -0.0035265395298006911 0.00068542248714324055 0 -0.0035037975437747838 0.00070298443135519964 0 -0.0059480650849320213 0.00073156261212119439 0 -0.0059427116100768188 0.00075349315184273797 0 -0.0059715149986148755 0.00073439131081704282 0 -0.0034824393356434639 0.00065306973494843907 0 -0.0035037975437747838 0.00070298443135519964 0 -0.0034658023027098412 0.00065480418891539834 0 -0.0046671017910788802 0.0007144893784496746 0 -0.004545226273777782 0.00070426089036028014 0 -0.0059427116100768188 0.00075349315184273797 0 -0.0059572243377249302 0.00072395009920133704 0 -0.0059715149986148755 0.00073439131081704282 0 -0.0059572243377249302 0.00072395009920133704 0 -0.0059595282491399244 0.00073906367672362438 0 -0.0059715149986148755 0.00073439131081704282 0 -0.0089328460897172939 0.00086817042433940869 0 -0.0085872961658025829 0.00065694577483083375 0 -0.0084034822007637879 0.0010791695195472562 0 -0.0070151017161231627 0.00057792453113209746 0 -0.0058695028190738152 0.00058425880565113678 0 -0.0083727987354219845 0.0013223468033599591 0 -0.0097382078356746636 0.0016608457328135676 0 -0.0083727987354219845 0.0013223468033599591 0 -0.0070151017161231627 0.00057792453113209746 0 -0.0059646309364342776 0.00071150458349537079 0 -0.0060296008730676472 0.00073856161228254139 0 -0.0059715149986148755 0.00073439131081704282 0 -0.010263849828847997 0.0024104332741297068 0 -0.010311226487882864 0.0020967831257790179 0 -0.010654587874717916 0.0022694079767750313 0 -0.010311226487882864 0.0020967831257790179 0 -0.010654587874717916 0.0022694079767750313 0 -0.01057920459052296 0.0020004200262349241 0 -0.010311226487882864 0.0020967831257790179 0 -0.010407210018681449 0.0017752529301177809 0 -0.01057920459052296 0.0020004200262349241 0 -0.011113178614124551 0.0021382127962798403 0 -0.011223049033194581 0.002266651186241087 0 -0.012377304118419117 0.0024591769195913236 0 -0.011956724048828712 0.0026004201797402656 0 -0.012078992832591088 0.0022571813489367632 0 -0.010311226487882864 0.0020967831257790179 0 -0.010407210018681449 0.0017752529301177809 0 -0.010016723536510092 0.0019004434440136118 0 -0.010311226487882864 0.0020967831257790179 0 -0.010016723536510092 0.0019004434440136118 0 -0.0099469126161297067 0.0022211451585724537 0 -0.010263849828847997 0.0024104332741297068 0 -0.010311226487882864 0.0020967831257790179 0 -0.0099469126161297067 0.0022211451585724537 0 -0.010016723536510092 0.0019004434440136118 0 -0.0099469126161297067 0.0022211451585724537 0 -0.0096259650659849018 0.0020296357657100671 0 -0.0074830576987501137 0.0012304910167165962 0 -0.0076423336143925241 0.0011254566289061461 0 -0.0073094881682628857 0.00092641893292119942 0 -0.0087733824321078041 0.0016907703119261074 0 -0.009470955641058855 0.0016964863387424005 0 -0.0073086039612092826 0.001227815438767107 0 -0.0071958744716757216 0.0011026865911896101 0 -0.0073094881682628857 0.00092641893292119942 0 -0.0073086039612092826 0.001227815438767107 0 -0.0074830576987501137 0.0012304910167165962 0 -0.0073094881682628857 0.00092641893292119942 0 -0.0071098612746870928 0.0012478936580828299 0 -0.0071958744716757216 0.0011026865911896101 0 -0.0070548611340712072 0.0010086784761615829 0 -0.0071958744716757216 0.0011026865911896101 0 -0.0073094881682628857 0.00092641893292119942 0 -0.0070548611340712072 0.0010086784761615829 0 -0.0099077996815954798 0.0015684094861149395 0 -0.009598226090472145 0.0013853047608833201 0 -0.0093271234130088889 0.0017699617248855748 0 -0.009470955641058855 0.0016964863387424005 0 -0.0085608338313079135 0.0014762208910501248 0 -0.011522724764423122 0.0027413184796490474 0 -0.011383714982895058 0.0026578803875854469 0 -0.011665692660571644 0.0022889413119185991 0 -0.012905670136972133 0.00220182368098176 0 -0.012997680975151697 0.0021029627585112368 0 -0.012899714126963323 0.0021132101702333655 0 -0.010831971412958075 0.0018500880818459254 0 -0.012483163359043013 0.00222469000998377 0 -0.009470955641058855 0.0016964863387424005 0 -0.010831971412958075 0.0018500880818459254 0 -0.011223049033194581 0.002266651186241087 0 -0.009470955641058855 0.0016964863387424005 0 -0.011956724048828712 0.0026004201797402656 0 -0.011522724764423122 0.0027413184796490474 0 -0.011665692660571644 0.0022889413119185991 0 -0.011665692660571644 0.0022889413119185991 0 -0.011941412807849876 0.0019313935589793984 0 -0.012078992832591088 0.0022571813489367632 0 -0.011956724048828712 0.0026004201797402656 0 -0.011665692660571644 0.0022889413119185991 0 -0.012078992832591088 0.0022571813489367632 0 -0.012997680975151697 0.0021029627585112368 0 -0.012941988175734446 0.0020230419476924607 0 -0.012899714126963323 0.0021132101702333655 0 -0.012941988175734446 0.0020230419476924607 0 -0.01308375894278797 0.0019993782375815946 0 -0.012973920235001426 0.0019261517743136552 0 -0.012483163359043013 0.00222469000998377 0 -0.012396770595685119 0.0019330156789063805 0 -0.012997680975151697 0.0021029627585112368 0 -0.012941988175734446 0.0020230419476924607 0 -0.01308375894278797 0.0019993782375815946 0 -0.011941412807849876 0.0019313935589793984 0 -0.01249764303048757 0.0019453966034934918 0 -0.012078992832591088 0.0022571813489367632 0 -0.012377304118419117 0.0024591769195913236 0 -0.01249764303048757 0.0019453966034934918 0 -0.012078992832591088 0.0022571813489367632 0 -0.0091299976675036434 0.0014135741210098251 0 -0.0091902053007749934 0.0013509526111013851 0 -0.0091178592725383069 0.0013278080831759511 0 -0.0092062899863805843 0.0014357842161496692 0 -0.0091299976675036434 0.0014135741210098251 0 -0.0091902053007749934 0.0013509526111013851 0 -0.0091299976675036434 0.0014135741210098251 0 -0.0090570967353217104 0.0013711786674113207 0 -0.0090646458864964211 0.001459792754291543 0 -0.0091299976675036434 0.0014135741210098251 0 -0.0090570967353217104 0.0013711786674113207 0 -0.0091178592725383069 0.0013278080831759511 0 -0.0090570967353217104 0.0013711786674113207 0 -0.0090495336062489315 0.0013047339792584265 0 -0.0091178592725383069 0.0013278080831759511 0 -0.0090495336062489315 0.0013047339792584265 0 -0.0091040555886920897 0.0012697419518017349 0 -0.0091178592725383069 0.0013278080831759511 0 -0.0091040555886920897 0.0012697419518017349 0 -0.0091178592725383069 0.0013278080831759511 0 -0.0091594905687196158 0.0012844085354871769 0 -0.0092293061473544147 0.0012992642981605644 0 -0.0091902053007749934 0.0013509526111013851 0 -0.0091594905687196158 0.0012844085354871769 0 -0.0091902053007749934 0.0013509526111013851 0 -0.0091178592725383069 0.0013278080831759511 0 -0.0091594905687196158 0.0012844085354871769 0 -0.006999275958451354 0.0011433614122999133 0 -0.0065228412461879924 0.00089902548347268508 0 -0.0091498190339130182 0.0011977297461191725 0 -0.0090441625606985255 0.0012349446152904653 0 -0.0089299782721357947 0.0011266939249830522 0 -0.0046090985837703808 0.00095606695885927832 0 -0.004647771399845793 0.00075318531090079618 0 -0.0040226238193888609 0.0006825468048809745 0 -0.0091040555886920897 0.0012697419518017349 0 -0.0091594905687196158 0.0012844085354871769 0 -0.0091498190339130182 0.0011977297461191725 0 -0.0092293061473544147 0.0012992642981605644 0 -0.0091594905687196158 0.0012844085354871769 0 -0.0091498190339130182 0.0011977297461191725 0 -0.0091040555886920897 0.0012697419518017349 0 -0.0091498190339130182 0.0011977297461191725 0 -0.0090441625606985255 0.0012349446152904653 0 -0.0090495336062489315 0.0013047339792584265 0 -0.0091040555886920897 0.0012697419518017349 0 -0.0090441625606985255 0.0012349446152904653 0 -0.0090441625606985255 0.0012349446152904653 0 -0.0089584290638467408 0.0012653913168444166 0 -0.0089299782721357947 0.0011266939249830522 0 -0.0090495336062489315 0.0013047339792584265 0 -0.0090441625606985255 0.0012349446152904653 0 -0.0089584290638467408 0.0012653913168444166 0 -0.0089584290638467408 0.0012653913168444166 0 -0.0089299782721357947 0.0011266939249830522 0 -0.0088577627911484592 0.0012441174685255605 0 -0.0089584290638467408 0.0012653913168444166 0 -0.0088861829345724605 0.0013470876372971034 0 -0.0088577627911484592 0.0012441174685255605 0 -0.0089584290638467408 0.0012653913168444166 0 -0.0088861829345724605 0.0013470876372971034 0 -0.0089860712713963151 0.0013313591505863941 0 -0.0090495336062489315 0.0013047339792584265 0 -0.0089584290638467408 0.0012653913168444166 0 -0.0089860712713963151 0.0013313591505863941 0 -0.0090570967353217104 0.0013711786674113207 0 -0.0090495336062489315 0.0013047339792584265 0 -0.0089860712713963151 0.0013313591505863941 0 -0.0090570967353217104 0.0013711786674113207 0 -0.0089973742054397961 0.0013907456558798167 0 -0.0090646458864964211 0.001459792754291543 0 -0.0090570967353217104 0.0013711786674113207 0 -0.0089860712713963151 0.0013313591505863941 0 -0.0089973742054397961 0.0013907456558798167 0 -0.0088861829345724605 0.0013470876372971034 0 -0.0089860712713963151 0.0013313591505863941 0 -0.0089973742054397961 0.0013907456558798167 0 -0.0088861829345724605 0.0013470876372971034 0 -0.0089973742054397961 0.0013907456558798167 0 -0.0089573590039173454 0.0014336113147668762 0 -0.0088861829345724605 0.0013470876372971034 0 -0.0088577627911484592 0.0012441174685255605 0 -0.0087355513453371836 0.0012912183375322743 0 -0.0088861829345724605 0.0013470876372971034 0 -0.0087556026535935711 0.0014177709086659615 0 -0.0089573590039173454 0.0014336113147668762 0 -0.0088861829345724605 0.0013470876372971034 0 -0.0087556026535935711 0.0014177709086659615 0 -0.0087355513453371836 0.0012912183375322743 0 -0.0089299782721357947 0.0011266939249830522 0 -0.0088577627911484592 0.0012441174685255605 0 -0.0087597808096395152 0.0011703085936676074 0 -0.0088577627911484592 0.0012441174685255605 0 -0.0087597808096395152 0.0011703085936676074 0 -0.0087355513453371836 0.0012912183375322743 0 -0.0087597808096395152 0.0011703085936676074 0 -0.0086439284045558302 0.001242704619796397 0 -0.0087355513453371836 0.0012912183375322743 0 -0.0086797938489739657 0.0010214472729325745 0 -0.0087597808096395152 0.0011703085936676074 0 -0.0085073943511747574 0.001259291087120228 0 -0.0059679541730848192 0.000851226594713011 0 -0.0085608338313079135 0.0014762208910501248 0 -0.0086035317815953225 0.0013127535816141438 0 -0.0086439284045558302 0.001242704619796397 0 -0.0087355513453371836 0.0012912183375322743 0 -0.0087716940131849913 0.001157945977956923 0 -0.0085608338313079135 0.0014762208910501248 0 -0.010831971412958075 0.0018500880818459254 0 -0.0085608338313079135 0.0014762208910501248 0 -0.012905670136972133 0.00220182368098176 0 -0.012811017274938018 0.0021420429970121775 0 -0.012899714126963323 0.0021132101702333655 0 -0.0086035317815953225 0.0013127535816141438 0 -0.0087556026535935711 0.0014177709086659615 0 -0.0087355513453371836 0.0012912183375322743 0 -0.010831971412958075 0.0018500880818459254 0 -0.010788488759253621 0.0017774101270733652 0 -0.012941988175734446 0.0020230419476924607 0 -0.012899714126963323 0.0021132101702333655 0 -0.012824433288368586 0.0020599377650699006 0 -0.012811017274938018 0.0021420429970121775 0 -0.012899714126963323 0.0021132101702333655 0 -0.012824433288368586 0.0020599377650699006 0 -0.012941988175734446 0.0020230419476924607 0 -0.012824433288368586 0.0020599377650699006 0 -0.01286807575017577 0.0019378935404730032 0 -0.012797097355476909 0.0019835597067786245 0 -0.012824433288368586 0.0020599377650699006 0 -0.01286807575017577 0.0019378935404730032 0 -0.012797097355476909 0.0019835597067786245 0 -0.01274803755361884 0.0020373551826849152 0 -0.012735664846575262 0.0019676968982786781 0 -0.01274803755361884 0.0020373551826849152 0 -0.012761696872784441 0.0020852851909473331 0 -0.012712765766194513 0.0020660530245280692 0 -0.012797097355476909 0.0019835597067786245 0 -0.01274803755361884 0.0020373551826849152 0 -0.012824433288368586 0.0020599377650699006 0 -0.01274803755361884 0.0020373551826849152 0 -0.012761696872784441 0.0020852851909473331 0 -0.012824433288368586 0.0020599377650699006 0 -0.012811017274938018 0.0021420429970121775 0 -0.012761696872784441 0.0020852851909473331 0 -0.012706034012915856 0.0021068762984815036 0 -0.0087556026535935711 0.0014177709086659615 0 -0.0089573590039173454 0.0014336113147668762 0 -0.0089485074120194304 0.0015421722612198438 0 -0.012811017274938018 0.0021420429970121775 0 -0.012761696872784441 0.0020852851909473331 0 -0.012824433288368586 0.0020599377650699006 0 -0.010788488759253621 0.0017774101270733652 0 -0.010703689392862112 0.0017873756695426326 0 -0.0089573590039173454 0.0014336113147668762 0 -0.0090045296479824219 0.0014878534904489186 0 -0.0089485074120194304 0.0015421722612198438 0 -0.0089973742054397961 0.0013907456558798167 0 -0.0089573590039173454 0.0014336113147668762 0 -0.0090045296479824219 0.0014878534904489186 0 -0.0089973742054397961 0.0013907456558798167 0 -0.0090045296479824219 0.0014878534904489186 0 -0.0090646458864964211 0.001459792754291543 0 -0.0090045296479824219 0.0014878534904489186 0 -0.0090675061069287657 0.0015355907971180099 0 -0.0090646458864964211 0.001459792754291543 0 -0.0090045296479824219 0.0014878534904489186 0 -0.0089485074120194304 0.0015421722612198438 0 -0.0090675061069287657 0.0015355907971180099 0 -0.012652395807516632 0.0020785071160119174 0 -0.012706034012915856 0.0021068762984815036 0 -0.012712765766194513 0.0020660530245280692 0 -0.012761696872784441 0.0020852851909473331 0 -0.012706034012915856 0.0021068762984815036 0 -0.012712765766194513 0.0020660530245280692 0 -0.012652395807516632 0.0020785071160119174 0 -0.012676556451726093 0.0020210905183627248 0 -0.012518909955384431 0.0020567789132425371 0 -0.012652395807516632 0.0020785071160119174 0 -0.012712765766194513 0.0020660530245280692 0 -0.012676556451726093 0.0020210905183627248 0 -0.01274803755361884 0.0020373551826849152 0 -0.012712765766194513 0.0020660530245280692 0 -0.012676556451726093 0.0020210905183627248 0 -0.010703689392862112 0.0017873756695426326 0 -0.01149221774335085 0.001870809452601885 0 -0.012652395807516632 0.0020785071160119174 0 -0.012706034012915856 0.0021068762984815036 0 -0.012457880569066238 0.0020426994480415399 0 -0.01274803755361884 0.0020373551826849152 0 -0.012735664846575262 0.0019676968982786781 0 -0.012676556451726093 0.0020210905183627248 0 -0.012735664846575262 0.0019676968982786781 0 -0.012676556451726093 0.0020210905183627248 0 -0.012646880961389729 0.0019449765452123186 0 -0.012676556451726093 0.0020210905183627248 0 -0.012518909955384431 0.0020567789132425371 0 -0.012646880961389729 0.0019449765452123186 0 -0.012917836719571717 0.002227039501851723 0 -0.01149221774335085 0.001870809452601885 0 -0.012518909955384431 0.0020567789132425371 0 -0.012491048068172158 0.0019152518276827218 0 -0.012646880961389729 0.0019449765452123186 0 -0.012323891063939505 0.0019816959616737267 0 -0.012518909955384431 0.0020567789132425371 0 -0.012491048068172158 0.0019152518276827218 0 -0.0092457993274425582 0.0015850332586715397 0 -0.0091590009428391076 0.0016688141549938882 0 -0.0091621152767783591 0.0015204342076444927 0 -0.0089485074120194304 0.0015421722612198438 0 -0.0091590009428391076 0.0016688141549938882 0 -0.0090675061069287657 0.0015355907971180099 0 -0.0091590009428391076 0.0016688141549938882 0 -0.0091621152767783591 0.0015204342076444927 0 -0.0090675061069287657 0.0015355907971180099 0 -0.0091621152767783591 0.0015204342076444927 0 -0.0090675061069287657 0.0015355907971180099 0 -0.0090646458864964211 0.001459792754291543 0 -0.0091299976675036434 0.0014135741210098251 0 -0.0091621152767783591 0.0015204342076444927 0 -0.0090646458864964211 0.001459792754291543 0 -0.0092062899863805843 0.0014357842161496692 0 -0.0091299976675036434 0.0014135741210098251 0 -0.0091621152767783591 0.0015204342076444927 0 -0.012387681429177422 0.0016808184250031604 0 -0.012528962040649285 0.001776687866849796 0 -0.012585779557057451 0.0015522988192922514 0 -0.012381073191260175 0.001852775388740246 0 -0.012528962040649285 0.001776687866849796 0 -0.012491048068172158 0.0019152518276827218 0 -0.012528962040649285 0.001776687866849796 0 -0.012491048068172158 0.0019152518276827218 0 -0.012646880961389729 0.0019449765452123186 0 -0.012735664846575262 0.0019676968982786781 0 -0.012646880961389729 0.0019449765452123186 0 -0.0128029849929342 0.0018440905796663577 0 -0.012528962040649285 0.001776687866849796 0 -0.012646880961389729 0.0019449765452123186 0 -0.0128029849929342 0.0018440905796663577 0 -0.012528962040649285 0.001776687866849796 0 -0.0128029849929342 0.0018440905796663577 0 -0.012585779557057451 0.0015522988192922514 0 -0.0128029849929342 0.0018440905796663577 0 -0.013222217980419716 0.0018343029953579346 0 -0.013090339979850702 0.0015572554399094995 0 -0.012813007125143182 0.0018533326702607521 0 -0.013078381843364611 0.0018416272847415368 0 -0.0128029849929342 0.0018440905796663577 0 -0.01286807575017577 0.0019378935404730032 0 -0.012875949850148897 0.0018599736517935881 0 -0.012797097355476909 0.0019835597067786245 0 -0.0128029849929342 0.0018440905796663577 0 -0.01286807575017577 0.0019378935404730032 0 -0.012797097355476909 0.0019835597067786245 0 -0.012735664846575262 0.0019676968982786781 0 -0.0128029849929342 0.0018440905796663577 0 -0.01286807575017577 0.0019378935404730032 0 -0.012875949850148897 0.0018599736517935881 0 -0.012973920235001426 0.0019261517743136552 0 -0.013222217980419716 0.0018343029953579346 0 -0.013090339979850702 0.0015572554399094995 0 -0.013435752907504917 0.0015699159567630319 0 -0.0128029849929342 0.0018440905796663577 0 -0.013090339979850702 0.0015572554399094995 0 -0.01281716287455058 0.0013592827299196092 0 -0.01328545475378947 0.0011939106090596218 0 -0.013090339979850702 0.0015572554399094995 0 -0.013435752907504917 0.0015699159567630319 0 -0.01328545475378947 0.0011939106090596218 0 -0.01281716287455058 0.0013592827299196092 0 -0.012905454395977617 0.00099544772102825576 0 -0.01328545475378947 0.0011939106090596218 0 -0.013090339979850702 0.0015572554399094995 0 -0.01281716287455058 0.0013592827299196092 0 -0.0128029849929342 0.0018440905796663577 0 -0.01281716287455058 0.0013592827299196092 0 -0.012585779557057451 0.0015522988192922514 0 -0.01281716287455058 0.0013592827299196092 0 -0.01251570574701207 0.0012531578498664422 0 -0.012647752507622807 0.0010264844125082388 0 -0.012405642217980611 0.0014225410755093718 0 -0.012387681429177422 0.0016808184250031604 0 -0.012585779557057451 0.0015522988192922514 0 -0.01281716287455058 0.0013592827299196092 0 -0.01251570574701207 0.0012531578498664422 0 -0.012585779557057451 0.0015522988192922514 0 -0.012405642217980611 0.0014225410755093718 0 -0.01251570574701207 0.0012531578498664422 0 -0.012585779557057451 0.0015522988192922514 0 -0.013114048991764696 0.0018221997566561898 0 -0.013169915194173015 0.0018959022199590582 0 -0.013071455232698963 0.0019080972417728095 0 -0.015074545578082939 0.0029466111324897406 0 -0.014996525503778528 0.0028695484177155245 0 -0.015034591242960848 0.0028066235390674077 0 -0.014303795491931028 0.0023879968530260863 0 -0.013650501444082128 0.0022499073633468658 0 -0.014404798601534652 0.0023047922786928981 0 -0.013650501444082128 0.0022499073633468658 0 -0.015140373212680533 0.0029331961426536848 0 -0.015074545578082939 0.0029466111324897406 0 -0.015034591242960848 0.0028066235390674077 0 -0.014404798601534652 0.0023047922786928981 0 -0.017015325726466468 0.0029294441470880672 0 -0.018449353052933066 0.0032626014832401028 0 -0.018647487027185376 0.0033232119816107367 0 -0.018580937656109825 0.0032426989004653473 0 -0.017015325726466468 0.0029294441470880672 0 -0.018910634926516387 0.003163882798079015 0 -0.015074545578082939 0.0029466111324897406 0 -0.01487079698537235 0.0028298958514624763 0 -0.014996525503778528 0.0028695484177155245 0 -0.017015325726466468 0.0029294441470880672 0 -0.016711708532081621 0.0030805295435339252 0 -0.01487079698537235 0.0028298958514624763 0 -0.014996525503778528 0.0028695484177155245 0 -0.015033840763610095 0.0028083811763250145 0 -0.013775086814816082 0.0023100816949913746 0 -0.013650501444082128 0.0022499073633468658 0 -0.014872584771840976 0.0026160049715117061 0 -0.01487079698537235 0.0028298958514624763 0 -0.015033840763610095 0.0028083811763250145 0 -0.012396770595685119 0.0019330156789063805 0 -0.013650501444082128 0.0022499073633468658 0 -0.011941412807849876 0.0019313935589793984 0 -0.01249764303048757 0.0019453966034934918 0 -0.012208130017349016 0.0015788550256377743 0 -0.01308375894278797 0.0019993782375815946 0 -0.013169915194173015 0.0018959022199590582 0 -0.013071455232698963 0.0019080972417728095 0 -0.01308375894278797 0.0019993782375815946 0 -0.013071455232698963 0.0019080972417728095 0 -0.012973920235001426 0.0019261517743136552 0 -0.013071455232698963 0.0019080972417728095 0 -0.012973920235001426 0.0019261517743136552 0 -0.012987414549555319 0.0018415744667213533 0 -0.012941988175734446 0.0020230419476924607 0 -0.01286807575017577 0.0019378935404730032 0 -0.012973920235001426 0.0019261517743136552 0 -0.013222217980419716 0.0018343029953579346 0 -0.013634255317561177 0.0017982915665687806 0 -0.013435752907504917 0.0015699159567630319 0 -0.012875949850148897 0.0018599736517935881 0 -0.012973920235001426 0.0019261517743136552 0 -0.012987414549555319 0.0018415744667213533 0 -0.013078381843364611 0.0018416272847415368 0 -0.013162413216968608 0.001795938357416698 0 -0.014404798601534652 0.0023047922786928981 0 -0.013162413216968608 0.001795938357416698 0 -0.013114048991764696 0.0018221997566561898 0 -0.013071455232698963 0.0019080972417728095 0 -0.012987414549555319 0.0018415744667213533 0 -0.014074109158736341 0.0017405424526223089 0 -0.013634255317561177 0.0017982915665687806 0 -0.013755783007581956 0.0016139827768794214 0 -0.014404798601534652 0.0023047922786928981 0 -0.015841217816731378 0.0023964612176541381 0 -0.018249825698498732 0.0034006428205094206 0 -0.017813404023298916 0.0032568585687410569 0 -0.017922655445703123 0.0032383666038194449 0 -0.014074109158736341 0.0017405424526223089 0 -0.013915606874150404 0.0015300548722636145 0 -0.013755783007581956 0.0016139827768794214 0 -0.013915606874150404 0.0015300548722636145 0 -0.013755783007581956 0.0016139827768794214 0 -0.013737989748114077 0.0014307119889662831 0 -0.017813404023298916 0.0032568585687410569 0 -0.017922655445703123 0.0032383666038194449 0 -0.017449106711558145 0.0031121848006279893 0 -0.015841217816731378 0.0023964612176541381 0 -0.01560023722638243 0.0022724668095415379 0 -0.013634255317561177 0.0017982915665687806 0 -0.013755783007581956 0.0016139827768794214 0 -0.013435752907504917 0.0015699159567630319 0 -0.01328545475378947 0.0011939106090596218 0 -0.013737989748114077 0.0014307119889662831 0 -0.013435752907504917 0.0015699159567630319 0 -0.013755783007581956 0.0016139827768794214 0 -0.013737989748114077 0.0014307119889662831 0 -0.013435752907504917 0.0015699159567630319 0 -0.016622141340225344 0.0026855440599094908 0 -0.017449106711558145 0.0031121848006279893 0 -0.017370256329013591 0.0025641255997361566 0 -0.014932458069030272 0.0019293022877352019 0 -0.01560023722638243 0.0022724668095415379 0 -0.017922655445703123 0.0032383666038194449 0 -0.017449106711558145 0.0031121848006279893 0 -0.017370256329013591 0.0025641255997361566 0 -0.017893052505042414 0.0032182656853628187 0 -0.017508129419403395 0.0026774158509757849 0 -0.017922655445703123 0.0032383666038194449 0 -0.017634164256423866 0.0027711552903788191 0 -0.018051695624869735 0.0028797063275738987 0 -0.018364567681204952 0.0027402311262372503 0 -0.018051695624869735 0.0028797063275738987 0 -0.018322724146769141 0.0030849774409625144 0 -0.018249825698498732 0.0034006428205094206 0 -0.018322724146769141 0.0030849774409625144 0 -0.018580937656109825 0.0032426989004653473 0 -0.017922655445703123 0.0032383666038194449 0 -0.018051695624869735 0.0028797063275738987 0 -0.018322724146769141 0.0030849774409625144 0 -0.015767632350508098 0.0026045019877535391 0 -0.015941813522825095 0.0025734372608966576 0 -0.015577127556324868 0.0023577696707125311 0 -0.018249825698498732 0.0034006428205094206 0 -0.017922655445703123 0.0032383666038194449 0 -0.018322724146769141 0.0030849774409625144 0 -0.017015325726466468 0.0029294441470880672 0 -0.015841217816731378 0.0023964612176541381 0 -0.018322724146769141 0.0030849774409625144 0 -0.018580937656109825 0.0032426989004653473 0 -0.01867388867110966 0.0029821810389615041 0 -0.018364567681204952 0.0027402311262372503 0 -0.018322724146769141 0.0030849774409625144 0 -0.01867388867110966 0.0029821810389615041 0 -0.018364567681204952 0.0027402311262372503 0 -0.01867388867110966 0.0029821810389615041 0 -0.01862957611990684 0.0026003487950602036 0 -0.019583579614210665 0.0030207464267192163 0 -0.019409297785914503 0.0027837821645070883 0 -0.01867388867110966 0.0029821810389615041 0 -0.018897201665062216 0.0030933385918898884 0 -0.018867174064701987 0.0027124630533860716 0 -0.01867388867110966 0.0029821810389615041 0 -0.018867174064701987 0.0027124630533860716 0 -0.01862957611990684 0.0026003487950602036 0 -0.020281526951912064 0.002980499704193733 0 -0.019976929318865654 0.0028932844652091458 0 -0.020174799721308003 0.0028276734522124569 0 -0.020281526951912064 0.002980499704193733 0 -0.020368840070210639 0.0030081038227975192 0 -0.020174799721308003 0.0028276734522124569 0 -0.018897201665062216 0.0030933385918898884 0 -0.018858918792499284 0.0032764950874346202 0 -0.018767752470426044 0.0032325162159456268 0 -0.019583579614210665 0.0030207464267192163 0 -0.019545927927032001 0.002958307544120577 0 -0.018580937656109825 0.0032426989004653473 0 -0.01867388867110966 0.0029821810389615041 0 -0.018767752470426044 0.0032325162159456268 0 -0.01867388867110966 0.0029821810389615041 0 -0.018897201665062216 0.0030933385918898884 0 -0.018767752470426044 0.0032325162159456268 0 -0.020086720161747999 0.0029496380467570571 0 -0.020368840070210639 0.0030081038227975192 0 -0.020250195582837138 0.0028915535271431181 0 -0.020086720161747999 0.0029496380467570571 0 -0.020368840070210639 0.0030081038227975192 0 -0.019973205453959458 0.0032161637333212429 0 -0.020281526951912064 0.002980499704193733 0 -0.020368840070210639 0.0030081038227975192 0 -0.020250195582837138 0.0028915535271431181 0 -0.020281526951912064 0.002980499704193733 0 -0.020250195582837138 0.0028915535271431181 0 -0.020333119636055639 0.002709921239777978 0 -0.020086720161747999 0.0029496380467570571 0 -0.020250195582837138 0.0028915535271431181 0 -0.020053859261980497 0.0027320222583149122 0 -0.020053859261980497 0.0027320222583149122 0 -0.020333119636055639 0.002709921239777978 0 -0.020065787827105708 0.0025207435204050782 0 -0.020250195582837138 0.0028915535271431181 0 -0.020053859261980497 0.0027320222583149122 0 -0.020333119636055639 0.002709921239777978 0 -0.018858918792499284 0.0032764950874346202 0 -0.018805927723775449 0.0032871961324966023 0 -0.018745552944709389 0.0032825876653870935 0 -0.019545927927032001 0.002958307544120577 0 -0.019729540399761651 0.0028749227328389291 0 -0.020333119636055639 0.002709921239777978 0 -0.020065787827105708 0.0025207435204050782 0 -0.020206442413857741 0.0023567267609615182 0 -0.020065787827105708 0.0025207435204050782 0 -0.020016290634772716 0.0022929806381615648 0 -0.020206442413857741 0.0023567267609615182 0 -0.018647487027185376 0.0033232119816107367 0 -0.018767752470426044 0.0032325162159456268 0 -0.018797678919231699 0.0033214302649273368 0 -0.018647487027185376 0.0033232119816107367 0 -0.018580937656109825 0.0032426989004653473 0 -0.018767752470426044 0.0032325162159456268 0 -0.018858918792499284 0.0032764950874346202 0 -0.018767752470426044 0.0032325162159456268 0 -0.018797678919231699 0.0033214302649273368 0 -0.018858918792499284 0.0032764950874346202 0 -0.018805927723775449 0.0032871961324966023 0 -0.018797678919231699 0.0033214302649273368 0 -0.016711708532081621 0.0030805295435339252 0 -0.016756473414674178 0.0030221569380318356 0 -0.014872584771840976 0.0026160049715117061 0 -0.01487079698537235 0.0028298958514624763 0 -0.014654345788353782 0.002709463161482135 0 -0.014872584771840976 0.0026160049715117061 0 -0.014699511495740926 0.0024154818152354808 0 -0.014608007622975721 0.0025514215658280922 0 -0.013775086814816082 0.0023100816949913746 0 -0.01311518333728731 0.002310963714860234 0 -0.014872584771840976 0.0026160049715117061 0 -0.014654345788353782 0.002709463161482135 0 -0.014608007622975721 0.0025514215658280922 0 -0.011113178614124551 0.0021382127962798403 0 -0.01311518333728731 0.002310963714860234 0 -0.012377304118419117 0.0024591769195913236 0 -0.01249764303048757 0.0019453966034934918 0 -0.012794462846087554 0.0023188266329324252 0 -0.010407210018681449 0.0017752529301177809 0 -0.010815645875522412 0.0016407724054242989 0 -0.010754592188110217 0.0018239452118928912 0 -0.01311518333728731 0.002310963714860234 0 -0.014989812263162807 0.0024925049932484327 0 -0.014699511495740926 0.0024154818152354808 0 -0.014608007622975721 0.0025514215658280922 0 -0.014450200281097603 0.0025292230839559227 0 -0.014240204272283667 0.0025545089990513677 0 -0.014386373854922955 0.002583728223633024 0 -0.014300588762480998 0.0026274461666904855 0 -0.014240204272283667 0.0025545089990513677 0 -0.014450200281097603 0.0025292230839559227 0 -0.014386373854922955 0.002583728223633024 0 -0.01311518333728731 0.002310963714860234 0 -0.011996053841655698 0.0021298839725671917 0 -0.016756473414674178 0.0030221569380318356 0 -0.016462957246173301 0.0028691217289209844 0 -0.014654345788353782 0.002709463161482135 0 -0.014608007622975721 0.0025514215658280922 0 -0.014446828586234828 0.0025638404266528801 0 -0.018805927723775449 0.0032871961324966023 0 -0.018797678919231699 0.0033214302649273368 0 -0.018788962714068012 0.003223132534798159 0 -0.014608007622975721 0.0025514215658280922 0 -0.014446828586234828 0.0025638404266528801 0 -0.014450200281097603 0.0025292230839559227 0 -0.018805927723775449 0.0032871961324966023 0 -0.018788962714068012 0.003223132534798159 0 -0.018745552944709389 0.0032825876653870935 0 -0.016462957246173301 0.0028691217289209844 0 -0.017405457861501179 0.0027040770143018549 0 -0.020016290634772716 0.0022929806381615648 0 -0.020206442413857741 0.0023567267609615182 0 -0.020008482988213866 0.0020007376492563005 0 -0.019729540399761651 0.0028749227328389291 0 -0.017405457861501179 0.0027040770143018549 0 -0.018788962714068012 0.003223132534798159 0 -0.018745552944709389 0.0032825876653870935 0 -0.018594459030050851 0.0030936016814352455 0 -0.014488623796255285 0.0025602587180804147 0 -0.014456363686515683 0.0025568854727882834 0 -0.014451084301013327 0.0026012634428730901 0 -0.014488623796255285 0.0025602587180804147 0 -0.014451084301013327 0.0026012634428730901 0 -0.014491661322315833 0.0025844352319287492 0 -0.014446828586234828 0.0025638404266528801 0 -0.014488623796255285 0.0025602587180804147 0 -0.014456363686515683 0.0025568854727882834 0 -0.014450200281097603 0.0025292230839559227 0 -0.014436608609731501 0.0025673916055169322 0 -0.014386373854922955 0.002583728223633024 0 -0.014450200281097603 0.0025292230839559227 0 -0.014456363686515683 0.0025568854727882834 0 -0.014436608609731501 0.0025673916055169322 0 -0.014446828586234828 0.0025638404266528801 0 -0.014450200281097603 0.0025292230839559227 0 -0.014456363686515683 0.0025568854727882834 0 -0.014456363686515683 0.0025568854727882834 0 -0.014436608609731501 0.0025673916055169322 0 -0.014451084301013327 0.0026012634428730901 0 -0.014436608609731501 0.0025673916055169322 0 -0.014386373854922955 0.002583728223633024 0 -0.014451084301013327 0.0026012634428730901 0 -0.011225752885813572 0.0019170094261769591 0 -0.01115880277112687 0.0019982421156320754 0 -0.010975814529018189 0.0019230053318201102 0 -0.013073555682782439 0.0022783784205141614 0 -0.011996053841655698 0.0021298839725671917 0 -0.014386373854922955 0.002583728223633024 0 -0.014451084301013327 0.0026012634428730901 0 -0.014300588762480998 0.0026274461666904855 0 -0.011225752885813572 0.0019170094261769591 0 -0.01115880277112687 0.0019982421156320754 0 -0.011260389936642891 0.0020206033403995468 0 -0.0089251164909317712 0.0018705783190876577 0 -0.010821759422510197 0.0016991277841303435 0 -0.0072569674918821865 0.0015492949636068437 0 -0.0068186097895942405 0.0013247555697866111 0 -0.0066758635358236821 0.0017847566393199897 0 -0.013073555682782439 0.0022783784205141614 0 -0.012475952667047206 0.0022054269080285932 0 -0.011225752885813572 0.0019170094261769591 0 -0.011260389936642891 0.0020206033403995468 0 -0.011491241972666724 0.0019132314368656342 0 -0.0074744784197610875 0.00095670551322884958 0 -0.0072569674918821865 0.0015492949636068437 0 -0.0070809218691664745 0.0010898327062498971 0 -0.0072569674918821865 0.0015492949636068437 0 -0.0070809218691664745 0.0010898327062498971 0 -0.0068186097895942405 0.0013247555697866111 0 -0.0067377498278516261 0.00089339702402896229 0 -0.0070809218691664745 0.0010898327062498971 0 -0.0068186097895942405 0.0013247555697866111 0 -0.0074744784197610875 0.00095670551322884958 0 -0.0072569674918821865 0.0015492949636068437 0 -0.0078428268669888251 0.0013122966077290152 0 -0.01115880277112687 0.0019982421156320754 0 -0.011260389936642891 0.0020206033403995468 0 -0.01101901108679061 0.0021207539668253637 0 -0.0089251164909317712 0.0018705783190876577 0 -0.0094529017224885981 0.0017057180912895338 0 -0.01115880277112687 0.0019982421156320754 0 -0.011061926066176514 0.0020434670068865284 0 -0.01101901108679061 0.0021207539668253637 0 -0.01101901108679061 0.0021207539668253637 0 -0.010654587874717916 0.0022694079767750313 0 -0.010833758189853058 0.0020164763906025864 0 -0.0094529017224885981 0.0017057180912895338 0 -0.0097382078356746636 0.0016608457328135676 0 -0.0078572062831902111 0.00089071684218661228 0 -0.0078428268669888251 0.0013122966077290152 0 -0.0084034822007637879 0.0010791695195472562 0 -0.011061926066176514 0.0020434670068865284 0 -0.01101901108679061 0.0021207539668253637 0 -0.010833758189853058 0.0020164763906025864 0 -0.010654587874717916 0.0022694079767750313 0 -0.01057920459052296 0.0020004200262349241 0 -0.010833758189853058 0.0020164763906025864 0 -0.01057920459052296 0.0020004200262349241 0 -0.010754592188110217 0.0018239452118928912 0 -0.010833758189853058 0.0020164763906025864 0 -0.010407210018681449 0.0017752529301177809 0 -0.01057920459052296 0.0020004200262349241 0 -0.010754592188110217 0.0018239452118928912 0 -0.010815645875522412 0.0016407724054242989 0 -0.010754592188110217 0.0018239452118928912 0 -0.010976014028077347 0.0018293840729942524 0 -0.010754592188110217 0.0018239452118928912 0 -0.010919608684236144 0.001834592731929261 0 -0.010833758189853058 0.0020164763906025864 0 -0.01115880277112687 0.0019982421156320754 0 -0.011061926066176514 0.0020434670068865284 0 -0.010975814529018189 0.0019230053318201102 0 -0.010673484707362185 0.0019354198753308177 0 -0.011996053841655698 0.0021298839725671917 0 -0.010932152579134146 0.0017884181308579202 0 -0.011996053841655698 0.0021298839725671917 0 -0.011061926066176514 0.0020434670068865284 0 -0.010919608684236144 0.001834592731929261 0 -0.010833758189853058 0.0020164763906025864 0 -0.014139160430891201 0.00089035828805549661 0 -0.014004053996278101 0.0012713824023202615 0 -0.014774871976531202 0.0012815821784160734 0 -0.014139160430891201 0.00089035828805549661 0 -0.014004053996278101 0.0012713824023202615 0 -0.013596618649768922 0.00093610012019952962 0 -0.018767705823960618 0.0020788953466833 0 -0.01832609614002095 0.0021005193861564999 0 -0.018748684941302926 0.0019244201355128211 0 -0.016728414008738292 0.0016880048027283978 0 -0.014962101038280634 0.0014567746959165532 0 -0.014004053996278101 0.0012713824023202615 0 -0.013596618649768922 0.00093610012019952962 0 -0.013248262887448717 0.0012569431493778375 0 -0.018767705823960618 0.0020788953466833 0 -0.018849615714999962 0.0019951088210697064 0 -0.018867287748112162 0.0019425269401486735 0 -0.016728414008738292 0.0016880048027283978 0 -0.015875587633507288 0.0015969061208960212 0 -0.013596618649768922 0.00093610012019952962 0 -0.013506796771962409 0.00051782124805977152 0 -0.013009336119628734 0.00080387921665903963 0 -0.014139160430891201 0.00089035828805549661 0 -0.013596618649768922 0.00093610012019952962 0 -0.013506796771962409 0.00051782124805977152 0 -0.01168607617013104 0.0010454007034559683 0 -0.011856807825512116 0.00098501710742534003 0 -0.0099519681699966889 0.00082281188290232754 0 -0.010068811978739833 0.0014976257091988956 0 -0.010819208063219298 0.0010616902264819251 0 -0.0099519681699966889 0.00082281188290232754 0 -0.010068811978739833 0.0014976257091988956 0 -0.009320087855691354 0.0010370016181083803 0 -0.0067377498278516261 0.00089339702402896229 0 -0.0062918610392826042 0.0012089397689187106 0 -0.0068186097895942405 0.0013247555697866111 0 -0.0062918610392826042 0.0012089397689187106 0 -0.0068186097895942405 0.0013247555697866111 0 -0.0066758635358236821 0.0017847566393199897 0 -0.0083268538240004863 0.0010652049269297751 0 -0.010821759422510197 0.0016991277841303435 0 -0.011260389936642891 0.0020206033403995468 0 -0.011500217486675599 0.0019288905050656821 0 -0.011491241972666724 0.0019132314368656342 0 -0.010819208063219298 0.0010616902264819251 0 -0.011211883892176909 0.0019685704282804916 0 -0.011366391885583147 0.0019083272302719953 0 -0.013164653359768073 0.0018437998928468875 0 -0.01715839793121365 0.001798715890459415 0 -0.013164653359768073 0.0018437998928468875 0 -0.012475952667047206 0.0022054269080285932 0 -0.012703325044463859 0.0015271807992993742 0 -0.011380505776769625 0.0020389475622151799 0 -0.011068535493915781 0.0015297937769770209 0 -0.013164653359768073 0.0018437998928468875 0 -0.010821759422510197 0.0016991277841303435 0 -0.010821759422510197 0.0016991277841303435 0 -0.012475952667047206 0.0022054269080285932 0 -0.010819208063219298 0.0010616902264819251 0 -0.011211883892176909 0.0019685704282804916 0 -0.010844054533250982 0.0019673402637892202 0 -0.01168607617013104 0.0010454007034559683 0 -0.014962101038280634 0.0014567746959165532 0 -0.010068811978739833 0.0014976257091988956 0 -0.010819208063219298 0.0010616902264819251 0 -0.010844054533250982 0.0019673402637892202 0 -0.01422013600307667 0.0018076283928532063 0 -0.015317951136008813 0.001379030645402573 0 -0.016011298810038221 0.001797343041246819 0 -0.013164653359768073 0.0018437998928468875 0 -0.014962101038280634 0.0014567746959165532 0 -0.01715839793121365 0.001798715890459415 0 -0.014962101038280634 0.0014567746959165532 0 -0.019729184590086164 0.0018222906316549034 0 -0.019525549217409455 0.0020647239151782462 0 -0.019376328833256955 0.0019366609117438098 0 -0.01715839793121365 0.001798715890459415 0 -0.019440399197430583 0.001891587103245823 0 -0.019729184590086164 0.0018222906316549034 0 -0.019819310676629804 0.0020179823330510036 0 -0.019685461522651455 0.0020967910272626121 0 -0.018256450497694181 0.0020564971649967866 0 -0.01832609614002095 0.0021005193861564999 0 -0.018748684941302926 0.0019244201355128211 0 -0.019729184590086164 0.0018222906316549034 0 -0.019685461522651455 0.0020967910272626121 0 -0.019525549217409455 0.0020647239151782462 0 -0.017405457861501179 0.0027040770143018549 0 -0.01715839793121365 0.001798715890459415 0 -0.016319415385708195 0.002725906685913596 0 -0.015319594683577282 0.0016865039973810721 0 -0.014896484077825527 0.0018495341794191264 0 -0.020008482988213866 0.0020007376492563005 0 -0.019729184590086164 0.0018222906316549034 0 -0.019819310676629804 0.0020179823330510036 0 -0.017405457861501179 0.0027040770143018549 0 -0.012475952667047206 0.0022054269080285932 0 -0.016319415385708195 0.002725906685913596 0 -0.015319594683577282 0.0016865039973810721 0 -0.015680566284670634 0.0016883446663581742 0 -0.020008482988213866 0.0020007376492563005 0 -0.019819310676629804 0.0020179823330510036 0 -0.019849961734722844 0.0021856779077250388 0 -0.020016290634772716 0.0022929806381615648 0 -0.020008482988213866 0.0020007376492563005 0 -0.019849961734722844 0.0021856779077250388 0 -0.019819310676629804 0.0020179823330510036 0 -0.019849961734722844 0.0021856779077250388 0 -0.019685461522651455 0.0020967910272626121 0 -0.019849961734722844 0.0021856779077250388 0 -0.019675567393381603 0.002307447805713723 0 -0.019898593440435378 0.0023887372100315327 0 -0.020016290634772716 0.0022929806381615648 0 -0.019849961734722844 0.0021856779077250388 0 -0.019898593440435378 0.0023887372100315327 0 -0.019685461522651455 0.0020967910272626121 0 -0.019675567393381603 0.002307447805713723 0 -0.019525549217409455 0.0020647239151782462 0 -0.019849961734722844 0.0021856779077250388 0 -0.019685461522651455 0.0020967910272626121 0 -0.019675567393381603 0.002307447805713723 0 -0.019675567393381603 0.002307447805713723 0 -0.019336776946162995 0.0021286900427086287 0 -0.019525549217409455 0.0020647239151782462 0 -0.019336776946162995 0.0021286900427086287 0 -0.019525549217409455 0.0020647239151782462 0 -0.019376328833256955 0.0019366609117438098 0 -0.018767705823960618 0.0020788953466833 0 -0.018748684941302926 0.0019244201355128211 0 -0.018849615714999962 0.0019951088210697064 0 -0.018748684941302926 0.0019244201355128211 0 -0.018849615714999962 0.0019951088210697064 0 -0.018928737357606706 0.0020658438410427618 0 -0.018849615714999962 0.0019951088210697064 0 -0.018867287748112162 0.0019425269401486735 0 -0.018928737357606706 0.0020658438410427618 0 -0.019336776946162995 0.0021286900427086287 0 -0.019376328833256955 0.0019366609117438098 0 -0.018928737357606706 0.0020658438410427618 0 -0.019440399197430583 0.001891587103245823 0 -0.018764868959800653 0.0020895493500608596 0 -0.019336776946162995 0.0021286900427086287 0 -0.019159030946093905 0.0023147002050803349 0 -0.018928737357606706 0.0020658438410427618 0 -0.019159030946093905 0.0023147002050803349 0 -0.019556406914352519 0.0025185996377489225 0 -0.019121845679016768 0.0025464613419955142 0 -0.019675567393381603 0.002307447805713723 0 -0.019336776946162995 0.0021286900427086287 0 -0.019562417729929931 0.0025568557277044291 0 -0.019351085564199285 0.002147778077321891 0 -0.019557027047959776 0.0025303101869769942 0 -0.019336776946162995 0.0021286900427086287 0 -0.019159030946093905 0.0023147002050803349 0 -0.019556406914352519 0.0025185996377489225 0 -0.019556406914352519 0.0025185996377489225 0 -0.019121845679016768 0.0025464613419955142 0 -0.019432215783392645 0.0028548567371901403 0 -0.020065787827105708 0.0025207435204050782 0 -0.019898593440435378 0.0023887372100315327 0 -0.019843522556365512 0.0025748121910398381 0 -0.019675567393381603 0.002307447805713723 0 -0.019898593440435378 0.0023887372100315327 0 -0.019843522556365512 0.0025748121910398381 0 -0.020065787827105708 0.0025207435204050782 0 -0.020016290634772716 0.0022929806381615648 0 -0.019898593440435378 0.0023887372100315327 0 -0.019675567393381603 0.002307447805713723 0 -0.019562417729929931 0.0025568557277044291 0 -0.019843522556365512 0.0025748121910398381 0 -0.019562417729929931 0.0025568557277044291 0 -0.019843522556365512 0.0025748121910398381 0 -0.019791605048222125 0.0028900871758278444 0 -0.019557027047959776 0.0025303101869769942 0 -0.019781412653657245 0.0028944307425052122 0 -0.020053859261980497 0.0027320222583149122 0 -0.019843522556365512 0.0025748121910398381 0 -0.019791605048222125 0.0028900871758278444 0 -0.020053859261980497 0.0027320222583149122 0 -0.020065787827105708 0.0025207435204050782 0 -0.019843522556365512 0.0025748121910398381 0 -0.020086720161747999 0.0029496380467570571 0 -0.020053859261980497 0.0027320222583149122 0 -0.019791605048222125 0.0028900871758278444 0 -0.019768260850910657 0.0028909644479965689 0 -0.019693187920805651 0.0031413663545459256 0 -0.019432215783392645 0.0028548567371901403 0 -0.019768260850910657 0.0028909644479965689 0 -0.019693187920805651 0.0031413663545459256 0 -0.019973205453959458 0.0032161637333212429 0 -0.020086720161747999 0.0029496380467570571 0 -0.019791605048222125 0.0028900871758278444 0 -0.019973205453959458 0.0032161637333212429 0 -0.019781412653657245 0.0028944307425052122 0 -0.019960707976104358 0.0032041008290213356 0 -0.019121845679016768 0.0025464613419955142 0 -0.019432215783392645 0.0028548567371901403 0 -0.019054676260872185 0.0028534782154017615 0 -0.019432215783392645 0.0028548567371901403 0 -0.019370955004790236 0.0031387280276630593 0 -0.019054676260872185 0.0028534782154017615 0 -0.019556406914352519 0.0025185996377489225 0 -0.019768260850910657 0.0028909644479965689 0 -0.019432215783392645 0.0028548567371901403 0 -0.019693187920805651 0.0031413663545459256 0 -0.019432215783392645 0.0028548567371901403 0 -0.019370955004790236 0.0031387280276630593 0 -0.021922977555313167 0.0029733085242872994 0 -0.021638035630542438 0.0026515748046594019 0 -0.024322090912990327 0.0027839768884637475 0 -0.024256929127798778 0.0024660228923468349 0 -0.024206615897578228 0.0027852024065254423 0 -0.024322090912990327 0.0027839768884637475 0 -0.024265696899961619 0.0028323092064806567 0 -0.024206615897578228 0.0027852024065254423 0 -0.021922977555313167 0.0029733085242872994 0 -0.02157693333972489 0.0031047546612922865 0 -0.024322090912990327 0.0027839768884637475 0 -0.024265696899961619 0.0028323092064806567 0 -0.02439357022765979 0.0028359599042799438 0 -0.019693187920805651 0.0031413663545459256 0 -0.019370955004790236 0.0031387280276630593 0 -0.019662402981019556 0.0034079699902193764 0 -0.02439357022765979 0.0028359599042799438 0 -0.024305029179903726 0.0028751946718851545 0 -0.024393973185526052 0.002890079666357953 0 -0.024265696899961619 0.0028323092064806567 0 -0.02439357022765979 0.0028359599042799438 0 -0.024305029179903726 0.0028751946718851545 0 -0.024305029179903726 0.0028751946718851545 0 -0.024382392540380413 0.0029243894787751639 0 -0.024301372533367942 0.0029120851322262647 0 -0.024305029179903726 0.0028751946718851545 0 -0.024393973185526052 0.002890079666357953 0 -0.024382392540380413 0.0029243894787751639 0 -0.02439357022765979 0.0028359599042799438 0 -0.024393973185526052 0.002890079666357953 0 -0.024436539092585585 0.0028920808994289011 0 -0.024393973185526052 0.002890079666357953 0 -0.02443333660752936 0.0029134866129363656 0 -0.024436539092585585 0.0028920808994289011 0 -0.024393973185526052 0.002890079666357953 0 -0.024382392540380413 0.0029243894787751639 0 -0.02443333660752936 0.0029134866129363656 0 -0.024382392540380413 0.0029243894787751639 0 -0.024455649642504382 0.0029371637077139339 0 -0.024458281851153237 0.002985009298379717 0 -0.024382392540380413 0.0029243894787751639 0 -0.02443333660752936 0.0029134866129363656 0 -0.024455649642504382 0.0029371637077139339 0 -0.024382392540380413 0.0029243894787751639 0 -0.024343365748228117 0.0029598602476568984 0 -0.024301372533367942 0.0029120851322262647 0 -0.024382392540380413 0.0029243894787751639 0 -0.024343365748228117 0.0029598602476568984 0 -0.024458281851153237 0.002985009298379717 0 -0.021401872516731587 0.002149557229854313 0 -0.021000040180902766 0.0020297116687104022 0 -0.02102292772350537 0.0017586345195547924 0 -0.021401872516731587 0.002149557229854313 0 -0.02102292772350537 0.0017586345195547924 0 -0.021006420977851038 0.0015879102962790843 0 -0.033667241253282416 0.00085227183749974982 0 -0.033626633795694194 0.0014278906885279484 0 -0.033134767148831186 0.00073231192128956517 0 -0.025034721081603182 0.0027015404180197721 0 -0.026749708020182221 0.0010157805684241636 0 -0.033667241253282416 0.00085227183749974982 0 -0.033959598430526768 0.0010306903310096521 0 -0.033626633795694194 0.0014278906885279484 0 -0.033667241253282416 0.00085227183749974982 0 -0.033959598430526768 0.0010306903310096521 0 -0.033938370324485323 0.000612506402339393 0 -0.029470300390650895 0.0015177678664853294 0 -0.028573482856488381 0.0017455515675878258 0 -0.024455649642504382 0.0029371637077139339 0 -0.024471451275673017 0.0029234042239108266 0 -0.024470486236172661 0.0029408458158431262 0 -0.02443333660752936 0.0029134866129363656 0 -0.024471451275673017 0.0029234042239108266 0 -0.024436539092585585 0.0028920808994289011 0 -0.02443333660752936 0.0029134866129363656 0 -0.024455649642504382 0.0029371637077139339 0 -0.024471451275673017 0.0029234042239108266 0 -0.029470300390650895 0.0015177678664853294 0 -0.025034721081603182 0.0027015404180197721 0 -0.024471451275673017 0.0029234042239108266 0 -0.024436539092585585 0.0028920808994289011 0 -0.024489387629625523 0.0028906298973418957 0 -0.02439357022765979 0.0028359599042799438 0 -0.024436539092585585 0.0028920808994289011 0 -0.024489387629625523 0.0028906298973418957 0 -0.021401872516731587 0.002149557229854313 0 -0.020916296254635092 0.0026255726817627128 0 -0.020810585591199294 0.0022655964539887844 0 -0.021401872516731587 0.002149557229854313 0 -0.021000040180902766 0.0020297116687104022 0 -0.020810585591199294 0.0022655964539887844 0 -0.025034721081603182 0.0027015404180197721 0 -0.019795266537314778 0.0032788460565809237 0 -0.019914095605358503 0.0034425583174853003 0 -0.019973205453959458 0.0032161637333212429 0 -0.020137447958252671 0.0034030151321583842 0 -0.019950767677374193 0.0036891378259919822 0 -0.019914095605358503 0.0034425583174853003 0 -0.020137447958252671 0.0034030151321583842 0 -0.019662402981019556 0.0034079699902193764 0 -0.019950767677374193 0.0036891378259919822 0 -0.019914095605358503 0.0034425583174853003 0 -0.02157693333972489 0.0031047546612922865 0 -0.025034721081603182 0.0027015404180197721 0 -0.019662402981019556 0.0034079699902193764 0 -0.019914095605358503 0.0034425583174853003 0 -0.019973205453959458 0.0032161637333212429 0 -0.019693187920805651 0.0031413663545459256 0 -0.019662402981019556 0.0034079699902193764 0 -0.019973205453959458 0.0032161637333212429 0 -0.020368840070210639 0.0030081038227975192 0 -0.019973205453959458 0.0032161637333212429 0 -0.020137447958252671 0.0034030151321583842 0 -0.02064475194630503 0.0028509446619493007 0 -0.019795266537314778 0.0032788460565809237 0 -0.020368840070210639 0.0030081038227975192 0 -0.020379637320670444 0.0025811290533567103 0 -0.020174799721308003 0.0028276734522124569 0 -0.020368840070210639 0.0030081038227975192 0 -0.020379637320670444 0.0025811290533567103 0 -0.020916296254635092 0.0026255726817627128 0 -0.020379637320670444 0.0025811290533567103 0 -0.020119033033725767 0.0024603583580966024 0 -0.020423959671887794 0.0022223382190783504 0 -0.020379637320670444 0.0025811290533567103 0 -0.020916296254635092 0.0026255726817627128 0 -0.020810585591199294 0.0022655964539887844 0 -0.019409297785914503 0.0027837821645070883 0 -0.019115099117075787 0.0023050902092776287 0 -0.019976929318865654 0.0028932844652091458 0 -0.019887496548106516 0.0026077671071188272 0 -0.019486688361398767 0.002544582717473474 0 -0.019976929318865654 0.0028932844652091458 0 -0.020174799721308003 0.0028276734522124569 0 -0.019887496548106516 0.0026077671071188272 0 -0.020174799721308003 0.0028276734522124569 0 -0.020119033033725767 0.0024603583580966024 0 -0.019887496548106516 0.0026077671071188272 0 -0.020379637320670444 0.0025811290533567103 0 -0.020174799721308003 0.0028276734522124569 0 -0.020119033033725767 0.0024603583580966024 0 -0.020119033033725767 0.0024603583580966024 0 -0.019887496548106516 0.0026077671071188272 0 -0.019713634661298961 0.0023279657070565171 0 -0.019887496548106516 0.0026077671071188272 0 -0.019713634661298961 0.0023279657070565171 0 -0.019486688361398767 0.002544582717473474 0 -0.019713634661298961 0.0023279657070565171 0 -0.020640607433619132 0.0017544138863348302 0 -0.019954266714692626 0.0012429576494752412 0 -0.020119033033725767 0.0024603583580966024 0 -0.019713634661298961 0.0023279657070565171 0 -0.02008808849234436 0.0021549047902065912 0 -0.019695759611864334 0.0023411131127348789 0 -0.020524431019585222 0.0018706818465326065 0 -0.020119033033725767 0.0024603583580966024 0 -0.02008808849234436 0.0021549047902065912 0 -0.020423959671887794 0.0022223382190783504 0 -0.020524431019585222 0.0018706818465326065 0 -0.020126525541446724 0.001853971142461373 0 -0.020640607433619132 0.0017544138863348302 0 -0.020808183046982596 0.0010402668066225335 0 -0.019954266714692626 0.0012429576494752412 0 -0.020640607433619132 0.0017544138863348302 0 -0.020808183046982596 0.0010402668066225335 0 -0.021517340796360151 0.0012245592667544797 0 -0.020808183046982596 0.0010402668066225335 0 -0.019954266714692626 0.0012429576494752412 0 -0.020439228406808702 0.00039831231233824777 0 -0.019954266714692626 0.0012429576494752412 0 -0.020439228406808702 0.00039831231233824777 0 -0.019385804632393484 0.00064069396595830305 0 -0.021000040180902766 0.0020297116687104022 0 -0.020810585591199294 0.0022655964539887844 0 -0.02076661473876382 0.0019416169955572607 0 -0.02008808849234436 0.0021549047902065912 0 -0.020423959671887794 0.0022223382190783504 0 -0.020481951623183371 0.0018848538136893259 0 -0.020810585591199294 0.0022655964539887844 0 -0.020423959671887794 0.0022223382190783504 0 -0.02076661473876382 0.0019416169955572607 0 -0.020379637320670444 0.0025811290533567103 0 -0.020810585591199294 0.0022655964539887844 0 -0.020423959671887794 0.0022223382190783504 0 -0.020423959671887794 0.0022223382190783504 0 -0.020481951623183371 0.0018848538136893259 0 -0.02076661473876382 0.0019416169955572607 0 -0.021517340796360151 0.0012245592667544797 0 -0.022446183416512961 0.00069035095214261448 0 -0.021463437667581305 0.00060941124425424782 0 -0.020808183046982596 0.0010402668066225335 0 -0.021517340796360151 0.0012245592667544797 0 -0.021463437667581305 0.00060941124425424782 0 -0.020481951623183371 0.0018848538136893259 0 -0.02076661473876382 0.0019416169955572607 0 -0.020999439641102326 0.001574338709601392 0 -0.020126525541446724 0.001853971142461373 0 -0.026749708020182221 0.0010157805684241636 0 -0.021000040180902766 0.0020297116687104022 0 -0.02076661473876382 0.0019416169955572607 0 -0.02102292772350537 0.0017586345195547924 0 -0.02076661473876382 0.0019416169955572607 0 -0.02102292772350537 0.0017586345195547924 0 -0.020999439641102326 0.001574338709601392 0 -0.024541592921375019 0.0010822473022732413 0 -0.026749708020182221 0.0010157805684241636 0 -0.026749708020182221 0.0010157805684241636 0 -0.024573257757442738 -0.00031094026835123609 0 -0.026749708020182221 0.0010157805684241636 0 -0.031206420843504206 -0.00018589509093209876 0 -0.021463437667581305 0.00060941124425424782 0 -0.021678997174765197 -0.00015742325859297132 0 -0.020439228406808702 0.00039831231233824777 0 -0.022446183416512961 0.00069035095214261448 0 -0.021463437667581305 0.00060941124425424782 0 -0.021678997174765197 -0.00015742325859297132 0 -0.02792165287673043 -0.00018143660774920699 0 -0.028334220502606974 -0.0005170309243849653 0 -0.027340381793930026 -0.00091146421631542462 0 -0.024573257757442738 -0.00031094026835123609 0 -0.024281429564968243 -0.00081241551380265616 0 -0.033298929309272043 0.00067923620282262951 0 -0.033281192100004325 8.5236408244889413e-05 0 -0.033612904937775988 0.00017795622977583684 0 -0.028496547445317828 0.00053745327710982968 0 -0.02792165287673043 -0.00018143660774920699 0 -0.028334220502606974 -0.0005170309243849653 0 -0.021678997174765197 -0.00015742325859297132 0 -0.020439228406808702 0.00039831231233824777 0 -0.020246614553114897 -0.00047346794763728991 0 -0.021678997174765197 -0.00015742325859297132 0 -0.020246614553114897 -0.00047346794763728991 0 -0.020963102139563625 -0.00092745196835083532 0 -0.020439228406808702 0.00039831231233824777 0 -0.019385804632393484 0.00064069396595830305 0 -0.019392931528202848 -0.00032747409744528368 0 -0.020808183046982596 0.0010402668066225335 0 -0.021463437667581305 0.00060941124425424782 0 -0.020439228406808702 0.00039831231233824777 0 -0.020439228406808702 0.00039831231233824777 0 -0.020246614553114897 -0.00047346794763728991 0 -0.019392931528202848 -0.00032747409744528368 0 -0.020246614553114897 -0.00047346794763728991 0 -0.020294112437455259 -0.0015917893396898727 0 -0.019633458864174797 -0.0011551108105164406 0 -0.020246614553114897 -0.00047346794763728991 0 -0.020963102139563625 -0.00092745196835083532 0 -0.020294112437455259 -0.0015917893396898727 0 -0.027340381793930026 -0.00091146421631542462 0 -0.026755939295545091 -0.0016463794242872441 0 -0.027163270474242943 -0.0019824151451640626 0 -0.024281429564968243 -0.00081241551380265616 0 -0.022986960496906614 -0.0018418229907887389 0 -0.031206420843504206 -0.00018589509093209876 0 -0.031710444135798779 -0.0014487145550527115 0 -0.033281192100004325 8.5236408244889413e-05 0 -0.033147873183448855 -0.00068297781849817947 0 -0.033896331160351886 -0.00035439095647135579 0 -0.028334220502606974 -0.0005170309243849653 0 -0.027340381793930026 -0.00091146421631542462 0 -0.028162898633415222 -0.0015836895270430465 0 -0.027340381793930026 -0.00091146421631542462 0 -0.028162898633415222 -0.0015836895270430465 0 -0.027163270474242943 -0.0019824151451640626 0 -0.031710444135798779 -0.0014487145550527115 0 -0.030211404636166644 -0.0022617351192819966 0 -0.034097244059816893 -0.0004228739347983411 0 -0.034018965017438917 -0.00039186301211268856 0 -0.033896331160351886 -0.00035439095647135579 0 -0.034097359292016037 -0.00041934006160039257 0 -0.034097244059816893 -0.0004228739347983411 0 -0.034018965017438917 -0.00039186301211268856 0 -0.031710444135798779 -0.0014487145550527115 0 -0.034699965264284337 -2.1341907250598708e-05 0 -0.034097359292016037 -0.00041934006160039257 0 -0.034018965017438917 -0.00039186301211268856 0 -0.034121176320756896 -0.00040358816820567728 0 -0.034018965017438917 -0.00039186301211268856 0 -0.034059118123502936 -0.00039426015837460966 0 -0.034118401540963662 -0.00040762328221727074 0 -0.034018965017438917 -0.00039186301211268856 0 -0.033896331160351886 -0.00035439095647135579 0 -0.034059118123502936 -0.00039426015837460966 0 -0.033281192100004325 8.5236408244889413e-05 0 -0.033896331160351886 -0.00035439095647135579 0 -0.033612904937775988 0.00017795622977583684 0 -0.033896331160351886 -0.00035439095647135579 0 -0.033908032036280247 -7.2218178026371157e-05 0 -0.033612904937775988 0.00017795622977583684 0 -0.033896331160351886 -0.00035439095647135579 0 -0.033908032036280247 -7.2218178026371157e-05 0 -0.034193985904723154 -0.00025008278915903732 0 -0.033908032036280247 -7.2218178026371157e-05 0 -0.034193985904723154 -0.00025008278915903732 0 -0.033944270457234214 0.0002260759231514631 0 -0.034059118123502936 -0.00039426015837460966 0 -0.034193985904723154 -0.00025008278915903732 0 -0.034136927017277545 -0.00043201837872585281 0 -0.033896331160351886 -0.00035439095647135579 0 -0.034059118123502936 -0.00039426015837460966 0 -0.034193985904723154 -0.00025008278915903732 0 -0.032697225884234772 0.00016829553269382991 0 -0.032599002010663763 0.00025665521979531503 0 -0.032635849104832922 4.8639658679351797e-05 0 -0.033584101781546437 -6.6491475558223061e-05 0 -0.033322166828466837 -0.00017712719646020399 0 -0.032697225884234772 0.00016829553269382991 0 -0.032796617388573972 9.5503922849456775e-05 0 -0.032871180505445102 0.00020195552660998335 0 -0.032697225884234772 0.00016829553269382991 0 -0.032747911847481583 0.00035625456395766835 0 -0.032871180505445102 0.00020195552660998335 0 -0.031258629962249082 -0.00010063774835090337 0 -0.032556346601534336 -0.00030818177934705053 0 -0.032697225884234772 0.00016829553269382991 0 -0.032599002010663763 0.00025665521979531503 0 -0.032747911847481583 0.00035625456395766835 0 -0.032599002010663763 0.00025665521979531503 0 -0.032747911847481583 0.00035625456395766835 0 -0.032562876736552504 0.00050805552003100566 0 -0.032747911847481583 0.00035625456395766835 0 -0.032598589875729271 0.00053198754998630686 0 -0.032562876736552504 0.00050805552003100566 0 -0.033584101781546437 -6.6491475558223061e-05 0 -0.032092049527736151 0.00080324550561983047 0 -0.031258629962249082 -0.00010063774835090337 0 -0.029050752164894392 0.00064937586247849086 0 -0.029513074462351945 -0.00033471976027929176 0 -0.029655370191615391 3.237979046612815e-05 0 -0.029117392872676642 0.00018770277035699506 0 -0.029708834219771257 -0.00026870413087070005 0 -0.029513074462351945 -0.00033471976027929176 0 -0.029655370191615391 3.237979046612815e-05 0 -0.029708834219771257 -0.00026870413087070005 0 -0.029513074462351945 -0.00033471976027929176 0 -0.030012993320127079 -0.00053331584693014215 0 -0.029626837640884793 0.00047055606098609986 0 -0.029655370191615391 3.237979046612815e-05 0 -0.029921447158880687 0.00028405161666058643 0 -0.026661139947429253 0.0017818519558022892 0 -0.029050752164894392 0.00064937586247849086 0 -0.029626837640884793 0.00047055606098609986 0 -0.029655370191615391 3.237979046612815e-05 0 -0.029117392872676642 0.00018770277035699506 0 -0.032092049527736151 0.00080324550561983047 0 -0.028573482856488381 0.0017455515675878258 0 -0.030413234519338288 0.00071766732902284105 0 -0.029913671970617936 0.00042909433974478784 0 -0.029926342537191716 0.0013450661941217933 0 -0.029050752164894392 0.00064937586247849086 0 -0.032092049527736151 0.00080324550561983047 0 -0.024455649642504382 0.0029371637077139339 0 -0.024458281851153237 0.002985009298379717 0 -0.024469726827054946 0.0029629023869086253 0 -0.029050752164894392 0.00064937586247849086 0 -0.028573482856488381 0.0017455515675878258 0 -0.026932876064990334 0.0027666973192585508 0 -0.028573482856488381 0.0017455515675878258 0 -0.034233365416061833 0.00043379972625142441 0 -0.034234772311855517 0.00066041535570881757 0 -0.033938370324485323 0.000612506402339393 0 -0.033959598430526768 0.0010306903310096521 0 -0.034234772311855517 0.00066041535570881757 0 -0.033938370324485323 0.000612506402339393 0 -0.034233365416061833 0.00043379972625142441 0 -0.033938370324485323 0.000612506402339393 0 -0.033944270457234214 0.0002260759231514631 0 -0.033938370324485323 0.000612506402339393 0 -0.033564937923038579 0.0005227474050635265 0 -0.033944270457234214 0.0002260759231514631 0 -0.033667241253282416 0.00085227183749974982 0 -0.033938370324485323 0.000612506402339393 0 -0.033564937923038579 0.0005227474050635265 0 -0.033298929309272043 0.00067923620282262951 0 -0.033564937923038579 0.0005227474050635265 0 -0.033612904937775988 0.00017795622977583684 0 -0.033667241253282416 0.00085227183749974982 0 -0.033134767148831186 0.00073231192128956517 0 -0.033564937923038579 0.0005227474050635265 0 -0.026749708020182221 0.0010157805684241636 0 -0.034418883633280897 -0.00063029852823601878 0 -0.033564937923038579 0.0005227474050635265 0 -0.033612904937775988 0.00017795622977583684 0 -0.033944270457234214 0.0002260759231514631 0 -0.033908032036280247 -7.2218178026371157e-05 0 -0.033612904937775988 0.00017795622977583684 0 -0.033944270457234214 0.0002260759231514631 0 -0.034193985904723154 -0.00025008278915903732 0 -0.034205395233473795 0.00038497605354499465 0 -0.033944270457234214 0.0002260759231514631 0 -0.032092049527736151 0.00080324550561983047 0 -0.034323628604736395 0.00060750757882353605 0 -0.012913431811140666 0.00086538758009460518 0 -0.013292828467707775 0.00079233897199059398 0 -0.012821557117359612 0.00085576196639879283 0 -0.013554328160363867 0.00085920398311587994 0 -0.013146687790292386 0.00051835925947121126 0 -0.012821557117359612 0.00085576196639879283 0 -0.013032996675642389 0.00073834396328182933 0 -0.012946790310633402 0.00091154001941621231 0 -0.013554328160363867 0.00085920398311587994 0 -0.013146687790292386 0.00051835925947121126 0 -0.013782906275708811 0.00053828817502760595 0 -0.013317339572406451 -0.0001062114482109761 0 -0.013109651748378838 0.00029903575837497568 0 -0.013476118323467946 -0.00016866171953904059 0 -0.015553514833139841 0.0012652885481730717 0 -0.016043327004453455 0.0011684425994423306 0 -0.015959382144612195 0.00064734402178054883 0 -0.014406495916508421 0.00073053979557407037 0 -0.014768704474134829 0.00041429135933271816 0 -0.013317339572406451 -0.0001062114482109761 0 -0.013109651748378838 0.00029903575837497568 0 -0.012756030559016477 0.0003544861021459963 0 -0.013820398736975355 0.00053164614528833148 0 -0.012762987391253349 0.0006011882269566811 0 -0.013292828467707775 0.00079233897199059398 0 -0.013820398736975355 0.00053164614528833148 0 -0.013554328160363867 0.00085920398311587994 0 -0.014334220680171678 0.00072525006430296897 0 -0.013782906275708811 0.00053828817502760595 0 -0.013032996675642389 0.00073834396328182933 0 -0.013277500823208064 0.00063762225210361827 0 -0.012946790310633402 0.00091154001941621231 0 -0.015553514833139841 0.0012652885481730717 0 -0.015736586997203934 0.0017273124821843258 0 -0.016043327004453455 0.0011684425994423306 0 -0.015553514833139841 0.0012652885481730717 0 -0.015128737690221101 0.0018448706674262911 0 -0.015736586997203934 0.0017273124821843258 0 -0.012756030559016477 0.0003544861021459963 0 -0.012754851764482765 0.00073091044089322588 0 -0.012675838439216864 0.00067905291515293681 0 -0.013109651748378838 0.00029903575837497568 0 -0.012756030559016477 0.0003544861021459963 0 -0.012754851764482765 0.00073091044089322588 0 -0.014406495916508421 0.00073053979557407037 0 -0.013355672589206887 0.0012268522732713446 0 -0.012485208872141938 0.001005537733240058 0 -0.012532968865687296 0.00080122621204569366 0 -0.012741413054861433 0.00072373251159000163 0 -0.012418923849008008 0.0010010958847023312 0 -0.013355672589206887 0.0012268522732713446 0 -0.012532968865687296 0.00080122621204569366 0 -0.012741413054861433 0.00072373251159000163 0 -0.012675838439216864 0.00067905291515293681 0 -0.013355672589206887 0.0012268522732713446 0 -0.01304576012593656 0.0010189250818642792 0 -0.012403011099640237 0.0010223178603840693 0 -0.01251570574701207 0.0012531578498664422 0 -0.012647752507622807 0.0010264844125082388 0 -0.012403011099640237 0.0010223178603840693 0 -0.012561415502275146 0.00080200990761414954 0 -0.012647752507622807 0.0010264844125082388 0 -0.012561415502275146 0.00080200990761414954 0 -0.012647752507622807 0.0010264844125082388 0 -0.012905454395977617 0.00099544772102825576 0 -0.01281716287455058 0.0013592827299196092 0 -0.012647752507622807 0.0010264844125082388 0 -0.012905454395977617 0.00099544772102825576 0 -0.013355672589206887 0.0012268522732713446 0 -0.014496360316901265 0.0016730671813949965 0 -0.015128737690221101 0.0018448706674262911 0 -0.015881976506311249 0.0022817731337760254 0 -0.015736586997203934 0.0017273124821843258 0 -0.015881976506311249 0.0022817731337760254 0 -0.015736586997203934 0.0017273124821843258 0 -0.016315061173024604 0.0018264913899556088 0 -0.016622141340225344 0.0026855440599094908 0 -0.015881976506311249 0.0022817731337760254 0 -0.016315061173024604 0.0018264913899556088 0 -0.014932458069030272 0.0019293022877352019 0 -0.014496360316901265 0.0016730671813949965 0 -0.016622141340225344 0.0026855440599094908 0 -0.016315061173024604 0.0018264913899556088 0 -0.016926125146459331 0.0019081122201710355 0 -0.016315061173024604 0.0018264913899556088 0 -0.016562302696323881 0.001279417254983344 0 -0.016926125146459331 0.0019081122201710355 0 -0.016592740017036131 0.0013193669035214061 0 -0.017029880627558565 0.0020182072196378476 0 -0.015736586997203934 0.0017273124821843258 0 -0.016315061173024604 0.0018264913899556088 0 -0.016043327004453455 0.0011684425994423306 0 -0.016315061173024604 0.0018264913899556088 0 -0.016562302696323881 0.001279417254983344 0 -0.016043327004453455 0.0011684425994423306 0 -0.016562302696323881 0.001279417254983344 0 -0.016043327004453455 0.0011684425994423306 0 -0.01643648688978994 0.00082586896427358969 0 -0.016043327004453455 0.0011684425994423306 0 -0.01643648688978994 0.00082586896427358969 0 -0.015959382144612195 0.00064734402178054883 0 -0.013820398736975355 0.00053164614528833148 0 -0.014768704474134829 0.00041429135933271816 0 -0.016562302696323881 0.001279417254983344 0 -0.01643648688978994 0.00082586896427358969 0 -0.016968319879518089 0.00073345348950385576 0 -0.016562302696323881 0.001279417254983344 0 -0.016968319879518089 0.00073345348950385576 0 -0.017608442768561168 0.00092966863035203069 0 -0.017612842698903536 0.0016275238683412291 0 -0.018029735979723863 0.002085319245812602 0 -0.018697786869671076 0.0014838881694282699 0 -0.017608442768561168 0.00092966863035203069 0 -0.017612842698903536 0.0016275238683412291 0 -0.018697786869671076 0.0014838881694282699 0 -0.016562302696323881 0.001279417254983344 0 -0.017612842698903536 0.0016275238683412291 0 -0.017146308742078675 0.0021677017610226912 0 -0.016562302696323881 0.001279417254983344 0 -0.017608442768561168 0.00092966863035203069 0 -0.017612842698903536 0.0016275238683412291 0 -0.017634164256423866 0.0027711552903788191 0 -0.017146308742078675 0.0021677017610226912 0 -0.017982596286338099 0.0025255187040856752 0 -0.017508129419403395 0.0026774158509757849 0 -0.017029880627558565 0.0020182072196378476 0 -0.016622141340225344 0.0026855440599094908 0 -0.017370256329013591 0.0025641255997361566 0 -0.016926125146459331 0.0019081122201710355 0 -0.017634164256423866 0.0027711552903788191 0 -0.018051695624869735 0.0028797063275738987 0 -0.017982596286338099 0.0025255187040856752 0 -0.017612842698903536 0.0016275238683412291 0 -0.017146308742078675 0.0021677017610226912 0 -0.018029735979723863 0.002085319245812602 0 -0.017146308742078675 0.0021677017610226912 0 -0.017982596286338099 0.0025255187040856752 0 -0.018029735979723863 0.002085319245812602 0 -0.018029735979723863 0.002085319245812602 0 -0.018413879917585817 0.0023004470931993174 0 -0.018697786869671076 0.0014838881694282699 0 -0.017982596286338099 0.0025255187040856752 0 -0.018029735979723863 0.002085319245812602 0 -0.018413879917585817 0.0023004470931993174 0 -0.018364567681204952 0.0027402311262372503 0 -0.018051695624869735 0.0028797063275738987 0 -0.017982596286338099 0.0025255187040856752 0 -0.018364567681204952 0.0027402311262372503 0 -0.017982596286338099 0.0025255187040856752 0 -0.018413879917585817 0.0023004470931993174 0 -0.018867174064701987 0.0027124630533860716 0 -0.01862957611990684 0.0026003487950602036 0 -0.018772071483278318 0.0021554036467590718 0 -0.018364567681204952 0.0027402311262372503 0 -0.018413879917585817 0.0023004470931993174 0 -0.01862957611990684 0.0026003487950602036 0 -0.018413879917585817 0.0023004470931993174 0 -0.018772071483278318 0.0021554036467590718 0 -0.018697786869671076 0.0014838881694282699 0 -0.018413879917585817 0.0023004470931993174 0 -0.01862957611990684 0.0026003487950602036 0 -0.018772071483278318 0.0021554036467590718 0 -0.019115099117075787 0.0023050902092776287 0 -0.018704999989442698 0.0015307604214511159 0 -0.019713634661298961 0.0023279657070565171 0 -0.019486688361398767 0.002544582717473474 0 -0.018697786869671076 0.0014838881694282699 0 -0.019713634661298961 0.0023279657070565171 0 -0.019954266714692626 0.0012429576494752412 0 -0.018697786869671076 0.0014838881694282699 0 -0.018697786869671076 0.0014838881694282699 0 -0.019385804632393484 0.00064069396595830305 0 -0.018393069726535892 0.0004412130370965257 0 -0.017608442768561168 0.00092966863035203069 0 -0.018697786869671076 0.0014838881694282699 0 -0.018393069726535892 0.0004412130370965257 0 -0.019954266714692626 0.0012429576494752412 0 -0.018697786869671076 0.0014838881694282699 0 -0.019385804632393484 0.00064069396595830305 0 -0.019385804632393484 0.00064069396595830305 0 -0.018393069726535892 0.0004412130370965257 0 -0.019392931528202848 -0.00032747409744528368 0 -0.018305227830204142 -0.00036982172457069727 0 -0.019392931528202848 -0.00032747409744528368 0 -0.0184947208235305 -0.0012497136751897261 0 -0.018393069726535892 0.0004412130370965257 0 -0.018305227830204142 -0.00036982172457069727 0 -0.019392931528202848 -0.00032747409744528368 0 -0.020246614553114897 -0.00047346794763728991 0 -0.019392931528202848 -0.00032747409744528368 0 -0.019633458864174797 -0.0011551108105164406 0 -0.019392931528202848 -0.00032747409744528368 0 -0.019633458864174797 -0.0011551108105164406 0 -0.019040202782336427 -0.00099326397652332843 0 -0.020294112437455259 -0.0015917893396898727 0 -0.019633458864174797 -0.0011551108105164406 0 -0.019761699026328162 -0.0018178506054442858 0 -0.019633458864174797 -0.0011551108105164406 0 -0.019171432330621664 -0.0015180778372092603 0 -0.019761699026328162 -0.0018178506054442858 0 -0.019171432330621664 -0.0015180778372092603 0 -0.019040202782336427 -0.00099326397652332843 0 -0.018536303744308872 -0.0015855038975157961 0 -0.019633458864174797 -0.0011551108105164406 0 -0.019171432330621664 -0.0015180778372092603 0 -0.019040202782336427 -0.00099326397652332843 0 -0.019353683056084436 -0.00039342761768547667 0 -0.018821471644163701 -0.0010621071672728087 0 -0.0184947208235305 -0.0012497136751897261 0 -0.017572618702804667 -0.0010695302823908934 0 -0.017601857668036004 -0.0021510563501239504 0 -0.018305227830204142 -0.00036982172457069727 0 -0.0184947208235305 -0.0012497136751897261 0 -0.017572618702804667 -0.0010695302823908934 0 -0.018821471644163701 -0.0010621071672728087 0 -0.017823950260396137 -0.0019999184787722196 0 -0.017601857668036004 -0.0021510563501239504 0 -0.016829313620865184 -0.0015548680332607991 0 -0.016584781076445097 -0.0021167002704554974 0 -0.017572618702804667 -0.0010695302823908934 0 -0.017601857668036004 -0.0021510563501239504 0 -0.016829313620865184 -0.0015548680332607991 0 -0.017572618702804667 -0.0010695302823908934 0 -0.016829313620865184 -0.0015548680332607991 0 -0.016562430221162213 -0.00092347695474083989 0 -0.017572618702804667 -0.0010695302823908934 0 -0.016562430221162213 -0.00092347695474083989 0 -0.017473347303711761 -0.00017351040626594521 0 -0.017374549475563595 -0.0001261467775873477 0 -0.016507975575306429 0.00038759135622365789 0 -0.017473347303711761 -0.00017351040626594521 0 -0.016102486233183163 0.00048402240614656914 0 -0.016465330175173317 -0.00023283771226391601 0 -0.016562430221162213 -0.00092347695474083989 0 -0.017473347303711761 -0.00017351040626594521 0 -0.016465330175173317 -0.00023283771226391601 0 -0.018305227830204142 -0.00036982172457069727 0 -0.017572618702804667 -0.0010695302823908934 0 -0.017473347303711761 -0.00017351040626594521 0 -0.018393069726535892 0.0004412130370965257 0 -0.018305227830204142 -0.00036982172457069727 0 -0.017473347303711761 -0.00017351040626594521 0 -0.017608442768561168 0.00092966863035203069 0 -0.018393069726535892 0.0004412130370965257 0 -0.017473347303711761 -0.00017351040626594521 0 -0.016968319879518089 0.00073345348950385576 0 -0.017608442768561168 0.00092966863035203069 0 -0.017473347303711761 -0.00017351040626594521 0 -0.016968319879518089 0.00073345348950385576 0 -0.017473347303711761 -0.00017351040626594521 0 -0.016695779610197869 0.00026647835252974428 0 -0.016102486233183163 0.00048402240614656914 0 -0.014977328477715832 0.00070827689031766246 0 -0.015682774264225 -0.00031512081475424698 0 -0.01643648688978994 0.00082586896427358969 0 -0.016968319879518089 0.00073345348950385576 0 -0.016695779610197869 0.00026647835252974428 0 -0.016507975575306429 0.00038759135622365789 0 -0.014768704474134829 0.00041429135933271816 0 -0.016102486233183163 0.00048402240614656914 0 -0.014705005606839683 0.0010900342927151912 0 -0.014977328477715832 0.00070827689031766246 0 -0.014839266816938076 0.00039283406751591327 0 -0.015607649909325189 -0.00023246529388879183 0 -0.01643648688978994 0.00082586896427358969 0 -0.016695779610197869 0.00026647835252974428 0 -0.015959382144612195 0.00064734402178054883 0 -0.014334220680171678 0.00072525006430296897 0 -0.014900114066750942 0.00041761870159880854 0 -0.014444327522506373 0.00037397180814303151 0 -0.013820398736975355 0.00053164614528833148 0 -0.014839266816938076 0.00039283406751591327 0 -0.014157345079649998 0.00063893288751431946 0 -0.014478530824790149 0.0004994951128379847 0 -0.014706753936066861 0.00018117072872868392 0 -0.014768704474134829 0.00041429135933271816 0 -0.014839266816938076 0.00039283406751591327 0 -0.014603294067380803 0.00015681598003942706 0 -0.014805343144093279 -0.00026467483183022277 0 -0.014243378605791623 0.00012351730491425478 0 -0.014900114066750942 0.00041761870159880854 0 -0.014603294067380803 0.00015681598003942706 0 -0.014444327522506373 0.00037397180814303151 0 -0.014900114066750942 0.00041761870159880854 0 -0.014603294067380803 0.00015681598003942706 0 -0.014805343144093279 -0.00026467483183022277 0 -0.014900114066750942 0.00041761870159880854 0 -0.014805343144093279 -0.00026467483183022277 0 -0.015682774264225 -0.00031512081475424698 0 -0.014805343144093279 -0.00026467483183022277 0 -0.015682774264225 -0.00031512081475424698 0 -0.015044326572543414 -0.0010470363214849445 0 -0.016102486233183163 0.00048402240614656914 0 -0.015682774264225 -0.00031512081475424698 0 -0.016465330175173317 -0.00023283771226391601 0 -0.016562430221162213 -0.00092347695474083989 0 -0.015682774264225 -0.00031512081475424698 0 -0.016465330175173317 -0.00023283771226391601 0 -0.016829313620865184 -0.0015548680332607991 0 -0.016562430221162213 -0.00092347695474083989 0 -0.015836386220152113 -0.0015644468096681623 0 -0.016562430221162213 -0.00092347695474083989 0 -0.015418223284046084 -0.0016409271317673999 0 -0.015044326572543414 -0.0010470363214849445 0 -0.016562430221162213 -0.00092347695474083989 0 -0.015682774264225 -0.00031512081475424698 0 -0.015044326572543414 -0.0010470363214849445 0 -0.01653355369790821 -0.00094308738181623478 0 -0.01554664398143858 -0.001647294433012162 0 -0.016829313620865184 -0.0015548680332607991 0 -0.016584781076445097 -0.0021167002704554974 0 -0.015836386220152113 -0.0015644468096681623 0 -0.016584781076445097 -0.0021167002704554974 0 -0.015836386220152113 -0.0015644468096681623 0 -0.015914409215006302 -0.0023949140422530922 0 -0.015836386220152113 -0.0015644468096681623 0 -0.015071986968649653 -0.0021578051536040115 0 -0.015914409215006302 -0.0023949140422530922 0 -0.01554664398143858 -0.001647294433012162 0 -0.015323119333660941 -0.0020410776610654542 0 -0.015418223284046084 -0.0016409271317673999 0 -0.015044326572543414 -0.0010470363214849445 0 -0.014438719598465139 -0.0023130948583483329 0 -0.015044326572543414 -0.0010470363214849445 0 -0.014438719598465139 -0.0023130948583483329 0 -0.013686696243946413 -0.00081454662886383674 0 -0.015323119333660941 -0.0020410776610654542 0 -0.013382114881416026 -0.00075275122922651132 0 -0.01411876139137945 -0.0015501783588823231 0 -0.013470727819084117 -0.001373589513647898 0 -0.013686696243946413 -0.00081454662886383674 0 -0.01411876139137945 -0.0015501783588823231 0 -0.013470727819084117 -0.001373589513647898 0 -0.013580339801487219 -0.0019659028737815634 0 -0.012994678401311612 -0.00093020005264183117 0 -0.013470727819084117 -0.001373589513647898 0 -0.013686696243946413 -0.00081454662886383674 0 -0.012877208099441534 2.3693874586288013e-05 0 -0.013686696243946413 -0.00081454662886383674 0 -0.013606730681336152 0.00015435411556811781 0 -0.012877208099441534 2.3693874586288013e-05 0 -0.012994678401311612 -0.00093020005264183117 0 -0.013686696243946413 -0.00081454662886383674 0 -0.014805343144093279 -0.00026467483183022277 0 -0.013686696243946413 -0.00081454662886383674 0 -0.014243378605791623 0.00012351730491425478 0 -0.013686696243946413 -0.00081454662886383674 0 -0.014243378605791623 0.00012351730491425478 0 -0.013606730681336152 0.00015435411556811781 0 -0.014805343144093279 -0.00026467483183022277 0 -0.015044326572543414 -0.0010470363214849445 0 -0.013686696243946413 -0.00081454662886383674 0 -0.014243378605791623 0.00012351730491425478 0 -0.014125028897120898 0.0004418954901479315 0 -0.013606730681336152 0.00015435411556811781 0 -0.014243378605791623 0.00012351730491425478 0 -0.014125028897120898 0.0004418954901479315 0 -0.014444327522506373 0.00037397180814303151 0 -0.014603294067380803 0.00015681598003942706 0 -0.014243378605791623 0.00012351730491425478 0 -0.014444327522506373 0.00037397180814303151 0 -0.014334220680171678 0.00072525006430296897 0 -0.014125028897120898 0.0004418954901479315 0 -0.014444327522506373 0.00037397180814303151 0 -0.014334220680171678 0.00072525006430296897 0 -0.014125028897120898 0.0004418954901479315 0 -0.013782906275708811 0.00053828817502760595 0 -0.014125028897120898 0.0004418954901479315 0 -0.013782906275708811 0.00053828817502760595 0 -0.013606730681336152 0.00015435411556811781 0 -0.013146687790292386 0.00051835925947121126 0 -0.013782906275708811 0.00053828817502760595 0 -0.013606730681336152 0.00015435411556811781 0 -0.012877208099441534 2.3693874586288013e-05 0 -0.013146687790292386 0.00051835925947121126 0 -0.013606730681336152 0.00015435411556811781 0 -0.034840246916378867 2.2700665600133873e-05 0 -0.034850192697376825 2.6642060868116425e-05 0 -0.034838172015144511 3.3322234277270825e-06 0 -0.034850192697376825 2.6642060868116425e-05 0 -0.034846697116817572 3.654068414311839e-05 0 -0.034838172015144511 3.3322234277270825e-06 0 -0.034850192697376825 2.6642060868116425e-05 0 -0.034846697116817572 3.654068414311839e-05 0 -0.03486089422914599 2.7086704362695212e-05 0 -0.034846697116817572 3.654068414311839e-05 0 -0.034848377114881722 3.1407143160060622e-05 0 -0.034868934506266734 2.8447028184401177e-05 0 -0.032653843500301157 -0.00042718118849178452 0 -0.032624478745691181 -0.00038151065773320449 0 -0.034846697116817572 3.654068414311839e-05 0 -0.034709811907558549 -7.6927370608367055e-07 0 -0.034838172015144511 3.3322234277270825e-06 0 -0.035644046372889114 0.00029521080440973252 0 -0.032653843500301157 -0.00042718118849178452 0 -0.032065495511645198 -0.00016110706451853528 0 -0.035412930422893882 0.00050121799417955052 0 -0.034875211198508442 3.6629193498733879e-05 0 -0.034891087189415582 2.3517808202781038e-05 0 -0.034868934506266734 2.8447028184401177e-05 0 -0.034848377114881722 3.1407143160060622e-05 0 -0.034846366580150959 3.1869950204706296e-05 0 -0.034868934506266734 2.8447028184401177e-05 0 -0.032653843500301157 -0.00042718118849178452 0 -0.028608697000927642 -0.00088500015178133559 0 -0.032653843500301157 -0.00042718118849178452 0 -0.032065495511645198 -0.00016110706451853528 0 -0.031849127270707697 -0.0010346634275701307 0 -0.031084728861513183 -0.00061642396522537863 0 -0.030152207338934481 -0.00065086614887643662 0 -0.024976966500301137 -0.00078530921441527762 0 -0.02642371442732324 -0.0012962997939526145 0 -0.027868986299386715 -0.0022306587244762884 0 -0.026704857586657277 -0.00035853747815068189 0 -0.028285822975577069 -0.0020625318259479635 0 -0.027868986299386715 -0.0022306587244762884 0 -0.026557080328648546 -0.0015213228425289764 0 -0.026704857586657277 -0.00035853747815068189 0 -0.023009412577186736 -0.0012027208336119386 0 -0.023318734888861534 -0.00086698337303856053 0 -0.023746501417267137 -0.0011376494227625187 0 -0.024796056458954132 0.00038423561040378462 0 -0.025506512098320278 0.00052804452696040161 0 -0.027358345796672682 -0.0010181503784508425 0 -0.025424151656267019 2.904446735190321e-06 0 -0.029186006049952633 -0.00079634489631758422 0 -0.026557080328648546 -0.0015213228425289764 0 -0.026704857586657277 -0.00035853747815068189 0 -0.024347200927524647 0.00053677606013265687 0 -0.02381547748196762 0.00042706835417539855 0 -0.026557080328648546 -0.0015213228425289764 0 -0.024347200927524647 0.00053677606013265687 0 -0.025506512098320278 0.00052804452696040161 0 -0.028547773057683669 -0.0016686409298014326 0 -0.027358345796672682 -0.0010181503784508425 0 -0.024976966500301137 -0.00078530921441527762 0 -0.022403397550239838 -0.00077446379651678826 0 -0.023377081794957441 -0.00048777208431733781 0 -0.028608697000927642 -0.00088500015178133559 0 -0.029128956954856573 0.00045022839327099395 0 -0.030467608692545445 -0.00027837028317903351 0 -0.030152207338934481 -0.00065086614887643662 0 -0.028608697000927642 -0.00088500015178133559 0 -0.029186006049952633 -0.00079634489631758422 0 -0.031084728861513183 -0.00061642396522537863 0 -0.030467608692545445 -0.00027837028317903351 0 -0.030152207338934481 -0.00065086614887643662 0 -0.023009412577186736 -0.0012027208336119386 0 -0.022079149934744458 -0.00084189873611712439 0 -0.022416878370749554 -0.00077528399937335641 0 -0.017986987625281201 -0.0013904109498581638 0 -0.017922410824491978 -0.0020073434214482825 0 -0.017367733122512743 -0.0015260951005836737 0 -0.020524177314861929 -0.00093209754532549332 0 -0.020757040909799618 -0.0010301671023467132 0 -0.020989948220124403 -0.00099077643807840739 0 -0.019825433182767079 -0.00081481917656182044 0 -0.020308367182641101 -0.0011613479538540058 0 -0.023377081794957441 -0.00048777208431733781 0 -0.022403397550239838 -0.00077446379651678826 0 -0.018711153322626805 -0.00071707556979862122 0 -0.015259780102609829 -0.0022865435024770572 0 -0.022403397550239838 -0.00077446379651678826 0 -0.020308367182641101 -0.0011613479538540058 0 -0.018532637096887909 -0.0014321818529611974 0 -0.017986987625281201 -0.0013904109498581638 0 -0.017922410824491978 -0.0020073434214482825 0 -0.012911549778032081 -0.0016110511315526989 0 -0.013470727819084117 -0.001373589513647898 0 -0.013580339801487219 -0.0019659028737815634 0 -0.015323119333660941 -0.0020410776610654542 0 -0.015259780102609829 -0.0022865435024770572 0 -0.017224194957496022 -0.0025156355551239442 0 -0.017922410824491978 -0.0020073434214482825 0 -0.017367733122512743 -0.0015260951005836737 0 -0.020224291320806324 -0.0013737004519666243 0 -0.020267026535332685 -0.0013775010047148409 0 -0.020277937395921951 -0.0013933576140295677 0 -0.020267026535332685 -0.0013775010047148409 0 -0.020277937395921951 -0.0013933576140295677 0 -0.020316431530162642 -0.0013717082659046229 0 -0.020308367182641101 -0.0011613479538540058 0 -0.022035191618040267 -0.0011396911413887234 0 -0.020308367182641101 -0.0011613479538540058 0 -0.0187192838567261 -0.0014805244084234097 0 -0.023009412577186736 -0.0012027208336119386 0 -0.022416878370749554 -0.00077528399937335641 0 -0.023318734888861534 -0.00086698337303856053 0 -0.020277937395921951 -0.0013933576140295677 0 -0.020343748157484479 -0.0014063536772605898 0 -0.020316431530162642 -0.0013717082659046229 0 -0.022035191618040267 -0.0011396911413887234 0 -0.021902190632349359 -0.0014338169912405019 0 -0.0187192838567261 -0.0014805244084234097 0 -0.018065586403686711 -0.0020086969671482802 0 -0.023318734888861534 -0.00086698337303856053 0 -0.024189387192660193 -0.00095137304949480695 0 -0.023746501417267137 -0.0011376494227625187 0 -0.019921590317639602 -0.0017763422320840746 0 -0.020056127279056899 -0.0020317077814404711 0 -0.019788278882789067 -0.0017643812181050314 0 -0.021902190632349359 -0.0014338169912405019 0 -0.018065586403686711 -0.0020086969671482802 0 -0.017224194957496022 -0.0025156355551239442 0 -0.017367733122512743 -0.0015260951005836737 0 -0.016764270479286247 -0.0016518596390895242 0 -0.015071986968649653 -0.0021578051536040115 0 -0.015654562108383389 -0.0031769323260144775 0 -0.015914409215006302 -0.0023949140422530922 0 -0.015323119333660941 -0.0020410776610654542 0 -0.018065586403686711 -0.0020086969671482802 0 -0.015654562108383389 -0.0031769323260144775 0 -0.015914409215006302 -0.0023949140422530922 0 -0.01678459500886887 -0.0029685594591030346 0 -0.016584781076445097 -0.0021167002704554974 0 -0.015914409215006302 -0.0023949140422530922 0 -0.01678459500886887 -0.0029685594591030346 0 -0.018065586403686711 -0.0020086969671482802 0 -0.018870785895265422 -0.0022588882983924554 0 -0.022306417440911809 -0.0010494218208228386 0 -0.02199137976449245 -0.0010185068625451819 0 -0.021658114174403758 -0.0017001223921536807 0 -0.020056127279056899 -0.0020317077814404711 0 -0.019788278882789067 -0.0017643812181050314 0 -0.019410712097550811 -0.0021666731445234458 0 -0.021960255904381672 -0.0014571672985518053 0 -0.018870785895265422 -0.0022588882983924554 0 -0.022583657951434133 -0.0014724369555190779 0 -0.022645499921763915 -0.0014789150155677807 0 -0.0226102179319644 -0.0015177804425265179 0 -0.021902190632349359 -0.0014338169912405019 0 -0.021960255904381672 -0.0014571672985518053 0 -0.021960255904381672 -0.0014571672985518053 0 -0.022064429101565444 -0.0012931046362203002 0 -0.02199137976449245 -0.0010185068625451819 0 -0.02227029526583504 -0.00054399639123629134 0 -0.021232680053263241 -0.00096501371132599466 0 -0.025165252211087355 -0.0010505895517521424 0 -0.025401499721626839 -0.0014839584378365672 0 -0.02557729586833675 -0.00088632600646185622 0 -0.025795408743841342 -0.0010442810462608814 0 -0.027267380574420075 -0.0011182576263772713 0 -0.022328668767402467 -0.0010527313197451526 0 -0.02199137976449245 -0.0010185068625451819 0 -0.02227029526583504 -0.00054399639123629134 0 -0.025795408743841342 -0.0010442810462608814 0 -0.023380794638100305 -0.0012169385758254291 0 -0.022328668767402467 -0.0010527313197451526 0 -0.02227029526583504 -0.00054399639123629134 0 -0.022470198194691524 -0.00090458055439034048 0 -0.021960255904381672 -0.0014571672985518053 0 -0.023380794638100305 -0.0012169385758254291 0 -0.021902190632349359 -0.0014338169912405019 0 -0.023380794638100305 -0.0012169385758254291 0 -0.024289349892990808 -0.0011269024636247323 0 -0.023746501417267137 -0.0011376494227625187 0 -0.023913345522467429 -0.0015449510148779141 0 -0.024189387192660193 -0.00095137304949480695 0 -0.024289349892990808 -0.0011269024636247323 0 -0.023746501417267137 -0.0011376494227625187 0 -0.023380794638100305 -0.0012169385758254291 0 -0.02642371442732324 -0.0012962997939526145 0 -0.023009412577186736 -0.0012027208336119386 0 -0.023746501417267137 -0.0011376494227625187 0 -0.023913345522467429 -0.0015449510148779141 0 -0.026704857586657277 -0.00035853747815068189 0 -0.029024800346286531 -0.0012552106148818257 0 -0.028285822975577069 -0.0020625318259479635 0 -0.02642371442732324 -0.0012962997939526145 0 -0.029875299027466821 -0.00088778007411968718 0 -0.025401499721626839 -0.0014839584378365672 0 -0.025858537288419046 -0.00099983346086792509 0 -0.02557729586833675 -0.00088632600646185622 0 -0.027825431972216357 -0.0017294862634843961 0 -0.02694526815810485 -0.0013747920553372861 0 -0.028872705779899786 -0.0006034352956853971 0 -0.027267380574420075 -0.0011182576263772713 0 -0.029875299027466821 -0.00088778007411968718 0 -0.02642371442732324 -0.0012962997939526145 0 -0.027267380574420075 -0.0011182576263772713 0 -0.034875211198508442 3.6629193498733879e-05 0 -0.034895079249606935 1.6610770745642465e-05 0 -0.034891087189415582 2.3517808202781038e-05 0 -0.032065495511645198 -0.00016110706451853528 0 -0.033785815468064542 -0.00018400636817254254 0 -0.029990452078749594 -0.00073999373426051479 0 -0.030110666030935478 -0.00061184445540987751 0 -0.028372770349235178 -0.00028744115726231525 0 -0.032065495511645198 -0.00016110706451853528 0 -0.029838673867090788 -0.0004560472488889509 0 -0.029315496429984468 -0.0010103985934513792 0 -0.029990452078749594 -0.00073999373426051479 0 -0.028372770349235178 -0.00028744115726231525 0 -0.029875299027466821 -0.00088778007411968718 0 -0.032065495511645198 -0.00016110706451853528 0 -0.027868986299386715 -0.0022306587244762884 0 -0.028285822975577069 -0.0020625318259479635 0 -0.028045403866956708 -0.0023260303782309728 0 -0.032011176410518233 -0.00015517180676824524 0 -0.03210892930900338 -0.00021321078287870829 0 -0.032159249811075478 -0.00018918543659556824 0 -0.028865368994002313 -0.0011890691813616072 0 -0.029315496429984468 -0.0010103985934513792 0 -0.028372770349235178 -0.00028744115726231525 0 -0.027896802369951745 -0.0010638773998653216 0 -0.027828376372892878 -0.00093504569615365286 0 -0.027790617403389211 -0.00099553451068765944 0 -0.025795408743841342 -0.0010442810462608814 0 -0.029838673867090788 -0.0004560472488889509 0 -0.027700056287438594 -0.00095658967039347737 0 -0.027790617403389211 -0.00099553451068765944 0 -0.027639261110126566 -0.0010203744606070968 0 -0.027700056287438594 -0.00095658967039347737 0 -0.027790617403389211 -0.00099553451068765944 0 -0.027709769779133527 -0.00087294009541674026 0 -0.027847929254418896 -0.00064758958621638182 0 -0.029552015424966854 -0.00048648604200884161 0 -0.027828376372892878 -0.00093504569615365286 0 -0.027790617403389211 -0.00099553451068765944 0 -0.027756852298074008 -0.00092024870563715854 0 -0.029838673867090788 -0.0004560472488889509 0 -0.029552015424966854 -0.00048648604200884161 0 -0.030852175044429133 0.000143543490382874 0 -0.031571639526802371 -9.3447274701172764e-06 0 -0.031513530707998554 -0.00037220688747091282 0 -0.027700056287438594 -0.00095658967039347737 0 -0.027709769779133527 -0.00087294009541674026 0 -0.027624758646700904 -0.00094361709741084361 0 -0.027624758646700904 -0.00094361709741084361 0 -0.027639261110126566 -0.0010203744606070968 0 -0.027449820811378079 -0.0010231774582272562 0 -0.029552015424966854 -0.00048648604200884161 0 -0.031696211176130404 -0.00096520182440792491 0 -0.034562068858035803 -0.00076918963469220058 0 -0.034199773164074625 -0.0012266447570923713 0 -0.034386699183289869 -0.00072905561221674512 0 -0.027709769779133527 -0.00087294009541674026 0 -0.027616327527763246 -0.00084772088962971174 0 -0.027624758646700904 -0.00094361709741084361 0 -0.030762852569381202 -0.00039814433326590783 0 -0.031955921637061575 -0.00065576979129106333 0 -0.031471306107421576 -0.0012545383066021457 0 -0.027616327527763246 -0.00084772088962971174 0 -0.027624758646700904 -0.00094361709741084361 0 -0.027449820811378079 -0.0010231774582272562 0 -0.031696211176130404 -0.00096520182440792491 0 -0.030705480125843222 -0.0012086158845721977 0 -0.031696211176130404 -0.00096520182440792491 0 -0.033891717297637305 -0.0011497246321112565 0 -0.027700056287438594 -0.00095658967039347737 0 -0.027624758646700904 -0.00094361709741084361 0 -0.027639261110126566 -0.0010203744606070968 0 -0.027639261110126566 -0.0010203744606070968 0 -0.027665127157322215 -0.0011771048950735231 0 -0.027449820811378079 -0.0010231774582272562 0 -0.027665127157322215 -0.0011771048950735231 0 -0.027388805279003517 -0.001302357882723232 0 -0.027449820811378079 -0.0010231774582272562 0 -0.025795408743841342 -0.0010442810462608814 0 -0.024441709746026299 -0.00103814634285443 0 -0.027790617403389211 -0.00099553451068765944 0 -0.027639261110126566 -0.0010203744606070968 0 -0.027665127157322215 -0.0011771048950735231 0 -0.027896802369951745 -0.0010638773998653216 0 -0.027790617403389211 -0.00099553451068765944 0 -0.027665127157322215 -0.0011771048950735231 0 -0.02199137976449245 -0.0010185068625451819 0 -0.021232680053263241 -0.00096501371132599466 0 -0.021579524071420317 -0.0012536284336819021 0 -0.02199137976449245 -0.0010185068625451819 0 -0.021579524071420317 -0.0012536284336819021 0 -0.021658114174403758 -0.0017001223921536807 0 -0.021232680053263241 -0.00096501371132599466 0 -0.021579524071420317 -0.0012536284336819021 0 -0.021049318190375067 -0.0014731551088443492 0 -0.021579524071420317 -0.0012536284336819021 0 -0.021658114174403758 -0.0017001223921536807 0 -0.021049318190375067 -0.0014731551088443492 0 -0.017823950260396137 -0.0019999184787722196 0 -0.018870785895265422 -0.0022588882983924554 0 -0.017601857668036004 -0.0021510563501239504 0 -0.016584781076445097 -0.0021167002704554974 0 -0.01678459500886887 -0.0029685594591030346 0 -0.018536303744308872 -0.0015855038975157961 0 -0.018020541413794514 -0.0021620974938503382 0 -0.018826086225866137 -0.0020046883541329648 0 -0.019171432330621664 -0.0015180778372092603 0 -0.018536303744308872 -0.0015855038975157961 0 -0.018826086225866137 -0.0020046883541329648 0 -0.021658114174403758 -0.0017001223921536807 0 -0.020578913598163807 -0.0018314250581681906 0 -0.021049318190375067 -0.0014731551088443492 0 -0.018870785895265422 -0.0022588882983924554 0 -0.019943239531471025 -0.0018471492985684761 0 -0.024441709746026299 -0.00103814634285443 0 -0.02324853795888137 -0.0014323951027357988 0 -0.020578913598163807 -0.0018314250581681906 0 -0.021049318190375067 -0.0014731551088443492 0 -0.020311258098083068 -0.0013995359254549121 0 -0.021232680053263241 -0.00096501371132599466 0 -0.021049318190375067 -0.0014731551088443492 0 -0.020311258098083068 -0.0013995359254549121 0 -0.019171432330621664 -0.0015180778372092603 0 -0.018826086225866137 -0.0020046883541329648 0 -0.019761699026328162 -0.0018178506054442858 0 -0.019943239531471025 -0.0018471492985684761 0 -0.01966986866389461 -0.0018572553891193727 0 -0.020578913598163807 -0.0018314250581681906 0 -0.020311258098083068 -0.0013995359254549121 0 -0.019761699026328162 -0.0018178506054442858 0 -0.020311258098083068 -0.0013995359254549121 0 -0.019792126295580827 -0.0017808756645959043 0 -0.019761699026328162 -0.0018178506054442858 0 -0.026679614258522496 -0.0019205852821316783 0 -0.030948523064682758 -0.0011764170995836214 0 -0.027388805279003517 -0.001302357882723232 0 -0.027097047200506132 -0.0014394119495343754 0 -0.027271706428853203 -0.0012195396050936162 0 -0.02324853795888137 -0.0014323951027357988 0 -0.026679614258522496 -0.0019205852821316783 0 -0.033397035334220497 -0.0021259246469453115 0 -0.033802711206180149 -0.0016833239337773131 0 -0.033293775751911274 -0.0015178847674595921 0 -0.033802711206180149 -0.0016833239337773131 0 -0.033545218992235996 -0.0010429524111151972 0 -0.033293775751911274 -0.0015178847674595921 0 -0.033802711206180149 -0.0016833239337773131 0 -0.034199773164074625 -0.0012266447570923713 0 -0.033545218992235996 -0.0010429524111151972 0 -0.030948523064682758 -0.0011764170995836214 0 -0.030705480125843222 -0.0012086158845721977 0 -0.027388805279003517 -0.001302357882723232 0 -0.027271706428853203 -0.0012195396050936162 0 -0.027449820811378079 -0.0010231774582272562 0 -0.034199773164074625 -0.0012266447570923713 0 -0.034033977902175244 -0.00085191987394855266 0 -0.034386699183289869 -0.00072905561221674512 0 -0.034199773164074625 -0.0012266447570923713 0 -0.034033977902175244 -0.00085191987394855266 0 -0.033545218992235996 -0.0010429524111151972 0 -0.034033977902175244 -0.00085191987394855266 0 -0.033545218992235996 -0.0010429524111151972 0 -0.033740416014506135 -0.0005456284436268432 0 -0.033740416014506135 -0.0005456284436268432 0 -0.033922613682365592 -0.00014769645575742383 0 -0.033130501182049757 -0.00041385231072776934 0 -0.033545218992235996 -0.0010429524111151972 0 -0.033740416014506135 -0.0005456284436268432 0 -0.033130501182049757 -0.00041385231072776934 0 -0.033740416014506135 -0.0005456284436268432 0 -0.034005688194276566 -0.00032952093408566648 0 -0.033922613682365592 -0.00014769645575742383 0 -0.034033977902175244 -0.00085191987394855266 0 -0.033740416014506135 -0.0005456284436268432 0 -0.034083386135472259 -0.00049464606662917739 0 -0.034033977902175244 -0.00085191987394855266 0 -0.034250773833825132 -0.00058130339236327016 0 -0.034083386135472259 -0.00049464606662917739 0 -0.034033977902175244 -0.00085191987394855266 0 -0.034250773833825132 -0.00058130339236327016 0 -0.034386699183289869 -0.00072905561221674512 0 -0.034250773833825132 -0.00058130339236327016 0 -0.034269123354298964 -0.00039506287071276486 0 -0.034344198044018441 -0.0004788839028490138 0 -0.034250773833825132 -0.00058130339236327016 0 -0.034269123354298964 -0.00039506287071276486 0 -0.034083386135472259 -0.00049464606662917739 0 -0.034269123354298964 -0.00039506287071276486 0 -0.034083386135472259 -0.00049464606662917739 0 -0.034161773233444596 -0.00029155289356594329 0 -0.034269123354298964 -0.00039506287071276486 0 -0.034269814279829107 -0.00027355827851633773 0 -0.034389608935634745 -0.00040638138110185546 0 -0.034269123354298964 -0.00039506287071276486 0 -0.034269814279829107 -0.00027355827851633773 0 -0.034161773233444596 -0.00029155289356594329 0 -0.033740416014506135 -0.0005456284436268432 0 -0.034083386135472259 -0.00049464606662917739 0 -0.034005688194276566 -0.00032952093408566648 0 -0.034083386135472259 -0.00049464606662917739 0 -0.034005688194276566 -0.00032952093408566648 0 -0.034161773233444596 -0.00029155289356594329 0 -0.03452630634916791 6.6949477998778348e-05 0 -0.03434343115135214 0.00024506088954319433 0 -0.034298549780531561 -0.00015262691163604725 0 -0.034184306201912658 5.637686591956325e-05 0 -0.034121914596881693 0.00033572252910734149 0 -0.034005688194276566 -0.00032952093408566648 0 -0.034111952770679257 -0.00017234647084381034 0 -0.033922613682365592 -0.00014769645575742383 0 -0.034373901867175968 0.00029082863939230785 0 -0.034559677786941169 0.00012432519165392933 0 -0.034314382374859183 0.00024784646804143848 0 -0.034373901867175968 0.00029082863939230785 0 -0.034368462806730934 0.00030723985356568542 0 -0.034559677786941169 0.00012432519165392933 0 -0.034005688194276566 -0.00032952093408566648 0 -0.034111952770679257 -0.00017234647084381034 0 -0.034161773233444596 -0.00029155289356594329 0 -0.034111952770679257 -0.00017234647084381034 0 -0.034185712195533069 -9.6757995965936279e-05 0 -0.03410034266107554 -5.9434495455423813e-05 0 -0.034111952770679257 -0.00017234647084381034 0 -0.03410034266107554 -5.9434495455423813e-05 0 -0.033922613682365592 -0.00014769645575742383 0 -0.034269814279829107 -0.00027355827851633773 0 -0.034207933795797216 -0.00018763489388391808 0 -0.034298549780531561 -0.00015262691163604725 0 -0.034269814279829107 -0.00027355827851633773 0 -0.034161773233444596 -0.00029155289356594329 0 -0.034207933795797216 -0.00018763489388391808 0 -0.034111952770679257 -0.00017234647084381034 0 -0.034161773233444596 -0.00029155289356594329 0 -0.034207933795797216 -0.00018763489388391808 0 -0.034111952770679257 -0.00017234647084381034 0 -0.034185712195533069 -9.6757995965936279e-05 0 -0.034207933795797216 -0.00018763489388391808 0 -0.034185712195533069 -9.6757995965936279e-05 0 -0.034207933795797216 -0.00018763489388391808 0 -0.034298549780531561 -0.00015262691163604725 0 -0.034185712195533069 -9.6757995965936279e-05 0 -0.034298549780531561 -0.00015262691163604725 0 -0.034184306201912658 5.637686591956325e-05 0 -0.034085077347614325 5.9912079470650179e-05 0 -0.03398210662457618 0.00012406861554651113 0 -0.033922613682365592 -0.00014769645575742383 0 -0.03410034266107554 -5.9434495455423813e-05 0 -0.034085077347614325 5.9912079470650179e-05 0 -0.033922613682365592 -0.00014769645575742383 0 -0.034185712195533069 -9.6757995965936279e-05 0 -0.03410034266107554 -5.9434495455423813e-05 0 -0.034184306201912658 5.637686591956325e-05 0 -0.03410034266107554 -5.9434495455423813e-05 0 -0.034184306201912658 5.637686591956325e-05 0 -0.034085077347614325 5.9912079470650179e-05 0 -0.034184306201912658 5.637686591956325e-05 0 -0.034085077347614325 5.9912079470650179e-05 0 -0.034134477502924622 0.00017407246802213824 0 -0.034085077347614325 5.9912079470650179e-05 0 -0.03398210662457618 0.00012406861554651113 0 -0.034134477502924622 0.00017407246802213824 0 -0.033922613682365592 -0.00014769645575742383 0 -0.0336373185947796 0.00022516016677018446 0 -0.033130501182049757 -0.00041385231072776934 0 -0.03398210662457618 0.00012406861554651113 0 -0.033922613682365592 -0.00014769645575742383 0 -0.0336373185947796 0.00022516016677018446 0 -0.034642570457606291 0.0004326164765249821 0 -0.034432196842803346 0.00030965087944069254 0 -0.034677186902073998 0.00028286157690535869 0 -0.034263653123422326 0.00019881050748099833 0 -0.034439789013759131 0.0003819072765251395 0 -0.03398210662457618 0.00012406861554651113 0 -0.0336373185947796 0.00022516016677018446 0 -0.034106489426100478 0.00032362893909759056 0 -0.034263653123422326 0.00019881050748099833 0 -0.034114266782987727 0.00030219673946529598 0 -0.034613318058729067 0.00058472248214214715 0 -0.034432196842803346 0.00030965087944069254 0 -0.034106489426100478 0.00032362893909759056 0 -0.034432196842803346 0.00030965087944069254 0 -0.034674760517477601 0.00018807988847699097 0 -0.034121914596881693 0.00033572252910734149 0 -0.034432196842803346 0.00030965087944069254 0 -0.034121914596881693 0.00033572252910734149 0 -0.034106489426100478 0.00032362893909759056 0 -0.034642570457606291 0.0004326164765249821 0 -0.034677186902073998 0.00028286157690535869 0 -0.034849956826509987 0.00023949833928275821 0 -0.034677186902073998 0.00028286157690535869 0 -0.034674760517477601 0.00018807988847699097 0 -0.034849956826509987 0.00023949833928275821 0 -0.034432196842803346 0.00030965087944069254 0 -0.034677186902073998 0.00028286157690535869 0 -0.034674760517477601 0.00018807988847699097 0 -0.034798417327593333 4.7746869220078266e-06 0 -0.03434343115135214 0.00024506088954319433 0 -0.034874324634047292 9.2243723619848301e-06 0 -0.034520292100555551 2.739710697966538e-05 0 -0.034559677786941169 0.00012432519165392933 0 -0.034674760517477601 0.00018807988847699097 0 -0.034874324634047292 9.2243723619848301e-06 0 -0.034121914596881693 0.00033572252910734149 0 -0.034874324634047292 9.2243723619848301e-06 0 -0.034520292100555551 2.739710697966538e-05 0 -0.034999086109451169 -2.4888291515782148e-07 0 -0.034674760517477601 0.00018807988847699097 0 -0.034874324634047292 9.2243723619848301e-06 0 -0.034893467160203306 8.3899975191797585e-05 0 -0.034999972843180648 1.3664717412730775e-09 0 -0.034999608133680742 7.8921547402112654e-06 0 -0.035000017853885484 1.8945853776617174e-09 0 -0.03475039481653424 3.2506121614724913e-05 0 -0.034999912789064523 1.1975379717232708e-09 0 -0.035000066017980044 -1.2125926015509898e-08 0 -0.034999929423659586 1.2352993891628149e-08 0 -0.034986832655311287 3.5458178816767645e-05 0 -0.034999980088767944 3.2837382397975612e-08 0 -0.034999621439601648 -3.6023038646138361e-06 0 -0.034999972843180648 1.3664717412730775e-09 0 -0.034999608133680742 7.8921547402112654e-06 0 -0.034982039317273339 1.0273685345889895e-05 0 -0.03475039481653424 3.2506121614724913e-05 0 -0.034641389423112325 0.00010055427730451384 0 -0.034520292100555551 2.739710697966538e-05 0 -0.034559677786941169 0.00012432519165392933 0 -0.034238202105138595 0.00018780028402978673 0 -0.034184306201912658 5.637686591956325e-05 0 -0.034121914596881693 0.00033572252910734149 0 -0.034134477502924622 0.00017407246802213824 0 -0.034121914596881693 0.00033572252910734149 0 -0.034106489426100478 0.00032362893909759056 0 -0.034134477502924622 0.00017407246802213824 0 -0.03398210662457618 0.00012406861554651113 0 -0.034106489426100478 0.00032362893909759056 0 -0.034134477502924622 0.00017407246802213824 0 -0.034999608133680742 7.8921547402112654e-06 0 -0.034968111208802347 3.3210616499439093e-05 0 -0.034982039317273339 1.0273685345889895e-05 0 -0.034559677786941169 0.00012432519165392933 0 -0.034238202105138595 0.00018780028402978673 0 -0.034314382374859183 0.00024784646804143848 0 -0.034959538606575975 8.5530569323517152e-05 0 -0.034947433942313394 4.5553229513211146e-05 0 -0.034986832655311287 3.5458178816767645e-05 0 -0.034641389423112325 0.00010055427730451384 0 -0.034999621439601648 -3.6023038646138361e-06 0 -0.035000000553037494 7.5864087573929637e-11 0 -0.034999899908016968 6.6693475537199971e-07 0 -0.034999999585011807 2.4694076822218165e-10 0 -0.034999982863001759 1.4636609814379068e-08 0 -0.034981997169113759 1.8954598252251109e-05 0 -0.034999929423659586 1.2352993891628149e-08 0 -0.034947433942313394 4.5553229513211146e-05 0 -0.034986832655311287 3.5458178816767645e-05 0 -0.034999899908016968 6.6693475537199971e-07 0 -0.034999609544159864 3.6999933743507861e-07 0 -0.034999999585011807 2.4694076822218165e-10 0 -0.034999609544159864 3.6999933743507861e-07 0 -0.034999999585011807 2.4694076822218165e-10 0 -0.034999999078442222 3.2980644083528242e-10 0 -0.034959538606575975 8.5530569323517152e-05 0 -0.034947433942313394 4.5553229513211146e-05 0 -0.034885429111684525 0.00011361598284044076 0 -0.034999899908016968 6.6693475537199971e-07 0 -0.034999609544159864 3.6999933743507861e-07 0 -0.034998689214816643 1.8327372694664028e-06 0 -0.034981997169113759 1.8954598252251109e-05 0 -0.034887046605213981 7.1316929915311305e-05 0 -0.034641389423112325 0.00010055427730451384 0 -0.033743057157180165 0.00011272948318138352 0 -0.034959538606575975 8.5530569323517152e-05 0 -0.034885429111684525 0.00011361598284044076 0 -0.03489551777816282 0.00012664863582599034 0 -0.034434200637821995 1.8416352550765004e-05 0 -0.034264726726968051 0.00012811018740572494 0 -0.034326306837077304 0.0002061377135440201 0 -0.034641389423112325 0.00010055427730451384 0 -0.034707377484976244 0.00016017112798603068 0 -0.034887046605213981 7.1316929915311305e-05 0 -0.034707377484976244 0.00016017112798603068 0 -0.034862307930078988 5.2118738003852018e-05 0 -0.03485920384934231 3.6200493678915367e-05 0 -0.034843254472736257 3.0220059010067573e-05 0 -0.034707377484976244 0.00016017112798603068 0 -0.033743057157180165 0.00011272948318138352 0 -0.034870704401802122 6.2375300431396881e-05 0 -0.034862307930078988 5.2118738003852018e-05 0 -0.034875186128060315 2.9533362418895421e-05 0 -0.034862307930078988 5.2118738003852018e-05 0 -0.03485920384934231 3.6200493678915367e-05 0 -0.034875186128060315 2.9533362418895421e-05 0 -0.034373901867175968 0.00029082863939230785 0 -0.034238215848374103 0.000325894955192157 0 -0.034133357648085928 0.00041854528496036302 0 -0.034554074478532502 0.00033995461002025442 0 -0.033401074229810562 8.9514494657853433e-06 0 -0.034238202105138595 0.00018780028402978673 0 -0.034314382374859183 0.00024784646804143848 0 -0.034238215848374103 0.000325894955192157 0 -0.034373901867175968 0.00029082863939230785 0 -0.034213950698150294 0.00040198880882645984 0 -0.034007536527196354 0.00044435657385041372 0 -0.034238202105138595 0.00018780028402978673 0 -0.034238215848374103 0.000325894955192157 0 -0.034116015673758084 0.00039685781719581744 0 -0.034269814279829107 -0.00027355827851633773 0 -0.034298549780531561 -0.00015262691163604725 0 -0.034389608935634745 -0.00040638138110185546 0 -0.034373901867175968 0.00029082863939230785 0 -0.034368462806730934 0.00030723985356568542 0 -0.034213950698150294 0.00040198880882645984 0 -0.034373901867175968 0.00029082863939230785 0 -0.034314382374859183 0.00024784646804143848 0 -0.034238215848374103 0.000325894955192157 0 -0.03452630634916791 6.6949477998778348e-05 0 -0.032739535121586297 -0.00052346080917692274 0 -0.034298549780531561 -0.00015262691163604725 0 -0.034389608935634745 -0.00040638138110185546 0 -0.034656119728706754 -0.00063727218751142634 0 -0.034213950698150294 0.00040198880882645984 0 -0.034105939793358631 0.00056844338233261605 0 -0.034007536527196354 0.00044435657385041372 0 -0.034368462806730934 0.00030723985356568542 0 -0.034213950698150294 0.00040198880882645984 0 -0.034105939793358631 0.00056844338233261605 0 -0.034389608935634745 -0.00040638138110185546 0 -0.034344198044018441 -0.0004788839028490138 0 -0.034461437914163492 -0.00058707815625121205 0 -0.034269123354298964 -0.00039506287071276486 0 -0.034389608935634745 -0.00040638138110185546 0 -0.034344198044018441 -0.0004788839028490138 0 -0.034250773833825132 -0.00058130339236327016 0 -0.034344198044018441 -0.0004788839028490138 0 -0.034362520276213775 -0.00057817027283093734 0 -0.034250773833825132 -0.00058130339236327016 0 -0.034362520276213775 -0.00057817027283093734 0 -0.034386699183289869 -0.00072905561221674512 0 -0.034344198044018441 -0.0004788839028490138 0 -0.034362520276213775 -0.00057817027283093734 0 -0.034461437914163492 -0.00058707815625121205 0 -0.034556239306496879 -0.00076252096365647974 0 -0.034461437914163492 -0.00058707815625121205 0 -0.034386699183289869 -0.00072905561221674512 0 -0.034362520276213775 -0.00057817027283093734 0 -0.034461437914163492 -0.00058707815625121205 0 -0.034386699183289869 -0.00072905561221674512 0 -0.034389608935634745 -0.00040638138110185546 0 -0.034461437914163492 -0.00058707815625121205 0 -0.034656119728706754 -0.00063727218751142634 0 -0.034556239306496879 -0.00076252096365647974 0 -0.034461437914163492 -0.00058707815625121205 0 -0.034656119728706754 -0.00063727218751142634 0 -0.031696211176130404 -0.00096520182440792491 0 -0.032739535121586297 -0.00052346080917692274 0 -0.031571639526802371 -9.3447274701172764e-06 0 -0.031882828750433322 -0.00038175651679674778 0 -0.031513530707998554 -0.00037220688747091282 0 -0.029552015424966854 -0.00048648604200884161 0 -0.032739535121586297 -0.00052346080917692274 0 -0.031882828750433322 -0.00038175651679674778 0 -0.031513530707998554 -0.00037220688747091282 0 -0.031544010985503301 -0.00080393823602952245 0 -0.032739535121586297 -0.00052346080917692274 0 -0.033401074229810562 8.9514494657853433e-06 0 -0.029838673867090788 -0.0004560472488889509 0 -0.033146476463760823 -0.00010970563170948013 0 -0.030852175044429133 0.000143543490382874 0 -0.031513530707998554 -0.00037220688747091282 0 -0.031331595692598482 -0.00068951307832448394 0 -0.034851265395487684 2.0138021884087596e-05 0 -0.03485920384934231 3.6200493678915367e-05 0 -0.034875186128060315 2.9533362418895421e-05 0 -0.034851265395487684 2.0138021884087596e-05 0 -0.03485920384934231 3.6200493678915367e-05 0 -0.034843254472736257 3.0220059010067573e-05 0 -0.034238215848374103 0.000325894955192157 0 -0.034116015673758084 0.00039685781719581744 0 -0.034133357648085928 0.00041854528496036302 0 -0.031513530707998554 -0.00037220688747091282 0 -0.031331595692598482 -0.00068951307832448394 0 -0.031544010985503301 -0.00080393823602952245 0 -0.033743057157180165 0.00011272948318138352 0 -0.033401074229810562 8.9514494657853433e-06 0 -0.033146476463760823 -0.00010970563170948013 0 -0.033743057157180165 0.00011272948318138352 0 -0.033377939996751323 3.7668838078167092e-05 0 -0.03349035873569213 -0.00016233335447223796 0 -0.033568042095210887 -6.6200229516717721e-05 0 -0.033146476463760823 -0.00010970563170948013 0 -0.033401074229810562 8.9514494657853433e-06 0 -0.034895079249606935 1.6610770745642465e-05 0 -0.034851265395487684 2.0138021884087596e-05 0 -0.034875186128060315 2.9533362418895421e-05 0 -0.033785815468064542 -0.00018400636817254254 0 -0.033146476463760823 -0.00010970563170948013 0 -0.03210892930900338 -0.00021321078287870829 0 -0.032159249811075478 -0.00018918543659556824 0 -0.032213183131147148 -0.00027263448587566523 0 -0.034895079249606935 1.6610770745642465e-05 0 -0.034899811202121621 2.5498315262496395e-05 0 -0.034903852256693568 2.0732419714891356e-05 0 -0.034895079249606935 1.6610770745642465e-05 0 -0.034899811202121621 2.5498315262496395e-05 0 -0.034875186128060315 2.9533362418895421e-05 0 -0.034895079249606935 1.6610770745642465e-05 0 -0.034891087189415582 2.3517808202781038e-05 0 -0.034903852256693568 2.0732419714891356e-05 0 -0.034891087189415582 2.3517808202781038e-05 0 -0.034903852256693568 2.0732419714891356e-05 0 -0.034900244804099229 1.8265425593339469e-05 0 -0.034903852256693568 2.0732419714891356e-05 0 -0.034914678618706195 1.5384467684489938e-05 0 -0.034915720302955679 1.6136814650516112e-05 0 -0.034899811202121621 2.5498315262496395e-05 0 -0.034903852256693568 2.0732419714891356e-05 0 -0.034915720302955679 1.6136814650516112e-05 0 -0.034903852256693568 2.0732419714891356e-05 0 -0.034914678618706195 1.5384467684489938e-05 0 -0.034900244804099229 1.8265425593339469e-05 0 -0.034914678618706195 1.5384467684489938e-05 0 -0.034915720302955679 1.6136814650516112e-05 0 -0.034931182855131263 1.1159559945536045e-05 0 -0.034914139613338398 1.7900208312380076e-05 0 -0.034899811202121621 2.5498315262496395e-05 0 -0.034915720302955679 1.6136814650516112e-05 0 -0.034914139613338398 1.7900208312380076e-05 0 -0.034915720302955679 1.6136814650516112e-05 0 -0.034933573850341786 1.2692884821440637e-05 0 -0.034870704401802122 6.2375300431396881e-05 0 -0.034899811202121621 2.5498315262496395e-05 0 -0.034875186128060315 2.9533362418895421e-05 0 -0.034887046605213981 7.1316929915311305e-05 0 -0.034905991252302593 2.2115506171091936e-05 0 -0.034887046605213981 7.1316929915311305e-05 0 -0.034973080467431035 -2.9562993485112087e-06 0 -0.034999609544159864 3.6999933743507861e-07 0 -0.034998689214816643 1.8327372694664028e-06 0 -0.03499924836295925 4.9559137051343643e-07 0 -0.034999609544159864 3.6999933743507861e-07 0 -0.03499924836295925 4.9559137051343643e-07 0 -0.034999999078442222 3.2980644083528242e-10 0 -0.03499924836295925 4.9559137051343643e-07 0 -0.034999999078442222 3.2980644083528242e-10 0 -0.034999999650537128 -8.4378602332502945e-11 0 -0.034933573850341786 1.2692884821440637e-05 0 -0.034999877792479019 2.2385215426925676e-08 0 -0.034960403838979283 8.5233502123718092e-06 0 -0.034973080467431035 -2.9562993485112087e-06 0 -0.034999978340825348 2.1206441601281844e-10 0 -0.034915720302955679 1.6136814650516112e-05 0 -0.034933573850341786 1.2692884821440637e-05 0 -0.034931182855131263 1.1159559945536045e-05 0 -0.034933573850341786 1.2692884821440637e-05 0 -0.034931182855131263 1.1159559945536045e-05 0 -0.034960403838979283 8.5233502123718092e-06 0 -0.034931182855131263 1.1159559945536045e-05 0 -0.034960403838979283 8.5233502123718092e-06 0 -0.0349226850400653 1.3362312968543568e-05 0 -0.034960403838979283 8.5233502123718092e-06 0 -0.034935224466648832 1.1903935974360248e-05 0 -0.0349226850400653 1.3362312968543568e-05 0 -0.034960403838979283 8.5233502123718092e-06 0 -0.034999998497334962 1.2840291989998227e-08 0 -0.034963890245307244 8.3717384157758991e-06 0 -0.034999877792479019 2.2385215426925676e-08 0 -0.034960403838979283 8.5233502123718092e-06 0 -0.034999998497334962 1.2840291989998227e-08 0 -0.034999840559360298 -6.3616946939809732e-08 0 -0.034960721599037001 9.4703869457225889e-06 0 -0.034999998497334962 1.2840291989998227e-08 0 -0.034960721599037001 9.4703869457225889e-06 0 -0.034999998497334962 1.2840291989998227e-08 0 -0.034963890245307244 8.3717384157758991e-06 0 -0.034898565227185679 1.5796553073537305e-05 0 -0.034960721599037001 9.4703869457225889e-06 0 -0.034935224466648832 1.1903935974360248e-05 0 -0.034960721599037001 9.4703869457225889e-06 0 -0.034963890245307244 8.3717384157758991e-06 0 -0.034935224466648832 1.1903935974360248e-05 0 -0.034960403838979283 8.5233502123718092e-06 0 -0.034963890245307244 8.3717384157758991e-06 0 -0.034935224466648832 1.1903935974360248e-05 0 -0.034898565227185679 1.5796553073537305e-05 0 -0.034935224466648832 1.1903935974360248e-05 0 -0.034907395227216843 1.6292612607274105e-05 0 -0.034898565227185679 1.5796553073537305e-05 0 -0.034907395227216843 1.6292612607274105e-05 0 -0.034880817095451551 2.1904135430338929e-05 0 -0.034907395227216843 1.6292612607274105e-05 0 -0.0349226850400653 1.3362312968543568e-05 0 -0.034891279947039028 2.0090844598479611e-05 0 -0.034907395227216843 1.6292612607274105e-05 0 -0.034880817095451551 2.1904135430338929e-05 0 -0.034891279947039028 2.0090844598479611e-05 0 -0.034935224466648832 1.1903935974360248e-05 0 -0.034907395227216843 1.6292612607274105e-05 0 -0.0349226850400653 1.3362312968543568e-05 0 -0.034914678618706195 1.5384467684489938e-05 0 -0.034931182855131263 1.1159559945536045e-05 0 -0.0349226850400653 1.3362312968543568e-05 0 -0.034914678618706195 1.5384467684489938e-05 0 -0.0349226850400653 1.3362312968543568e-05 0 -0.034900244804099229 1.8265425593339469e-05 0 -0.0349226850400653 1.3362312968543568e-05 0 -0.034900244804099229 1.8265425593339469e-05 0 -0.034891279947039028 2.0090844598479611e-05 0 -0.034900244804099229 1.8265425593339469e-05 0 -0.034868934506266734 2.8447028184401177e-05 0 -0.034891279947039028 2.0090844598479611e-05 0 -0.034891087189415582 2.3517808202781038e-05 0 -0.034900244804099229 1.8265425593339469e-05 0 -0.034868934506266734 2.8447028184401177e-05 0 -0.034846697116817572 3.654068414311839e-05 0 -0.034868934506266734 2.8447028184401177e-05 0 -0.034869041533122695 2.6363660264474227e-05 0 -0.034868934506266734 2.8447028184401177e-05 0 -0.034869041533122695 2.6363660264474227e-05 0 -0.034891279947039028 2.0090844598479611e-05 0 -0.034869041533122695 2.6363660264474227e-05 0 -0.03486089422914599 2.7086704362695212e-05 0 -0.034880817095451551 2.1904135430338929e-05 0 -0.034846697116817572 3.654068414311839e-05 0 -0.034869041533122695 2.6363660264474227e-05 0 -0.03486089422914599 2.7086704362695212e-05 0 -0.034869041533122695 2.6363660264474227e-05 0 -0.034880817095451551 2.1904135430338929e-05 0 -0.034891279947039028 2.0090844598479611e-05 0 -0.034249446653708708 -0.00031572458237503814 0 -0.034185010553639247 -0.00031889713569872353 0 -0.034184052070023271 -0.00038432388594091552 0 -0.034246674431159543 -0.00027978522358950624 0 -0.034249446653708708 -0.00031572458237503814 0 -0.034323815049825387 -0.00025802345377714609 0 -0.034246674431159543 -0.00027978522358950624 0 -0.034249446653708708 -0.00031572458237503814 0 -0.034185010553639247 -0.00031889713569872353 0 -0.034075787564470293 -0.00016226545395133408 0 -0.033715207729167723 -0.00019445056470977464 0 -0.034249446653708708 -0.00031572458237503814 0 -0.034327746962882134 -0.00028489507730595327 0 -0.034244391356504929 -0.00034795904942481885 0 -0.034327746962882134 -0.00028489507730595327 0 -0.034244391356504929 -0.00034795904942481885 0 -0.034333559123919992 -0.00030494778914433003 0 -0.034249446653708708 -0.00031572458237503814 0 -0.034327746962882134 -0.00028489507730595327 0 -0.034323815049825387 -0.00025802345377714609 0 -0.034323815049825387 -0.00025802345377714609 0 -0.034408301851269918 -0.00022289841252014924 0 -0.034397443152864457 -0.00020526218519980946 0 -0.034327746962882134 -0.00028489507730595327 0 -0.034323815049825387 -0.00025802345377714609 0 -0.034408301851269918 -0.00022289841252014924 0 -0.034327746962882134 -0.00028489507730595327 0 -0.034408301851269918 -0.00022289841252014924 0 -0.034419725300802999 -0.00023811671229509223 0 -0.034408301851269918 -0.00022289841252014924 0 -0.034397443152864457 -0.00020526218519980946 0 -0.034479093641101619 -0.00017153901076763083 0 -0.034408301851269918 -0.00022289841252014924 0 -0.034473646217283611 -0.00018348602666047411 0 -0.034479093641101619 -0.00017153901076763083 0 -0.034397443152864457 -0.00020526218519980946 0 -0.034446013004587897 -0.00016828221967966068 0 -0.034479093641101619 -0.00017153901076763083 0 -0.034246674431159543 -0.00027978522358950624 0 -0.034235106067002932 -0.00023951644313191376 0 -0.034221009359629642 -0.00030889995580597404 0 -0.034397443152864457 -0.00020526218519980946 0 -0.034305571023970458 -0.00023626203569668787 0 -0.034331694310442321 -0.00017557943418834894 0 -0.034262363041713498 -0.00024176621731105373 0 -0.033715207729167723 -0.00019445056470977464 0 -0.034323815049825387 -0.00025802345377714609 0 -0.034397443152864457 -0.00020526218519980946 0 -0.034305571023970458 -0.00023626203569668787 0 -0.034246674431159543 -0.00027978522358950624 0 -0.034323815049825387 -0.00025802345377714609 0 -0.034305571023970458 -0.00023626203569668787 0 -0.034246674431159543 -0.00027978522358950624 0 -0.034305571023970458 -0.00023626203569668787 0 -0.034235106067002932 -0.00023951644313191376 0 -0.034305571023970458 -0.00023626203569668787 0 -0.034235106067002932 -0.00023951644313191376 0 -0.034331694310442321 -0.00017557943418834894 0 -0.034291498413192185 -0.00021147680207455222 0 -0.034351240804259442 -0.00020911566561634495 0 -0.034362043333961576 -0.00026759367956060749 0 -0.034291498413192185 -0.00021147680207455222 0 -0.034351240804259442 -0.00020911566561634495 0 -0.034288116723696256 -0.00014620885040557305 0 -0.034351240804259442 -0.00020911566561634495 0 -0.034387963034241159 -0.00016314645144367622 0 -0.034434345202236677 -0.00025788077394262336 0 -0.034351240804259442 -0.00020911566561634495 0 -0.034387963034241159 -0.00016314645144367622 0 -0.034288116723696256 -0.00014620885040557305 0 -0.034387963034241159 -0.00016314645144367622 0 -0.034288116723696256 -0.00014620885040557305 0 -0.034339699025617246 -6.8866970846834282e-05 0 -0.033715207729167723 -0.00019445056470977464 0 -0.033664389161489901 -8.2769492864757571e-05 0 -0.032657955195027163 -0.00012058874911267135 0 -0.032728931066445831 7.2720442936089699e-07 0 -0.032635849104832922 4.8639658679351797e-05 0 -0.033715207729167723 -0.00019445056470977464 0 -0.033322166828466837 -0.00017712719646020399 0 -0.034723460093476967 -0.00012562085926245639 0 -0.034671807889875769 -4.8969350632349203e-05 0 -0.034747869850513237 -6.2065094042161817e-05 0 -0.034651531015495958 -0.00017248725566838089 0 -0.033664389161489901 -8.2769492864757571e-05 0 -0.034671807889875769 -4.8969350632349203e-05 0 -0.034701281896531232 -2.2848393176462005e-06 0 -0.034747869850513237 -6.2065094042161817e-05 0 -0.032697225884234772 0.00016829553269382991 0 -0.032796617388573972 9.5503922849456775e-05 0 -0.032702179247500192 5.3464719488364112e-05 0 -0.033664389161489901 -8.2769492864757571e-05 0 -0.033885075162236197 0.00020029196440840739 0 -0.032730222488049236 -3.2579758662923944e-06 0 -0.032796617388573972 9.5503922849456775e-05 0 -0.032702179247500192 5.3464719488364112e-05 0 -0.032697225884234772 0.00016829553269382991 0 -0.032635849104832922 4.8639658679351797e-05 0 -0.032702179247500192 5.3464719488364112e-05 0 -0.032728931066445831 7.2720442936089699e-07 0 -0.032635849104832922 4.8639658679351797e-05 0 -0.032702179247500192 5.3464719488364112e-05 0 -0.033664389161489901 -8.2769492864757571e-05 0 -0.033031014278717657 0.00020180582528360588 0 -0.034059118123502936 -0.00039426015837460966 0 -0.034136927017277545 -0.00043201837872585281 0 -0.034118401540963662 -0.00040762328221727074 0 -0.034136927017277545 -0.00043201837872585281 0 -0.034184052070023271 -0.00038432388594091552 0 -0.034118401540963662 -0.00040762328221727074 0 -0.034249446653708708 -0.00031572458237503814 0 -0.034184052070023271 -0.00038432388594091552 0 -0.034244391356504929 -0.00034795904942481885 0 -0.034185010553639247 -0.00031889713569872353 0 -0.034136927017277545 -0.00043201837872585281 0 -0.034184052070023271 -0.00038432388594091552 0 -0.034244391356504929 -0.00034795904942481885 0 -0.034236275588486992 -0.00036528242342295656 0 -0.034192199056057991 -0.00038084097109257958 0 -0.034244391356504929 -0.00034795904942481885 0 -0.034236275588486992 -0.00036528242342295656 0 -0.034333559123919992 -0.00030494778914433003 0 -0.034184052070023271 -0.00038432388594091552 0 -0.034244391356504929 -0.00034795904942481885 0 -0.034192199056057991 -0.00038084097109257958 0 -0.034184052070023271 -0.00038432388594091552 0 -0.034192199056057991 -0.00038084097109257958 0 -0.034118401540963662 -0.00040762328221727074 0 -0.034236275588486992 -0.00036528242342295656 0 -0.034192199056057991 -0.00038084097109257958 0 -0.034187662126323751 -0.00039343692250580589 0 -0.034192199056057991 -0.00038084097109257958 0 -0.034118401540963662 -0.00040762328221727074 0 -0.034187662126323751 -0.00039343692250580589 0 -0.034118401540963662 -0.00040762328221727074 0 -0.034121176320756896 -0.00040358816820567728 0 -0.034187662126323751 -0.00039343692250580589 0 -0.034018965017438917 -0.00039186301211268856 0 -0.034118401540963662 -0.00040762328221727074 0 -0.034121176320756896 -0.00040358816820567728 0 -0.034097359292016037 -0.00041934006160039257 0 -0.034214283644986479 -0.00039653941480794798 0 -0.034246892110452051 -0.00039158765125926553 0 -0.034097359292016037 -0.00041934006160039257 0 -0.034121176320756896 -0.00040358816820567728 0 -0.034214283644986479 -0.00039653941480794798 0 -0.034097359292016037 -0.00041934006160039257 0 -0.034097244059816893 -0.0004228739347983411 0 -0.034019608596988105 -0.00051453206152437603 0 -0.034097359292016037 -0.00041934006160039257 0 -0.034019608596988105 -0.00051453206152437603 0 -0.034075160398343352 -0.00055451775531545897 0 -0.034126043514456979 -0.00040393776594119691 0 -0.03407653313041191 -0.00049298971620622876 0 -0.034121176320756896 -0.00040358816820567728 0 -0.034187662126323751 -0.00039343692250580589 0 -0.034214283644986479 -0.00039653941480794798 0 -0.034187662126323751 -0.00039343692250580589 0 -0.034214283644986479 -0.00039653941480794798 0 -0.034255099643792641 -0.00038991232194442762 0 -0.034124170674267741 -0.00043911785203059402 0 -0.03407653313041191 -0.00049298971620622876 0 -0.032059728674126868 -0.0026094414822129186 0 -0.032154859480598624 -0.0021473260967437248 0 -0.032708777276365404 -0.0023738873086074298 0 -0.032154859480598624 -0.0021473260967437248 0 -0.032708777276365404 -0.0023738873086074298 0 -0.032509712472462621 -0.0019784058225039238 0 -0.031710444135798779 -0.0014487145550527115 0 -0.033113333419830471 -0.0013412971392758788 0 -0.033814475057955456 -0.00067188890548978736 0 -0.033751060103205083 -0.00077448145736387381 0 -0.033777931380773348 -0.0006042983449678096 0 -0.033429500975450152 -0.0010573660598582439 0 -0.03407653313041191 -0.00049298971620622876 0 -0.034019608596988105 -0.00051453206152437603 0 -0.033961993756511148 -0.00071474626841992587 0 -0.034075160398343352 -0.00055451775531545897 0 -0.032154859480598624 -0.0021473260967437248 0 -0.032246122332834304 -0.0016599293183534177 0 -0.032509712472462621 -0.0019784058225039238 0 -0.033113333419830471 -0.0013412971392758788 0 -0.033429500975450152 -0.0010573660598582439 0 -0.034236275588486992 -0.00036528242342295656 0 -0.034255099643792641 -0.00038991232194442762 0 -0.034333559123919992 -0.00030494778914433003 0 -0.03407653313041191 -0.00049298971620622876 0 -0.03409531407152272 -0.00044759563641462262 0 -0.034255099643792641 -0.00038991232194442762 0 -0.034333559123919992 -0.00030494778914433003 0 -0.034427778128426803 -0.00028596179335220402 0 -0.034236275588486992 -0.00036528242342295656 0 -0.034187662126323751 -0.00039343692250580589 0 -0.034255099643792641 -0.00038991232194442762 0 -0.020294112437455259 -0.0015917893396898727 0 -0.019792126295580827 -0.0017808756645959043 0 -0.019761699026328162 -0.0018178506054442858 0 -0.026755939295545091 -0.0016463794242872441 0 -0.026174642898851266 -0.002363625507454632 0 -0.027163270474242943 -0.0019824151451640626 0 -0.026679614258522496 -0.0019205852821316783 0 -0.030211404636166644 -0.0022617351192819966 0 -0.022986960496906614 -0.0018418229907887389 0 -0.026679614258522496 -0.0019205852821316783 0 -0.033397035334220497 -0.0021259246469453115 0 -0.032708777276365404 -0.0023738873086074298 0 -0.032863476463845021 -0.0017650324063059591 0 -0.032708777276365404 -0.0023738873086074298 0 -0.032509712472462621 -0.0019784058225039238 0 -0.032863476463845021 -0.0017650324063059591 0 -0.032246122332834304 -0.0016599293183534177 0 -0.032509712472462621 -0.0019784058225039238 0 -0.032863476463845021 -0.0017650324063059591 0 -0.033397035334220497 -0.0021259246469453115 0 -0.032863476463845021 -0.0017650324063059591 0 -0.033293775751911274 -0.0015178847674595921 0 -0.033545218992235996 -0.0010429524111151972 0 -0.033293775751911274 -0.0015178847674595921 0 -0.032667777865389235 -0.0010442567100055924 0 -0.032863476463845021 -0.0017650324063059591 0 -0.033293775751911274 -0.0015178847674595921 0 -0.032667777865389235 -0.0010442567100055924 0 -0.032246122332834304 -0.0016599293183534177 0 -0.032863476463845021 -0.0017650324063059591 0 -0.032667777865389235 -0.0010442567100055924 0 -0.033545218992235996 -0.0010429524111151972 0 -0.032667777865389235 -0.0010442567100055924 0 -0.033130501182049757 -0.00041385231072776934 0 -0.034333559123919992 -0.00030494778914433003 0 -0.034427778128426803 -0.00028596179335220402 0 -0.034419725300802999 -0.00023811671229509223 0 -0.034327746962882134 -0.00028489507730595327 0 -0.034333559123919992 -0.00030494778914433003 0 -0.034419725300802999 -0.00023811671229509223 0 -0.033730641022349184 -0.00095240337981709823 0 -0.033963525958771106 -0.0006040267926446175 0 -0.033803332419753966 -0.00060173964603899162 0 -0.033429500975450152 -0.0010573660598582439 0 -0.033244023461312971 -0.00088639396538767374 0 -0.033814475057955456 -0.00067188890548978736 0 -0.033777931380773348 -0.0006042983449678096 0 -0.03384627529892404 -0.00049220152459075164 0 -0.033429500975450152 -0.0010573660598582439 0 -0.033863025677741014 -0.00048321769627126073 0 -0.033963525958771106 -0.0006040267926446175 0 -0.033803332419753966 -0.00060173964603899162 0 -0.033884914263342038 -0.00027634739632776155 0 -0.033777931380773348 -0.0006042983449678096 0 -0.033807699374821698 -0.00040851416963314191 0 -0.03384627529892404 -0.00049220152459075164 0 -0.03409531407152272 -0.00044759563641462262 0 -0.034111383205674618 -0.00032103001300132856 0 -0.034427778128426803 -0.00028596179335220402 0 -0.03450347245446788 -0.00016796465569056737 0 -0.034419725300802999 -0.00023811671229509223 0 -0.03450347245446788 -0.00016796465569056737 0 -0.034419725300802999 -0.00023811671229509223 0 -0.034473646217283611 -0.00018348602666047411 0 -0.034408301851269918 -0.00022289841252014924 0 -0.034419725300802999 -0.00023811671229509223 0 -0.034473646217283611 -0.00018348602666047411 0 -0.03450347245446788 -0.00016796465569056737 0 -0.034527520975844654 -0.00013958390851588539 0 -0.034507957024411721 -0.00016967515727123387 0 -0.03450347245446788 -0.00016796465569056737 0 -0.034473646217283611 -0.00018348602666047411 0 -0.034527520975844654 -0.00013958390851588539 0 -0.034473646217283611 -0.00018348602666047411 0 -0.034527520975844654 -0.00013958390851588539 0 -0.034479093641101619 -0.00017153901076763083 0 -0.034527520975844654 -0.00013958390851588539 0 -0.034507957024411721 -0.00016967515727123387 0 -0.034625214234825487 -0.00011652059263060891 0 -0.034714586299363449 -0.00011981726725675847 0 -0.034636875416967201 -0.00012748049994520239 0 -0.033863025677741014 -0.00048321769627126073 0 -0.033869914596876299 -0.00032237089021804521 0 -0.034111383205674618 -0.00032103001300132856 0 -0.034595379987518077 -3.613744335167499e-05 0 -0.033807699374821698 -0.00040851416963314191 0 -0.03384627529892404 -0.00049220152459075164 0 -0.033884914263342038 -0.00027634739632776155 0 -0.033807699374821698 -0.00040851416963314191 0 -0.033884914263342038 -0.00027634739632776155 0 -0.033847875961568206 -0.00016393503893376499 0 -0.03450347245446788 -0.00016796465569056737 0 -0.034505319874529941 -0.00016983051349197812 0 -0.034507957024411721 -0.00016967515727123387 0 -0.034595379987518077 -3.613744335167499e-05 0 -0.034714586299363449 -0.00011981726725675847 0 -0.034969796798187507 -6.8335114179215008e-05 0 -0.03491418443543283 -5.249484886776732e-05 0 -0.034896117282274937 -9.9358504700812264e-05 0 -0.034969796798187507 -6.8335114179215008e-05 0 -0.03491418443543283 -5.249484886776732e-05 0 -0.034937241841978856 -1.1730543325450882e-05 0 -0.03491418443543283 -5.249484886776732e-05 0 -0.034825822090519175 -3.0720421098940742e-05 0 -0.034896117282274937 -9.9358504700812264e-05 0 -0.03491418443543283 -5.249484886776732e-05 0 -0.034825822090519175 -3.0720421098940742e-05 0 -0.034937241841978856 -1.1730543325450882e-05 0 -0.034825822090519175 -3.0720421098940742e-05 0 -0.034896117282274937 -9.9358504700812264e-05 0 -0.034738401632526936 -6.0322301768818941e-05 0 -0.034896117282274937 -9.9358504700812264e-05 0 -0.034738401632526936 -6.0322301768818941e-05 0 -0.034625214234825487 -0.00011652059263060891 0 -0.033963525958771106 -0.0006040267926446175 0 -0.033884914263342038 -0.00027634739632776155 0 -0.034167924191593313 -0.00028727544213128431 0 -0.033244023461312971 -0.00088639396538767374 0 -0.033618801142843692 -0.00036635812983619551 0 -0.033884914263342038 -0.00027634739632776155 0 -0.033847875961568206 -0.00016393503893376499 0 -0.034103227783027677 -7.4883706949516811e-05 0 -0.033884914263342038 -0.00027634739632776155 0 -0.034167924191593313 -0.00028727544213128431 0 -0.034103227783027677 -7.4883706949516811e-05 0 -0.035197114365029689 0.00046614169703050791 0 -0.034976881818167438 0.00041679500656368327 0 -0.035143266793501618 0.00021779775817652041 0 -0.034595379987518077 -3.613744335167499e-05 0 -0.034569499679337118 0.00019466686340318149 0 -0.034361162262700397 5.8734598029491939e-06 0 -0.034167924191593313 -0.00028727544213128431 0 -0.034103227783027677 -7.4883706949516811e-05 0 -0.034263653123422326 0.00019881050748099833 0 -0.034569499679337118 0.00019466686340318149 0 -0.034263653123422326 0.00019881050748099833 0 -0.033618801142843692 -0.00036635812983619551 0 -0.034642570457606291 0.0004326164765249821 0 -0.034976881818167438 0.00041679500656368327 0 -0.034849956826509987 0.00023949833928275821 0 -0.034976881818167438 0.00041679500656368327 0 -0.034849956826509987 0.00023949833928275821 0 -0.034987494555208096 0.00024392114532561393 0 -0.034849956826509987 0.00023949833928275821 0 -0.034987494555208096 0.00024392114532561393 0 -0.034979496669483225 7.4005869089260987e-05 0 -0.034987494555208096 0.00024392114532561393 0 -0.034979496669483225 7.4005869089260987e-05 0 -0.035143266793501618 0.00021779775817652041 0 -0.034976881818167438 0.00041679500656368327 0 -0.034987494555208096 0.00024392114532561393 0 -0.035143266793501618 0.00021779775817652041 0 -0.035000012949711772 -2.3162868638115836e-08 0 -0.03509691249079628 0.00016719792996264818 0 -0.0350006456244615 2.0536932522774403e-07 0 -0.034979496669483225 7.4005869089260987e-05 0 -0.035143266793501618 0.00021779775817652041 0 -0.0350006456244615 2.0536932522774403e-07 0 -0.034979496669483225 7.4005869089260987e-05 0 -0.034999086109451169 -2.4888291515782148e-07 0 -0.034849956826509987 0.00023949833928275821 0 -0.034979496669483225 7.4005869089260987e-05 0 -0.034893467160203306 8.3899975191797585e-05 0 -0.034874324634047292 9.2243723619848301e-06 0 -0.034999086109451169 -2.4888291515782148e-07 0 -0.034893467160203306 8.3899975191797585e-05 0 -0.034979496669483225 7.4005869089260987e-05 0 -0.034999086109451169 -2.4888291515782148e-07 0 -0.034893467160203306 8.3899975191797585e-05 0 -0.034674760517477601 0.00018807988847699097 0 -0.034849956826509987 0.00023949833928275821 0 -0.034893467160203306 8.3899975191797585e-05 0 -0.034937241841978856 -1.1730543325450882e-05 0 -0.034977642261347947 1.6080228552220229e-06 0 -0.034952605013784943 -2.0339872882653098e-06 0 -0.034937241841978856 -1.1730543325450882e-05 0 -0.034952605013784943 -2.0339872882653098e-06 0 -0.034893108481796352 -1.517083626673331e-05 0 -0.034825822090519175 -3.0720421098940742e-05 0 -0.034937241841978856 -1.1730543325450882e-05 0 -0.034893108481796352 -1.517083626673331e-05 0 -0.034595379987518077 -3.613744335167499e-05 0 -0.03509691249079628 0.00016719792996264818 0 -0.034937241841978856 -1.1730543325450882e-05 0 -0.034988836199835699 -6.1672693101231383e-06 0 -0.034977642261347947 1.6080228552220229e-06 0 -0.034969796798187507 -6.8335114179215008e-05 0 -0.034937241841978856 -1.1730543325450882e-05 0 -0.034988836199835699 -6.1672693101231383e-06 0 -0.035000001802235454 8.6793831221653724e-09 0 -0.034977642261347947 1.6080228552220229e-06 0 -0.034999917085013175 1.0494713260762283e-08 0 -0.035000001802235454 8.6793831221653724e-09 0 -0.034988836199835699 -6.1672693101231383e-06 0 -0.034977642261347947 1.6080228552220229e-06 0 -0.034977642261347947 1.6080228552220229e-06 0 -0.034999917085013175 1.0494713260762283e-08 0 -0.034952605013784943 -2.0339872882653098e-06 0 -0.034999917085013175 1.0494713260762283e-08 0 -0.034952605013784943 -2.0339872882653098e-06 0 -0.034952715019078581 -6.0758865191639496e-06 0 -0.034952605013784943 -2.0339872882653098e-06 0 -0.034952715019078581 -6.0758865191639496e-06 0 -0.034893108481796352 -1.517083626673331e-05 0 -0.034999849510880372 -1.8377223845092634e-08 0 -0.034952715019078581 -6.0758865191639496e-06 0 -0.034912726924900536 -2.4997306148046816e-05 0 -0.034999917085013175 1.0494713260762283e-08 0 -0.034999849510880372 -1.8377223845092634e-08 0 -0.034952715019078581 -6.0758865191639496e-06 0 -0.034999849510880372 -1.8377223845092634e-08 0 -0.034993228166115976 -1.9614820100408028e-06 0 -0.034912726924900536 -2.4997306148046816e-05 0 -0.034999849510880372 -1.8377223845092634e-08 0 -0.034993228166115976 -1.9614820100408028e-06 0 -0.034999991404779301 -5.3136174334487497e-09 0 -0.034974022034917923 -1.979649859982602e-05 0 -0.034974143709725514 -8.3843861961623398e-06 0 -0.034993228166115976 -1.9614820100408028e-06 0 -0.034877022022477222 -5.4381210157014519e-05 0 -0.034912726924900536 -2.4997306148046816e-05 0 -0.034877022022477222 -5.4381210157014519e-05 0 -0.034912726924900536 -2.4997306148046816e-05 0 -0.034832884215464377 -4.2313338728860546e-05 0 -0.034893108481796352 -1.517083626673331e-05 0 -0.034912726924900536 -2.4997306148046816e-05 0 -0.034830582469667512 -3.0313923339445032e-05 0 -0.034952715019078581 -6.0758865191639496e-06 0 -0.034893108481796352 -1.517083626673331e-05 0 -0.034912726924900536 -2.4997306148046816e-05 0 -0.034912726924900536 -2.4997306148046816e-05 0 -0.034832884215464377 -4.2313338728860546e-05 0 -0.034830582469667512 -3.0313923339445032e-05 0 -0.034825822090519175 -3.0720421098940742e-05 0 -0.034893108481796352 -1.517083626673331e-05 0 -0.034830582469667512 -3.0313923339445032e-05 0 -0.034825822090519175 -3.0720421098940742e-05 0 -0.034752069995148016 -4.4989290211459403e-05 0 -0.034738401632526936 -6.0322301768818941e-05 0 -0.034825822090519175 -3.0720421098940742e-05 0 -0.034830582469667512 -3.0313923339445032e-05 0 -0.034752069995148016 -4.4989290211459403e-05 0 -0.034752069995148016 -4.4989290211459403e-05 0 -0.034738401632526936 -6.0322301768818941e-05 0 -0.03464850309166051 -4.8271092706819929e-05 0 -0.034738401632526936 -6.0322301768818941e-05 0 -0.03464850309166051 -4.8271092706819929e-05 0 -0.034625214234825487 -0.00011652059263060891 0 -0.034752069995148016 -4.4989290211459403e-05 0 -0.03464850309166051 -4.8271092706819929e-05 0 -0.034787701161905216 -4.4149901271656983e-05 0 -0.034832884215464377 -4.2313338728860546e-05 0 -0.034830582469667512 -3.0313923339445032e-05 0 -0.034752069995148016 -4.4989290211459403e-05 0 -0.034832884215464377 -4.2313338728860546e-05 0 -0.034752069995148016 -4.4989290211459403e-05 0 -0.034787701161905216 -4.4149901271656983e-05 0 -0.034974143709725514 -8.3843861961623398e-06 0 -0.034617317584429305 -6.8031759553359566e-05 0 -0.03464850309166051 -4.8271092706819929e-05 0 -0.034787701161905216 -4.4149901271656983e-05 0 -0.034878631365505917 2.9385241142214348e-05 0 -0.034877022022477222 -5.4381210157014519e-05 0 -0.034832884215464377 -4.2313338728860546e-05 0 -0.034787701161905216 -4.4149901271656983e-05 0 -0.034877022022477222 -5.4381210157014519e-05 0 -0.034787701161905216 -4.4149901271656983e-05 0 -0.034878631365505917 2.9385241142214348e-05 0 -0.034611819563521884 -2.77578655598082e-05 0 -0.034617317584429305 -6.8031759553359566e-05 0 -0.03421096586587094 -4.0826355908243773e-05 0 -0.034443158462159527 -0.00013261355922296751 0 -0.034517208905375567 -9.6401594281734379e-05 0 -0.034262363041713498 -0.00024176621731105373 0 -0.034617317584429305 -6.8031759553359566e-05 0 -0.034235106067002932 -0.00023951644313191376 0 -0.03421096586587094 -4.0826355908243773e-05 0 -0.034331694310442321 -0.00017557943418834894 0 -0.03464850309166051 -4.8271092706819929e-05 0 -0.03421096586587094 -4.0826355908243773e-05 0 -0.034517208905375567 -9.6401594281734379e-05 0 -0.03421096586587094 -4.0826355908243773e-05 0 -0.034443158462159527 -0.00013261355922296751 0 -0.034331694310442321 -0.00017557943418834894 0 -0.034397443152864457 -0.00020526218519980946 0 -0.034331694310442321 -0.00017557943418834894 0 -0.034446013004587897 -0.00016828221967966068 0 -0.034443158462159527 -0.00013261355922296751 0 -0.034331694310442321 -0.00017557943418834894 0 -0.034446013004587897 -0.00016828221967966068 0 -0.034446013004587897 -0.00016828221967966068 0 -0.034479093641101619 -0.00017153901076763083 0 -0.034534891247758916 -0.00014136719740776154 0 -0.034443158462159527 -0.00013261355922296751 0 -0.034446013004587897 -0.00016828221967966068 0 -0.034534891247758916 -0.00014136719740776154 0 -0.034527520975844654 -0.00013958390851588539 0 -0.034479093641101619 -0.00017153901076763083 0 -0.034534891247758916 -0.00014136719740776154 0 -0.034527520975844654 -0.00013958390851588539 0 -0.034534891247758916 -0.00014136719740776154 0 -0.034625214234825487 -0.00011652059263060891 0 -0.03464850309166051 -4.8271092706819929e-05 0 -0.034625214234825487 -0.00011652059263060891 0 -0.034517208905375567 -9.6401594281734379e-05 0 -0.034534891247758916 -0.00014136719740776154 0 -0.034625214234825487 -0.00011652059263060891 0 -0.034517208905375567 -9.6401594281734379e-05 0 -0.034443158462159527 -0.00013261355922296751 0 -0.034534891247758916 -0.00014136719740776154 0 -0.034517208905375567 -9.6401594281734379e-05 0 -0.034992710829390504 -2.112837375693222e-06 0 -0.034994837087205584 -1.5528826074187895e-06 0 -0.034993175784803959 -2.587170949369563e-06 0 -0.034351240804259442 -0.00020911566561634495 0 -0.034362043333961576 -0.00026759367956060749 0 -0.034434345202236677 -0.00025788077394262336 0 -0.034669113526287682 -0.00013692700499384449 0 -0.034782664064510069 -0.00016544335422200856 0 -0.034617317584429305 -6.8031759553359566e-05 0 -0.034669113526287682 -0.00013692700499384449 0 -0.034291498413192185 -0.00021147680207455222 0 -0.03429374393780963 -0.00027588635008841353 0 -0.034362043333961576 -0.00026759367956060749 0 -0.03499532190862549 -1.4811744757767071e-07 0 -0.034992093181102246 -2.107980720898959e-06 0 -0.034994231540059588 -1.30300145797864e-06 0 -0.034992093181102246 -2.107980720898959e-06 0 -0.034992710829390504 -2.112837375693222e-06 0 -0.034994231540059588 -1.30300145797864e-06 0 -0.034994231540059588 -1.30300145797864e-06 0 -0.034994837087205584 -1.5528826074187895e-06 0 -0.034996873209665678 -6.7877421889622887e-07 0 -0.034992710829390504 -2.112837375693222e-06 0 -0.034994231540059588 -1.30300145797864e-06 0 -0.034994837087205584 -1.5528826074187895e-06 0 -0.03499532190862549 -1.4811744757767071e-07 0 -0.034994231540059588 -1.30300145797864e-06 0 -0.034996873209665678 -6.7877421889622887e-07 0 -0.03499532190862549 -1.4811744757767071e-07 0 -0.034996873209665678 -6.7877421889622887e-07 0 -0.034996618402415539 -3.0132847774118479e-07 0 -0.034993228166115976 -1.9614820100408028e-06 0 -0.03499532190862549 -1.4811744757767071e-07 0 -0.034996618402415539 -3.0132847774118479e-07 0 -0.034996873209665678 -6.7877421889622887e-07 0 -0.034996618402415539 -3.0132847774118479e-07 0 -0.034999991404779301 -5.3136174334487497e-09 0 -0.034993228166115976 -1.9614820100408028e-06 0 -0.034996618402415539 -3.0132847774118479e-07 0 -0.034999991404779301 -5.3136174334487497e-09 0 -0.034996873209665678 -6.7877421889622887e-07 0 -0.034999991404779301 -5.3136174334487497e-09 0 -0.034999997713118389 4.2239382944321556e-10 0 -0.034999980246183844 -7.0027792556395336e-09 0 -0.034950194090161056 -5.6403275344468378e-05 0 -0.03492832156234621 -1.9614847559976533e-05 0 -0.034999965430522001 -3.685826597192439e-09 0 -0.035002861457624157 -1.4530726813442584e-05 0 -0.034999997713118389 4.2239382944321556e-10 0 -0.034999998096990483 -7.0547404099763612e-10 0 -0.034997004061025259 -1.124639522512146e-06 0 -0.034950194090161056 -5.6403275344468378e-05 0 -0.03492832156234621 -1.9614847559976533e-05 0 -0.034900417401560219 -6.2144285435478144e-05 0 -0.034996873209665678 -6.7877421889622887e-07 0 -0.034999997713118389 4.2239382944321556e-10 0 -0.034997004061025259 -1.124639522512146e-06 0 -0.034994837087205584 -1.5528826074187895e-06 0 -0.034996873209665678 -6.7877421889622887e-07 0 -0.034997004061025259 -1.124639522512146e-06 0 -0.034999743900009928 4.815089385794802e-08 0 -0.03492832156234621 -1.9614847559976533e-05 0 -0.034792800239844525 -1.9863028554069498e-05 0 -0.034999946845707786 -2.1175615795688725e-08 0 -0.034877644551455284 -3.2453688001291039e-05 0 -0.035000038603255512 -2.3245339940718814e-08 0 -0.034971417462367357 -2.3388559445020593e-05 0 -0.03499987742756254 1.4071219649533356e-08 0 -0.034999980246183844 -7.0027792556395336e-09 0 -0.034999743900009928 4.815089385794802e-08 0 -0.03492832156234621 -1.9614847559976533e-05 0 -0.03492832156234621 -1.9614847559976533e-05 0 -0.034900417401560219 -6.2144285435478144e-05 0 -0.034844657142111143 -5.2525584714725947e-05 0 -0.034844657142111143 -5.2525584714725947e-05 0 -0.034792800239844525 -1.9863028554069498e-05 0 -0.034740475882872317 -0.00011302473026368047 0 -0.03492832156234621 -1.9614847559976533e-05 0 -0.034844657142111143 -5.2525584714725947e-05 0 -0.034792800239844525 -1.9863028554069498e-05 0 -0.034740475882872317 -0.00011302473026368047 0 -0.03460529185710981 -0.00022973742141844093 0 -0.034572623071734136 -0.00014568155351004234 0 -0.034877644551455284 -3.2453688001291039e-05 0 -0.034730406937833774 -0.00012618388371245801 0 -0.034792800239844525 -1.9863028554069498e-05 0 -0.034740475882872317 -0.00011302473026368047 0 -0.034572623071734136 -0.00014568155351004234 0 -0.034844657142111143 -5.2525584714725947e-05 0 -0.034740475882872317 -0.00011302473026368047 0 -0.034838209129035284 -9.393959726029173e-05 0 -0.034740475882872317 -0.00011302473026368047 0 -0.034784953033269998 -0.00013422441046433579 0 -0.034838209129035284 -9.393959726029173e-05 0 -0.034740475882872317 -0.00011302473026368047 0 -0.034784953033269998 -0.00013422441046433579 0 -0.034712656354475235 -0.00019761473419998763 0 -0.034854963515552534 -0.00014561293959094456 0 -0.034838209129035284 -9.393959726029173e-05 0 -0.03487772732649716 -0.00010747594341697362 0 -0.034571509348273369 -0.00020602738946044706 0 -0.0347298360779549 -0.00012142794217339299 0 -0.034817847978596071 -0.00016359148555162943 0 -0.034784953033269998 -0.00013422441046433579 0 -0.034838209129035284 -9.393959726029173e-05 0 -0.034817847978596071 -0.00016359148555162943 0 -0.034784953033269998 -0.00013422441046433579 0 -0.034712656354475235 -0.00019761473419998763 0 -0.034900417401560219 -6.2144285435478144e-05 0 -0.034844657142111143 -5.2525584714725947e-05 0 -0.034838209129035284 -9.393959726029173e-05 0 -0.034900417401560219 -6.2144285435478144e-05 0 -0.03487772732649716 -0.00010747594341697362 0 -0.034908067302251551 -9.2016701666444465e-05 0 -0.034900417401560219 -6.2144285435478144e-05 0 -0.034838209129035284 -9.393959726029173e-05 0 -0.03487772732649716 -0.00010747594341697362 0 -0.03487772732649716 -0.00010747594341697362 0 -0.034872982646045332 -0.00014473195676183192 0 -0.034908067302251551 -9.2016701666444465e-05 0 -0.034854963515552534 -0.00014561293959094456 0 -0.03487772732649716 -0.00010747594341697362 0 -0.034872982646045332 -0.00014473195676183192 0 -0.034571509348273369 -0.00020602738946044706 0 -0.034395200337396042 -0.00038222538896851645 0 -0.034854963515552534 -0.00014561293959094456 0 -0.034867124654667715 -0.00016889537052093285 0 -0.034861958492555759 -0.00015374991985631957 0 -0.034571509348273369 -0.00020602738946044706 0 -0.034614743778410603 -0.00025878192516468697 0 -0.034854963515552534 -0.00014561293959094456 0 -0.034872982646045332 -0.00014473195676183192 0 -0.034867124654667715 -0.00016889537052093285 0 -0.034740475882872317 -0.00011302473026368047 0 -0.03460529185710981 -0.00022973742141844093 0 -0.034712656354475235 -0.00019761473419998763 0 -0.03460529185710981 -0.00022973742141844093 0 -0.034712656354475235 -0.00019761473419998763 0 -0.034620061391839645 -0.00036157845591882568 0 -0.034817847978596071 -0.00016359148555162943 0 -0.034712656354475235 -0.00019761473419998763 0 -0.034620061391839645 -0.00036157845591882568 0 -0.035002861457624157 -1.4530726813442584e-05 0 -0.034782664064510069 -0.00016544335422200856 0 -0.034994837087205584 -1.5528826074187895e-06 0 -0.034997004061025259 -1.124639522512146e-06 0 -0.034993175784803959 -2.587170949369563e-06 0 -0.034950194090161056 -5.6403275344468378e-05 0 -0.034908067302251551 -9.2016701666444465e-05 0 -0.03497126382532173 -0.000160366607455419 0 -0.034950194090161056 -5.6403275344468378e-05 0 -0.034900417401560219 -6.2144285435478144e-05 0 -0.034908067302251551 -9.2016701666444465e-05 0 -0.034872982646045332 -0.00014473195676183192 0 -0.034867124654667715 -0.00016889537052093285 0 -0.03497126382532173 -0.000160366607455419 0 -0.034872982646045332 -0.00014473195676183192 0 -0.034908067302251551 -9.2016701666444465e-05 0 -0.03497126382532173 -0.000160366607455419 0 -0.034867124654667715 -0.00016889537052093285 0 -0.034772402235878817 -0.000204274566815723 0 -0.034806532931148805 -0.00015287595638045767 0 -0.034901794785179047 -0.00017232419635139417 0 -0.034782664064510069 -0.00016544335422200856 0 -0.034651531015495958 -0.00017248725566838089 0 -0.034782664064510069 -0.00016544335422200856 0 -0.034723460093476967 -0.00012562085926245639 0 -0.034772402235878817 -0.000204274566815723 0 -0.034806532931148805 -0.00015287595638045767 0 -0.034723460093476967 -0.00012562085926245639 0 -0.03480441717350554 -0.00010953879674260277 0 -0.034806532931148805 -0.00015287595638045767 0 -0.034723460093476967 -0.00012562085926245639 0 -0.03480441717350554 -0.00010953879674260277 0 -0.034747869850513237 -6.2065094042161817e-05 0 -0.03480441717350554 -0.00010953879674260277 0 -0.034861958492555759 -0.00015374991985631957 0 -0.034831901481077308 -5.7882360696661476e-05 0 -0.03480441717350554 -0.00010953879674260277 0 -0.034806532931148805 -0.00015287595638045767 0 -0.034861958492555759 -0.00015374991985631957 0 -0.034867124654667715 -0.00016889537052093285 0 -0.034806532931148805 -0.00015287595638045767 0 -0.034861958492555759 -0.00015374991985631957 0 -0.034236287864598799 -0.00028824159397615516 0 -0.034249577769678026 -0.00042796009352127689 0 -0.03418084978559259 -0.0004050347430762008 0 -0.03460529185710981 -0.00022973742141844093 0 -0.034620061391839645 -0.00036157845591882568 0 -0.03436848446315699 -0.00033225028381796801 0 -0.03418084978559259 -0.0004050347430762008 0 -0.034217174162843977 -0.00049790397665534021 0 -0.034140718637760158 -0.0005119716356611091 0 -0.034620061391839645 -0.00036157845591882568 0 -0.034371453564914015 -0.00054012329827852915 0 -0.034386114702717747 -0.00043936190304740312 0 -0.034395200337396042 -0.00038222538896851645 0 -0.034256501180803131 -0.00051341830025181568 0 -0.034614743778410603 -0.00025878192516468697 0 -0.034088341724988133 -0.0004858645771471632 0 -0.034249577769678026 -0.00042796009352127689 0 -0.03418084978559259 -0.0004050347430762008 0 -0.034217174162843977 -0.00049790397665534021 0 -0.034249577769678026 -0.00042796009352127689 0 -0.034217174162843977 -0.00049790397665534021 0 -0.034262583481120344 -0.00055964625814762168 0 -0.03425099746282128 -0.00054503578571356509 0 -0.034088341724988133 -0.0004858645771471632 0 -0.034197875794022503 -0.00054096135171316712 0 -0.034238891536501413 -0.00055145021795572236 0 -0.034181978252694874 -0.00058774874510751369 0 -0.034217174162843977 -0.00049790397665534021 0 -0.034197875794022503 -0.00054096135171316712 0 -0.034238891536501413 -0.00055145021795572236 0 -0.034197875794022503 -0.00054096135171316712 0 -0.034140718637760158 -0.0005119716356611091 0 -0.034181978252694874 -0.00058774874510751369 0 -0.034217174162843977 -0.00049790397665534021 0 -0.034197875794022503 -0.00054096135171316712 0 -0.034140718637760158 -0.0005119716356611091 0 -0.034140718637760158 -0.0005119716356611091 0 -0.034181978252694874 -0.00058774874510751369 0 -0.034110938577427377 -0.00058897949578309687 0 -0.034181978252694874 -0.00058774874510751369 0 -0.034110938577427377 -0.00058897949578309687 0 -0.034188813551734289 -0.00066790643967822223 0 -0.034238891536501413 -0.00055145021795572236 0 -0.034181978252694874 -0.00058774874510751369 0 -0.034232898740305752 -0.00063366839338870789 0 -0.033284078323651135 -0.00078127528740322687 0 -0.033216982778588679 -0.00071678156059172668 0 -0.03324743899719855 -0.00068031993384732833 0 -0.034088341724988133 -0.0004858645771471632 0 -0.033826800931701227 -0.00065826920624866166 0 -0.034831901481077308 -5.7882360696661476e-05 0 -0.03477910393005143 -6.152079342186026e-06 0 -0.034747869850513237 -6.2065094042161817e-05 0 -0.034088341724988133 -0.0004858645771471632 0 -0.034138236523085431 -0.00043924001757946146 0 -0.034701281896531232 -2.2848393176462005e-06 0 -0.03477910393005143 -6.152079342186026e-06 0 -0.034747869850513237 -6.2065094042161817e-05 0 -0.03480441717350554 -0.00010953879674260277 0 -0.034831901481077308 -5.7882360696661476e-05 0 -0.034747869850513237 -6.2065094042161817e-05 0 -0.034294931665924747 -0.00044373957935822981 0 -0.034097849337669663 -0.00052563110643584596 0 -0.034125984128791691 -0.00056639081140703667 0 -0.034294931665924747 -0.00044373957935822981 0 -0.034097849337669663 -0.00052563110643584596 0 -0.034271488874782388 -0.0003744191875765601 0 -0.034097849337669663 -0.00052563110643584596 0 -0.034271488874782388 -0.0003744191875765601 0 -0.034107333682450613 -0.00041067968623141154 0 -0.034097849337669663 -0.00052563110643584596 0 -0.033940040448322731 -0.00061041617548230492 0 -0.033884983623182895 -0.00064897499778930503 0 -0.034097849337669663 -0.00052563110643584596 0 -0.034107333682450613 -0.00041067968623141154 0 -0.033940040448322731 -0.00061041617548230492 0 -0.034097849337669663 -0.00052563110643584596 0 -0.034125984128791691 -0.00056639081140703667 0 -0.033884983623182895 -0.00064897499778930503 0 -0.034125984128791691 -0.00056639081140703667 0 -0.033968369104933616 -0.00063523642125172411 0 -0.033884983623182895 -0.00064897499778930503 0 -0.034125984128791691 -0.00056639081140703667 0 -0.034110938577427377 -0.00058897949578309687 0 -0.034176890174562088 -0.00056188238572938798 0 -0.034125984128791691 -0.00056639081140703667 0 -0.034110938577427377 -0.00058897949578309687 0 -0.033968369104933616 -0.00063523642125172411 0 -0.034371453564914015 -0.00054012329827852915 0 -0.034176890174562088 -0.00056188238572938798 0 -0.034203009016898496 -0.00051008358392991315 0 -0.034256501180803131 -0.00051341830025181568 0 -0.03413597875762471 -0.00058237005503336038 0 -0.034371453564914015 -0.00054012329827852915 0 -0.034110938577427377 -0.00058897949578309687 0 -0.034176890174562088 -0.00056188238572938798 0 -0.03417336853970375 -0.0005541939947347642 0 -0.034360958122524543 -0.00044217902839501243 0 -0.034294931665924747 -0.00044373957935822981 0 -0.034125984128791691 -0.00056639081140703667 0 -0.034533016108953811 -0.00039576380055303368 0 -0.034125984128791691 -0.00056639081140703667 0 -0.034176890174562088 -0.00056188238572938798 0 -0.034203009016898496 -0.00051008358392991315 0 -0.034294931665924747 -0.00044373957935822981 0 -0.034533016108953811 -0.00039576380055303368 0 -0.034522152781815529 -0.000262777268317854 0 -0.034360958122524543 -0.00044217902839501243 0 -0.034562270660437801 -0.00027978934422990246 0 -0.034203009016898496 -0.00051008358392991315 0 -0.034386114702717747 -0.00043936190304740312 0 -0.03436848446315699 -0.00033225028381796801 0 -0.034371453564914015 -0.00054012329827852915 0 -0.034203009016898496 -0.00051008358392991315 0 -0.034386114702717747 -0.00043936190304740312 0 -0.034620061391839645 -0.00036157845591882568 0 -0.034386114702717747 -0.00043936190304740312 0 -0.03436848446315699 -0.00033225028381796801 0 -0.034533016108953811 -0.00039576380055303368 0 -0.034758745159197559 -0.00022660051754060028 0 -0.034522152781815529 -0.000262777268317854 0 -0.034758745159197559 -0.00022660051754060028 0 -0.034522152781815529 -0.000262777268317854 0 -0.0347465807064282 -0.00013092087042670185 0 -0.034522152781815529 -0.000262777268317854 0 -0.034450225083227724 -0.00023371125604903096 0 -0.034686551430810689 -0.0001077665310671122 0 -0.034294931665924747 -0.00044373957935822981 0 -0.034522152781815529 -0.000262777268317854 0 -0.034271488874782388 -0.0003744191875765601 0 -0.034271488874782388 -0.0003744191875765601 0 -0.034450225083227724 -0.00023371125604903096 0 -0.034255880499858476 -0.00032759804168978754 0 -0.034522152781815529 -0.000262777268317854 0 -0.034271488874782388 -0.0003744191875765601 0 -0.034450225083227724 -0.00023371125604903096 0 -0.034450225083227724 -0.00023371125604903096 0 -0.034686551430810689 -0.0001077665310671122 0 -0.03460824725583489 -0.00011334199848571608 0 -0.034522152781815529 -0.000262777268317854 0 -0.034686551430810689 -0.0001077665310671122 0 -0.0347465807064282 -0.00013092087042670185 0 -0.034686551430810689 -0.0001077665310671122 0 -0.034868085115139669 -3.4882459243564024e-05 0 -0.034833506838924423 -4.0103278020610242e-05 0 -0.034686551430810689 -0.0001077665310671122 0 -0.034833506838924423 -4.0103278020610242e-05 0 -0.03460824725583489 -0.00011334199848571608 0 -0.034562270660437801 -0.00027978934422990246 0 -0.034730406937833774 -0.00012618388371245801 0 -0.03460529185710981 -0.00022973742141844093 0 -0.03436848446315699 -0.00033225028381796801 0 -0.034572623071734136 -0.00014568155351004234 0 -0.034758745159197559 -0.00022660051754060028 0 -0.0347465807064282 -0.00013092087042670185 0 -0.034890718501764548 -9.6734843940319103e-05 0 -0.034686551430810689 -0.0001077665310671122 0 -0.0347465807064282 -0.00013092087042670185 0 -0.034868085115139669 -3.4882459243564024e-05 0 -0.0347465807064282 -0.00013092087042670185 0 -0.034890718501764548 -9.6734843940319103e-05 0 -0.034868085115139669 -3.4882459243564024e-05 0 -0.034971417462367357 -2.3388559445020593e-05 0 -0.034890718501764548 -9.6734843940319103e-05 0 -0.034868085115139669 -3.4882459243564024e-05 0 -0.034971417462367357 -2.3388559445020593e-05 0 -0.034868085115139669 -3.4882459243564024e-05 0 -0.03499987742756254 1.4071219649533356e-08 0 -0.034868085115139669 -3.4882459243564024e-05 0 -0.03499987742756254 1.4071219649533356e-08 0 -0.034999799409299051 -7.8037599322043245e-09 0 -0.034868085115139669 -3.4882459243564024e-05 0 -0.034833506838924423 -4.0103278020610242e-05 0 -0.034999799409299051 -7.8037599322043245e-09 0 -0.034833506838924423 -4.0103278020610242e-05 0 -0.034999799409299051 -7.8037599322043245e-09 0 -0.034999813710877549 -3.9803731977990303e-08 0 -0.034833506838924423 -4.0103278020610242e-05 0 -0.034999813710877549 -3.9803731977990303e-08 0 -0.034864152291701124 -4.0360194287082272e-05 0 -0.034833506838924423 -4.0103278020610242e-05 0 -0.034864152291701124 -4.0360194287082272e-05 0 -0.034759608472611357 -6.988276449199581e-05 0 -0.034864152291701124 -4.0360194287082272e-05 0 -0.034824845564213884 -5.6176831882439838e-05 0 -0.034759608472611357 -6.988276449199581e-05 0 -0.034824845564213884 -5.6176831882439838e-05 0 -0.034924243067308916 -3.1105222114913933e-05 0 -0.034886176084465391 -4.4483306600467685e-05 0 -0.034864152291701124 -4.0360194287082272e-05 0 -0.034824845564213884 -5.6176831882439838e-05 0 -0.034924243067308916 -3.1105222114913933e-05 0 -0.034999813710877549 -3.9803731977990303e-08 0 -0.034924243067308916 -3.1105222114913933e-05 0 -0.034999763882103074 -5.0441403373571355e-08 0 -0.034999813710877549 -3.9803731977990303e-08 0 -0.034864152291701124 -4.0360194287082272e-05 0 -0.034924243067308916 -3.1105222114913933e-05 0 -0.034924243067308916 -3.1105222114913933e-05 0 -0.034999763882103074 -5.0441403373571355e-08 0 -0.034928890654312553 -3.0333385875453334e-05 0 -0.035000006952111522 9.9375100229489528e-08 0 -0.034771877309959086 -0.00011062381869976215 0 -0.035000000071041461 -8.0706148384964582e-10 0 -0.034999997751606268 -1.9178156512849199e-10 0 -0.034998803166216126 -1.1938925377078615e-06 0 -0.0350000585616611 -1.1351235485246603e-08 0 -0.035022695040102469 -1.6194125206930491e-05 0 -0.035006612303037546 -1.6802451622695695e-05 0 -0.035000014337912097 -4.4708345164662761e-08 0 -0.034771877309959086 -0.00011062381869976215 0 -0.034771877309959086 -0.00011062381869976215 0 -0.034697021837981859 -0.00018146914231903852 0 -0.035022695040102469 -1.6194125206930491e-05 0 -0.035024196708827789 -4.1174866016844183e-05 0 -0.035006612303037546 -1.6802451622695695e-05 0 -0.034323640050617867 -0.00040161748366524831 0 -0.034358986238549265 -0.00033396454338675792 0 -0.03431095047578675 -0.00034053370326598599 0 -0.034771877309959086 -0.00011062381869976215 0 -0.034550811633186719 -0.00020577260870083093 0 -0.034323640050617867 -0.00040161748366524831 0 -0.03431095047578675 -0.00034053370326598599 0 -0.034271907980257463 -0.00032620603857050253 0 -0.034928890654312553 -3.0333385875453334e-05 0 -0.034886176084465391 -4.4483306600467685e-05 0 -0.034848976243275216 -5.0585125506331508e-05 0 -0.034924243067308916 -3.1105222114913933e-05 0 -0.034928890654312553 -3.0333385875453334e-05 0 -0.034886176084465391 -4.4483306600467685e-05 0 -0.034824845564213884 -5.6176831882439838e-05 0 -0.034886176084465391 -4.4483306600467685e-05 0 -0.034848976243275216 -5.0585125506331508e-05 0 -0.034271907980257463 -0.00032620603857050253 0 -0.034274047992258506 -0.00030084049899919589 0 -0.0342710171693415 -0.00027743322078737915 0 -0.034271907980257463 -0.00032620603857050253 0 -0.034282342702965554 -0.00031902905636173009 0 -0.034274047992258506 -0.00030084049899919589 0 -0.03431095047578675 -0.00034053370326598599 0 -0.034271907980257463 -0.00032620603857050253 0 -0.034282342702965554 -0.00031902905636173009 0 -0.03431095047578675 -0.00034053370326598599 0 -0.034282342702965554 -0.00031902905636173009 0 -0.034337603220759599 -0.00031249088239280895 0 -0.034282342702965554 -0.00031902905636173009 0 -0.034274047992258506 -0.00030084049899919589 0 -0.034289430305615598 -0.00031965725156159154 0 -0.034697021837981859 -0.00018146914231903852 0 -0.034523651312589713 -0.00027401508542801797 0 -0.034222735153154223 -0.00033697042740274858 0 -0.034523651312589713 -0.00027401508542801797 0 -0.034358986238549265 -0.00033396454338675792 0 -0.034337603220759599 -0.00031249088239280895 0 -0.034399923263431158 -0.00025256953909087037 0 -0.034282342702965554 -0.00031902905636173009 0 -0.034337603220759599 -0.00031249088239280895 0 -0.034399923263431158 -0.00025256953909087037 0 -0.034282342702965554 -0.00031902905636173009 0 -0.034289430305615598 -0.00031965725156159154 0 -0.034317458105555768 -0.00034207723774784716 0 -0.034358986238549265 -0.00033396454338675792 0 -0.03431095047578675 -0.00034053370326598599 0 -0.034337603220759599 -0.00031249088239280895 0 -0.034289430305615598 -0.00031965725156159154 0 -0.034298953455387124 -0.00032409226785710753 0 -0.034317458105555768 -0.00034207723774784716 0 -0.034298953455387124 -0.00032409226785710753 0 -0.034317458105555768 -0.00034207723774784716 0 -0.034313237478306724 -0.0003165851135659645 0 -0.034289430305615598 -0.00031965725156159154 0 -0.034298953455387124 -0.00032409226785710753 0 -0.034273554910925798 -0.00030783450498025444 0 -0.034298953455387124 -0.00032409226785710753 0 -0.034273554910925798 -0.00030783450498025444 0 -0.034313237478306724 -0.0003165851135659645 0 -0.034274047992258506 -0.00030084049899919589 0 -0.034273554910925798 -0.00030783450498025444 0 -0.034252722265836012 -0.00028290414941325011 0 -0.034274047992258506 -0.00030084049899919589 0 -0.034289430305615598 -0.00031965725156159154 0 -0.034273554910925798 -0.00030783450498025444 0 -0.03446806872557874 -0.00020506650492153482 0 -0.034399422337564357 -0.00024521088776363256 0 -0.034274047992258506 -0.00030084049899919589 0 -0.0342710171693415 -0.00027743322078737915 0 -0.034252722265836012 -0.00028290414941325011 0 -0.0342710171693415 -0.00027743322078737915 0 -0.034362747148407924 -0.00023852892579181168 0 -0.034252722265836012 -0.00028290414941325011 0 -0.0346495621328528 -9.5183030448901172e-05 0 -0.03460824725583489 -0.00011334199848571608 0 -0.034362747148407924 -0.00023852892579181168 0 -0.034450225083227724 -0.00023371125604903096 0 -0.03460824725583489 -0.00011334199848571608 0 -0.034362747148407924 -0.00023852892579181168 0 -0.034833506838924423 -4.0103278020610242e-05 0 -0.03460824725583489 -0.00011334199848571608 0 -0.034759608472611357 -6.988276449199581e-05 0 -0.0346495621328528 -9.5183030448901172e-05 0 -0.03460824725583489 -0.00011334199848571608 0 -0.034759608472611357 -6.988276449199581e-05 0 -0.034824845564213884 -5.6176831882439838e-05 0 -0.0346495621328528 -9.5183030448901172e-05 0 -0.034759608472611357 -6.988276449199581e-05 0 -0.034550811633186719 -0.00020577260870083093 0 -0.03446806872557874 -0.00020506650492153482 0 -0.034824845564213884 -5.6176831882439838e-05 0 -0.034848976243275216 -5.0585125506331508e-05 0 -0.0346495621328528 -9.5183030448901172e-05 0 -0.034955017083336808 -3.3965400170149714e-05 0 -0.034999961567399838 -2.4924706835041591e-09 0 -0.034956834063681608 -1.5763788130935539e-05 0 -0.034955017083336808 -3.3965400170149714e-05 0 -0.034956834063681608 -1.5763788130935539e-05 0 -0.034905578543524877 -6.3113078944069615e-05 0 -0.034999961567399838 -2.4924706835041591e-09 0 -0.034987438908321754 -1.4909073394693632e-05 0 -0.034999981428983785 -1.0044748138610466e-08 0 -0.034955017083336808 -3.3965400170149714e-05 0 -0.034999961567399838 -2.4924706835041591e-09 0 -0.034987438908321754 -1.4909073394693632e-05 0 -0.034955017083336808 -3.3965400170149714e-05 0 -0.034987438908321754 -1.4909073394693632e-05 0 -0.034984366082692182 -3.8539361585645518e-05 0 -0.034984366082692182 -3.8539361585645518e-05 0 -0.034997128965979424 -2.0175456923300512e-05 0 -0.035006471111897336 -4.2010349777489537e-05 0 -0.034987438908321754 -1.4909073394693632e-05 0 -0.034984366082692182 -3.8539361585645518e-05 0 -0.034997128965979424 -2.0175456923300512e-05 0 -0.034987438908321754 -1.4909073394693632e-05 0 -0.034997128965979424 -2.0175456923300512e-05 0 -0.034999981428983785 -1.0044748138610466e-08 0 -0.0350000585616611 -1.1351235485246603e-08 0 -0.034999981428983785 -1.0044748138610466e-08 0 -0.035006612303037546 -1.6802451622695695e-05 0 -0.034997128965979424 -2.0175456923300512e-05 0 -0.034999981428983785 -1.0044748138610466e-08 0 -0.035006612303037546 -1.6802451622695695e-05 0 -0.035024196708827789 -4.1174866016844183e-05 0 -0.035006612303037546 -1.6802451622695695e-05 0 -0.035006471111897336 -4.2010349777489537e-05 0 -0.034997128965979424 -2.0175456923300512e-05 0 -0.035006612303037546 -1.6802451622695695e-05 0 -0.035006471111897336 -4.2010349777489537e-05 0 -0.035006471111897336 -4.2010349777489537e-05 0 -0.035024213326607156 -7.6123726496948066e-05 0 -0.034993306905260153 -6.9948106633571563e-05 0 -0.035024196708827789 -4.1174866016844183e-05 0 -0.035006471111897336 -4.2010349777489537e-05 0 -0.035024213326607156 -7.6123726496948066e-05 0 -0.034317458105555768 -0.00034207723774784716 0 -0.034392941693938181 -0.00033004181962877511 0 -0.034313237478306724 -0.0003165851135659645 0 -0.034523651312589713 -0.00027401508542801797 0 -0.034329088212607238 -0.00040600926711372142 0 -0.034523651312589713 -0.00027401508542801797 0 -0.034789489807995767 -0.00026420503181410077 0 -0.03430138952259635 -0.00052294264073055583 0 -0.034546052894842819 -0.00040795197227843667 0 -0.034392941693938181 -0.00033004181962877511 0 -0.034982982544975456 -0.00013264321965689624 0 -0.034993306905260153 -6.9948106633571563e-05 0 -0.034956534256679585 -7.7924280605701565e-05 0 -0.035024213326607156 -7.6123726496948066e-05 0 -0.034982982544975456 -0.00013264321965689624 0 -0.034993306905260153 -6.9948106633571563e-05 0 -0.034984366082692182 -3.8539361585645518e-05 0 -0.034993306905260153 -6.9948106633571563e-05 0 -0.034956534256679585 -7.7924280605701565e-05 0 -0.034984366082692182 -3.8539361585645518e-05 0 -0.035006471111897336 -4.2010349777489537e-05 0 -0.034993306905260153 -6.9948106633571563e-05 0 -0.034955017083336808 -3.3965400170149714e-05 0 -0.034984366082692182 -3.8539361585645518e-05 0 -0.034956534256679585 -7.7924280605701565e-05 0 -0.034955017083336808 -3.3965400170149714e-05 0 -0.034956534256679585 -7.7924280605701565e-05 0 -0.034907825037187222 -8.4531702072946025e-05 0 -0.034982982544975456 -0.00013264321965689624 0 -0.034956534256679585 -7.7924280605701565e-05 0 -0.034820956529887821 -0.0002057407853620108 0 -0.034956534256679585 -7.7924280605701565e-05 0 -0.034907825037187222 -8.4531702072946025e-05 0 -0.034820956529887821 -0.0002057407853620108 0 -0.034907825037187222 -8.4531702072946025e-05 0 -0.034820956529887821 -0.0002057407853620108 0 -0.034857143061450817 -0.00013253603586805207 0 -0.034955017083336808 -3.3965400170149714e-05 0 -0.034907825037187222 -8.4531702072946025e-05 0 -0.034905578543524877 -6.3113078944069615e-05 0 -0.034820956529887821 -0.0002057407853620108 0 -0.034686188626337759 -0.0001203657401517717 0 -0.034778483279902933 -0.00012498751723119037 0 -0.034820956529887821 -0.0002057407853620108 0 -0.034778483279902933 -0.00012498751723119037 0 -0.034829360202597116 -0.00015334296018161444 0 -0.034546052894842819 -0.00040795197227843667 0 -0.034820956529887821 -0.0002057407853620108 0 -0.034522526638006007 -0.00027113655791200598 0 -0.034789489807995767 -0.00026420503181410077 0 -0.034807120712500035 -0.0002170889676367839 0 -0.034820956529887821 -0.0002057407853620108 0 -0.034566273284144917 -0.00017585220360830919 0 -0.034686188626337759 -0.0001203657401517717 0 -0.034820956529887821 -0.0002057407853620108 0 -0.034566273284144917 -0.00017585220360830919 0 -0.034522526638006007 -0.00027113655791200598 0 -0.034566273284144917 -0.00017585220360830919 0 -0.034522526638006007 -0.00027113655791200598 0 -0.034413882179065068 -0.0002525062850999835 0 -0.034566273284144917 -0.00017585220360830919 0 -0.034413882179065068 -0.0002525062850999835 0 -0.034460185616954235 -0.00016652408663690558 0 -0.034546052894842819 -0.00040795197227843667 0 -0.034522526638006007 -0.00027113655791200598 0 -0.034392941693938181 -0.00033004181962877511 0 -0.034522526638006007 -0.00027113655791200598 0 -0.034392941693938181 -0.00033004181962877511 0 -0.034413882179065068 -0.0002525062850999835 0 -0.034392941693938181 -0.00033004181962877511 0 -0.034413882179065068 -0.0002525062850999835 0 -0.034313237478306724 -0.0003165851135659645 0 -0.034323050719264038 -0.00023420237181479172 0 -0.034413882179065068 -0.0002525062850999835 0 -0.034460185616954235 -0.00016652408663690558 0 -0.034323050719264038 -0.00023420237181479172 0 -0.034413882179065068 -0.0002525062850999835 0 -0.034313237478306724 -0.0003165851135659645 0 -0.034323050719264038 -0.00023420237181479172 0 -0.034441330251648014 -5.6536616353956997e-05 0 -0.034237160915575458 -0.00016073364836927814 0 -0.034323050719264038 -0.00023420237181479172 0 -0.034441330251648014 -5.6536616353956997e-05 0 -0.034460185616954235 -0.00016652408663690558 0 -0.033722723414759175 -0.00014313641719610138 0 -0.033854179699107492 -0.00021740546439173925 0 -0.032996479734172517 -0.00022996144535674203 0 -0.033458349891224905 -0.00024977718693744427 0 -0.033203860264174961 -0.00043860266144005584 0 -0.032996479734172517 -0.00022996144535674203 0 -0.033009978143417495 -0.00044260212960888211 0 -0.033203860264174961 -0.00043860266144005584 0 -0.032996479734172517 -0.00022996144535674203 0 -0.032776656492168571 -0.00033588147796267259 0 -0.032587672123612035 -0.00022121228354329649 0 -0.033722723414759175 -0.00014313641719610138 0 -0.033634125798924719 -0.00013802960066034288 0 -0.032996479734172517 -0.00022996144535674203 0 -0.032866662676759008 -0.00041042186569438885 0 -0.033009978143417495 -0.00044260212960888211 0 -0.032996479734172517 -0.00022996144535674203 0 -0.032776656492168571 -0.00033588147796267259 0 -0.032866662676759008 -0.00041042186569438885 0 -0.032776656492168571 -0.00033588147796267259 0 -0.032753883066567818 -0.00042787026192389957 0 -0.032866662676759008 -0.00041042186569438885 0 -0.034441330251648014 -5.6536616353956997e-05 0 -0.034565519405319947 -0.00010647359601116637 0 -0.034460185616954235 -0.00016652408663690558 0 -0.034441330251648014 -5.6536616353956997e-05 0 -0.034565519405319947 -0.00010647359601116637 0 -0.034678416731837913 -2.6517034077725397e-05 0 -0.034566273284144917 -0.00017585220360830919 0 -0.034565519405319947 -0.00010647359601116637 0 -0.034460185616954235 -0.00016652408663690558 0 -0.034566273284144917 -0.00017585220360830919 0 -0.034565519405319947 -0.00010647359601116637 0 -0.034686188626337759 -0.0001203657401517717 0 -0.034565519405319947 -0.00010647359601116637 0 -0.034686188626337759 -0.0001203657401517717 0 -0.034678416731837913 -2.6517034077725397e-05 0 -0.032645924018816892 -0.00033501251476758943 0 -0.032463573118790987 -0.00021619999878929314 0 -0.032687797100563999 -0.00054589888518617909 0 -0.0330963308852898 -0.00016486483764177181 0 -0.030520115843885115 -0.00025738653394991224 0 -0.032776656492168571 -0.00033588147796267259 0 -0.032645924018816892 -0.00033501251476758943 0 -0.032587672123612035 -0.00022121228354329649 0 -0.032776656492168571 -0.00033588147796267259 0 -0.032645924018816892 -0.00033501251476758943 0 -0.032753883066567818 -0.00042787026192389957 0 -0.032645924018816892 -0.00033501251476758943 0 -0.032587672123612035 -0.00022121228354329649 0 -0.032463573118790987 -0.00021619999878929314 0 -0.033634125798924719 -0.00013802960066034288 0 -0.0330963308852898 -0.00016486483764177181 0 -0.031352280841730522 -0.00051705396050498844 0 -0.031390228932363332 -0.00018478126074838132 0 -0.030844581351195305 0.00016434196738166089 0 -0.031352280841730522 -0.00051705396050498844 0 -0.031390228932363332 -0.00018478126074838132 0 -0.031935330373665617 -0.00053722268708394417 0 -0.028703962329481383 -0.00038272353222391047 0 -0.028859179613295746 -0.00024919785482848241 0 -0.029007832810164266 -0.00045434916743593767 0 -0.034732782214788566 -4.0168943445523418e-05 0 -0.034748030978597154 -8.0411837416400885e-05 0 -0.034803767049848264 -6.8793965518909741e-05 0 -0.034678416731837913 -2.6517034077725397e-05 0 -0.034732782214788566 -4.0168943445523418e-05 0 -0.034748030978597154 -8.0411837416400885e-05 0 -0.034686188626337759 -0.0001203657401517717 0 -0.034678416731837913 -2.6517034077725397e-05 0 -0.034748030978597154 -8.0411837416400885e-05 0 -0.034686188626337759 -0.0001203657401517717 0 -0.034748030978597154 -8.0411837416400885e-05 0 -0.034778483279902933 -0.00012498751723119037 0 -0.034748030978597154 -8.0411837416400885e-05 0 -0.034778483279902933 -0.00012498751723119037 0 -0.034784638894612745 -9.5812868479172933e-05 0 -0.034172792912291965 -0.00033253608858578517 0 -0.034255880499858476 -0.00032759804168978754 0 -0.034362747148407924 -0.00023852892579181168 0 -0.034271488874782388 -0.0003744191875765601 0 -0.034255880499858476 -0.00032759804168978754 0 -0.034107333682450613 -0.00041067968623141154 0 -0.034172792912291965 -0.00033253608858578517 0 -0.034255880499858476 -0.00032759804168978754 0 -0.034107333682450613 -0.00041067968623141154 0 -0.034450225083227724 -0.00023371125604903096 0 -0.034255880499858476 -0.00032759804168978754 0 -0.034362747148407924 -0.00023852892579181168 0 -0.034172792912291965 -0.00033253608858578517 0 -0.034362747148407924 -0.00023852892579181168 0 -0.034252722265836012 -0.00028290414941325011 0 -0.034273554910925798 -0.00030783450498025444 0 -0.034239514643975719 -0.00030102681195777291 0 -0.034252722265836012 -0.00028290414941325011 0 -0.034172792912291965 -0.00033253608858578517 0 -0.034239514643975719 -0.00030102681195777291 0 -0.034252722265836012 -0.00028290414941325011 0 -0.034273554910925798 -0.00030783450498025444 0 -0.034239514643975719 -0.00030102681195777291 0 -0.034313237478306724 -0.0003165851135659645 0 -0.034323050719264038 -0.00023420237181479172 0 -0.034239514643975719 -0.00030102681195777291 0 -0.034313237478306724 -0.0003165851135659645 0 -0.034323050719264038 -0.00023420237181479172 0 -0.034239514643975719 -0.00030102681195777291 0 -0.034184808352689715 -0.00028875905511868753 0 -0.034172792912291965 -0.00033253608858578517 0 -0.034239514643975719 -0.00030102681195777291 0 -0.034184808352689715 -0.00028875905511868753 0 -0.034184808352689715 -0.00028875905511868753 0 -0.034237160915575458 -0.00016073364836927814 0 -0.033985454006077706 -0.000371550594620593 0 -0.034323050719264038 -0.00023420237181479172 0 -0.034184808352689715 -0.00028875905511868753 0 -0.034237160915575458 -0.00016073364836927814 0 -0.033458349891224905 -0.00024977718693744427 0 -0.033456168943926189 -0.00055523514249267321 0 -0.033203860264174961 -0.00043860266144005584 0 -0.033458349891224905 -0.00024977718693744427 0 -0.033985454006077706 -0.000371550594620593 0 -0.033456168943926189 -0.00055523514249267321 0 -0.033854179699107492 -0.00021740546439173925 0 -0.033984242748892904 -0.00034301664364162028 0 -0.034172792912291965 -0.00033253608858578517 0 -0.033985454006077706 -0.000371550594620593 0 -0.034107333682450613 -0.00041067968623141154 0 -0.034172792912291965 -0.00033253608858578517 0 -0.034184808352689715 -0.00028875905511868753 0 -0.033985454006077706 -0.000371550594620593 0 -0.033985454006077706 -0.000371550594620593 0 -0.034107333682450613 -0.00041067968623141154 0 -0.033940040448322731 -0.00061041617548230492 0 -0.033940040448322731 -0.00061041617548230492 0 -0.033883186087697748 -0.00067624623011728615 0 -0.03385330562243264 -0.00060430053794034515 0 -0.033539212921610176 -0.00070097177977363856 0 -0.033370994088688335 -0.00072778700891761657 0 -0.033883186087697748 -0.00067624623011728615 0 -0.03385330562243264 -0.00060430053794034515 0 -0.033668548351494132 -0.00076848696408160467 0 -0.033985454006077706 -0.000371550594620593 0 -0.033940040448322731 -0.00061041617548230492 0 -0.03385330562243264 -0.00060430053794034515 0 -0.03385330562243264 -0.00060430053794034515 0 -0.033456168943926189 -0.00055523514249267321 0 -0.033668548351494132 -0.00076848696408160467 0 -0.033985454006077706 -0.000371550594620593 0 -0.03385330562243264 -0.00060430053794034515 0 -0.033456168943926189 -0.00055523514249267321 0 -0.033456168943926189 -0.00055523514249267321 0 -0.033203860264174961 -0.00043860266144005584 0 -0.033214195344472279 -0.00057998492607846627 0 -0.033456168943926189 -0.00055523514249267321 0 -0.033214195344472279 -0.00057998492607846627 0 -0.033139029751835108 -0.00072213510918625948 0 -0.033456168943926189 -0.00055523514249267321 0 -0.033668548351494132 -0.00076848696408160467 0 -0.033139029751835108 -0.00072213510918625948 0 -0.033370994088688335 -0.00072778700891761657 0 -0.033154247918034424 -0.00072248784074748157 0 -0.033088045250824642 -0.0007005760254572812 0 -0.033063445884258434 -0.00070129390624525058 0 -0.033139029751835108 -0.00072213510918625948 0 -0.033088045250824642 -0.0007005760254572812 0 -0.033105181607606379 -0.00077496043631488287 0 -0.033154336890770152 -0.00078081582069620698 0 -0.033088045250824642 -0.0007005760254572812 0 -0.033063445884258434 -0.00070129390624525058 0 -0.033105181607606379 -0.00077496043631488287 0 -0.033063445884258434 -0.00070129390624525058 0 -0.033105181607606379 -0.00077496043631488287 0 -0.033027531899383712 -0.00084222898107190252 0 -0.033105181607606379 -0.00077496043631488287 0 -0.033103732954799056 -0.0008288183560123917 0 -0.033027531899383712 -0.00084222898107190252 0 -0.033105181607606379 -0.00077496043631488287 0 -0.033159973838507557 -0.00084307083540606184 0 -0.033103732954799056 -0.0008288183560123917 0 -0.033105181607606379 -0.00077496043631488287 0 -0.033159973838507557 -0.00084307083540606184 0 -0.033154336890770152 -0.00078081582069620698 0 -0.033159973838507557 -0.00084307083540606184 0 -0.033154336890770152 -0.00078081582069620698 0 -0.033250175904689219 -0.00089404395601412221 0 -0.033204589946120404 -0.0006989766770469282 0 -0.033154336890770152 -0.00078081582069620698 0 -0.033250175904689219 -0.00089404395601412221 0 -0.033204589946120404 -0.0006989766770469282 0 -0.033088045250824642 -0.0007005760254572812 0 -0.033154336890770152 -0.00078081582069620698 0 -0.027999519846267758 0.00020357156693284016 0 -0.028443019434862167 0.0001164103627748798 0 -0.027808377371175117 0.00059999998894707119 0 -0.028619484536622653 -1.1444483836040911e-06 0 -0.028443019434862167 0.0001164103627748798 0 -0.028992733320741312 -2.8103906955404931e-05 0 -0.028424187789709471 0.00015114429592898027 0 -0.028483386508771299 0.0002327303988063361 0 -0.027999519846267758 0.00020357156693284016 0 -0.028443019434862167 0.0001164103627748798 0 -0.028186032967365653 -9.7856151018902346e-06 0 -0.028619484536622653 -1.1444483836040911e-06 0 -0.02860113891485597 -5.5942732625141103e-05 0 -0.02846917497840434 -1.5292249545130028e-05 0 -0.028619484536622653 -1.1444483836040911e-06 0 -0.028789126823260621 -9.4336143885658636e-05 0 -0.028992733320741312 -2.8103906955404931e-05 0 -0.028789126823260621 -9.4336143885658636e-05 0 -0.028859179613295746 -0.00024919785482848241 0 -0.02894872676511439 -0.00016285354985330345 0 -0.028703962329481383 -0.00038272353222391047 0 -0.028859179613295746 -0.00024919785482848241 0 -0.028688957203338274 -0.00017224664682849864 0 -0.028789126823260621 -9.4336143885658636e-05 0 -0.028859179613295746 -0.00024919785482848241 0 -0.028688957203338274 -0.00017224664682849864 0 -0.028703962329481383 -0.00038272353222391047 0 -0.028688957203338274 -0.00017224664682849864 0 -0.028570709178245113 -0.00014095530795484132 0 -0.028688957203338274 -0.00017224664682849864 0 -0.028570709178245113 -0.00014095530795484132 0 -0.02860113891485597 -5.5942732625141103e-05 0 -0.028789126823260621 -9.4336143885658636e-05 0 -0.028688957203338274 -0.00017224664682849864 0 -0.02860113891485597 -5.5942732625141103e-05 0 -0.028619484536622653 -1.1444483836040911e-06 0 -0.028789126823260621 -9.4336143885658636e-05 0 -0.02860113891485597 -5.5942732625141103e-05 0 -0.028570709178245113 -0.00014095530795484132 0 -0.02860113891485597 -5.5942732625141103e-05 0 -0.02846917497840434 -1.5292249545130028e-05 0 -0.028703962329481383 -0.00038272353222391047 0 -0.028570709178245113 -0.00014095530795484132 0 -0.028395793632803763 -0.00010736483418935912 0 -0.028570709178245113 -0.00014095530795484132 0 -0.028395793632803763 -0.00010736483418935912 0 -0.02846917497840434 -1.5292249545130028e-05 0 -0.029672675561694235 -0.0001343685804268674 0 -0.030520115843885115 -0.00025738653394991224 0 -0.032645924018816892 -0.00033501251476758943 0 -0.032753883066567818 -0.00042787026192389957 0 -0.032687797100563999 -0.00054589888518617909 0 -0.032753883066567818 -0.00042787026192389957 0 -0.032687797100563999 -0.00054589888518617909 0 -0.032794621809513036 -0.00051351969082418902 0 -0.032687797100563999 -0.00054589888518617909 0 -0.032813116417049565 -0.00063109648960613812 0 -0.032794621809513036 -0.00051351969082418902 0 -0.030520115843885115 -0.00025738653394991224 0 -0.03162866530324588 -0.00024598541821272492 0 -0.030369250218325507 -0.00061701675612453599 0 -0.030004677762887771 -0.00013160725802266571 0 -0.02987563134392348 -0.00029600868165154251 0 -0.028395793632803763 -0.00010736483418935912 0 -0.02846917497840434 -1.5292249545130028e-05 0 -0.028359164336448327 3.0951227205410406e-05 0 -0.030520115843885115 -0.00025738653394991224 0 -0.029114092357463053 -0.00043131207043236095 0 -0.029114092357463053 -0.00043131207043236095 0 -0.026841203261796058 -0.00027602957066076534 0 -0.025742959209222559 -0.00036852022794353899 0 -0.025792254532370752 -0.00032258928815441962 0 -0.025712351621071248 -0.00037217970710196432 0 -0.028443019434862167 0.0001164103627748798 0 -0.028359164336448327 3.0951227205410406e-05 0 -0.028454253639710114 6.2317462945093942e-05 0 -0.028458862635978525 4.2239618843550128e-05 0 -0.02846917497840434 -1.5292249545130028e-05 0 -0.028359164336448327 3.0951227205410406e-05 0 -0.028619484536622653 -1.1444483836040911e-06 0 -0.028458862635978525 4.2239618843550128e-05 0 -0.02846917497840434 -1.5292249545130028e-05 0 -0.028619484536622653 -1.1444483836040911e-06 0 -0.028458862635978525 4.2239618843550128e-05 0 -0.028443019434862167 0.0001164103627748798 0 -0.028458862635978525 4.2239618843550128e-05 0 -0.028443019434862167 0.0001164103627748798 0 -0.028359164336448327 3.0951227205410406e-05 0 -0.032829278236853866 -0.00063105271826011415 0 -0.032980875320499176 -0.00062986041442370346 0 -0.033085728340811513 -0.00074831318782684296 0 -0.03242930631541547 -0.00033054507055736259 0 -0.032474688693930678 -0.00027268779950490334 0 -0.032825191199751858 -0.00047506278791319703 0 -0.03162866530324588 -0.00024598541821272492 0 -0.033113927006132013 -0.00070240564005293992 0 -0.025742959209222559 -0.00036852022794353899 0 -0.025792254532370752 -0.00032258928815441962 0 -0.025859031524397297 -0.0004418259445290829 0 -0.029114092357463053 -0.00043131207043236095 0 -0.029252281027764046 -0.00050645267684042139 0 -0.03242930631541547 -0.00033054507055736259 0 -0.032825191199751858 -0.00047506278791319703 0 -0.03283344061874853 -0.00073881154504537323 0 -0.029114092357463053 -0.00043131207043236095 0 -0.03162866530324588 -0.00024598541821272492 0 -0.032813116417049565 -0.00063109648960613812 0 -0.032794621809513036 -0.00051351969082418902 0 -0.032905268844137775 -0.00052925799228474048 0 -0.03162866530324588 -0.00024598541821272492 0 -0.032451750485454178 -0.00020553372668750562 0 -0.032794621809513036 -0.00051351969082418902 0 -0.032866662676759008 -0.00041042186569438885 0 -0.032905268844137775 -0.00052925799228474048 0 -0.032753883066567818 -0.00042787026192389957 0 -0.032794621809513036 -0.00051351969082418902 0 -0.032866662676759008 -0.00041042186569438885 0 -0.032905268844137775 -0.00052925799228474048 0 -0.03308534108678713 -0.00060007328226907401 0 -0.033009978143417495 -0.00044260212960888211 0 -0.032866662676759008 -0.00041042186569438885 0 -0.032905268844137775 -0.00052925799228474048 0 -0.033009978143417495 -0.00044260212960888211 0 -0.032980875320499176 -0.00062986041442370346 0 -0.032905268844137775 -0.00052925799228474048 0 -0.03308534108678713 -0.00060007328226907401 0 -0.032829278236853866 -0.00063105271826011415 0 -0.032980875320499176 -0.00062986041442370346 0 -0.032905268844137775 -0.00052925799228474048 0 -0.03308534108678713 -0.00060007328226907401 0 -0.033009978143417495 -0.00044260212960888211 0 -0.033203860264174961 -0.00043860266144005584 0 -0.03308534108678713 -0.00060007328226907401 0 -0.033214195344472279 -0.00057998492607846627 0 -0.033139029751835108 -0.00072213510918625948 0 -0.03308534108678713 -0.00060007328226907401 0 -0.033203860264174961 -0.00043860266144005584 0 -0.033214195344472279 -0.00057998492607846627 0 -0.033063445884258434 -0.00070129390624525058 0 -0.033139029751835108 -0.00072213510918625948 0 -0.033085728340811513 -0.00074831318782684296 0 -0.03308534108678713 -0.00060007328226907401 0 -0.033139029751835108 -0.00072213510918625948 0 -0.033085728340811513 -0.00074831318782684296 0 -0.032980875320499176 -0.00062986041442370346 0 -0.03308534108678713 -0.00060007328226907401 0 -0.033085728340811513 -0.00074831318782684296 0 -0.032992365761430401 -0.00065086650354278608 0 -0.033113927006132013 -0.00070240564005293992 0 -0.033063445884258434 -0.00070129390624525058 0 -0.032825191199751858 -0.00047506278791319703 0 -0.03283344061874853 -0.00073881154504537323 0 -0.025880945564601101 -0.00043976880724088595 0 -0.025827538907749088 -0.00033664029707018868 0 -0.025746502020045643 -0.00028395422544040153 0 -0.025880945564601101 -0.00043976880724088595 0 -0.025827538907749088 -0.00033664029707018868 0 -0.025839301991389407 -0.00033836222695291987 0 -0.029252281027764046 -0.00050645267684042139 0 -0.02989328518568414 -0.00073783161737735084 0 -0.025880945564601101 -0.00043976880724088595 0 -0.025839301991389407 -0.00033836222695291987 0 -0.025859031524397297 -0.0004418259445290829 0 -0.033063445884258434 -0.00070129390624525058 0 -0.03283344061874853 -0.00073881154504537323 0 -0.033027531899383712 -0.00084222898107190252 0 -0.025827538907749088 -0.00033664029707018868 0 -0.025842126986936564 -0.0003371220664633784 0 -0.025746502020045643 -0.00028395422544040153 0 -0.023904821789539687 1.5781084899792376e-05 0 -0.023615179020624114 -6.45965733608329e-06 0 -0.023615179020624114 -6.45965733608329e-06 0 -0.025990890947539383 -0.00055850386952439879 0 -0.023615179020624114 -6.45965733608329e-06 0 -0.023319806842600078 0.00010668298512080376 0 -0.025440299423400675 -0.00021762700981735951 0 -0.025618275835891238 -0.00027645817505294088 0 -0.025569818347163535 -0.00033087789928241859 0 -0.025440299423400675 -0.00021762700981735951 0 -0.025618275835891238 -0.00027645817505294088 0 -0.025647505229719366 -0.00020805813719993268 0 -0.025618275835891238 -0.00027645817505294088 0 -0.025569818347163535 -0.00033087789928241859 0 -0.025679332726120066 -0.00033527299561434478 0 -0.025792254532370752 -0.00032258928815441962 0 -0.025880945564601101 -0.00043976880724088595 0 -0.025859031524397297 -0.0004418259445290829 0 -0.025639077243689291 -0.00028633743340038324 0 -0.025990890947539383 -0.00055850386952439879 0 -0.025742959209222559 -0.00036852022794353899 0 -0.025569818347163535 -0.00033087789928241859 0 -0.025679332726120066 -0.00033527299561434478 0 -0.025742959209222559 -0.00036852022794353899 0 -0.025712351621071248 -0.00037217970710196432 0 -0.025679332726120066 -0.00033527299561434478 0 -0.025712351621071248 -0.00037217970710196432 0 -0.025679332726120066 -0.00033527299561434478 0 -0.025692634375067903 -0.00029830598499697142 0 -0.025618275835891238 -0.00027645817505294088 0 -0.025692634375067903 -0.00029830598499697142 0 -0.025647505229719366 -0.00020805813719993268 0 -0.025692634375067903 -0.00029830598499697142 0 -0.025753839041003049 -0.00027923142775031592 0 -0.025647505229719366 -0.00020805813719993268 0 -0.025618275835891238 -0.00027645817505294088 0 -0.025679332726120066 -0.00033527299561434478 0 -0.025692634375067903 -0.00029830598499697142 0 -0.025753839041003049 -0.00027923142775031592 0 -0.025647505229719366 -0.00020805813719993268 0 -0.025758140099700493 -0.00020348059794550151 0 -0.028454253639710114 6.2317462945093942e-05 0 -0.028091003087713774 -0.00045034383413612391 0 -0.028186032967365653 -9.7856151018902346e-06 0 -0.025712351621071248 -0.00037217970710196432 0 -0.025692634375067903 -0.00029830598499697142 0 -0.025753839041003049 -0.00027923142775031592 0 -0.028091003087713774 -0.00045034383413612391 0 -0.028186032967365653 -9.7856151018902346e-06 0 -0.027888486877753159 -5.7322223129477905e-05 0 -0.026841203261796058 -0.00027602957066076534 0 -0.027099913775228468 -0.00030989036205178011 0 -0.028443019434862167 0.0001164103627748798 0 -0.028454253639710114 6.2317462945093942e-05 0 -0.028186032967365653 -9.7856151018902346e-06 0 -0.027999519846267758 0.00020357156693284016 0 -0.028186032967365653 -9.7856151018902346e-06 0 -0.027888486877753159 -5.7322223129477905e-05 0 -0.021207017452431677 0.00054679373280805779 0 -0.021180676017733178 0.00050667288335467142 0 -0.021188447674159904 0.00046855895619576313 0 -0.021207017452431677 0.00054679373280805779 0 -0.021171423935899145 0.00076526474816601578 0 -0.021180676017733178 0.00050667288335467142 0 -0.021207017452431677 0.00054679373280805779 0 -0.021155480117958869 0.00053768077636408523 0 -0.021171423935899145 0.00076526474816601578 0 -0.023319806842600078 0.00010668298512080376 0 -0.023257526737886235 0.0002719366402368024 0 -0.021207017452431677 0.00054679373280805779 0 -0.021238357829282756 0.00039749518443437743 0 -0.021245305571304732 0.00040592781367296325 0 -0.02102292926807775 0.00041643655008397756 0 -0.02138184161131319 0.0007153192483047656 0 -0.022163909150808993 0.00055347655254379697 0 -0.020964219060681171 0.00067528930136568602 0 -0.023257526737886235 0.0002719366402368024 0 -0.021207017452431677 0.00054679373280805779 0 -0.021155480117958869 0.00053768077636408523 0 -0.021238357829282756 0.00039749518443437743 0 -0.02102292926807775 0.00041643655008397756 0 -0.02138184161131319 0.0007153192483047656 0 -0.020680263703842888 0.00077901764846681184 0 -0.020964219060681171 0.00067528930136568602 0 -0.020861792453265963 0.00073305032991947256 0 -0.021155480117958869 0.00053768077636408523 0 -0.021171423935899145 0.00076526474816601578 0 -0.020680263703842888 0.00077901764846681184 0 -0.021171423935899145 0.00076526474816601578 0 -0.020745515624889098 0.0010398046176481521 0 -0.020680263703842888 0.00077901764846681184 0 -0.021171423935899145 0.00076526474816601578 0 -0.020745515624889098 0.0010398046176481521 0 -0.020715505986043183 0.0014514666965003604 0 -0.020310288613933195 0.0012658116515635975 0 -0.020680263703842888 0.00077901764846681184 0 -0.020171178483909619 0.0009191816661562089 0 -0.020745515624889098 0.0010398046176481521 0 -0.020310288613933195 0.0012658116515635975 0 -0.020715505986043183 0.0014514666965003604 0 -0.020745515624889098 0.0010398046176481521 0 -0.020310288613933195 0.0012658116515635975 0 -0.020680263703842888 0.00077901764846681184 0 -0.020183029535391941 0.00039534307844372893 0 -0.02102292926807775 0.00041643655008397756 0 -0.020680263703842888 0.00077901764846681184 0 -0.020183029535391941 0.00039534307844372893 0 -0.020171178483909619 0.0009191816661562089 0 -0.01976050726690606 0.00093176752217180776 0 -0.020183029535391941 0.00039534307844372893 0 -0.020680263703842888 0.00077901764846681184 0 -0.020171178483909619 0.0009191816661562089 0 -0.023615179020624114 -6.45965733608329e-06 0 -0.022718518175986368 0.00035931572205472756 0 -0.020310288613933195 0.0012658116515635975 0 -0.020171178483909619 0.0009191816661562089 0 -0.019915651381730466 0.0012971952384765559 0 -0.020310288613933195 0.0012658116515635975 0 -0.020012519511832805 0.0015926705349029913 0 -0.019915651381730466 0.0012971952384765559 0 -0.020310288613933195 0.0012658116515635975 0 -0.020012519511832805 0.0015926705349029913 0 -0.020049399740736627 0.0018917215835472518 0 -0.020012519511832805 0.0015926705349029913 0 -0.019944277509476319 0.0018450507478744733 0 -0.020049399740736627 0.0018917215835472518 0 -0.019944277509476319 0.0018450507478744733 0 -0.019870093164923525 0.0018854531882909358 0 -0.020049399740736627 0.0018917215835472518 0 -0.019870093164923525 0.0018854531882909358 0 -0.020049399740736627 0.0018917215835472518 0 -0.019786943260145802 0.0017842223168791538 0 -0.020049399740736627 0.0018917215835472518 0 -0.019674576571600773 0.0019022541766721757 0 -0.019786943260145802 0.0017842223168791538 0 -0.020187170375727478 0.0021298199260981129 0 -0.020242844744060923 0.0011073455704104468 0 -0.020310288613933195 0.0012658116515635975 0 -0.020049399740736627 0.0018917215835472518 0 -0.020715505986043183 0.0014514666965003604 0 -0.020049399740736627 0.0018917215835472518 0 -0.020715505986043183 0.0014514666965003604 0 -0.021300695736613785 0.0020492667115011732 0 -0.021455898386625604 0.00083314595176067763 0 -0.020242844744060923 0.0011073455704104468 0 -0.021171423935899145 0.00076526474816601578 0 -0.020715505986043183 0.0014514666965003604 0 -0.021300695736613785 0.0020492667115011732 0 -0.020242844744060923 0.0011073455704104468 0 -0.019082966081498266 0.0012907782476190908 0 -0.018660849100833949 -6.0484642577722096e-05 0 -0.019749657831961084 7.9887296088579445e-06 0 -0.019312490192169608 0.0005716784625611651 0 -0.020242844744060923 0.0011073455704104468 0 -0.020357280768283425 4.4703577886209807e-05 0 -0.021296346777224581 0.00036092590289666819 0 -0.021180676017733178 0.00050667288335467142 0 -0.021098279883694643 0.00028197824285460118 0 -0.021171423935899145 0.00076526474816601578 0 -0.021296346777224581 0.00036092590289666819 0 -0.021180676017733178 0.00050667288335467142 0 -0.026475235757642976 -9.6405500127799386e-05 0 -0.027004647789918814 0.0010759245650682136 0 -0.03313892818978624 -0.00082389998793637974 0 -0.033079502778410617 -0.00082676900131365631 0 -0.03314170856879501 -0.00072563081408919114 0 -0.03313892818978624 -0.00082389998793637974 0 -0.033157733393810306 -0.000855668258057788 0 -0.03314170856879501 -0.00072563081408919114 0 -0.033157733393810306 -0.000855668258057788 0 -0.03314170856879501 -0.00072563081408919114 0 -0.033043630075510207 -0.00047028278910842821 0 -0.033159973838507557 -0.00084307083540606184 0 -0.033157733393810306 -0.000855668258057788 0 -0.033250175904689219 -0.00089404395601412221 0 -0.033159973838507557 -0.00084307083540606184 0 -0.03313892818978624 -0.00082389998793637974 0 -0.033157733393810306 -0.000855668258057788 0 -0.033159973838507557 -0.00084307083540606184 0 -0.03313892818978624 -0.00082389998793637974 0 -0.033103732954799056 -0.0008288183560123917 0 -0.033103732954799056 -0.0008288183560123917 0 -0.033027531899383712 -0.00084222898107190252 0 -0.033079502778410617 -0.00082676900131365631 0 -0.02989328518568414 -0.00073783161737735084 0 -0.026475235757642976 -9.6405500127799386e-05 0 -0.025746502020045643 -0.00028395422544040153 0 -0.025725447168278986 -0.00017459216190445292 0 -0.02550445458162369 4.3289640110354857e-05 0 -0.025842126986936564 -0.0003371220664633784 0 -0.025746502020045643 -0.00028395422544040153 0 -0.025725447168278986 -0.00017459216190445292 0 -0.018986879484924408 0.0015844396165935737 0 -0.022211285285406099 0.001107242865844486 0 -0.01976050726690606 0.00093176752217180776 0 -0.019915651381730466 0.0012971952384765559 0 -0.019333207062068862 0.0014441522187290153 0 -0.019915651381730466 0.0012971952384765559 0 -0.01986274423644933 0.0017300380096074636 0 -0.019907598495909531 0.0017406496646397852 0 -0.020171178483909619 0.0009191816661562089 0 -0.01976050726690606 0.00093176752217180776 0 -0.019915651381730466 0.0012971952384765559 0 -0.022718518175986368 0.00035931572205472756 0 -0.022211285285406099 0.001107242865844486 0 -0.020012519511832805 0.0015926705349029913 0 -0.019915651381730466 0.0012971952384765559 0 -0.019907598495909531 0.0017406496646397852 0 -0.03313892818978624 -0.00082389998793637974 0 -0.033103732954799056 -0.0008288183560123917 0 -0.033079502778410617 -0.00082676900131365631 0 -0.025725447168278986 -0.00017459216190445292 0 -0.025532257321632296 3.5494180797029585e-05 0 -0.02550445458162369 4.3289640110354857e-05 0 -0.022211285285406099 0.001107242865844486 0 -0.026475235757642976 -9.6405500127799386e-05 0 -0.022211285285406099 0.001107242865844486 0 -0.020081155833282315 0.0026047326898851119 0 -0.01986274423644933 0.0017300380096074636 0 -0.019955032323925682 0.0019261918346532121 0 -0.019907598495909531 0.0017406496646397852 0 -0.020848959467303845 0.00252194450978505 0 -0.020826916410825361 0.002526488921840128 0 -0.020678482387912707 0.0026489761755437531 0 -0.01986274423644933 0.0017300380096074636 0 -0.019955032323925682 0.0019261918346532121 0 -0.020100136118546694 0.0020927881820365772 0 -0.019944277509476319 0.0018450507478744733 0 -0.019907598495909531 0.0017406496646397852 0 -0.019928548481624109 0.0019295523703868095 0 -0.019955032323925682 0.0019261918346532121 0 -0.019907598495909531 0.0017406496646397852 0 -0.019928548481624109 0.0019295523703868095 0 -0.020012519511832805 0.0015926705349029913 0 -0.019944277509476319 0.0018450507478744733 0 -0.019907598495909531 0.0017406496646397852 0 -0.019870093164923525 0.0018854531882909358 0 -0.019928548481624109 0.0019295523703868095 0 -0.019917039516947406 0.0019107684362284815 0 -0.019944277509476319 0.0018450507478744733 0 -0.019870093164923525 0.0018854531882909358 0 -0.019928548481624109 0.0019295523703868095 0 -0.019928548481624109 0.0019295523703868095 0 -0.020056216455979329 0.002042781930868679 0 -0.019917039516947406 0.0019107684362284815 0 -0.019955032323925682 0.0019261918346532121 0 -0.019928548481624109 0.0019295523703868095 0 -0.020056216455979329 0.002042781930868679 0 -0.019955032323925682 0.0019261918346532121 0 -0.020056216455979329 0.002042781930868679 0 -0.020100136118546694 0.0020927881820365772 0 -0.020056216455979329 0.002042781930868679 0 -0.020100136118546694 0.0020927881820365772 0 -0.020591267558671418 0.0023197973959436344 0 -0.020081155833282315 0.0026047326898851119 0 -0.020720845315690413 0.00216418941673816 0 -0.020826916410825361 0.002526488921840128 0 -0.020678482387912707 0.0026489761755437531 0 -0.020696557221061816 0.0026665778615328913 0 -0.020678482387912707 0.0026489761755437531 0 -0.020696557221061816 0.0026665778615328913 0 -0.020754263895558549 0.0025979060535410172 0 -0.027004647789918814 0.0010759245650682136 0 -0.027033865765228555 0.0011699783980577206 0 -0.020696557221061816 0.0026665778615328913 0 -0.020754263895558549 0.0025979060535410172 0 -0.021080330516284707 0.0028035814311781503 0 -0.020754263895558549 0.0025979060535410172 0 -0.020591267558671418 0.0023197973959436344 0 -0.020969368004940266 0.0024886935957403218 0 -0.020678482387912707 0.0026489761755437531 0 -0.020754263895558549 0.0025979060535410172 0 -0.020591267558671418 0.0023197973959436344 0 -0.020591267558671418 0.0023197973959436344 0 -0.020969368004940266 0.0024886935957403218 0 -0.020835464531547991 0.0022109789879808813 0 -0.020754263895558549 0.0025979060535410172 0 -0.020969368004940266 0.0024886935957403218 0 -0.021080330516284707 0.0028035814311781503 0 -0.020969368004940266 0.0024886935957403218 0 -0.021357734189745389 0.0026248603978042766 0 -0.021080330516284707 0.0028035814311781503 0 -0.020969368004940266 0.0024886935957403218 0 -0.021357734189745389 0.0026248603978042766 0 -0.021175842222705982 0.0023200066551577014 0 -0.021357734189745389 0.0026248603978042766 0 -0.021080330516284707 0.0028035814311781503 0 -0.02164456259073707 0.0028993031420617328 0 -0.021357734189745389 0.0026248603978042766 0 -0.021686353783021917 0.0026928235574309256 0 -0.021558173390845328 0.0024658214529462148 0 -0.027033865765228555 0.0011699783980577206 0 -0.026960016192412509 0.0015198244271385365 0 -0.032644607390338781 -0.00053879055145597803 0 -0.033043630075510207 -0.00047028278910842821 0 -0.032250054820461498 0.00015740000841796628 0 -0.033157733393810306 -0.000855668258057788 0 -0.033043630075510207 -0.00047028278910842821 0 -0.032982548517226803 -0.00095684611045080488 0 -0.032644607390338781 -0.00053879055145597803 0 -0.033043630075510207 -0.00047028278910842821 0 -0.032982548517226803 -0.00095684611045080488 0 -0.032644607390338781 -0.00053879055145597803 0 -0.032982548517226803 -0.00095684611045080488 0 -0.031863673853386273 -0.00072876764833562993 0 -0.032982548517226803 -0.00095684611045080488 0 -0.032985145357442375 -0.001008582280783955 0 -0.033269691623050844 -0.00091807000190696731 0 -0.033157733393810306 -0.000855668258057788 0 -0.032982548517226803 -0.00095684611045080488 0 -0.033250175904689219 -0.00089404395601412221 0 -0.032895972332239717 -0.001100760778891309 0 -0.032573394269462395 -0.0010154303840652708 0 -0.03236570112103123 -0.0010438728023209702 0 -0.032895972332239717 -0.001100760778891309 0 -0.032985145357442375 -0.001008582280783955 0 -0.032573394269462395 -0.0010154303840652708 0 -0.032895972332239717 -0.001100760778891309 0 -0.032985145357442375 -0.001008582280783955 0 -0.033269691623050844 -0.00091807000190696731 0 -0.032985145357442375 -0.001008582280783955 0 -0.03290857067631512 -0.00095624908468040792 0 -0.032573394269462395 -0.0010154303840652708 0 -0.032937375700785219 -0.00098344247413883101 0 -0.032315792268970814 -0.00078746287991940465 0 -0.032982548517226803 -0.00095684611045080488 0 -0.032985145357442375 -0.001008582280783955 0 -0.03290857067631512 -0.00095624908468040792 0 -0.03290857067631512 -0.00095624908468040792 0 -0.032573394269462395 -0.0010154303840652708 0 -0.032414579813579258 -0.00095350218543376291 0 -0.032573394269462395 -0.0010154303840652708 0 -0.032414579813579258 -0.00095350218543376291 0 -0.032249383564081573 -0.00093587166575194078 0 -0.03290857067631512 -0.00095624908468040792 0 -0.032414579813579258 -0.00095350218543376291 0 -0.032032185855806118 -0.00087848722467864717 0 -0.03290857067631512 -0.00095624908468040792 0 -0.032032185855806118 -0.00087848722467864717 0 -0.031923258932345662 -0.00043270926013721958 0 -0.031863673853386273 -0.00072876764833562993 0 -0.031310745464267091 6.7754054924530448e-05 0 -0.030214706291167147 0.00013150769376111653 0 -0.032315792268970814 -0.00078746287991940465 0 -0.031298842906545381 -0.00024376726930642914 0 -0.032414579813579258 -0.00095350218543376291 0 -0.032032185855806118 -0.00087848722467864717 0 -0.032249383564081573 -0.00093587166575194078 0 -0.031863673853386273 -0.00072876764833562993 0 -0.031310745464267091 6.7754054924530448e-05 0 -0.032250054820461498 0.00015740000841796628 0 -0.032644607390338781 -0.00053879055145597803 0 -0.031863673853386273 -0.00072876764833562993 0 -0.032250054820461498 0.00015740000841796628 0 -0.026960016192412509 0.0015198244271385365 0 -0.026279565630326945 0.0019668495913626647 0 -0.021357734189745389 0.0026248603978042766 0 -0.02164456259073707 0.0028993031420617328 0 -0.021686353783021917 0.0026928235574309256 0 -0.021686353783021917 0.0026928235574309256 0 -0.021958398614481935 0.0028218528295432827 0 -0.021931535717641486 0.0026380936322637251 0 -0.02164456259073707 0.0028993031420617328 0 -0.021686353783021917 0.0026928235574309256 0 -0.021958398614481935 0.0028218528295432827 0 -0.031310745464267091 6.7754054924530448e-05 0 -0.032250054820461498 0.00015740000841796628 0 -0.030528531598635972 0.00084934751795817816 0 -0.02164456259073707 0.0028993031420617328 0 -0.022257542196271893 0.0030345430365477425 0 -0.021958398614481935 0.0028218528295432827 0 -0.031310745464267091 6.7754054924530448e-05 0 -0.030528531598635972 0.00084934751795817816 0 -0.030214706291167147 0.00013150769376111653 0 -0.022257542196271893 0.0030345430365477425 0 -0.022551803617852108 0.0029025431479394719 0 -0.022255965429303644 0.002771975444993208 0 -0.022257542196271893 0.0030345430365477425 0 -0.021958398614481935 0.0028218528295432827 0 -0.022255965429303644 0.002771975444993208 0 -0.026206401961559923 0.0022500331602981587 0 -0.031298842906545381 -0.00024376726930642914 0 -0.0270933943669673 0.0023734547733248491 0 -0.027768682084555501 0.00064377824096681759 0 -0.031923258932345662 -0.00043270926013721958 0 -0.030528531598635972 0.00084934751795817816 0 -0.028174481483861334 0.0015174454667015015 0 -0.030214706291167147 0.00013150769376111653 0 -0.022257542196271893 0.0030345430365477425 0 -0.023090651487310414 0.0032373712475480612 0 -0.022732450246108964 0.0030114868022148513 0 -0.022257542196271893 0.0030345430365477425 0 -0.022732450246108964 0.0030114868022148513 0 -0.022551803617852108 0.0029025431479394719 0 -0.026279565630326945 0.0019668495913626647 0 -0.026206401961559923 0.0022500331602981587 0 -0.027768682084555501 0.00064377824096681759 0 -0.028291005443931951 -0.00064151942650314423 0 -0.031923258932345662 -0.00043270926013721958 0 -0.0270933943669673 0.0023734547733248491 0 -0.026411598575359664 0.0014508570472033849 0 -0.027768682084555501 0.00064377824096681759 0 -0.025161216478042731 0.0024047213828628511 0 -0.0256932333389111 0.00036082577718839817 0 -0.024061877719635145 0.0029578442693805451 0 -0.026206401961559923 0.0022500331602981587 0 -0.025772090940035318 0.0023732372904651661 0 -0.026411598575359664 0.0014508570472033849 0 -0.025161216478042731 0.0024047213828628511 0 -0.0256932333389111 0.00036082577718839817 0 -0.0270933943669673 0.0023734547733248491 0 -0.026411598575359664 0.0014508570472033849 0 -0.025161216478042731 0.0024047213828628511 0 -0.026411598575359664 0.0014508570472033849 0 -0.0256932333389111 0.00036082577718839817 0 -0.027768682084555501 0.00064377824096681759 0 -0.0256932333389111 0.00036082577718839817 0 -0.027768682084555501 0.00064377824096681759 0 -0.028291005443931951 -0.00064151942650314423 0 -0.0256932333389111 0.00036082577718839817 0 -0.028291005443931951 -0.00064151942650314423 0 -0.026269652259831338 -0.0016795259391968066 0 -0.0256932333389111 0.00036082577718839817 0 -0.026269652259831338 -0.0016795259391968066 0 -0.024199786279075791 -0.0011329448706348098 0 -0.026269652259831338 -0.0016795259391968066 0 -0.025504130049087748 -0.0031322925032648639 0 -0.027769395352485699 -0.003813546220348376 0 -0.026269652259831338 -0.0016795259391968066 0 -0.025504130049087748 -0.0031322925032648639 0 -0.024199786279075791 -0.0011329448706348098 0 -0.028291005443931951 -0.00064151942650314423 0 -0.026269652259831338 -0.0016795259391968066 0 -0.027769395352485699 -0.003813546220348376 0 -0.028291005443931951 -0.00064151942650314423 0 -0.030191041816774365 -0.0010586055490225098 0 -0.027769395352485699 -0.003813546220348376 0 -0.031935116922634087 -0.00097279754372839615 0 -0.029919331330776164 -0.002571982859445951 0 -0.032032185855806118 -0.00087848722467864717 0 -0.030191041816774365 -0.0010586055490225098 0 -0.027769395352485699 -0.003813546220348376 0 -0.032032185855806118 -0.00087848722467864717 0 -0.032249383564081573 -0.00093587166575194078 0 -0.032187967375552407 -0.00090677846977229193 0 -0.028291005443931951 -0.00064151942650314423 0 -0.031923258932345662 -0.00043270926013721958 0 -0.030191041816774365 -0.0010586055490225098 0 -0.032032185855806118 -0.00087848722467864717 0 -0.031923258932345662 -0.00043270926013721958 0 -0.030191041816774365 -0.0010586055490225098 0 -0.024265696899961619 0.0028323092064806567 0 -0.02414779677589389 0.0028552024635851575 0 -0.024173450902344542 0.0028391102865287722 0 -0.024265696899961619 0.0028323092064806567 0 -0.02414779677589389 0.0028552024635851575 0 -0.024206615897578228 0.0027852024065254423 0 -0.02414779677589389 0.0028552024635851575 0 -0.024134187108399426 0.0028694896356138721 0 -0.024173450902344542 0.0028391102865287722 0 -0.0256932333389111 0.00036082577718839817 0 -0.024199786279075791 -0.0011329448706348098 0 -0.024061877719635145 0.0029578442693805451 0 -0.023840618210798213 0.00064467921871420831 0 -0.02420180365432063 0.0029300185478485824 0 -0.024134187108399426 0.0028694896356138721 0 -0.024255071939771406 0.0027902730387665913 0 -0.024061877719635145 0.0029578442693805451 0 -0.024134187108399426 0.0028694896356138721 0 -0.024255071939771406 0.0027902730387665913 0 -0.024173450902344542 0.0028391102865287722 0 -0.024134187108399426 0.0028694896356138721 0 -0.024061877719635145 0.0029578442693805451 0 -0.024076023778106005 0.0028819744019973987 0 -0.02414779677589389 0.0028552024635851575 0 -0.024134187108399426 0.0028694896356138721 0 -0.024076023778106005 0.0028819744019973987 0 -0.024255071939771406 0.0027902730387665913 0 -0.024173450902344542 0.0028391102865287722 0 -0.024164650710516274 0.0026367545233367405 0 -0.024305029179903726 0.0028751946718851545 0 -0.024173450902344542 0.0028391102865287722 0 -0.024228380683292375 0.0028833524908537943 0 -0.024265696899961619 0.0028323092064806567 0 -0.024305029179903726 0.0028751946718851545 0 -0.024173450902344542 0.0028391102865287722 0 -0.024198831802265848 0.0027265736537392202 0 -0.024214384834585705 0.0030704915732538379 0 -0.024228380683292375 0.0028833524908537943 0 -0.024301372533367942 0.0029120851322262647 0 -0.024253694554763377 0.0029237982679685935 0 -0.024305029179903726 0.0028751946718851545 0 -0.024228380683292375 0.0028833524908537943 0 -0.024301372533367942 0.0029120851322262647 0 -0.024214384834585705 0.0030704915732538379 0 -0.02720485122892324 0.0012344272789702076 0 -0.024164650710516274 0.0026367545233367405 0 -0.0243181057158058 0.0024614538336547348 0 -0.024217697694393948 0.0023953316112313387 0 -0.023840618210798213 0.00064467921871420831 0 -0.027401000394951362 -0.00098336630184584829 0 -0.025504130049087748 -0.0031322925032648639 0 -0.024199786279075791 -0.0011329448706348098 0 -0.023811528225941559 -0.0059394901505539863 0 -0.024255071939771406 0.0027902730387665913 0 -0.024164650710516274 0.0026367545233367405 0 -0.0243181057158058 0.0024614538336547348 0 -0.029117334862872584 1.7969297551423303e-05 0 -0.029112969447131553 -0.00031984153076214915 0 -0.028963493328452602 -6.9294084869436e-05 0 -0.031833812214029526 -0.001042344694529064 0 -0.031812140585044772 -0.0012989653603681514 0 -0.032005928024520076 -0.0011403797177165047 0 -0.02720485122892324 0.0012344272789702076 0 -0.029985820382332478 -0.00039829078686132716 0 -0.027401000394951362 -0.00098336630184584829 0 -0.030392649491901257 -0.0007456174742111575 0 -0.029112969447131553 -0.00031984153076214915 0 -0.028963493328452602 -6.9294084869436e-05 0 -0.029064193260541996 -0.00050268482741490654 0 -0.031812140585044772 -0.0012989653603681514 0 -0.032005928024520076 -0.0011403797177165047 0 -0.032040169077434254 -0.0013149112977680871 0 -0.027401000394951362 -0.00098336630184584829 0 -0.02720485122892324 0.0012344272789702076 0 -0.024343365748228117 0.0029598602476568984 0 -0.024301372533367942 0.0029120851322262647 0 -0.024253694554763377 0.0029237982679685935 0 -0.029626837640884793 0.00047055606098609986 0 -0.030108383560752416 0.00075249718212033214 0 -0.029921447158880687 0.00028405161666058643 0 -0.030108383560752416 0.00075249718212033214 0 -0.029921447158880687 0.00028405161666058643 0 -0.030217818378170062 0.00024846270241792436 0 -0.026661139947429253 0.0017818519558022892 0 -0.02720485122892324 0.0012344272789702076 0 -0.032187967375552407 -0.00090677846977229193 0 -0.032170811518800621 -0.0011702535938472221 0 -0.03236570112103123 -0.0010438728023209702 0 -0.032573394269462395 -0.0010154303840652708 0 -0.032249383564081573 -0.00093587166575194078 0 -0.03236570112103123 -0.0010438728023209702 0 -0.032249383564081573 -0.00093587166575194078 0 -0.032187967375552407 -0.00090677846977229193 0 -0.03236570112103123 -0.0010438728023209702 0 -0.031833812214029526 -0.001042344694529064 0 -0.032187967375552407 -0.00090677846977229193 0 -0.032005928024520076 -0.0011403797177165047 0 -0.027401000394951362 -0.00098336630184584829 0 -0.029919331330776164 -0.002571982859445951 0 -0.025504130049087748 -0.0031322925032648639 0 -0.023811528225941559 -0.0059394901505539863 0 -0.027769395352485699 -0.003813546220348376 0 -0.032187967375552407 -0.00090677846977229193 0 -0.032170811518800621 -0.0011702535938472221 0 -0.032005928024520076 -0.0011403797177165047 0 -0.032170811518800621 -0.0011702535938472221 0 -0.032040169077434254 -0.0013149112977680871 0 -0.032326634287275044 -0.0013649875321658674 0 -0.032170811518800621 -0.0011702535938472221 0 -0.032005928024520076 -0.0011403797177165047 0 -0.032040169077434254 -0.0013149112977680871 0 -0.032895972332239717 -0.001100760778891309 0 -0.03236570112103123 -0.0010438728023209702 0 -0.032326634287275044 -0.0013649875321658674 0 -0.032170811518800621 -0.0011702535938472221 0 -0.03236570112103123 -0.0010438728023209702 0 -0.032326634287275044 -0.0013649875321658674 0 -0.032326634287275044 -0.0013649875321658674 0 -0.032317086512569655 -0.0017116570256740342 0 -0.032702119394847476 -0.0016135204396452894 0 -0.032040169077434254 -0.0013149112977680871 0 -0.032326634287275044 -0.0013649875321658674 0 -0.03203020537712796 -0.0015047156845336591 0 -0.032326634287275044 -0.0013649875321658674 0 -0.03203020537712796 -0.0015047156845336591 0 -0.032317086512569655 -0.0017116570256740342 0 -0.032040169077434254 -0.0013149112977680871 0 -0.03203020537712796 -0.0015047156845336591 0 -0.031910931210201401 -0.0014238316422983883 0 -0.032030416043115573 -0.0017861525243151061 0 -0.031814543933842442 -0.0019095054785190954 0 -0.032182009226365341 -0.0019670642218783852 0 -0.03203020537712796 -0.0015047156845336591 0 -0.032030416043115573 -0.0017861525243151061 0 -0.032317086512569655 -0.0017116570256740342 0 -0.032030416043115573 -0.0017861525243151061 0 -0.032317086512569655 -0.0017116570256740342 0 -0.032182009226365341 -0.0019670642218783852 0 -0.032317086512569655 -0.0017116570256740342 0 -0.03256546889920834 -0.0020255624401310408 0 -0.032702119394847476 -0.0016135204396452894 0 -0.032317086512569655 -0.0017116570256740342 0 -0.03256546889920834 -0.0020255624401310408 0 -0.032182009226365341 -0.0019670642218783852 0 -0.029655370191615391 3.237979046612815e-05 0 -0.029921447158880687 0.00028405161666058643 0 -0.029997945836936941 -8.997236707199182e-05 0 -0.029921447158880687 0.00028405161666058643 0 -0.030217818378170062 0.00024846270241792436 0 -0.029997945836936941 -8.997236707199182e-05 0 -0.030392649491901257 -0.0007456174742111575 0 -0.030389662574703383 -0.00077260972769994929 0 -0.031812140585044772 -0.0012989653603681514 0 -0.031785441192514426 -0.0015644357003065596 0 -0.031910931210201401 -0.0014238316422983883 0 -0.029112969447131553 -0.00031984153076214915 0 -0.029103036729449038 -0.00066288203481685128 0 -0.029064193260541996 -0.00050268482741490654 0 -0.030256624107003936 5.8918861965709327e-05 0 -0.030217818378170062 0.00024846270241792436 0 -0.029997945836936941 -8.997236707199182e-05 0 -0.030389662574703383 -0.00077260972769994929 0 -0.029985820382332478 -0.00039829078686132716 0 -0.031812140585044772 -0.0012989653603681514 0 -0.032040169077434254 -0.0013149112977680871 0 -0.031910931210201401 -0.0014238316422983883 0 -0.03203020537712796 -0.0015047156845336591 0 -0.031785441192514426 -0.0015644357003065596 0 -0.031910931210201401 -0.0014238316422983883 0 -0.03203020537712796 -0.0015047156845336591 0 -0.031785441192514426 -0.0015644357003065596 0 -0.031818554542336078 -0.0017676215356284956 0 -0.03203020537712796 -0.0015047156845336591 0 -0.032030416043115573 -0.0017861525243151061 0 -0.031801593871263661 -0.0018355773331614519 0 -0.031927545524024575 -0.0017266252949993263 0 -0.031808866776621557 -0.0011119027750051184 0 -0.032030416043115573 -0.0017861525243151061 0 -0.031801593871263661 -0.0018355773331614519 0 -0.031814543933842442 -0.0019095054785190954 0 -0.03031120698573659 -0.0002524244170305401 0 -0.030250127561430192 -0.00033489869724004134 0 -0.029997945836936941 -8.997236707199182e-05 0 -0.031808866776621557 -0.0011119027750051184 0 -0.032647967674988683 -0.00087885031338753221 0 -0.031808866776621557 -0.0011119027750051184 0 -0.031503535214636585 -0.00070595547854336918 0 -0.031907708716909108 -0.00089937367771151708 0 -0.032207103438081662 -0.00048594712768177957 0 -0.031832988935539139 -0.00043679397924059241 0 -0.031503535214636585 -0.00070595547854336918 0 -0.032647967674988683 -0.00087885031338753221 0 -0.030389662574703383 -0.00077260972769994929 0 -0.031808866776621557 -0.0011119027750051184 0 -0.030256624107003936 5.8918861965709327e-05 0 -0.03031120698573659 -0.0002524244170305401 0 -0.029997945836936941 -8.997236707199182e-05 0 -0.029318230107866879 -0.00017748233661419598 0 -0.031503535214636585 -0.00070595547854336918 0 -0.029708834219771257 -0.00026870413087070005 0 -0.030250127561430192 -0.00033489869724004134 0 -0.029997945836936941 -8.997236707199182e-05 0 -0.029708834219771257 -0.00026870413087070005 0 -0.030608533304684351 -0.00036737994750121207 0 -0.030012993320127079 -0.00053331584693014215 0 -0.029708834219771257 -0.00026870413087070005 0 -0.029655370191615391 3.237979046612815e-05 0 -0.029997945836936941 -8.997236707199182e-05 0 -0.029513074462351945 -0.00033471976027929176 0 -0.030012993320127079 -0.00053331584693014215 0 -0.030080082378952017 -0.0010832563434515473 0 -0.031503535214636585 -0.00070595547854336918 0 -0.032556346601534336 -0.00030818177934705053 0 -0.033201972313362381 -0.00058605304190988638 0 -0.033208927569604405 -0.00063644830526247802 0 -0.033156763408153996 -0.00065322565657071317 0 -0.030608533304684351 -0.00036737994750121207 0 -0.030012993320127079 -0.00053331584693014215 0 -0.030080082378952017 -0.0010832563434515473 0 -0.033213557191547234 -0.00058750436633898961 0 -0.033208927569604405 -0.00063644830526247802 0 -0.03324743899719855 -0.00068031993384732833 0 -0.03422565981953897 -0.00071192801646171536 0 -0.034232898740305752 -0.00063366839338870789 0 -0.034189472320198921 -0.00065947570877086131 0 -0.032647967674988683 -0.00087885031338753221 0 -0.033826800931701227 -0.00065826920624866166 0 -0.033201972313362381 -0.00058605304190988638 0 -0.033213557191547234 -0.00058750436633898961 0 -0.033208927569604405 -0.00063644830526247802 0 -0.033216982778588679 -0.00071678156059172668 0 -0.033208927569604405 -0.00063644830526247802 0 -0.03324743899719855 -0.00068031993384732833 0 -0.033216982778588679 -0.00071678156059172668 0 -0.033208927569604405 -0.00063644830526247802 0 -0.033156763408153996 -0.00065322565657071317 0 -0.034701281896531232 -2.2848393176462005e-06 0 -0.03477910393005143 -6.152079342186026e-06 0 -0.034724392868811772 4.2567537702944528e-05 0 -0.034138236523085431 -0.00043924001757946146 0 -0.032556346601534336 -0.00030818177934705053 0 -0.033885075162236197 0.00020029196440840739 0 -0.032556346601534336 -0.00030818177934705053 0 -0.033451864597085434 -0.0011403026007444892 0 -0.03324127244579389 -0.0013642181240782435 0 -0.034122602433447162 -0.00070175977608184488 0 -0.034189472320198921 -0.00065947570877086131 0 -0.034147135483536969 -0.00064447067053445973 0 -0.034122602433447162 -0.00070175977608184488 0 -0.034180071019161901 -0.00070569517326458529 0 -0.034189472320198921 -0.00065947570877086131 0 -0.033451864597085434 -0.0011403026007444892 0 -0.034205019878602444 -0.00057355977792434491 0 -0.03422565981953897 -0.00071192801646171536 0 -0.034180071019161901 -0.00070569517326458529 0 -0.034189472320198921 -0.00065947570877086131 0 -0.032647967674988683 -0.00087885031338753221 0 -0.03324127244579389 -0.0013642181240782435 0 -0.034181978252694874 -0.00058774874510751369 0 -0.034232898740305752 -0.00063366839338870789 0 -0.034189472320198921 -0.00065947570877086131 0 -0.034181978252694874 -0.00058774874510751369 0 -0.034189472320198921 -0.00065947570877086131 0 -0.034147135483536969 -0.00064447067053445973 0 -0.034171380649136107 -0.00062899404606866138 0 -0.034205019878602444 -0.00057355977792434491 0 -0.034181238489464694 -0.00089586192679171051 0 -0.034188813551734289 -0.00066790643967822223 0 -0.034036913870380298 -0.0006807538550433421 0 -0.034110938577427377 -0.00058897949578309687 0 -0.034036913870380298 -0.0006807538550433421 0 -0.033968369104933616 -0.00063523642125172411 0 -0.034110938577427377 -0.00058897949578309687 0 -0.034188813551734289 -0.00066790643967822223 0 -0.034036913870380298 -0.0006807538550433421 0 -0.033451864597085434 -0.0011403026007444892 0 -0.033789075004117028 -0.0007782877637826978 0 -0.034181238489464694 -0.00089586192679171051 0 -0.034036913870380298 -0.0006807538550433421 0 -0.033678872262244641 -0.00081695468571873629 0 -0.033298600124718275 -0.00094411235786541221 0 -0.033678872262244641 -0.00081695468571873629 0 -0.033428333549826952 -0.00086056767743543817 0 -0.033678872262244641 -0.00081695468571873629 0 -0.033968369104933616 -0.00063523642125172411 0 -0.033884983623182895 -0.00064897499778930503 0 -0.034036913870380298 -0.0006807538550433421 0 -0.033678872262244641 -0.00081695468571873629 0 -0.033968369104933616 -0.00063523642125172411 0 -0.033940040448322731 -0.00061041617548230492 0 -0.033884983623182895 -0.00064897499778930503 0 -0.033560547885610255 -0.00075486122771313308 0 -0.033539212921610176 -0.00070097177977363856 0 -0.033569285334950856 -0.00074127681547250281 0 -0.033940040448322731 -0.00061041617548230492 0 -0.033883186087697748 -0.00067624623011728615 0 -0.033560547885610255 -0.00075486122771313308 0 -0.033678872262244641 -0.00081695468571873629 0 -0.033884983623182895 -0.00064897499778930503 0 -0.033560547885610255 -0.00075486122771313308 0 -0.033678872262244641 -0.00081695468571873629 0 -0.033560547885610255 -0.00075486122771313308 0 -0.033269691623050844 -0.00091807000190696731 0 -0.033560547885610255 -0.00075486122771313308 0 -0.033250175904689219 -0.00089404395601412221 0 -0.033269691623050844 -0.00091807000190696731 0 -0.033204589946120404 -0.0006989766770469282 0 -0.033560547885610255 -0.00075486122771313308 0 -0.033250175904689219 -0.00089404395601412221 0 -0.032982548517226803 -0.00095684611045080488 0 -0.033250175904689219 -0.00089404395601412221 0 -0.033269691623050844 -0.00091807000190696731 0 -0.032895972332239717 -0.001100760778891309 0 -0.033269691623050844 -0.00091807000190696731 0 -0.033293741467963288 -0.00088691298715694029 0 -0.032950430799549402 -0.0010568303830839501 0 -0.032924700235907114 -0.0013265144479966706 0 -0.032895972332239717 -0.001100760778891309 0 -0.032326634287275044 -0.0013649875321658674 0 -0.032702119394847476 -0.0016135204396452894 0 -0.033451864597085434 -0.0011403026007444892 0 -0.032924700235907114 -0.0013265144479966706 0 -0.033298600124718275 -0.00094411235786541221 0 -0.033293741467963288 -0.00088691298715694029 0 -0.033428333549826952 -0.00086056767743543817 0 -0.033269691623050844 -0.00091807000190696731 0 -0.033293741467963288 -0.00088691298715694029 0 -0.033428333549826952 -0.00086056767743543817 0 -0.033678872262244641 -0.00081695468571873629 0 -0.033269691623050844 -0.00091807000190696731 0 -0.033428333549826952 -0.00086056767743543817 0 -0.027829176918234621 9.1970819420128609e-05 0 -0.027337812749440745 9.7771020529213606e-05 0 -0.028289766725113706 9.679231057622624e-05 0 -0.027829176918234621 9.1970819420128609e-05 0 -0.026801474259393655 2.7358400575374006e-07 0 -0.028821813248926621 2.9923712629099804e-07 0 -0.027829176918234621 9.1970819420128609e-05 0 -0.026801474259393655 2.7358400575374006e-07 0 -0.027337812749440745 9.7771020529213606e-05 0 -0.026801474259393655 2.7358400575374006e-07 0 -0.027337812749440745 9.7771020529213606e-05 0 -0.026131351859243753 0.00012503185781837198 0 -0.027337812749440745 9.7771020529213606e-05 0 -0.026508803009281521 0.00014174062009417179 0 -0.026131351859243753 0.00012503185781837198 0 -0.027337812749440745 9.7771020529213606e-05 0 -0.027311294492174058 6.5475925990562053e-05 0 -0.026508803009281521 0.00014174062009417179 0 -0.027337812749440745 9.7771020529213606e-05 0 -0.027311294492174058 6.5475925990562053e-05 0 -0.027890332608291796 7.7356155105764193e-05 0 -0.027311294492174058 6.5475925990562053e-05 0 -0.027655539044084326 -7.5652057481202496e-05 0 -0.027955764308584936 3.6292263629200736e-05 0 -0.027311294492174058 6.5475925990562053e-05 0 -0.027655539044084326 -7.5652057481202496e-05 0 -0.02686068152025315 0.00011772092444212602 0 -0.027655539044084326 -7.5652057481202496e-05 0 -0.027132608962715129 5.448803168190656e-05 0 -0.02686068152025315 0.00011772092444212602 0 -0.027655539044084326 -7.5652057481202496e-05 0 -0.028254712770931827 -3.1159966288634446e-05 0 -0.027995085986916315 -0.00019991704389763109 0 -0.027655539044084326 -7.5652057481202496e-05 0 -0.028254712770931827 -3.1159966288634446e-05 0 -0.027955764308584936 3.6292263629200736e-05 0 -0.027955764308584936 3.6292263629200736e-05 0 -0.028600117371089518 0.00017274552190924529 0 -0.028793335301880687 0.00020623114358493555 0 -0.028254712770931827 -3.1159966288634446e-05 0 -0.027955764308584936 3.6292263629200736e-05 0 -0.028793335301880687 0.00020623114358493555 0 -0.028254712770931827 -3.1159966288634446e-05 0 -0.028793335301880687 0.00020623114358493555 0 -0.029024850628087573 0.00022006569559879181 0 -0.027337812749440745 9.7771020529213606e-05 0 -0.027890332608291796 7.7356155105764193e-05 0 -0.028289766725113706 9.679231057622624e-05 0 -0.027311294492174058 6.5475925990562053e-05 0 -0.027955764308584936 3.6292263629200736e-05 0 -0.027890332608291796 7.7356155105764193e-05 0 -0.027955764308584936 3.6292263629200736e-05 0 -0.027890332608291796 7.7356155105764193e-05 0 -0.028600117371089518 0.00017274552190924529 0 -0.027890332608291796 7.7356155105764193e-05 0 -0.028600117371089518 0.00017274552190924529 0 -0.028289766725113706 9.679231057622624e-05 0 -0.028600117371089518 0.00017274552190924529 0 -0.029211134820875697 0.00029594728409750514 0 -0.028289766725113706 9.679231057622624e-05 0 -0.028600117371089518 0.00017274552190924529 0 -0.029464435619971148 0.00041120223054488239 0 -0.029211134820875697 0.00029594728409750514 0 -0.028600117371089518 0.00017274552190924529 0 -0.028793335301880687 0.00020623114358493555 0 -0.029464435619971148 0.00041120223054488239 0 -0.028793335301880687 0.00020623114358493555 0 -0.029464435619971148 0.00041120223054488239 0 -0.029476959758522575 0.00042981394969233435 0 -0.029464435619971148 0.00041120223054488239 0 -0.030334445098635348 0.00063425851948485884 0 -0.030322908647638844 0.00072714348594421149 0 -0.029464435619971148 0.00041120223054488239 0 -0.030322908647638844 0.00072714348594421149 0 -0.029476959758522575 0.00042981394969233435 0 -0.029211134820875697 0.00029594728409750514 0 -0.029856382159364623 0.0007197395169479475 0 -0.030334445098635348 0.00063425851948485884 0 -0.029464435619971148 0.00041120223054488239 0 -0.029211134820875697 0.00029594728409750514 0 -0.030334445098635348 0.00063425851948485884 0 -0.028828018903563218 -1.5025137249943182e-06 0 -0.031010541695908642 -5.1684287608115419e-05 0 -0.032450854963623925 1.2032887981951562e-06 0 -0.029211134820875697 0.00029594728409750514 0 -0.028610396780781332 0.00016488774815424695 0 -0.029856382159364623 0.0007197395169479475 0 -0.027829176918234621 9.1970819420128609e-05 0 -0.028289766725113706 9.679231057622624e-05 0 -0.028610396780781332 0.00016488774815424695 0 -0.029211134820875697 0.00029594728409750514 0 -0.028289766725113706 9.679231057622624e-05 0 -0.028610396780781332 0.00016488774815424695 0 -0.028825527869546626 1.8408685771170788e-07 0 -0.029890299020487572 0.00014883869715626863 0 -0.027829176918234621 9.1970819420128609e-05 0 -0.028821813248926621 2.9923712629099804e-07 0 -0.028610396780781332 0.00016488774815424695 0 -0.031010541695908642 -5.1684287608115419e-05 0 -0.032459009166403485 0.00021808099434396182 0 -0.032450854963623925 1.2032887981951562e-06 0 -0.029890299020487572 0.00014883869715626863 0 -0.031134623014130797 0.00040061294644618467 0 -0.032459009166403485 0.00021808099434396182 0 -0.032975932557251036 0.0003063864310963031 0 -0.032408720785069067 0.00063694008773771923 0 -0.032459009166403485 0.00021808099434396182 0 -0.032975932557251036 0.0003063864310963031 0 -0.032450854963623925 1.2032887981951562e-06 0 -0.032975932557251036 0.0003063864310963031 0 -0.033675001991236783 0.00016578205989775628 0 -0.032408720785069067 0.00063694008773771923 0 -0.032975932557251036 0.0003063864310963031 0 -0.032450854963623925 1.2032887981951562e-06 0 -0.033675001991236783 0.00016578205989775628 0 -0.032450854963623925 1.2032887981951562e-06 0 -0.034999636933118937 2.2868213540298352e-07 0 -0.033675001991236783 0.00016578205989775628 0 -0.034999636933118937 2.2868213540298352e-07 0 -0.033675001991236783 0.00016578205989775628 0 -0.033911180317490901 0.0001447103393251861 0 -0.034999636933118937 2.2868213540298352e-07 0 -0.034990289732919837 -1.1160327170037847e-06 0 -0.033911180317490901 0.0001447103393251861 0 -0.034990289732919837 -1.1160327170037847e-06 0 -0.033911180317490901 0.0001447103393251861 0 -0.032544947696554617 0.000556167795411594 0 -0.033675001991236783 0.00016578205989775628 0 -0.033911180317490901 0.0001447103393251861 0 -0.032408720785069067 0.00063694008773771923 0 -0.033911180317490901 0.0001447103393251861 0 -0.032544947696554617 0.000556167795411594 0 -0.032408720785069067 0.00063694008773771923 0 -0.032544947696554617 0.000556167795411594 0 -0.031386161691546795 0.00076325668218278088 0 -0.032408720785069067 0.00063694008773771923 0 -0.031134623014130797 0.00040061294644618467 0 -0.032112193515906683 0.00059245323114198375 0 -0.029856382159364623 0.0007197395169479475 0 -0.032408720785069067 0.00063694008773771923 0 -0.030334445098635348 0.00063425851948485884 0 -0.031386161691546795 0.00076325668218278088 0 -0.032408720785069067 0.00063694008773771923 0 -0.030334445098635348 0.00063425851948485884 0 -0.031386161691546795 0.00076325668218278088 0 -0.030334445098635348 0.00063425851948485884 0 -0.030322908647638844 0.00072714348594421149 0 -0.031386161691546795 0.00076325668218278088 0 -0.031249322516032525 0.00082825989001501657 0 -0.030322908647638844 0.00072714348594421149 0 -0.03071688264126685 0.00082930895158235432 0 -0.031249322516032525 0.00082825989001501657 0 -0.030322908647638844 0.00072714348594421149 0 -0.03071688264126685 0.00082930895158235432 0 -0.030765875425498593 0.00085169055123472009 0 -0.030437422975769741 0.00074941993588067653 0 -0.03071688264126685 0.00082930895158235432 0 -0.030765875425498593 0.00085169055123472009 0 -0.031249322516032525 0.00082825989001501657 0 -0.030765875425498593 0.00085169055123472009 0 -0.031333965484772824 0.00066993516700648132 0 -0.030791497311957853 0.00065567581809368024 0 -0.030765875425498593 0.00085169055123472009 0 -0.031333965484772824 0.00066993516700648132 0 -0.031249322516032525 0.00082825989001501657 0 -0.032544947696554617 0.000556167795411594 0 -0.031386161691546795 0.00076325668218278088 0 -0.031249322516032525 0.00082825989001501657 0 -0.032544947696554617 0.000556167795411594 0 -0.031333965484772824 0.00066993516700648132 0 -0.031249322516032525 0.00082825989001501657 0 -0.032544947696554617 0.000556167795411594 0 -0.031333965484772824 0.00066993516700648132 0 -0.031797093522752347 0.00010461218780251052 0 -0.034993976336261307 7.7611846852875615e-06 0 -0.034992986810868376 7.7444999505126609e-06 0 -0.034983108236987394 2.247364955122861e-05 0 -0.033396687530729718 0.00014773923733249391 0 -0.032910354772888506 0.00033032072908869382 0 -0.031333965484772824 0.00066993516700648132 0 -0.031797093522752347 0.00010461218780251052 0 -0.030791497311957853 0.00065567581809368024 0 -0.034999986523569469 7.4391243769129189e-09 0 -0.034993976336261307 7.7611846852875615e-06 0 -0.034992986810868376 7.7444999505126609e-06 0 -0.034990289732919837 -1.1160327170037847e-06 0 -0.032544947696554617 0.000556167795411594 0 -0.031797093522752347 0.00010461218780251052 0 -0.034999254087021585 6.5397608989303508e-08 0 -0.033396687530729718 0.00014773923733249391 0 -0.03500000194912288 -1.3831334373934902e-09 0 -0.034999986523569469 7.4391243769129189e-09 0 -0.034993976336261307 7.7611846852875615e-06 0 -0.03499998927972723 8.4789436587074561e-09 0 -0.034985984575491604 1.1200088978752192e-05 0 -0.034999963963248698 -2.088309623234778e-09 0 -0.03499998927972723 8.4789436587074561e-09 0 -0.034992986810868376 7.7444999505126609e-06 0 -0.034985984575491604 1.1200088978752192e-05 0 -0.034999986523569469 7.4391243769129189e-09 0 -0.03499998927972723 8.4789436587074561e-09 0 -0.034992986810868376 7.7444999505126609e-06 0 -0.034992986810868376 7.7444999505126609e-06 0 -0.034983108236987394 2.247364955122861e-05 0 -0.034985984575491604 1.1200088978752192e-05 0 -0.032910354772888506 0.00033032072908869382 0 -0.032881840043883094 0.00044183333985783131 0 -0.034983108236987394 2.247364955122861e-05 0 -0.034985984575491604 1.1200088978752192e-05 0 -0.034969154331988515 4.0488104105245931e-05 0 -0.030765875425498593 0.00085169055123472009 0 -0.030791497311957853 0.00065567581809368024 0 -0.030794670168201158 0.00085677181498614518 0 -0.030765875425498593 0.00085169055123472009 0 -0.030690802117824541 0.00075181474403356562 0 -0.030437422975769741 0.00074941993588067653 0 -0.030765875425498593 0.00085169055123472009 0 -0.030794670168201158 0.00085677181498614518 0 -0.030690802117824541 0.00075181474403356562 0 -0.030794670168201158 0.00085677181498614518 0 -0.030690802117824541 0.00075181474403356562 0 -0.030942739462503695 0.00055922450524645046 0 -0.030698005370792668 0.00036739185274914068 0 -0.030690802117824541 0.00075181474403356562 0 -0.030942739462503695 0.00055922450524645046 0 -0.030698005370792668 0.00036739185274914068 0 -0.030903910045272442 2.5605136763165825e-05 0 -0.03108196606527934 0.00022612602975156991 0 -0.030698005370792668 0.00036739185274914068 0 -0.03108196606527934 0.00022612602975156991 0 -0.030942739462503695 0.00055922450524645046 0 -0.030351192241297651 0.00038756024318918809 0 -0.030478252778857327 0.00015587765117192236 0 -0.03012632704922405 4.5332463870393471e-05 0 -0.030351192241297651 0.00038756024318918809 0 -0.0299502372622024 0.00028425183400021921 0 -0.03012632704922405 4.5332463870393471e-05 0 -0.030698005370792668 0.00036739185274914068 0 -0.030351192241297651 0.00038756024318918809 0 -0.030478252778857327 0.00015587765117192236 0 -0.030698005370792668 0.00036739185274914068 0 -0.030351192241297651 0.00038756024318918809 0 -0.030477889055570612 0.00061297594654871016 0 -0.030351192241297651 0.00038756024318918809 0 -0.030477889055570612 0.00061297594654871016 0 -0.030124584344546554 0.00052252481627540893 0 -0.030698005370792668 0.00036739185274914068 0 -0.030690802117824541 0.00075181474403356562 0 -0.030477889055570612 0.00061297594654871016 0 -0.030690802117824541 0.00075181474403356562 0 -0.030477889055570612 0.00061297594654871016 0 -0.030437422975769741 0.00074941993588067653 0 -0.030437422975769741 0.00074941993588067653 0 -0.029828132441133241 0.00053207114609189017 0 -0.030124584344546554 0.00052252481627540893 0 -0.030477889055570612 0.00061297594654871016 0 -0.030437422975769741 0.00074941993588067653 0 -0.030124584344546554 0.00052252481627540893 0 -0.03071688264126685 0.00082930895158235432 0 -0.030437422975769741 0.00074941993588067653 0 -0.030322908647638844 0.00072714348594421149 0 -0.030322908647638844 0.00072714348594421149 0 -0.029476959758522575 0.00042981394969233435 0 -0.029828132441133241 0.00053207114609189017 0 -0.030437422975769741 0.00074941993588067653 0 -0.030322908647638844 0.00072714348594421149 0 -0.029828132441133241 0.00053207114609189017 0 -0.029476959758522575 0.00042981394969233435 0 -0.029828132441133241 0.00053207114609189017 0 -0.029024850628087573 0.00022006569559879181 0 -0.029828132441133241 0.00053207114609189017 0 -0.029024850628087573 0.00022006569559879181 0 -0.029561722696841028 0.00031651553177535906 0 -0.028793335301880687 0.00020623114358493555 0 -0.029476959758522575 0.00042981394969233435 0 -0.029024850628087573 0.00022006569559879181 0 -0.029828132441133241 0.00053207114609189017 0 -0.030124584344546554 0.00052252481627540893 0 -0.029561722696841028 0.00031651553177535906 0 -0.029561722696841028 0.00031651553177535906 0 -0.0299502372622024 0.00028425183400021921 0 -0.029668150466990423 0.00012067450277969733 0 -0.030124584344546554 0.00052252481627540893 0 -0.029561722696841028 0.00031651553177535906 0 -0.0299502372622024 0.00028425183400021921 0 -0.030351192241297651 0.00038756024318918809 0 -0.030124584344546554 0.00052252481627540893 0 -0.0299502372622024 0.00028425183400021921 0 -0.029593436491293968 -0.00020364160560087407 0 -0.029071355376408904 -0.00065461465020042972 0 -0.030321716756815255 -0.00044854177337446825 0 -0.029668150466990423 0.00012067450277969733 0 -0.029593436491293968 -0.00020364160560087407 0 -0.03012632704922405 4.5332463870393471e-05 0 -0.0299502372622024 0.00028425183400021921 0 -0.029668150466990423 0.00012067450277969733 0 -0.03012632704922405 4.5332463870393471e-05 0 -0.029668150466990423 0.00012067450277969733 0 -0.029593436491293968 -0.00020364160560087407 0 -0.02900464610817069 4.1632715219052247e-05 0 -0.029561722696841028 0.00031651553177535906 0 -0.029668150466990423 0.00012067450277969733 0 -0.02900464610817069 4.1632715219052247e-05 0 -0.029593436491293968 -0.00020364160560087407 0 -0.028147919786555245 -0.00044613207717431703 0 -0.029071355376408904 -0.00065461465020042972 0 -0.029593436491293968 -0.00020364160560087407 0 -0.02900464610817069 4.1632715219052247e-05 0 -0.028147919786555245 -0.00044613207717431703 0 -0.029593436491293968 -0.00020364160560087407 0 -0.030321716756815255 -0.00044854177337446825 0 -0.03012632704922405 4.5332463870393471e-05 0 -0.028254712770931827 -3.1159966288634446e-05 0 -0.029024850628087573 0.00022006569559879181 0 -0.028474336455262227 -9.1292983382693451e-05 0 -0.029024850628087573 0.00022006569559879181 0 -0.02900464610817069 4.1632715219052247e-05 0 -0.028474336455262227 -9.1292983382693451e-05 0 -0.029024850628087573 0.00022006569559879181 0 -0.029561722696841028 0.00031651553177535906 0 -0.02900464610817069 4.1632715219052247e-05 0 -0.02900464610817069 4.1632715219052247e-05 0 -0.028474336455262227 -9.1292983382693451e-05 0 -0.028147919786555245 -0.00044613207717431703 0 -0.028254712770931827 -3.1159966288634446e-05 0 -0.028474336455262227 -9.1292983382693451e-05 0 -0.027995085986916315 -0.00019991704389763109 0 -0.028474336455262227 -9.1292983382693451e-05 0 -0.027995085986916315 -0.00019991704389763109 0 -0.028147919786555245 -0.00044613207717431703 0 -0.027655539044084326 -7.5652057481202496e-05 0 -0.027995085986916315 -0.00019991704389763109 0 -0.027632497703133137 -0.00015855207093897744 0 -0.027995085986916315 -0.00019991704389763109 0 -0.028147919786555245 -0.00044613207717431703 0 -0.027632497703133137 -0.00015855207093897744 0 -0.028147919786555245 -0.00044613207717431703 0 -0.0274400521794105 -0.00021601013465680932 0 -0.027632497703133137 -0.00015855207093897744 0 -0.028147919786555245 -0.00044613207717431703 0 -0.0274400521794105 -0.00021601013465680932 0 -0.02706994627800486 -0.00060067335968866603 0 -0.028127025223304802 -0.00041710718675835255 0 -0.028149436809752452 -0.00036043139828163644 0 -0.027083238174333474 -1.4416326633811485e-05 0 -0.027632497703133137 -0.00015855207093897744 0 -0.027132608962715129 5.448803168190656e-05 0 -0.0274400521794105 -0.00021601013465680932 0 -0.027083238174333474 -1.4416326633811485e-05 0 -0.027632497703133137 -0.00015855207093897744 0 -0.027655539044084326 -7.5652057481202496e-05 0 -0.027632497703133137 -0.00015855207093897744 0 -0.027132608962715129 5.448803168190656e-05 0 -0.028149436809752452 -0.00036043139828163644 0 -0.029289346268589669 -0.00030572036242571671 0 -0.028333861927930453 -0.0001663765839716057 0 -0.028227634725646052 -0.00011702592796984161 0 -0.028242456627346577 -0.00015382093140428078 0 -0.02706994627800486 -0.00060067335968866603 0 -0.026628183296663825 -0.00022282662090124684 0 -0.026144242936472006 -0.00031479353173442473 0 -0.028149436809752452 -0.00036043139828163644 0 -0.027094367002149008 -0.00019605101496741561 0 -0.0274400521794105 -0.00021601013465680932 0 -0.02706994627800486 -0.00060067335968866603 0 -0.026987841537607932 -0.00018453234966889809 0 -0.02706994627800486 -0.00060067335968866603 0 -0.026987841537607932 -0.00018453234966889809 0 -0.026628183296663825 -0.00022282662090124684 0 -0.026987841537607932 -0.00018453234966889809 0 -0.026715920756516243 -6.9008377613233855e-05 0 -0.026628183296663825 -0.00022282662090124684 0 -0.027083238174333474 -1.4416326633811485e-05 0 -0.026987841537607932 -0.00018453234966889809 0 -0.026715920756516243 -6.9008377613233855e-05 0 -0.0274400521794105 -0.00021601013465680932 0 -0.027083238174333474 -1.4416326633811485e-05 0 -0.026987841537607932 -0.00018453234966889809 0 -0.026715920756516243 -6.9008377613233855e-05 0 -0.026628183296663825 -0.00022282662090124684 0 -0.026332372633173805 -2.8056954124371169e-05 0 -0.026144242936472006 -0.00031479353173442473 0 -0.026005714408886233 -8.7242697571019166e-05 0 -0.026332372633173805 -2.8056954124371169e-05 0 -0.026628183296663825 -0.00022282662090124684 0 -0.026144242936472006 -0.00031479353173442473 0 -0.026332372633173805 -2.8056954124371169e-05 0 -0.028227634725646052 -0.00011702592796984161 0 -0.028242456627346577 -0.00015382093140428078 0 -0.02816908880009273 -0.00012171551779483138 0 -0.027094367002149008 -0.00019605101496741561 0 -0.027028383644497514 -0.00015957674283251073 0 -0.028227634725646052 -0.00011702592796984161 0 -0.028107170414103114 -6.9908895599216569e-05 0 -0.02816908880009273 -0.00012171551779483138 0 -0.028242456627346577 -0.00015382093140428078 0 -0.028098257701230572 -0.00014468012000376764 0 -0.02816908880009273 -0.00012171551779483138 0 -0.029289346268589669 -0.00030572036242571671 0 -0.029658733285234457 -0.00021680311772468119 0 -0.026144242936472006 -0.00031479353173442473 0 -0.025728662629826132 -0.00017745458904074564 0 -0.026005714408886233 -8.7242697571019166e-05 0 -0.028107170414103114 -6.9908895599216569e-05 0 -0.028098257701230572 -0.00014468012000376764 0 -0.02816908880009273 -0.00012171551779483138 0 -0.030321716756815255 -0.00044854177337446825 0 -0.030911480377740087 -0.00023872343153669216 0 -0.030645767635336132 -7.1972163565812189e-05 0 -0.030698005370792668 0.00036739185274914068 0 -0.030645767635336132 -7.1972163565812189e-05 0 -0.030478252778857327 0.00015587765117192236 0 -0.030698005370792668 0.00036739185274914068 0 -0.030645767635336132 -7.1972163565812189e-05 0 -0.030903910045272442 2.5605136763165825e-05 0 -0.030911480377740087 -0.00023872343153669216 0 -0.030645767635336132 -7.1972163565812189e-05 0 -0.030903910045272442 2.5605136763165825e-05 0 -0.030645767635336132 -7.1972163565812189e-05 0 -0.030478252778857327 0.00015587765117192236 0 -0.030404683507669793 -7.7149456937456124e-05 0 -0.030478252778857327 0.00015587765117192236 0 -0.03012632704922405 4.5332463870393471e-05 0 -0.030404683507669793 -7.7149456937456124e-05 0 -0.030321716756815255 -0.00044854177337446825 0 -0.03012632704922405 4.5332463870393471e-05 0 -0.030404683507669793 -7.7149456937456124e-05 0 -0.030321716756815255 -0.00044854177337446825 0 -0.030645767635336132 -7.1972163565812189e-05 0 -0.030404683507669793 -7.7149456937456124e-05 0 -0.030511671422330123 -4.8496189771641873e-05 0 -0.030526889622902068 -3.6628070003943257e-05 0 -0.030491298031362964 -4.4962967918301777e-05 0 -0.031484680435612221 0.0001201273995338953 0 -0.031142806515448051 -3.7825608704959997e-05 0 -0.031343246443119435 -0.00021020699012849804 0 -0.031011909711972412 4.6932115769807231e-05 0 -0.028840611326671633 -3.6856536579769882e-05 0 -0.031484680435612221 0.0001201273995338953 0 -0.031142806515448051 -3.7825608704959997e-05 0 -0.03108196606527934 0.00022612602975156991 0 -0.030911480377740087 -0.00023872343153669216 0 -0.031142806515448051 -3.7825608704959997e-05 0 -0.031343246443119435 -0.00021020699012849804 0 -0.030903910045272442 2.5605136763165825e-05 0 -0.031142806515448051 -3.7825608704959997e-05 0 -0.03108196606527934 0.00022612602975156991 0 -0.030911480377740087 -0.00023872343153669216 0 -0.030903910045272442 2.5605136763165825e-05 0 -0.031142806515448051 -3.7825608704959997e-05 0 -0.028098257701230572 -0.00014468012000376764 0 -0.028032080368953678 -9.1378440888021585e-05 0 -0.027942188234500044 -0.00013772898016793018 0 -0.029658733285234457 -0.00021680311772468119 0 -0.028840611326671633 -3.6856536579769882e-05 0 -0.028107170414103114 -6.9908895599216569e-05 0 -0.028098257701230572 -0.00014468012000376764 0 -0.028032080368953678 -9.1378440888021585e-05 0 -0.025545846849403305 0.00050949894261850381 0 -0.025575908378646213 0.00036000308702192701 0 -0.025449534155767898 0.00028747316781783949 0 -0.028032080368953678 -9.1378440888021585e-05 0 -0.027942188234500044 -0.00013772898016793018 0 -0.027977285783988781 -2.5131972415332712e-05 0 -0.028840611326671633 -3.6856536579769882e-05 0 -0.026234419873727207 0.00017822434988591708 0 -0.025575908378646213 0.00036000308702192701 0 -0.025844261908823177 0.00052050133797836105 0 -0.02562069639749863 0.00021244132695032275 0 -0.030526889622902068 -3.6628070003943257e-05 0 -0.030442396598312226 -1.2382283228868926e-05 0 -0.030491298031362964 -4.4962967918301777e-05 0 -0.028840611326671633 -3.6856536579769882e-05 0 -0.028088624383955606 0.00023576908027856712 0 -0.025545846849403305 0.00050949894261850381 0 -0.025575908378646213 0.00036000308702192701 0 -0.025844261908823177 0.00052050133797836105 0 -0.030442396598312226 -1.2382283228868926e-05 0 -0.030332978187544643 -6.5162677943275666e-05 0 -0.030224569545730124 1.2736891645947643e-05 0 -0.028088624383955606 0.00023576908027856712 0 -0.027654641803656756 0.00074156833103162535 0 -0.025844261908823177 0.00052050133797836105 0 -0.026168523589322614 0.00052055348444891858 0 -0.02596960590725006 0.00020358673379530245 0 -0.030409164509504105 -9.9185589481849327e-05 0 -0.030440017151284582 -0.00023532896033202192 0 -0.030319589992536495 -0.00016293552006635688 0 -0.030442396598312226 -1.2382283228868926e-05 0 -0.030332978187544643 -6.5162677943275666e-05 0 -0.030409164509504105 -9.9185589481849327e-05 0 -0.030332978187544643 -6.5162677943275666e-05 0 -0.030409164509504105 -9.9185589481849327e-05 0 -0.030319589992536495 -0.00016293552006635688 0 -0.030409164509504105 -9.9185589481849327e-05 0 -0.030491298031362964 -4.4962967918301777e-05 0 -0.030440017151284582 -0.00023532896033202192 0 -0.030511671422330123 -4.8496189771641873e-05 0 -0.030491298031362964 -4.4962967918301777e-05 0 -0.030551406255775262 -3.895285550465845e-05 0 -0.029944861983888248 -0.00025142748704666312 0 -0.032626383170255333 -5.2695084191538984e-05 0 -0.030442396598312226 -1.2382283228868926e-05 0 -0.030409164509504105 -9.9185589481849327e-05 0 -0.030491298031362964 -4.4962967918301777e-05 0 -0.031011909711972412 4.6932115769807231e-05 0 -0.032975890789776863 0.00012799349737779687 0 -0.030511671422330123 -4.8496189771641873e-05 0 -0.030551406255775262 -3.895285550465845e-05 0 -0.030542781417618761 -2.4927495237478248e-05 0 -0.032626383170255333 -5.2695084191538984e-05 0 -0.032975890789776863 0.00012799349737779687 0 -0.034602518183936837 -0.00021891892251354038 0 -0.034686518651463286 -0.00018133190308021891 0 -0.034691151691055348 -0.00022380719886746573 0 -0.034602518183936837 -0.00021891892251354038 0 -0.034691151691055348 -0.00022380719886746573 0 -0.03466617639979061 -0.00025768740470574053 0 -0.032626383170255333 -5.2695084191538984e-05 0 -0.032714251403278986 -0.00039529273157895941 0 -0.034602518183936837 -0.00021891892251354038 0 -0.034697661763865531 -0.00010378765578094714 0 -0.034686518651463286 -0.00018133190308021891 0 -0.034867551412084578 7.1068645044157158e-05 0 -0.034901937860147766 5.0013307904582463e-05 0 -0.034874974360496379 6.1966328103985071e-05 0 -0.032626383170255333 -5.2695084191538984e-05 0 -0.035080428774660138 6.5356906202035438e-05 0 -0.034856805076691186 7.2867245066450686e-05 0 -0.034867551412084578 7.1068645044157158e-05 0 -0.034874974360496379 6.1966328103985071e-05 0 -0.032975890789776863 0.00012799349737779687 0 -0.035370984943988354 0.00016710096858010726 0 -0.03490119613318389 9.5484609618930432e-05 0 -0.034921001817386797 6.5549002731001818e-05 0 -0.034901937860147766 5.0013307904582463e-05 0 -0.03490119613318389 9.5484609618930432e-05 0 -0.034944330522081395 6.4916341218368054e-05 0 -0.034921001817386797 6.5549002731001818e-05 0 -0.032975890789776863 0.00012799349737779687 0 -0.033119892404017852 0.00039492642269619443 0 -0.031625338837964194 0.00045822890656993189 0 -0.031290926977221203 0.00040359026807025355 0 -0.031203186176480407 0.00072078122341547837 0 -0.031484680435612221 0.0001201273995338953 0 -0.031625338837964194 0.00045822890656993189 0 -0.031290926977221203 0.00040359026807025355 0 -0.031484680435612221 0.0001201273995338953 0 -0.031290926977221203 0.00040359026807025355 0 -0.03108196606527934 0.00022612602975156991 0 -0.031290926977221203 0.00040359026807025355 0 -0.03108196606527934 0.00022612602975156991 0 -0.030942739462503695 0.00055922450524645046 0 -0.031290926977221203 0.00040359026807025355 0 -0.030942739462503695 0.00055922450524645046 0 -0.031203186176480407 0.00072078122341547837 0 -0.034969154331988515 4.0488104105245931e-05 0 -0.034944330522081395 6.4916341218368054e-05 0 -0.034961491237911806 2.208431919761215e-05 0 -0.030794670168201158 0.00085677181498614518 0 -0.030942739462503695 0.00055922450524645046 0 -0.031203186176480407 0.00072078122341547837 0 -0.032881840043883094 0.00044183333985783131 0 -0.033119892404017852 0.00039492642269619443 0 -0.034944330522081395 6.4916341218368054e-05 0 -0.034961491237911806 2.208431919761215e-05 0 -0.03493563663741657 3.8781292989931924e-05 0 -0.034944330522081395 6.4916341218368054e-05 0 -0.03493563663741657 3.8781292989931924e-05 0 -0.034921001817386797 6.5549002731001818e-05 0 -0.034985984575491604 1.1200088978752192e-05 0 -0.034969154331988515 4.0488104105245931e-05 0 -0.034961491237911806 2.208431919761215e-05 0 -0.034985984575491604 1.1200088978752192e-05 0 -0.034961491237911806 2.208431919761215e-05 0 -0.034982327487513461 5.1223780507516918e-06 0 -0.034961491237911806 2.208431919761215e-05 0 -0.034982327487513461 5.1223780507516918e-06 0 -0.034944232608666151 4.7441773117286616e-06 0 -0.034982327487513461 5.1223780507516918e-06 0 -0.034999963963248698 -2.088309623234778e-09 0 -0.035000006110607461 2.1432882612549127e-08 0 -0.034985984575491604 1.1200088978752192e-05 0 -0.034982327487513461 5.1223780507516918e-06 0 -0.034999963963248698 -2.088309623234778e-09 0 -0.034999759284005019 -8.6241164248293081e-08 0 -0.034944232608666151 4.7441773117286616e-06 0 -0.034918941254100458 1.7893755617651307e-06 0 -0.034999759284005019 -8.6241164248293081e-08 0 -0.035000006110607461 2.1432882612549127e-08 0 -0.034944232608666151 4.7441773117286616e-06 0 -0.034982327487513461 5.1223780507516918e-06 0 -0.035000006110607461 2.1432882612549127e-08 0 -0.034944232608666151 4.7441773117286616e-06 0 -0.034944232608666151 4.7441773117286616e-06 0 -0.034851096219364421 6.8433015271828813e-07 0 -0.034918941254100458 1.7893755617651307e-06 0 -0.034944232608666151 4.7441773117286616e-06 0 -0.034901937860147766 5.0013307904582463e-05 0 -0.034851096219364421 6.8433015271828813e-07 0 -0.034944232608666151 4.7441773117286616e-06 0 -0.03493563663741657 3.8781292989931924e-05 0 -0.034901937860147766 5.0013307904582463e-05 0 -0.034961491237911806 2.208431919761215e-05 0 -0.034944232608666151 4.7441773117286616e-06 0 -0.03493563663741657 3.8781292989931924e-05 0 -0.03493563663741657 3.8781292989931924e-05 0 -0.034921001817386797 6.5549002731001818e-05 0 -0.034901937860147766 5.0013307904582463e-05 0 -0.034901937860147766 5.0013307904582463e-05 0 -0.034874974360496379 6.1966328103985071e-05 0 -0.034851096219364421 6.8433015271828813e-07 0 -0.035080428774660138 6.5356906202035438e-05 0 -0.034754685719248897 -5.8494213009860726e-05 0 -0.034697661763865531 -0.00010378765578094714 0 -0.034851096219364421 6.8433015271828813e-07 0 -0.034801725782313012 -0.00010714207092481759 0 -0.034868182948999946 -6.7361639767205231e-05 0 -0.034852968655246896 -0.00011601300531071575 0 -0.034801725782313012 -0.00010714207092481759 0 -0.034851096219364421 6.8433015271828813e-07 0 -0.034868182948999946 -6.7361639767205231e-05 0 -0.034801725782313012 -0.00010714207092481759 0 -0.034873087855282189 -2.0576308891756677e-05 0 -0.034851096219364421 6.8433015271828813e-07 0 -0.034868182948999946 -6.7361639767205231e-05 0 -0.034851096219364421 6.8433015271828813e-07 0 -0.034918941254100458 1.7893755617651307e-06 0 -0.034874216859848262 -4.0627617360463628e-06 0 -0.034873087855282189 -2.0576308891756677e-05 0 -0.034874216859848262 -4.0627617360463628e-06 0 -0.03491879449088256 -2.6031886497587379e-05 0 -0.034873087855282189 -2.0576308891756677e-05 0 -0.034851096219364421 6.8433015271828813e-07 0 -0.034874216859848262 -4.0627617360463628e-06 0 -0.034995178081505811 1.0361763865010392e-07 0 -0.034999981225407317 -1.2588663846256107e-08 0 -0.034971350128614451 -9.8614976409092181e-06 0 -0.03499997018842832 3.5237026906196269e-09 0 -0.034934903667258682 -2.1482503523066375e-06 0 -0.034999759284005019 -8.6241164248293081e-08 0 -0.034918941254100458 1.7893755617651307e-06 0 -0.034874216859848262 -4.0627617360463628e-06 0 -0.035000007978434562 6.2908045497067409e-09 0 -0.034995178081505811 1.0361763865010392e-07 0 -0.034999981225407317 -1.2588663846256107e-08 0 -0.034999922381973879 -1.2454762379581634e-08 0 -0.034971350128614451 -9.8614976409092181e-06 0 -0.034956834063681608 -1.5763788130935539e-05 0 -0.034999961567399838 -2.4924706835041591e-09 0 -0.034999922381973879 -1.2454762379581634e-08 0 -0.034956834063681608 -1.5763788130935539e-05 0 -0.034999981225407317 -1.2588663846256107e-08 0 -0.034999922381973879 -1.2454762379581634e-08 0 -0.034971350128614451 -9.8614976409092181e-06 0 -0.034934903667258682 -2.1482503523066375e-06 0 -0.03492470079892103 -2.4450837366454423e-05 0 -0.034995178081505811 1.0361763865010392e-07 0 -0.034971350128614451 -9.8614976409092181e-06 0 -0.03491879449088256 -2.6031886497587379e-05 0 -0.034971350128614451 -9.8614976409092181e-06 0 -0.03491879449088256 -2.6031886497587379e-05 0 -0.034956834063681608 -1.5763788130935539e-05 0 -0.03491879449088256 -2.6031886497587379e-05 0 -0.034956834063681608 -1.5763788130935539e-05 0 -0.034905578543524877 -6.3113078944069615e-05 0 -0.03491879449088256 -2.6031886497587379e-05 0 -0.034905578543524877 -6.3113078944069615e-05 0 -0.034868182948999946 -6.7361639767205231e-05 0 -0.034873087855282189 -2.0576308891756677e-05 0 -0.03491879449088256 -2.6031886497587379e-05 0 -0.034868182948999946 -6.7361639767205231e-05 0 -0.034868182948999946 -6.7361639767205231e-05 0 -0.034852968655246896 -0.00011601300531071575 0 -0.034857143061450817 -0.00013253603586805207 0 -0.034905578543524877 -6.3113078944069615e-05 0 -0.034868182948999946 -6.7361639767205231e-05 0 -0.034857143061450817 -0.00013253603586805207 0 -0.034907825037187222 -8.4531702072946025e-05 0 -0.034905578543524877 -6.3113078944069615e-05 0 -0.034857143061450817 -0.00013253603586805207 0 -0.034820956529887821 -0.0002057407853620108 0 -0.034857143061450817 -0.00013253603586805207 0 -0.034829360202597116 -0.00015334296018161444 0 -0.034857143061450817 -0.00013253603586805207 0 -0.034829360202597116 -0.00015334296018161444 0 -0.034842512424619478 -0.00013934853555338302 0 -0.034778483279902933 -0.00012498751723119037 0 -0.034829360202597116 -0.00015334296018161444 0 -0.034812337913695729 -0.00011260530486262711 0 -0.034829360202597116 -0.00015334296018161444 0 -0.034832213194939843 -0.00013389548491155894 0 -0.034812337913695729 -0.00011260530486262711 0 -0.034829360202597116 -0.00015334296018161444 0 -0.034832213194939843 -0.00013389548491155894 0 -0.034842512424619478 -0.00013934853555338302 0 -0.034832213194939843 -0.00013389548491155894 0 -0.034837016916996394 -0.00013524909818782543 0 -0.034832302983710095 -0.00010611626933281606 0 -0.034376843284644763 -0.00021462728073923397 0 -0.032260063062086418 -0.00048264513998849082 0 -0.034837016916996394 -0.00013524909818782543 0 -0.034840703071806589 -0.00013785201727805114 0 -0.034832302983710095 -0.00010611626933281606 0 -0.034832213194939843 -0.00013389548491155894 0 -0.034837016916996394 -0.00013524909818782543 0 -0.034842512424619478 -0.00013934853555338302 0 -0.034837016916996394 -0.00013524909818782543 0 -0.034842512424619478 -0.00013934853555338302 0 -0.034837519417180662 -0.00013530399167794902 0 -0.034852968655246896 -0.00011601300531071575 0 -0.034857143061450817 -0.00013253603586805207 0 -0.034842512424619478 -0.00013934853555338302 0 -0.034852968655246896 -0.00011601300531071575 0 -0.034842512424619478 -0.00013934853555338302 0 -0.034837519417180662 -0.00013530399167794902 0 -0.034801725782313012 -0.00010714207092481759 0 -0.034799680872222835 -0.00019823119620285867 0 -0.034763484703004888 -0.00019186238591119761 0 -0.034862216707909136 -0.00015201513419912466 0 -0.034376843284644763 -0.00021462728073923397 0 -0.034801725782313012 -0.00010714207092481759 0 -0.034837519417180662 -0.00013530399167794902 0 -0.034823783865936382 -0.00015890039590580596 0 -0.034852968655246896 -0.00011601300531071575 0 -0.034801725782313012 -0.00010714207092481759 0 -0.034837519417180662 -0.00013530399167794902 0 -0.034698146903169476 -4.9424702436321349e-05 0 -0.034376843284644763 -0.00021462728073923397 0 -0.034697661763865531 -0.00010378765578094714 0 -0.034801725782313012 -0.00010714207092481759 0 -0.034735543645856418 -0.00017395724234190214 0 -0.034801725782313012 -0.00010714207092481759 0 -0.034735543645856418 -0.00017395724234190214 0 -0.034763484703004888 -0.00019186238591119761 0 -0.034697661763865531 -0.00010378765578094714 0 -0.034735543645856418 -0.00017395724234190214 0 -0.034686518651463286 -0.00018133190308021891 0 -0.034735543645856418 -0.00017395724234190214 0 -0.034686518651463286 -0.00018133190308021891 0 -0.034691151691055348 -0.00022380719886746573 0 -0.034735543645856418 -0.00017395724234190214 0 -0.034726661740062316 -0.00022983297417090328 0 -0.034691151691055348 -0.00022380719886746573 0 -0.034735543645856418 -0.00017395724234190214 0 -0.034726661740062316 -0.00022983297417090328 0 -0.034763484703004888 -0.00019186238591119761 0 -0.034702690403245418 -0.00024795991890019982 0 -0.034726661740062316 -0.00022983297417090328 0 -0.034723160786965093 -0.00024365353229875952 0 -0.034702690403245418 -0.00024795991890019982 0 -0.034726661740062316 -0.00022983297417090328 0 -0.034691151691055348 -0.00022380719886746573 0 -0.034702690403245418 -0.00024795991890019982 0 -0.034691151691055348 -0.00022380719886746573 0 -0.03466617639979061 -0.00025768740470574053 0 -0.033170625273158859 -0.00058620975157715779 0 -0.033276669285638119 -0.00037448773913698139 0 -0.032918533686298837 -0.00014853982629816202 0 -0.034376843284644763 -0.00021462728073923397 0 -0.0326782696332623 -0.00049395104544281711 0 -0.034837016916996394 -0.00013524909818782543 0 -0.034837519417180662 -0.00013530399167794902 0 -0.034840703071806589 -0.00013785201727805114 0 -0.034799680872222835 -0.00019823119620285867 0 -0.034763484703004888 -0.00019186238591119761 0 -0.034763688588778957 -0.00025362720079192608 0 -0.034726661740062316 -0.00022983297417090328 0 -0.034763484703004888 -0.00019186238591119761 0 -0.034763688588778957 -0.00025362720079192608 0 -0.034269095799427302 -0.00080465098588955886 0 -0.0326782696332623 -0.00049395104544281711 0 -0.0326782696332623 -0.00049395104544281711 0 -0.032260063062086418 -0.00048264513998849082 0 -0.030166673873821045 -0.0012728964648004066 0 -0.030027965404412982 -0.0009537747796070676 0 -0.029635435884873454 -0.00094225392184999575 0 -0.030166673873821045 -0.0012728964648004066 0 -0.030027965404412982 -0.0009537747796070676 0 -0.030365753743703851 -0.00086853793416933147 0 -0.0326782696332623 -0.00049395104544281711 0 -0.030329350617707168 4.5000741014605548e-05 0 -0.030027965404412982 -0.0009537747796070676 0 -0.030365753743703851 -0.00086853793416933147 0 -0.029941383717414744 -0.00073833985315992776 0 -0.030027965404412982 -0.0009537747796070676 0 -0.029941383717414744 -0.00073833985315992776 0 -0.029787727797392936 -0.00079320548773918168 0 -0.032714251403278986 -0.00039529273157895941 0 -0.030329350617707168 4.5000741014605548e-05 0 -0.034702690403245418 -0.00024795991890019982 0 -0.03466617639979061 -0.00025768740470574053 0 -0.034689542362350521 -0.00027676698222851029 0 -0.034702690403245418 -0.00024795991890019982 0 -0.034723160786965093 -0.00024365353229875952 0 -0.034689542362350521 -0.00027676698222851029 0 -0.030185418257648703 -7.7254812121025799e-05 0 -0.030263175902373905 -6.1565813953993071e-05 0 -0.030224569545730124 1.2736891645947643e-05 0 -0.030332978187544643 -6.5162677943275666e-05 0 -0.030319589992536495 -0.00016293552006635688 0 -0.030263175902373905 -6.1565813953993071e-05 0 -0.030332978187544643 -6.5162677943275666e-05 0 -0.030263175902373905 -6.1565813953993071e-05 0 -0.030224569545730124 1.2736891645947643e-05 0 -0.030319589992536495 -0.00016293552006635688 0 -0.030185418257648703 -7.7254812121025799e-05 0 -0.030263175902373905 -6.1565813953993071e-05 0 -0.030329350617707168 4.5000741014605548e-05 0 -0.027654641803656756 0.00074156833103162535 0 -0.026682044507545577 0.0013818666189487009 0 -0.026572240981051029 0.0011628667842500055 0 -0.026725193116735997 0.0011587700549105932 0 -0.027654641803656756 0.00074156833103162535 0 -0.026789564602714568 0.00091695461099518998 0 -0.026528082699322417 0.0011711023076575169 0 -0.026725193116735997 0.0011587700549105932 0 -0.026598127608638195 0.00082815178286307336 0 -0.030365753743703851 -0.00086853793416933147 0 -0.029941383717414744 -0.00073833985315992776 0 -0.029689132167208226 -0.00041367439347365123 0 -0.026682044507545577 0.0013818666189487009 0 -0.026725193116735997 0.0011587700549105932 0 -0.027211219272056161 0.0010008548703169954 0 -0.030329350617707168 4.5000741014605548e-05 0 -0.0280968542996793 0.00040959572009637084 0 -0.026725193116735997 0.0011587700549105932 0 -0.027211219272056161 0.0010008548703169954 0 -0.026888852568152426 0.0008842019536668994 0 -0.026725193116735997 0.0011587700549105932 0 -0.026888852568152426 0.0008842019536668994 0 -0.026598127608638195 0.00082815178286307336 0 -0.029487481526002932 -0.00069784996190083704 0 -0.029523600920150307 -0.00050744080449899114 0 -0.02910627223779149 -0.00016105950064950893 0 -0.029689132167208226 -0.00041367439347365123 0 -0.029523600920150307 -0.00050744080449899114 0 -0.02910627223779149 -0.00016105950064950893 0 -0.029689132167208226 -0.00041367439347365123 0 -0.029713349278065664 -0.00063110085592765243 0 -0.029523600920150307 -0.00050744080449899114 0 -0.029941383717414744 -0.00073833985315992776 0 -0.029689132167208226 -0.00041367439347365123 0 -0.029713349278065664 -0.00063110085592765243 0 -0.029713349278065664 -0.00063110085592765243 0 -0.029624823263081818 -0.00070342159308474015 0 -0.029523600920150307 -0.00050744080449899114 0 -0.029713349278065664 -0.00063110085592765243 0 -0.029624823263081818 -0.00070342159308474015 0 -0.029787727797392936 -0.00079320548773918168 0 -0.029941383717414744 -0.00073833985315992776 0 -0.029713349278065664 -0.00063110085592765243 0 -0.029787727797392936 -0.00079320548773918168 0 -0.029841944722498282 -0.00061849607836573746 0 -0.030159499297685664 -0.0006070869200140599 0 -0.029624823263081818 -0.00070342159308474015 0 -0.029487481526002932 -0.00069784996190083704 0 -0.029523600920150307 -0.00050744080449899114 0 -0.030159499297685664 -0.0006070869200140599 0 -0.028978658963523616 -0.00016231066070671504 0 -0.029446321572342494 -0.00073057220005990958 0 -0.029007832810164266 -0.00045434916743593767 0 -0.029072544539812714 -0.00034890862004166047 0 -0.0330963308852898 -0.00016486483764177181 0 -0.03205529248424039 -0.00046779722242517642 0 -0.029446321572342494 -0.00073057220005990958 0 -0.029072544539812714 -0.00034890862004166047 0 -0.02910627223779149 -0.00016105950064950893 0 -0.029672675561694235 -0.0001343685804268674 0 -0.03205529248424039 -0.00046779722242517642 0 -0.028703962329481383 -0.00038272353222391047 0 -0.029007832810164266 -0.00045434916743593767 0 -0.029195755842866777 -0.00072367243272177374 0 -0.028859179613295746 -0.00024919785482848241 0 -0.029007832810164266 -0.00045434916743593767 0 -0.029072544539812714 -0.00034890862004166047 0 -0.030159499297685664 -0.0006070869200140599 0 -0.03205529248424039 -0.00046779722242517642 0 -0.029446321572342494 -0.00073057220005990958 0 -0.029007832810164266 -0.00045434916743593767 0 -0.029195755842866777 -0.00072367243272177374 0 -0.034748030978597154 -8.0411837416400885e-05 0 -0.034803767049848264 -6.8793965518909741e-05 0 -0.034784638894612745 -9.5812868479172933e-05 0 -0.034803767049848264 -6.8793965518909741e-05 0 -0.034812337913695729 -0.00011260530486262711 0 -0.034832302983710095 -0.00010611626933281606 0 -0.034803767049848264 -6.8793965518909741e-05 0 -0.034784638894612745 -9.5812868479172933e-05 0 -0.034812337913695729 -0.00011260530486262711 0 -0.034778483279902933 -0.00012498751723119037 0 -0.034784638894612745 -9.5812868479172933e-05 0 -0.034812337913695729 -0.00011260530486262711 0 -0.034832213194939843 -0.00013389548491155894 0 -0.034812337913695729 -0.00011260530486262711 0 -0.034832302983710095 -0.00010611626933281606 0 -0.030027965404412982 -0.0009537747796070676 0 -0.029635435884873454 -0.00094225392184999575 0 -0.029787727797392936 -0.00079320548773918168 0 -0.029624823263081818 -0.00070342159308474015 0 -0.029635435884873454 -0.00094225392184999575 0 -0.029787727797392936 -0.00079320548773918168 0 -0.030159499297685664 -0.0006070869200140599 0 -0.032260063062086418 -0.00048264513998849082 0 -0.03205529248424039 -0.00046779722242517642 0 -0.032260063062086418 -0.00048264513998849082 0 -0.029624823263081818 -0.00070342159308474015 0 -0.029497414726143416 -0.00069894461236524343 0 -0.029635435884873454 -0.00094225392184999575 0 -0.031620588969754983 -0.00035109602573567966 0 -0.031522333662440546 -0.00034635189854130631 0 -0.031674134266824666 -0.00044902572299377409 0 -0.027287599153184815 0.00023571559425668789 0 -0.027564559623064939 0.00033957454990320618 0 -0.027292358789796561 0.00056364637441260704 0 -0.027564559623064939 0.00033957454990320618 0 -0.027511495366961767 0.00059852718023364578 0 -0.027292358789796561 0.00056364637441260704 0 -0.027287599153184815 0.00023571559425668789 0 -0.027292358789796561 0.00056364637441260704 0 -0.027012566596862117 0.00042706167315636481 0 -0.027287599153184815 0.00023571559425668789 0 -0.027012566596862117 0.00042706167315636481 0 -0.026988599213664435 0.00012404957663364631 0 -0.027287599153184815 0.00023571559425668789 0 -0.027564559623064939 0.00033957454990320618 0 -0.027554982323577486 -2.3301793687931035e-06 0 -0.027765945114606401 0.00015761620214331656 0 -0.027564559623064939 0.00033957454990320618 0 -0.027554982323577486 -2.3301793687931035e-06 0 -0.027765945114606401 0.00015761620214331656 0 -0.02776549110458815 0.00035333039624037656 0 -0.027564559623064939 0.00033957454990320618 0 -0.027999519846267758 0.00020357156693284016 0 -0.027765945114606401 0.00015761620214331656 0 -0.02776549110458815 0.00035333039624037656 0 -0.027999519846267758 0.00020357156693284016 0 -0.027765945114606401 0.00015761620214331656 0 -0.027888486877753159 -5.7322223129477905e-05 0 -0.027999519846267758 0.00020357156693284016 0 -0.02776549110458815 0.00035333039624037656 0 -0.027808377371175117 0.00059999998894707119 0 -0.02776549110458815 0.00035333039624037656 0 -0.027667785655327772 0.00047440658782509982 0 -0.027808377371175117 0.00059999998894707119 0 -0.027564559623064939 0.00033957454990320618 0 -0.027667785655327772 0.00047440658782509982 0 -0.027511495366961767 0.00059852718023364578 0 -0.02776549110458815 0.00035333039624037656 0 -0.027564559623064939 0.00033957454990320618 0 -0.027667785655327772 0.00047440658782509982 0 -0.027667785655327772 0.00047440658782509982 0 -0.027511495366961767 0.00059852718023364578 0 -0.027808377371175117 0.00059999998894707119 0 -0.029689132167208226 -0.00041367439347365123 0 -0.028992733320741312 -2.8103906955404931e-05 0 -0.02910627223779149 -0.00016105950064950893 0 -0.028789126823260621 -9.4336143885658636e-05 0 -0.028992733320741312 -2.8103906955404931e-05 0 -0.02894872676511439 -0.00016285354985330345 0 -0.028992733320741312 -2.8103906955404931e-05 0 -0.02894872676511439 -0.00016285354985330345 0 -0.02910627223779149 -0.00016105950064950893 0 -0.029072544539812714 -0.00034890862004166047 0 -0.02894872676511439 -0.00016285354985330345 0 -0.02910627223779149 -0.00016105950064950893 0 -0.028859179613295746 -0.00024919785482848241 0 -0.029072544539812714 -0.00034890862004166047 0 -0.02894872676511439 -0.00016285354985330345 0 -0.027211219272056161 0.0010008548703169954 0 -0.027511495366961767 0.00059852718023364578 0 -0.027292358789796561 0.00056364637441260704 0 -0.027211219272056161 0.0010008548703169954 0 -0.027292358789796561 0.00056364637441260704 0 -0.027041500706109691 0.00071302636889199124 0 -0.0280968542996793 0.00040959572009637084 0 -0.028483386508771299 0.0002327303988063361 0 -0.027211219272056161 0.0010008548703169954 0 -0.027511495366961767 0.00059852718023364578 0 -0.027808377371175117 0.00059999998894707119 0 -0.027292358789796561 0.00056364637441260704 0 -0.027041500706109691 0.00071302636889199124 0 -0.027012566596862117 0.00042706167315636481 0 -0.027211219272056161 0.0010008548703169954 0 -0.027041500706109691 0.00071302636889199124 0 -0.026888852568152426 0.0008842019536668994 0 -0.027041500706109691 0.00071302636889199124 0 -0.026888852568152426 0.0008842019536668994 0 -0.026794082912150387 0.0006419092124745517 0 -0.026888852568152426 0.0008842019536668994 0 -0.026794082912150387 0.0006419092124745517 0 -0.026598127608638195 0.00082815178286307336 0 -0.027041500706109691 0.00071302636889199124 0 -0.026794082912150387 0.0006419092124745517 0 -0.027012566596862117 0.00042706167315636481 0 -0.026528082699322417 0.0011711023076575169 0 -0.026598127608638195 0.00082815178286307336 0 -0.02615696372376267 0.00055511418154255182 0 -0.026598127608638195 0.00082815178286307336 0 -0.026505090704742742 0.00051149928986925003 0 -0.02615696372376267 0.00055511418154255182 0 -0.027654641803656756 0.00074156833103162535 0 -0.025870509924303262 0.0003370656329914835 0 -0.026794082912150387 0.0006419092124745517 0 -0.026598127608638195 0.00082815178286307336 0 -0.026505090704742742 0.00051149928986925003 0 -0.026505090704742742 0.00051149928986925003 0 -0.026287751585399047 0.00020550822502616204 0 -0.02615696372376267 0.00055511418154255182 0 -0.026505090704742742 0.00051149928986925003 0 -0.026287751585399047 0.00020550822502616204 0 -0.026675140182891677 0.00027720219293653046 0 -0.026794082912150387 0.0006419092124745517 0 -0.026505090704742742 0.00051149928986925003 0 -0.026675140182891677 0.00027720219293653046 0 -0.026287751585399047 0.00020550822502616204 0 -0.026675140182891677 0.00027720219293653046 0 -0.026410868351515206 -5.4764017238124014e-05 0 -0.026794082912150387 0.0006419092124745517 0 -0.027012566596862117 0.00042706167315636481 0 -0.026675140182891677 0.00027720219293653046 0 -0.026675140182891677 0.00027720219293653046 0 -0.026988599213664435 0.00012404957663364631 0 -0.026729292545241406 -4.4782368859165826e-05 0 -0.027012566596862117 0.00042706167315636481 0 -0.026675140182891677 0.00027720219293653046 0 -0.026988599213664435 0.00012404957663364631 0 -0.026988599213664435 0.00012404957663364631 0 -0.026963311843005888 -0.00013512731717337957 0 -0.027215324147948139 -0.00017087697718546827 0 -0.026988599213664435 0.00012404957663364631 0 -0.026729292545241406 -4.4782368859165826e-05 0 -0.026963311843005888 -0.00013512731717337957 0 -0.026729292545241406 -4.4782368859165826e-05 0 -0.026518231538387439 -0.00034116149859766027 0 -0.026804024679836329 -0.00035088671501745216 0 -0.026729292545241406 -4.4782368859165826e-05 0 -0.026963311843005888 -0.00013512731717337957 0 -0.026804024679836329 -0.00035088671501745216 0 -0.026963311843005888 -0.00013512731717337957 0 -0.026804024679836329 -0.00035088671501745216 0 -0.027089015759509661 -0.00044136333383289916 0 -0.026287751585399047 0.00020550822502616204 0 -0.026410868351515206 -5.4764017238124014e-05 0 -0.026154998669765717 -7.4335152765926332e-05 0 -0.026675140182891677 0.00027720219293653046 0 -0.026729292545241406 -4.4782368859165826e-05 0 -0.026410868351515206 -5.4764017238124014e-05 0 -0.026729292545241406 -4.4782368859165826e-05 0 -0.026410868351515206 -5.4764017238124014e-05 0 -0.026518231538387439 -0.00034116149859766027 0 -0.026410868351515206 -5.4764017238124014e-05 0 -0.026187247832159768 -0.00036468416377670367 0 -0.026154998669765717 -7.4335152765926332e-05 0 -0.026410868351515206 -5.4764017238124014e-05 0 -0.026518231538387439 -0.00034116149859766027 0 -0.026187247832159768 -0.00036468416377670367 0 -0.026518231538387439 -0.00034116149859766027 0 -0.026446229492663356 -0.00064796256928268954 0 -0.026187247832159768 -0.00036468416377670367 0 -0.026518231538387439 -0.00034116149859766027 0 -0.026446229492663356 -0.00064796256928268954 0 -0.026653330471678095 -0.0004805347214445506 0 -0.024527429185477061 -0.00035955802769554773 0 -0.025056340481676147 -0.00042359293168389798 0 -0.026446229492663356 -0.00064796256928268954 0 -0.026845613461172337 -0.00058214054491258704 0 -0.027071714234114638 -0.00077364309878037284 0 -0.026804024679836329 -0.00035088671501745216 0 -0.026845613461172337 -0.00058214054491258704 0 -0.027089015759509661 -0.00044136333383289916 0 -0.026653330471678095 -0.0004805347214445506 0 -0.026804024679836329 -0.00035088671501745216 0 -0.026845613461172337 -0.00058214054491258704 0 -0.026518231538387439 -0.00034116149859766027 0 -0.026653330471678095 -0.0004805347214445506 0 -0.026804024679836329 -0.00035088671501745216 0 -0.026446229492663356 -0.00064796256928268954 0 -0.026653330471678095 -0.0004805347214445506 0 -0.026845613461172337 -0.00058214054491258704 0 -0.026845613461172337 -0.00058214054491258704 0 -0.027089015759509661 -0.00044136333383289916 0 -0.027071714234114638 -0.00077364309878037284 0 -0.027278207957341701 -0.00059127841947037433 0 -0.027089015759509661 -0.00044136333383289916 0 -0.027071714234114638 -0.00077364309878037284 0 -0.027278207957341701 -0.00059127841947037433 0 -0.027464170924931097 -0.00066578183561723876 0 -0.027071714234114638 -0.00077364309878037284 0 -0.027278207957341701 -0.00059127841947037433 0 -0.027464170924931097 -0.00066578183561723876 0 -0.027425020703413665 -0.00043533592829819961 0 -0.027425020703413665 -0.00043533592829819961 0 -0.027089015759509661 -0.00044136333383289916 0 -0.027215324147948139 -0.00017087697718546827 0 -0.027278207957341701 -0.00059127841947037433 0 -0.027425020703413665 -0.00043533592829819961 0 -0.027089015759509661 -0.00044136333383289916 0 -0.026963311843005888 -0.00013512731717337957 0 -0.027089015759509661 -0.00044136333383289916 0 -0.027215324147948139 -0.00017087697718546827 0 -0.027425020703413665 -0.00043533592829819961 0 -0.027215324147948139 -0.00017087697718546827 0 -0.027461113537689891 -0.0002221025291077825 0 -0.027215324147948139 -0.00017087697718546827 0 -0.027461113537689891 -0.0002221025291077825 0 -0.027554982323577486 -2.3301793687931035e-06 0 -0.027287599153184815 0.00023571559425668789 0 -0.027215324147948139 -0.00017087697718546827 0 -0.027554982323577486 -2.3301793687931035e-06 0 -0.027287599153184815 0.00023571559425668789 0 -0.026988599213664435 0.00012404957663364631 0 -0.027215324147948139 -0.00017087697718546827 0 -0.027765945114606401 0.00015761620214331656 0 -0.027888486877753159 -5.7322223129477905e-05 0 -0.027554982323577486 -2.3301793687931035e-06 0 -0.027888486877753159 -5.7322223129477905e-05 0 -0.027554982323577486 -2.3301793687931035e-06 0 -0.027695325589896312 -0.00027638573397311094 0 -0.027425020703413665 -0.00043533592829819961 0 -0.027461113537689891 -0.0002221025291077825 0 -0.027695325589896312 -0.00027638573397311094 0 -0.027461113537689891 -0.0002221025291077825 0 -0.027554982323577486 -2.3301793687931035e-06 0 -0.027695325589896312 -0.00027638573397311094 0 -0.028091003087713774 -0.00045034383413612391 0 -0.027888486877753159 -5.7322223129477905e-05 0 -0.027695325589896312 -0.00027638573397311094 0 -0.028091003087713774 -0.00045034383413612391 0 -0.027674620027993552 -0.00054493680316263112 0 -0.027703530846189494 -0.00089580358278852331 0 -0.028091003087713774 -0.00045034383413612391 0 -0.027695325589896312 -0.00027638573397311094 0 -0.027674620027993552 -0.00054493680316263112 0 -0.027099913775228468 -0.00030989036205178011 0 -0.025071147028405582 5.1643854321422599e-05 0 -0.027425020703413665 -0.00043533592829819961 0 -0.027695325589896312 -0.00027638573397311094 0 -0.027674620027993552 -0.00054493680316263112 0 -0.027464170924931097 -0.00066578183561723876 0 -0.027425020703413665 -0.00043533592829819961 0 -0.027674620027993552 -0.00054493680316263112 0 -0.027464170924931097 -0.00066578183561723876 0 -0.027674620027993552 -0.00054493680316263112 0 -0.027703530846189494 -0.00089580358278852331 0 -0.025753839041003049 -0.00027923142775031592 0 -0.025758140099700493 -0.00020348059794550151 0 -0.025781303311160009 -0.00020765981347073051 0 -0.023257526737886235 0.0002719366402368024 0 -0.02322033498183004 -0.00015018969162534901 0 -0.023564981525112865 0.00024984161299750139 0 -0.024021303736485658 0.00016408827500894897 0 -0.024163015603892668 0.00034152751477190148 0 -0.023257526737886235 0.0002719366402368024 0 -0.025071147028405582 5.1643854321422599e-05 0 -0.025071147028405582 5.1643854321422599e-05 0 -0.02322033498183004 -0.00015018969162534901 0 -0.021280001225838556 0.0003191664607300514 0 -0.02139160892666633 0.00030809070072425386 0 -0.021278600598303526 0.00036974659050354852 0 -0.021280001225838556 0.0003191664607300514 0 -0.021245305571304732 0.00040592781367296325 0 -0.021278600598303526 0.00036974659050354852 0 -0.021238357829282756 0.00039749518443437743 0 -0.021280001225838556 0.0003191664607300514 0 -0.021245305571304732 0.00040592781367296325 0 -0.021280001225838556 0.0003191664607300514 0 -0.02139160892666633 0.00030809070072425386 0 -0.021549420173472604 0.0001295219940007829 0 -0.027464170924931097 -0.00066578183561723876 0 -0.027703530846189494 -0.00089580358278852331 0 -0.027071714234114638 -0.00077364309878037284 0 -0.025071147028405582 5.1643854321422599e-05 0 -0.025056340481676147 -0.00042359293168389798 0 -0.02322033498183004 -0.00015018969162534901 0 -0.022011228560631282 3.8522721411895799e-05 0 -0.023192039791072615 -4.0207075696540585e-05 0 -0.022857396355756343 5.429342051727747e-05 0 -0.022821491102841287 -7.9407848929013709e-05 0 -0.023228338014004094 2.838246981389081e-06 0 -0.023192039791072615 -4.0207075696540585e-05 0 -0.022857396355756343 5.429342051727747e-05 0 -0.02139160892666633 0.00030809070072425386 0 -0.021188447674159904 0.00046855895619576313 0 -0.021567720485698261 0.00038399645526437882 0 -0.02139160892666633 0.00030809070072425386 0 -0.0215480586656174 0.00026023290336964092 0 -0.021567720485698261 0.00038399645526437882 0 -0.02139160892666633 0.00030809070072425386 0 -0.0215480586656174 0.00026023290336964092 0 -0.021549420173472604 0.0001295219940007829 0 -0.021245305571304732 0.00040592781367296325 0 -0.021278600598303526 0.00036974659050354852 0 -0.021188447674159904 0.00046855895619576313 0 -0.021207017452431677 0.00054679373280805779 0 -0.021245305571304732 0.00040592781367296325 0 -0.021188447674159904 0.00046855895619576313 0 -0.02139160892666633 0.00030809070072425386 0 -0.021278600598303526 0.00036974659050354852 0 -0.021188447674159904 0.00046855895619576313 0 -0.021180676017733178 0.00050667288335467142 0 -0.021188447674159904 0.00046855895619576313 0 -0.02107008543943863 0.00032250056777064325 0 -0.021180676017733178 0.00050667288335467142 0 -0.02107008543943863 0.00032250056777064325 0 -0.021098279883694643 0.00028197824285460118 0 -0.021190177006617215 0.00043670604190937807 0 -0.021263156830705308 0.00030536416863416737 0 -0.021188447674159904 0.00046855895619576313 0 -0.02107008543943863 0.00032250056777064325 0 -0.020943346421205225 0.00022398462272835693 0 -0.02107008543943863 0.00032250056777064325 0 -0.020943346421205225 0.00022398462272835693 0 -0.020927065822968535 0.00021982832631124759 0 -0.02107008543943863 0.00032250056777064325 0 -0.021098279883694643 0.00028197824285460118 0 -0.020927065822968535 0.00021982832631124759 0 -0.020357280768283425 4.4703577886209807e-05 0 -0.020916837164653576 0.00023254968667060387 0 -0.019749657831961084 7.9887296088579445e-06 0 -0.020927065822968535 0.00021982832631124759 0 -0.020207916285092348 0.00059820328567873247 0 -0.020927065822968535 0.00021982832631124759 0 -0.020796536923645626 0.00061746699933882437 0 -0.020207916285092348 0.00059820328567873247 0 -0.019749657831961084 7.9887296088579445e-06 0 -0.020207916285092348 0.00059820328567873247 0 -0.019312490192169608 0.0005716784625611651 0 -0.021406065969938267 0.00015355006748373346 0 -0.021634005300675045 0.00043957880685866136 0 -0.021390408864029632 0.00041327347705312706 0 -0.021406065969938267 0.00015355006748373346 0 -0.021179846828869205 0.00026899086528162644 0 -0.021390408864029632 0.00041327347705312706 0 -0.020943346421205225 0.00022398462272835693 0 -0.021406065969938267 0.00015355006748373346 0 -0.021179846828869205 0.00026899086528162644 0 -0.020943346421205225 0.00022398462272835693 0 -0.021179846828869205 0.00026899086528162644 0 -0.020927065822968535 0.00021982832631124759 0 -0.021179846828869205 0.00026899086528162644 0 -0.020927065822968535 0.00021982832631124759 0 -0.020796536923645626 0.00061746699933882437 0 -0.021263156830705308 0.00030536416863416737 0 -0.021647486842011093 0.00025581199920861976 0 -0.021567720485698261 0.00038399645526437882 0 -0.021832385056825786 0.00024794513959134067 0 -0.021685304355732241 0.00020307085421618663 0 -0.021567720485698261 0.00038399645526437882 0 -0.021886214427317988 0.00033091371033186555 0 -0.021832385056825786 0.00024794513959134067 0 -0.021886214427317988 0.00033091371033186555 0 -0.021832385056825786 0.00024794513959134067 0 -0.021983076195658268 0.00024268326593535896 0 -0.021832385056825786 0.00024794513959134067 0 -0.021995698159761167 0.00013761719445031426 0 -0.021983076195658268 0.00024268326593535896 0 -0.021837065479048075 0.00014753564022392223 0 -0.021853099674335588 -7.1122852328805503e-06 0 -0.021995698159761167 0.00013761719445031426 0 -0.021832385056825786 0.00024794513959134067 0 -0.021837065479048075 0.00014753564022392223 0 -0.021995698159761167 0.00013761719445031426 0 -0.021832385056825786 0.00024794513959134067 0 -0.021837065479048075 0.00014753564022392223 0 -0.021685304355732241 0.00020307085421618663 0 -0.021837065479048075 0.00014753564022392223 0 -0.021685304355732241 0.00020307085421618663 0 -0.021853099674335588 -7.1122852328805503e-06 0 -0.021685304355732241 0.00020307085421618663 0 -0.021549420173472604 0.0001295219940007829 0 -0.021853099674335588 -7.1122852328805503e-06 0 -0.0215480586656174 0.00026023290336964092 0 -0.021567720485698261 0.00038399645526437882 0 -0.021685304355732241 0.00020307085421618663 0 -0.0215480586656174 0.00026023290336964092 0 -0.021685304355732241 0.00020307085421618663 0 -0.021549420173472604 0.0001295219940007829 0 -0.022821491102841287 -7.9407848929013709e-05 0 -0.022722181193798159 -2.7087112514991464e-05 0 -0.022738417415770418 -4.2779156689366294e-05 0 -0.022563880595113401 -6.6213392396101544e-05 0 -0.022857396355756343 5.429342051727747e-05 0 -0.022722181193798159 -2.7087112514991464e-05 0 -0.022011228560631282 3.8522721411895799e-05 0 -0.02234218746010249 -2.2322316907948157e-05 0 -0.022857396355756343 5.429342051727747e-05 0 -0.022821491102841287 -7.9407848929013709e-05 0 -0.022722181193798159 -2.7087112514991464e-05 0 -0.022722181193798159 -2.7087112514991464e-05 0 -0.022738417415770418 -4.2779156689366294e-05 0 -0.022703494662684797 1.0165638260565688e-05 0 -0.022563880595113401 -6.6213392396101544e-05 0 -0.022722181193798159 -2.7087112514991464e-05 0 -0.022703494662684797 1.0165638260565688e-05 0 -0.022738417415770418 -4.2779156689366294e-05 0 -0.022703494662684797 1.0165638260565688e-05 0 -0.022824654337282944 0.00010078912180084747 0 -0.022563880595113401 -6.6213392396101544e-05 0 -0.022703494662684797 1.0165638260565688e-05 0 -0.022824654337282944 0.00010078912180084747 0 -0.022866027157621139 9.0487534406379381e-05 0 -0.023463822920565348 1.4290730285938762e-05 0 -0.022824654337282944 0.00010078912180084747 0 -0.022239266624117879 -4.0596109982740365e-05 0 -0.022285054443918928 -9.6173641365696218e-05 0 -0.022738417415770418 -4.2779156689366294e-05 0 -0.022824654337282944 0.00010078912180084747 0 -0.022285054443918928 -9.6173641365696218e-05 0 -0.022239266624117879 -4.0596109982740365e-05 0 -0.022285054443918928 -9.6173641365696218e-05 0 -0.022261743065854947 -8.2639007976350299e-05 0 -0.022285054443918928 -9.6173641365696218e-05 0 -0.022159090852886323 0.00012420293787664352 0 -0.022261743065854947 -8.2639007976350299e-05 0 -0.021853099674335588 -7.1122852328805503e-06 0 -0.022285054443918928 -9.6173641365696218e-05 0 -0.021995698159761167 0.00013761719445031426 0 -0.02234218746010249 -2.2322316907948157e-05 0 -0.022279140539021653 -8.0835098535255917e-05 0 -0.022285054443918928 -9.6173641365696218e-05 0 -0.021995698159761167 0.00013761719445031426 0 -0.022159090852886323 0.00012420293787664352 0 -0.021995698159761167 0.00013761719445031426 0 -0.021983076195658268 0.00024268326593535896 0 -0.022159090852886323 0.00012420293787664352 0 -0.022159090852886323 0.00012420293787664352 0 -0.022203087704877143 0.00022306567428398186 0 -0.022284019948827481 6.0543648462685119e-05 0 -0.022159090852886323 0.00012420293787664352 0 -0.022284019948827481 6.0543648462685119e-05 0 -0.022261743065854947 -8.2639007976350299e-05 0 -0.022203087704877143 0.00022306567428398186 0 -0.022001882191679881 0.00033024309143623925 0 -0.022100928518080629 0.00036134976898539219 0 -0.022159090852886323 0.00012420293787664352 0 -0.022203087704877143 0.00022306567428398186 0 -0.022001882191679881 0.00033024309143623925 0 -0.021983076195658268 0.00024268326593535896 0 -0.022159090852886323 0.00012420293787664352 0 -0.022001882191679881 0.00033024309143623925 0 -0.021406065969938267 0.00015355006748373346 0 -0.021634005300675045 0.00043957880685866136 0 -0.022001882191679881 0.00033024309143623925 0 -0.021886214427317988 0.00033091371033186555 0 -0.021983076195658268 0.00024268326593535896 0 -0.022001882191679881 0.00033024309143623925 0 -0.021647486842011093 0.00025581199920861976 0 -0.021982212817949511 0.00033218852584538484 0 -0.022428190650516842 7.5262140811550176e-05 0 -0.022272724911780711 0.00011610014323359172 0 -0.022362592835129699 0.00016244110420146333 0 -0.022581724799434186 0.00017006626708005254 0 -0.022328853555349637 0.00034542394950404844 0 -0.022256981286410345 -3.0747799784791524e-05 0 -0.022229616722511416 -0.00016299682233634539 0 -0.022203670251548509 -0.0001557542905802919 0 -0.022362592835129699 0.00016244110420146333 0 -0.022203087704877143 0.00022306567428398186 0 -0.022328853555349637 0.00034542394950404844 0 -0.022203087704877143 0.00022306567428398186 0 -0.022328853555349637 0.00034542394950404844 0 -0.022100928518080629 0.00036134976898539219 0 -0.022362592835129699 0.00016244110420146333 0 -0.022203087704877143 0.00022306567428398186 0 -0.022284019948827481 6.0543648462685119e-05 0 -0.022362592835129699 0.00016244110420146333 0 -0.022284019948827481 6.0543648462685119e-05 0 -0.022441454290021232 2.6320956607670975e-05 0 -0.022284019948827481 6.0543648462685119e-05 0 -0.022441454290021232 2.6320956607670975e-05 0 -0.022379285832688108 -0.00010117740400457616 0 -0.022362592835129699 0.00016244110420146333 0 -0.022441454290021232 2.6320956607670975e-05 0 -0.022581724799434186 0.00017006626708005254 0 -0.022441454290021232 2.6320956607670975e-05 0 -0.022379285832688108 -0.00010117740400457616 0 -0.022592037452054649 -0.00015335283496887889 0 -0.022379285832688108 -0.00010117740400457616 0 -0.022389271375762635 -0.00029740873096508857 0 -0.022592037452054649 -0.00015335283496887889 0 -0.022379285832688108 -0.00010117740400457616 0 -0.022261743065854947 -8.2639007976350299e-05 0 -0.022389271375762635 -0.00029740873096508857 0 -0.022284019948827481 6.0543648462685119e-05 0 -0.022379285832688108 -0.00010117740400457616 0 -0.022261743065854947 -8.2639007976350299e-05 0 -0.022239266624117879 -4.0596109982740365e-05 0 -0.022261743065854947 -8.2639007976350299e-05 0 -0.022389271375762635 -0.00029740873096508857 0 -0.023463822920565348 1.4290730285938762e-05 0 -0.023834146515256196 -0.00031149654138603304 0 -0.025320330954658618 -0.00033803320991249202 0 -0.025173701667054505 -0.00023816280303215549 0 -0.025318655527244955 -0.00034531228772984734 0 -0.025173701667054505 -0.00023816280303215549 0 -0.025318655527244955 -0.00034531228772984734 0 -0.02538742731903533 0.00015422399417096839 0 -0.025515593398514391 -8.3536602001484504e-05 0 -0.02538742731903533 0.00015422399417096839 0 -0.025483967422792329 7.0776786134263848e-05 0 -0.025318655527244955 -0.00034531228772984734 0 -0.025515593398514391 -8.3536602001484504e-05 0 -0.02538742731903533 0.00015422399417096839 0 -0.024725220793471021 0.00011857316400607602 0 -0.025320330954658618 -0.00033803320991249202 0 -0.025318655527244955 -0.00034531228772984734 0 -0.024725220793471021 0.00011857316400607602 0 -0.025318655527244955 -0.00034531228772984734 0 -0.023977533487990161 -0.00051100023400187284 0 -0.025318655527244955 -0.00034531228772984734 0 -0.025848370403116893 -0.00049747621909132012 0 -0.025515593398514391 -8.3536602001484504e-05 0 -0.025261288673068767 -0.00039071441638147911 0 -0.02491878937429829 -0.00046807755831614284 0 -0.022824654337282944 0.00010078912180084747 0 -0.024725220793471021 0.00011857316400607602 0 -0.023977533487990161 -0.00051100023400187284 0 -0.025848370403116893 -0.00049747621909132012 0 -0.026187247832159768 -0.00036468416377670367 0 -0.025802822356732941 -9.1521123089889904e-05 0 -0.022563880595113401 -6.6213392396101544e-05 0 -0.022824654337282944 0.00010078912180084747 0 -0.023977533487990161 -0.00051100023400187284 0 -0.024527429185477061 -0.00035955802769554773 0 -0.02491878937429829 -0.00046807755831614284 0 -0.026446229492663356 -0.00064796256928268954 0 -0.025848370403116893 -0.00049747621909132012 0 -0.026187247832159768 -0.00036468416377670367 0 -0.026287751585399047 0.00020550822502616204 0 -0.026154998669765717 -7.4335152765926332e-05 0 -0.025802822356732941 -9.1521123089889904e-05 0 -0.026187247832159768 -0.00036468416377670367 0 -0.026154998669765717 -7.4335152765926332e-05 0 -0.025802822356732941 -9.1521123089889904e-05 0 -0.025848370403116893 -0.00049747621909132012 0 -0.025802822356732941 -9.1521123089889904e-05 0 -0.025515593398514391 -8.3536602001484504e-05 0 -0.025802822356732941 -9.1521123089889904e-05 0 -0.025515593398514391 -8.3536602001484504e-05 0 -0.025668437457204714 7.0322914140951814e-05 0 -0.025668437457204714 7.0322914140951814e-05 0 -0.02596960590725006 0.00020358673379530245 0 -0.02562069639749863 0.00021244132695032275 0 -0.025668437457204714 7.0322914140951814e-05 0 -0.02562069639749863 0.00021244132695032275 0 -0.02549814196347042 0.00013082865355309512 0 -0.026287751585399047 0.00020550822502616204 0 -0.025802822356732941 -9.1521123089889904e-05 0 -0.02615696372376267 0.00055511418154255182 0 -0.025802822356732941 -9.1521123089889904e-05 0 -0.025668437457204714 7.0322914140951814e-05 0 -0.02596960590725006 0.00020358673379530245 0 -0.0258748522240102 -3.9045485988657693e-05 0 -0.025870509924303262 0.0003370656329914835 0 -0.025844261908823177 0.00052050133797836105 0 -0.02596960590725006 0.00020358673379530245 0 -0.02562069639749863 0.00021244132695032275 0 -0.025575908378646213 0.00036000308702192701 0 -0.02562069639749863 0.00021244132695032275 0 -0.025449534155767898 0.00028747316781783949 0 -0.02562069639749863 0.00021244132695032275 0 -0.025451531171911831 0.00015123357745789934 0 -0.02549814196347042 0.00013082865355309512 0 -0.025369905892789226 0.00027818991843164473 0 -0.026234419873727207 0.00017822434988591708 0 -0.025451531171911831 0.00015123357745789934 0 -0.02544284689260809 8.7900461213075607e-05 0 -0.02549814196347042 0.00013082865355309512 0 -0.027028383644497514 -0.00015957674283251073 0 -0.026234419873727207 0.00017822434988591708 0 -0.028107170414103114 -6.9908895599216569e-05 0 -0.028032080368953678 -9.1378440888021585e-05 0 -0.027977285783988781 -2.5131972415332712e-05 0 -0.025728662629826132 -0.00017745458904074564 0 -0.025401302082970291 -1.724449054467691e-05 0 -0.025595138295815653 -2.1502691626838901e-05 0 -0.025595138295815653 -2.1502691626838901e-05 0 -0.025518113732657142 8.0911356079438923e-05 0 -0.025741276062420399 8.1583584215575556e-05 0 -0.025401302082970291 -1.724449054467691e-05 0 -0.025595138295815653 -2.1502691626838901e-05 0 -0.02544284689260809 8.7900461213075607e-05 0 -0.025595138295815653 -2.1502691626838901e-05 0 -0.02544284689260809 8.7900461213075607e-05 0 -0.025518113732657142 8.0911356079438923e-05 0 -0.026234419873727207 0.00017822434988591708 0 -0.025956861460359713 -1.9451579959897205e-06 0 -0.025448160245185356 0.00010882653801100862 0 -0.025518113732657142 8.0911356079438923e-05 0 -0.02538742731903533 0.00015422399417096839 0 -0.025448160245185356 0.00010882653801100862 0 -0.02538742731903533 0.00015422399417096839 0 -0.025483967422792329 7.0776786134263848e-05 0 -0.02544284689260809 8.7900461213075607e-05 0 -0.025448160245185356 0.00010882653801100862 0 -0.025518113732657142 8.0911356079438923e-05 0 -0.025518113732657142 8.0911356079438923e-05 0 -0.02538742731903533 0.00015422399417096839 0 -0.025741276062420399 8.1583584215575556e-05 0 -0.025515593398514391 -8.3536602001484504e-05 0 -0.025668437457204714 7.0322914140951814e-05 0 -0.025483967422792329 7.0776786134263848e-05 0 -0.025668437457204714 7.0322914140951814e-05 0 -0.025483967422792329 7.0776786134263848e-05 0 -0.02549814196347042 0.00013082865355309512 0 -0.025448160245185356 0.00010882653801100862 0 -0.025483967422792329 7.0776786134263848e-05 0 -0.02549814196347042 0.00013082865355309512 0 -0.02544284689260809 8.7900461213075607e-05 0 -0.025448160245185356 0.00010882653801100862 0 -0.02549814196347042 0.00013082865355309512 0 -0.026043835681561454 0.0002263930858975828 0 -0.026274654725733732 0.00022983544405282198 0 -0.026166672322408407 0.00028465884712490307 0 -0.026043835681561454 0.0002263930858975828 0 -0.02606727990258368 9.8010469881485248e-05 0 -0.026274654725733732 0.00022983544405282198 0 -0.02538742731903533 0.00015422399417096839 0 -0.026043835681561454 0.0002263930858975828 0 -0.025741276062420399 8.1583584215575556e-05 0 -0.026043835681561454 0.0002263930858975828 0 -0.025741276062420399 8.1583584215575556e-05 0 -0.02606727990258368 9.8010469881485248e-05 0 -0.025741276062420399 8.1583584215575556e-05 0 -0.025823028914574029 -2.0084751564281359e-05 0 -0.02606727990258368 9.8010469881485248e-05 0 -0.025823028914574029 -2.0084751564281359e-05 0 -0.026005714408886233 -8.7242697571019166e-05 0 -0.02606727990258368 9.8010469881485248e-05 0 -0.025595138295815653 -2.1502691626838901e-05 0 -0.025741276062420399 8.1583584215575556e-05 0 -0.025823028914574029 -2.0084751564281359e-05 0 -0.025728662629826132 -0.00017745458904074564 0 -0.025595138295815653 -2.1502691626838901e-05 0 -0.025823028914574029 -2.0084751564281359e-05 0 -0.025728662629826132 -0.00017745458904074564 0 -0.025823028914574029 -2.0084751564281359e-05 0 -0.026005714408886233 -8.7242697571019166e-05 0 -0.026005714408886233 -8.7242697571019166e-05 0 -0.02606727990258368 9.8010469881485248e-05 0 -0.026332372633173805 -2.8056954124371169e-05 0 -0.02606727990258368 9.8010469881485248e-05 0 -0.026347173541457408 0.00012818250889383914 0 -0.026274654725733732 0.00022983544405282198 0 -0.02606727990258368 9.8010469881485248e-05 0 -0.026332372633173805 -2.8056954124371169e-05 0 -0.026347173541457408 0.00012818250889383914 0 -0.026332372633173805 -2.8056954124371169e-05 0 -0.026621726445735901 7.577973642559472e-05 0 -0.026347173541457408 0.00012818250889383914 0 -0.026715920756516243 -6.9008377613233855e-05 0 -0.026332372633173805 -2.8056954124371169e-05 0 -0.026621726445735901 7.577973642559472e-05 0 -0.027083238174333474 -1.4416326633811485e-05 0 -0.026715920756516243 -6.9008377613233855e-05 0 -0.026621726445735901 7.577973642559472e-05 0 -0.027083238174333474 -1.4416326633811485e-05 0 -0.026621726445735901 7.577973642559472e-05 0 -0.026724578019958492 0.00015799529380635752 0 -0.026621726445735901 7.577973642559472e-05 0 -0.026472148770305494 0.00019252463424930308 0 -0.026724578019958492 0.00015799529380635752 0 -0.026472148770305494 0.00019252463424930308 0 -0.026724578019958492 0.00015799529380635752 0 -0.026368201363879483 0.00026815593278341421 0 -0.026472148770305494 0.00019252463424930308 0 -0.026347173541457408 0.00012818250889383914 0 -0.026274654725733732 0.00022983544405282198 0 -0.026621726445735901 7.577973642559472e-05 0 -0.026472148770305494 0.00019252463424930308 0 -0.026347173541457408 0.00012818250889383914 0 -0.027083238174333474 -1.4416326633811485e-05 0 -0.027132608962715129 5.448803168190656e-05 0 -0.026724578019958492 0.00015799529380635752 0 -0.026724578019958492 0.00015799529380635752 0 -0.026585796579392536 0.00020917093446854346 0 -0.026368201363879483 0.00026815593278341421 0 -0.027132608962715129 5.448803168190656e-05 0 -0.026724578019958492 0.00015799529380635752 0 -0.026585796579392536 0.00020917093446854346 0 -0.027132608962715129 5.448803168190656e-05 0 -0.026585796579392536 0.00020917093446854346 0 -0.026716972711110887 0.00015248658870208422 0 -0.026585796579392536 0.00020917093446854346 0 -0.026368201363879483 0.00026815593278341421 0 -0.026067918606989156 0.00025685026866823597 0 -0.026368201363879483 0.00026815593278341421 0 -0.026067918606989156 0.00025685026866823597 0 -0.026037502089205081 0.0002587104475298271 0 -0.026472148770305494 0.00019252463424930308 0 -0.026368201363879483 0.00026815593278341421 0 -0.026274654725733732 0.00022983544405282198 0 -0.026368201363879483 0.00026815593278341421 0 -0.026274654725733732 0.00022983544405282198 0 -0.026166672322408407 0.00028465884712490307 0 -0.026166672322408407 0.00028465884712490307 0 -0.025865612319431665 0.0001793765205072763 0 -0.026124761781446928 -1.1984726571053337e-05 0 -0.026166672322408407 0.00028465884712490307 0 -0.026124761781446928 -1.1984726571053337e-05 0 -0.026062541238288751 0.00036837357002891011 0 -0.026368201363879483 0.00026815593278341421 0 -0.026166672322408407 0.00028465884712490307 0 -0.026037502089205081 0.0002587104475298271 0 -0.026166672322408407 0.00028465884712490307 0 -0.026037502089205081 0.0002587104475298271 0 -0.025865612319431665 0.0001793765205072763 0 -0.026067918606989156 0.00025685026866823597 0 -0.026037502089205081 0.0002587104475298271 0 -0.02561510330174719 0.00017669140285918956 0 -0.026037502089205081 0.0002587104475298271 0 -0.025865612319431665 0.0001793765205072763 0 -0.02561510330174719 0.00017669140285918956 0 -0.025406808193732838 1.2919447593071335e-05 0 -0.026124761781446928 -1.1984726571053337e-05 0 -0.024632208384972841 -0.0004677161808046175 0 -0.025865612319431665 0.0001793765205072763 0 -0.025406808193732838 1.2919447593071335e-05 0 -0.026124761781446928 -1.1984726571053337e-05 0 -0.025033753699019202 -0.00022765709076049713 0 -0.024688739521251713 -0.00044318261580487316 0 -0.025865612319431665 0.0001793765205072763 0 -0.02561510330174719 0.00017669140285918956 0 -0.025406808193732838 1.2919447593071335e-05 0 -0.023955323603328249 -0.00048532861926157581 0 -0.024691522271834812 -2.9312755684508347e-05 0 -0.024663978909560427 -0.00067447870067298106 0 -0.025033753699019202 -0.00022765709076049713 0 -0.025359850406616008 0.00013383487906920146 0 -0.026043835681561454 0.0002263930858975828 0 -0.026166672322408407 0.00028465884712490307 0 -0.026062541238288751 0.00036837357002891011 0 -0.02538742731903533 0.00015422399417096839 0 -0.026043835681561454 0.0002263930858975828 0 -0.026062541238288751 0.00036837357002891011 0 -0.025377836866384781 0.00015908232106559556 0 -0.025359850406616008 0.00013383487906920146 0 -0.025173701667054505 -0.00023816280303215549 0 -0.02538742731903533 0.00015422399417096839 0 -0.024691522271834812 -2.9312755684508347e-05 0 -0.025173701667054505 -0.00023816280303215549 0 -0.024691522271834812 -2.9312755684508347e-05 0 -0.024663978909560427 -0.00067447870067298106 0 -0.022389271375762635 -0.00029740873096508857 0 -0.022791897405202943 -0.00056332331165709023 0 -0.022592037452054649 -0.00015335283496887889 0 -0.025320330954658618 -0.00033803320991249202 0 -0.025173701667054505 -0.00023816280303215549 0 -0.024663978909560427 -0.00067447870067298106 0 -0.023834146515256196 -0.00031149654138603304 0 -0.023746765701716698 -0.00059237436392639759 0 -0.023746765701716698 -0.00059237436392639759 0 -0.023896270003691503 -0.00061452300857522469 0 -0.022791897405202943 -0.00056332331165709023 0 -0.023051601438253761 -0.00031713495564935962 0 -0.023897147036332649 -0.00060871804683835769 0 -0.023051601438253761 -0.00031713495564935962 0 -0.022592037452054649 -0.00015335283496887889 0 -0.022865412245804351 -6.337241825633491e-05 0 -0.023051601438253761 -0.00031713495564935962 0 -0.022865412245804351 -6.337241825633491e-05 0 -0.023519860598563095 -0.00029881581132360229 0 -0.022791897405202943 -0.00056332331165709023 0 -0.023051601438253761 -0.00031713495564935962 0 -0.022592037452054649 -0.00015335283496887889 0 -0.022441454290021232 2.6320956607670975e-05 0 -0.022592037452054649 -0.00015335283496887889 0 -0.022581724799434186 0.00017006626708005254 0 -0.022592037452054649 -0.00015335283496887889 0 -0.022865412245804351 -6.337241825633491e-05 0 -0.022581724799434186 0.00017006626708005254 0 -0.022807431785315881 -5.9455291532830218e-05 0 -0.022428190650516842 7.5262140811550176e-05 0 -0.022865412245804351 -6.337241825633491e-05 0 -0.02268065019646797 0.00012521340814795052 0 -0.022256981286410345 -3.0747799784791524e-05 0 -0.022865412245804351 -6.337241825633491e-05 0 -0.02268065019646797 0.00012521340814795052 0 -0.023387115281507605 -0.00012191381605606792 0 -0.02268065019646797 0.00012521340814795052 0 -0.022324452718047838 -1.7889404268090295e-05 0 -0.022053326970371184 -5.0544340313027408e-05 0 -0.022324452718047838 -1.7889404268090295e-05 0 -0.022053326970371184 -5.0544340313027408e-05 0 -0.022092104408806195 -0.00022754321211406462 0 -0.02268065019646797 0.00012521340814795052 0 -0.022324452718047838 -1.7889404268090295e-05 0 -0.022256981286410345 -3.0747799784791524e-05 0 -0.022324452718047838 -1.7889404268090295e-05 0 -0.022256981286410345 -3.0747799784791524e-05 0 -0.022229616722511416 -0.00016299682233634539 0 -0.021188574218717462 0.00020489612570968754 0 -0.020225947364006552 -0.00021840845293770876 0 -0.020893092299410228 -0.00039303157951171667 0 -0.02268065019646797 0.00012521340814795052 0 -0.022053326970371184 -5.0544340313027408e-05 0 -0.021188574218717462 0.00020489612570968754 0 -0.022053326970371184 -5.0544340313027408e-05 0 -0.021188574218717462 0.00020489612570968754 0 -0.021595969655869272 -0.00030670656087140473 0 -0.02268065019646797 0.00012521340814795052 0 -0.023871366883896093 -2.9491817187178782e-05 0 -0.023387115281507605 -0.00012191381605606792 0 -0.023871366883896093 -2.9491817187178782e-05 0 -0.023387115281507605 -0.00012191381605606792 0 -0.023924094043475001 -0.00026568084820540507 0 -0.022533313930228442 7.4101894549980424e-05 0 -0.022680714877648122 0.0001158788899568428 0 -0.023387115281507605 -0.00012191381605606792 0 -0.023924094043475001 -0.00026568084820540507 0 -0.023519860598563095 -0.00029881581132360229 0 -0.023871366883896093 -2.9491817187178782e-05 0 -0.023924094043475001 -0.00026568084820540507 0 -0.024023457212829526 -0.00036120191200311654 0 -0.024102369984553784 -0.00039299421367078427 0 -0.024632208384972841 -0.0004677161808046175 0 -0.024158314185057799 -0.00044255303127988915 0 -0.023924094043475001 -0.00026568084820540507 0 -0.024102369984553784 -0.00039299421367078427 0 -0.024158314185057799 -0.00044255303127988915 0 -0.023924094043475001 -0.00026568084820540507 0 -0.024102369984553784 -0.00039299421367078427 0 -0.023519860598563095 -0.00029881581132360229 0 -0.023051601438253761 -0.00031713495564935962 0 -0.023519860598563095 -0.00029881581132360229 0 -0.023897147036332649 -0.00060871804683835769 0 -0.022865412245804351 -6.337241825633491e-05 0 -0.023387115281507605 -0.00012191381605606792 0 -0.023519860598563095 -0.00029881581132360229 0 -0.024102369984553784 -0.00039299421367078427 0 -0.023519860598563095 -0.00029881581132360229 0 -0.023897147036332649 -0.00060871804683835769 0 -0.023955323603328249 -0.00048532861926157581 0 -0.024663978909560427 -0.00067447870067298106 0 -0.023897147036332649 -0.00060871804683835769 0 -0.024102369984553784 -0.00039299421367078427 0 -0.023897147036332649 -0.00060871804683835769 0 -0.024632208384972841 -0.0004677161808046175 0 -0.023955323603328249 -0.00048532861926157581 0 -0.023897147036332649 -0.00060871804683835769 0 -0.024632208384972841 -0.0004677161808046175 0 -0.023861981731444933 -0.00037819107640614768 0 -0.022171518754564166 -0.00015326514798943134 0 -0.024138344727986556 -3.5905201751952285e-05 0 -0.024632208384972841 -0.0004677161808046175 0 -0.023861981731444933 -0.00037819107640614768 0 -0.024138344727986556 -3.5905201751952285e-05 0 -0.023861981731444933 -0.00037819107640614768 0 -0.024158314185057799 -0.00044255303127988915 0 -0.023822674641828731 -0.00074689787868331312 0 -0.024632208384972841 -0.0004677161808046175 0 -0.023861981731444933 -0.00037819107640614768 0 -0.024158314185057799 -0.00044255303127988915 0 -0.024158314185057799 -0.00044255303127988915 0 -0.024023457212829526 -0.00036120191200311654 0 -0.023822674641828731 -0.00074689787868331312 0 -0.023924094043475001 -0.00026568084820540507 0 -0.024158314185057799 -0.00044255303127988915 0 -0.024023457212829526 -0.00036120191200311654 0 -0.021400356510084265 -0.00028900647081185718 0 -0.02229732429810161 -0.0016027190378470107 0 -0.021476754738664918 -0.0019873043850659623 0 -0.022915234887419044 -0.00066404197253861364 0 -0.021311726343375966 -0.00048235249418284744 0 -0.023871366883896093 -2.9491817187178782e-05 0 -0.024023457212829526 -0.00036120191200311654 0 -0.024015443291072889 -0.00033730565334667801 0 -0.022680714877648122 0.0001158788899568428 0 -0.021311726343375966 -0.00048235249418284744 0 -0.024023457212829526 -0.00036120191200311654 0 -0.023822674641828731 -0.00074689787868331312 0 -0.024015443291072889 -0.00033730565334667801 0 -0.017227627535829924 1.4575347765669799e-05 0 -0.018702326016303249 -5.4709961994817907e-07 0 -0.017461280949716395 5.5236298520729435e-07 0 -0.018673460342750647 -0.00080230218013669274 0 -0.018702834352458744 7.4412952350804787e-08 0 -0.019953566330399339 -0.001599331519874087 0 -0.020599401707903725 -0.00057173380196536385 0 -0.018707192104671679 -2.7685310625874615e-06 0 -0.019953566330399339 -0.001599331519874087 0 -0.020855224404086534 -0.0013563167585817419 0 -0.020599401707903725 -0.00057173380196536385 0 -0.021400356510084265 -0.00028900647081185718 0 -0.020855224404086534 -0.0013563167585817419 0 -0.020599401707903725 -0.00057173380196536385 0 -0.021400356510084265 -0.00028900647081185718 0 -0.020855224404086534 -0.0013563167585817419 0 -0.021476754738664918 -0.0019873043850659623 0 -0.021400356510084265 -0.00028900647081185718 0 -0.020599401707903725 -0.00057173380196536385 0 -0.020881786697279442 -0.00014419888328387923 0 -0.020881786697279442 -0.00014419888328387923 0 -0.018707192104671679 -2.7685310625874615e-06 0 -0.020727919846766859 5.7383855641045174e-07 0 -0.020599401707903725 -0.00057173380196536385 0 -0.020881786697279442 -0.00014419888328387923 0 -0.018707192104671679 -2.7685310625874615e-06 0 -0.020881786697279442 -0.00014419888328387923 0 -0.020727919846766859 5.7383855641045174e-07 0 -0.022171518754564166 -0.00015326514798943134 0 -0.022915234887419044 -0.00066404197253861364 0 -0.02203934779474551 1.4982234941148787e-05 0 -0.021400356510084265 -0.00028900647081185718 0 -0.020881786697279442 -0.00014419888328387923 0 -0.022171518754564166 -0.00015326514798943134 0 -0.023861981731444933 -0.00037819107640614768 0 -0.023822674641828731 -0.00074689787868331312 0 -0.022171518754564166 -0.00015326514798943134 0 -0.022171518754564166 -0.00015326514798943134 0 -0.022958789109091975 3.0809123480807091e-05 0 -0.024138344727986556 -3.5905201751952285e-05 0 -0.020727919846766859 5.7383855641045174e-07 0 -0.022752864387264461 1.4257880207580375e-07 0 -0.022958789109091975 3.0809123480807091e-05 0 -0.020727919846766859 5.7383855641045174e-07 0 -0.022171518754564166 -0.00015326514798943134 0 -0.022958789109091975 3.0809123480807091e-05 0 -0.022752864387264461 1.4257880207580375e-07 0 -0.024190462301716245 0.00012823190533604382 0 -0.022958789109091975 3.0809123480807091e-05 0 -0.022752864387264461 1.4257880207580375e-07 0 -0.024776363982890522 3.1514307893150966e-07 0 -0.025154623507734689 0.00017867087808252886 0 -0.022752864387264461 1.4257880207580375e-07 0 -0.024190462301716245 0.00012823190533604382 0 -0.025154623507734689 0.00017867087808252886 0 -0.024190462301716245 0.00012823190533604382 0 -0.022958789109091975 3.0809123480807091e-05 0 -0.024138344727986556 -3.5905201751952285e-05 0 -0.024190462301716245 0.00012823190533604382 0 -0.024138344727986556 -3.5905201751952285e-05 0 -0.0253182381653244 0.00018712603205385154 0 -0.024138344727986556 -3.5905201751952285e-05 0 -0.024932749039612165 5.9584826245764731e-06 0 -0.0253182381653244 0.00018712603205385154 0 -0.024632208384972841 -0.0004677161808046175 0 -0.024138344727986556 -3.5905201751952285e-05 0 -0.024932749039612165 5.9584826245764731e-06 0 -0.025406808193732838 1.2919447593071335e-05 0 -0.024632208384972841 -0.0004677161808046175 0 -0.024932749039612165 5.9584826245764731e-06 0 -0.02561510330174719 0.00017669140285918956 0 -0.025406808193732838 1.2919447593071335e-05 0 -0.024932749039612165 5.9584826245764731e-06 0 -0.02561510330174719 0.00017669140285918956 0 -0.024932749039612165 5.9584826245764731e-06 0 -0.0253182381653244 0.00018712603205385154 0 -0.026067918606989156 0.00025685026866823597 0 -0.02561510330174719 0.00017669140285918956 0 -0.0253182381653244 0.00018712603205385154 0 -0.024190462301716245 0.00012823190533604382 0 -0.0253182381653244 0.00018712603205385154 0 -0.025154623507734689 0.00017867087808252886 0 -0.025892714240592741 0.00019520300258159596 0 -0.026508803009281521 0.00014174062009417179 0 -0.025154623507734689 0.00017867087808252886 0 -0.0253182381653244 0.00018712603205385154 0 -0.025892714240592741 0.00019520300258159596 0 -0.026265802357135565 0.00021498709357520055 0 -0.0253182381653244 0.00018712603205385154 0 -0.025892714240592741 0.00019520300258159596 0 -0.025154623507734689 0.00017867087808252886 0 -0.026067918606989156 0.00025685026866823597 0 -0.0253182381653244 0.00018712603205385154 0 -0.026265802357135565 0.00021498709357520055 0 -0.026585796579392536 0.00020917093446854346 0 -0.026067918606989156 0.00025685026866823597 0 -0.026265802357135565 0.00021498709357520055 0 -0.026265802357135565 0.00021498709357520055 0 -0.026716972711110887 0.00015248658870208422 0 -0.02686068152025315 0.00011772092444212602 0 -0.026585796579392536 0.00020917093446854346 0 -0.026265802357135565 0.00021498709357520055 0 -0.026716972711110887 0.00015248658870208422 0 -0.025892714240592741 0.00019520300258159596 0 -0.026265802357135565 0.00021498709357520055 0 -0.02686068152025315 0.00011772092444212602 0 -0.027132608962715129 5.448803168190656e-05 0 -0.026716972711110887 0.00015248658870208422 0 -0.02686068152025315 0.00011772092444212602 0 -0.027311294492174058 6.5475925990562053e-05 0 -0.02686068152025315 0.00011772092444212602 0 -0.026508803009281521 0.00014174062009417179 0 -0.025892714240592741 0.00019520300258159596 0 -0.02686068152025315 0.00011772092444212602 0 -0.026508803009281521 0.00014174062009417179 0 -0.026508803009281521 0.00014174062009417179 0 -0.026131351859243753 0.00012503185781837198 0 -0.025154623507734689 0.00017867087808252886 0 -0.026801474259393655 2.7358400575374006e-07 0 -0.026131351859243753 0.00012503185781837198 0 -0.024776363982890522 3.1514307893150966e-07 0 -0.026131351859243753 0.00012503185781837198 0 -0.024776363982890522 3.1514307893150966e-07 0 -0.025154623507734689 0.00017867087808252886 0 -0.012383340298983178 1.1496407362571231e-06 0 -0.012430060476668293 2.5140448321679907e-05 0 -0.012408244169384807 0.00011671874150156859 0 -0.012383340298983178 1.1496407362571231e-06 0 -0.012329054719530918 -3.0430810136804075e-05 0 -0.012408244169384807 0.00011671874150156859 0 -0.012383340298983178 1.1496407362571231e-06 0 -0.012421112480313396 -5.0030818235873588e-05 0 -0.012430060476668293 2.5140448321679907e-05 0 -0.010641209565230094 4.2235591598945957e-05 0 -0.0098706809585597313 8.257781860642465e-05 0 -0.011426402036843265 2.4439558459692923e-05 0 -0.011218968856059759 0.00013165052451326865 0 -0.011930146759693401 0.00012028139163433225 0 -0.010641209565230094 4.2235591598945957e-05 0 -0.0098064257807384276 4.7927916045296295e-07 0 -0.011835860469294843 2.864540576309482e-07 0 -0.010641209565230094 4.2235591598945957e-05 0 -0.0098706809585597313 8.257781860642465e-05 0 -0.0098064257807384276 4.7927916045296295e-07 0 -0.011218968856059759 0.00013165052451326865 0 -0.0097716361169672642 -0.00026915087801321602 0 -0.0098064257807384276 4.7927916045296295e-07 0 -0.0091010587496557632 3.327401300322318e-05 0 -0.0077805933116313671 -9.1920883539690417e-07 0 -0.0098706809585597313 8.257781860642465e-05 0 -0.0091010587496557632 3.327401300322318e-05 0 -0.0088960996951611953 -0.00012672747564910795 0 -0.0098706809585597313 8.257781860642465e-05 0 -0.0098064257807384276 4.7927916045296295e-07 0 -0.0091010587496557632 3.327401300322318e-05 0 -0.012725229306546737 -0.00020373300781132653 0 -0.011101996855566515 -0.00012917393850330757 0 -0.012329054719530918 -3.0430810136804075e-05 0 -0.012341084325802373 -5.0680878142702545e-05 0 -0.012301483703767277 -9.7029236597619503e-05 0 -0.012341084325802373 -5.0680878142702545e-05 0 -0.012421112480313396 -5.0030818235873588e-05 0 -0.012440258823835884 -0.00012479300715718359 0 -0.012383340298983178 1.1496407362571231e-06 0 -0.012329054719530918 -3.0430810136804075e-05 0 -0.012341084325802373 -5.0680878142702545e-05 0 -0.012383340298983178 1.1496407362571231e-06 0 -0.012341084325802373 -5.0680878142702545e-05 0 -0.012421112480313396 -5.0030818235873588e-05 0 -0.012458515835740201 -7.6914506143380669e-05 0 -0.012421112480313396 -5.0030818235873588e-05 0 -0.012440258823835884 -0.00012479300715718359 0 -0.012458515835740201 -7.6914506143380669e-05 0 -0.012479654005772592 -2.9250786869675018e-05 0 -0.012489791059526101 -0.00010498313222467929 0 -0.012449423477437611 -0.00015229651834124981 0 -0.011406407867020405 -3.6975725571543309e-05 0 -0.012458515835740201 -7.6914506143380669e-05 0 -0.012479654005772592 -2.9250786869675018e-05 0 -0.012421112480313396 -5.0030818235873588e-05 0 -0.012479654005772592 -2.9250786869675018e-05 0 -0.0125357412194035 -5.5153382683193299e-05 0 -0.012561957357912743 -6.1545865330946852e-06 0 -0.0125357412194035 -5.5153382683193299e-05 0 -0.012561957357912743 -6.1545865330946852e-06 0 -0.012604396491316155 -7.7335865290224459e-05 0 -0.01291250568299171 0.00033809955191720439 0 -0.011406407867020405 -3.6975725571543309e-05 0 -0.0125357412194035 -5.5153382683193299e-05 0 -0.012604396491316155 -7.7335865290224459e-05 0 -0.012494969853364693 -0.00011069452608181655 0 -0.012479654005772592 -2.9250786869675018e-05 0 -0.0125357412194035 -5.5153382683193299e-05 0 -0.012494969853364693 -0.00011069452608181655 0 -0.012561957357912743 -6.1545865330946852e-06 0 -0.012482557712859907 2.7874540950360597e-05 0 -0.01252209079497631 5.6573153287274362e-05 0 -0.012479654005772592 -2.9250786869675018e-05 0 -0.012561957357912743 -6.1545865330946852e-06 0 -0.012482557712859907 2.7874540950360597e-05 0 -0.012561957357912743 -6.1545865330946852e-06 0 -0.01252209079497631 5.6573153287274362e-05 0 -0.012599300653501264 4.414308599198432e-05 0 -0.012479654005772592 -2.9250786869675018e-05 0 -0.012421112480313396 -5.0030818235873588e-05 0 -0.012430060476668293 2.5140448321679907e-05 0 -0.012479654005772592 -2.9250786869675018e-05 0 -0.012482557712859907 2.7874540950360597e-05 0 -0.012430060476668293 2.5140448321679907e-05 0 -0.012482557712859907 2.7874540950360597e-05 0 -0.012430060476668293 2.5140448321679907e-05 0 -0.012448809687786309 7.697377717482727e-05 0 -0.012448809687786309 7.697377717482727e-05 0 -0.01252209079497631 5.6573153287274362e-05 0 -0.012473650654914337 0.0001033290733589781 0 -0.012482557712859907 2.7874540950360597e-05 0 -0.012448809687786309 7.697377717482727e-05 0 -0.01252209079497631 5.6573153287274362e-05 0 -0.01252209079497631 5.6573153287274362e-05 0 -0.012473650654914337 0.0001033290733589781 0 -0.012639589965851898 8.9872878941883586e-05 0 -0.018098333017987828 -0.0014945287997805202 0 -0.016727472138185331 -0.0010922859791375192 0 -0.016969945936358539 -0.0015011363584944159 0 -0.017402277434360781 -0.0010411124669513457 0 -0.018411960050358382 -0.002073556578780107 0 -0.014476493125712 -0.00065188180984244028 0 -0.016727472138185331 -0.0010922859791375192 0 -0.016969945936358539 -0.0015011363584944159 0 -0.017402277434360781 -0.0010411124669513457 0 -0.016646501932616339 -0.00083410593021327058 0 -0.017402277434360781 -0.0010411124669513457 0 -0.017983771420766122 -0.00066958826581249955 0 -0.018436228065530493 -0.0011162908844162679 0 -0.016969945936358539 -0.0015011363584944159 0 -0.015474752510602171 -0.00087398825594899975 0 -0.016646501932616339 -0.00083410593021327058 0 -0.012473650654914337 0.0001033290733589781 0 -0.012434603472263175 8.9504642180537807e-05 0 -0.012370122852161988 -6.1409094225587017e-05 0 -0.014476493125712 -0.00065188180984244028 0 -0.013996308258784606 -0.00044156562826913013 0 -0.012448809687786309 7.697377717482727e-05 0 -0.012473650654914337 0.0001033290733589781 0 -0.012434603472263175 8.9504642180537807e-05 0 -0.012434603472263175 8.9504642180537807e-05 0 -0.012408244169384807 0.00011671874150156859 0 -0.012800625882515021 -1.8720887254514935e-06 0 -0.012434603472263175 8.9504642180537807e-05 0 -0.012800625882515021 -1.8720887254514935e-06 0 -0.012370122852161988 -6.1409094225587017e-05 0 -0.012430060476668293 2.5140448321679907e-05 0 -0.012448809687786309 7.697377717482727e-05 0 -0.012408244169384807 0.00011671874150156859 0 -0.012448809687786309 7.697377717482727e-05 0 -0.012434603472263175 8.9504642180537807e-05 0 -0.012408244169384807 0.00011671874150156859 0 -0.010641209565230094 4.2235591598945957e-05 0 -0.011835860469294843 2.864540576309482e-07 0 -0.011426402036843265 2.4439558459692923e-05 0 -0.011835860469294843 2.864540576309482e-07 0 -0.013860817958082236 -6.3488366297350828e-07 0 -0.012800625882515021 -1.8720887254514935e-06 0 -0.011930146759693401 0.00012028139163433225 0 -0.01263082182066007 5.1735064677080395e-05 0 -0.011835860469294843 2.864540576309482e-07 0 -0.011426402036843265 2.4439558459692923e-05 0 -0.012800625882515021 -1.8720887254514935e-06 0 -0.013868044279713585 -1.4231370442867335e-06 0 -0.015474752510602171 -0.00087398825594899975 0 -0.015058081902095727 0.00031453493868034883 0 -0.013860817958082236 -6.3488366297350828e-07 0 -0.012800625882515021 -1.8720887254514935e-06 0 -0.012370122852161988 -6.1409094225587017e-05 0 -0.013863472684736523 -1.099365208328332e-07 0 -0.013996308258784606 -0.00044156562826913013 0 -0.015474752510602171 -0.00087398825594899975 0 -0.015667254261359422 -5.0506814412794604e-06 0 -0.015058081902095727 0.00031453493868034883 0 -0.015474752510602171 -0.00087398825594899975 0 -0.015667254261359422 -5.0506814412794604e-06 0 -0.01627966114430112 -0.00022261255896337248 0 -0.015667254261359422 -5.0506814412794604e-06 0 -0.015427658296462626 0.00034886253274588671 0 -0.015926727042820308 0.0002771789112847736 0 -0.015667254261359422 -5.0506814412794604e-06 0 -0.015427658296462626 0.00034886253274588671 0 -0.015058081902095727 0.00031453493868034883 0 -0.015386562275730108 0.00040384361875058297 0 -0.015058081902095727 0.00031453493868034883 0 -0.015416577110161065 0.00026371593335190827 0 -0.015427658296462626 0.00034886253274588671 0 -0.015386562275730108 0.00040384361875058297 0 -0.015493784968709663 0.00062226065265623745 0 -0.015427658296462626 0.00034886253274588671 0 -0.015386562275730108 0.00040384361875058297 0 -0.015058081902095727 0.00031453493868034883 0 -0.015427658296462626 0.00034886253274588671 0 -0.015493784968709663 0.00062226065265623745 0 -0.015926727042820308 0.0002771789112847736 0 -0.013868044279713585 -1.4231370442867335e-06 0 -0.015058081902095727 0.00031453493868034883 0 -0.015869860526001697 1.7615863270521608e-06 0 -0.015869860526001697 1.7615863270521608e-06 0 -0.015564697750301986 -3.304219645084451e-05 0 -0.015416577110161065 0.00026371593335190827 0 -0.015875077361099575 -2.3186938504578618e-09 0 -0.016066816502274924 7.379633274531437e-07 0 -0.016218810262277502 3.3983813544274996e-09 0 -0.016775234957610359 -0.00018958643733861289 0 -0.016221686231117863 -5.7230223423799504e-07 0 -0.016970976879678128 6.2614994333678485e-05 0 -0.015874098878205293 -1.0036693410276445e-07 0 -0.016527555503979711 0.0001140841860468664 0 -0.016527555503979711 0.0001140841860468664 0 -0.01622032179700925 2.0606482630501282e-07 0 -0.016527555503979711 0.0001140841860468664 0 -0.018840424704360412 -0.00033670857708201901 0 -0.015058081902095727 0.00031453493868034883 0 -0.015869860526001697 1.7615863270521608e-06 0 -0.015416577110161065 0.00026371593335190827 0 -0.017881091653144443 0.0005441453421388317 0 -0.018145621801255337 0.00051150972535276911 0 -0.018065003261339668 0.00063187755126858274 0 -0.016527555503979711 0.0001140841860468664 0 -0.016924805924344338 0.00052726275970726045 0 -0.015564697750301986 -3.304219645084451e-05 0 -0.015416577110161065 0.00026371593335190827 0 -0.015493784968709663 0.00062226065265623745 0 -0.017881091653144443 0.0005441453421388317 0 -0.018145621801255337 0.00051150972535276911 0 -0.018179134787578183 0.00046593156754540726 0 -0.015386562275730108 0.00040384361875058297 0 -0.015416577110161065 0.00026371593335190827 0 -0.015493784968709663 0.00062226065265623745 0 -0.018145621801255337 0.00051150972535276911 0 -0.018179134787578183 0.00046593156754540726 0 -0.018245279805026007 0.00054227988979552221 0 -0.018145621801255337 0.00051150972535276911 0 -0.018102367714084099 0.00059366036761138326 0 -0.018245279805026007 0.00054227988979552221 0 -0.018076862794807514 0.00072141762497895815 0 -0.018840424704360412 -0.00033670857708201901 0 -0.019953566330399339 -0.001599331519874087 0 -0.020855224404086534 -0.0013563167585817419 0 -0.020593308524273289 -0.0024540228141149423 0 -0.020855224404086534 -0.0013563167585817419 0 -0.020593308524273289 -0.0024540228141149423 0 -0.021476754738664918 -0.0019873043850659623 0 -0.018102367714084099 0.00059366036761138326 0 -0.018252268205024669 0.00065464464336981263 0 -0.018245279805026007 0.00054227988979552221 0 -0.018840424704360412 -0.00033670857708201901 0 -0.01976251645480967 -0.00071310207200487425 0 -0.017227627535829924 1.4575347765669799e-05 0 -0.017100668369077095 3.5333786190689442e-06 0 -0.016970976879678128 6.2614994333678485e-05 0 -0.016221686231117863 -5.7230223423799504e-07 0 -0.017461280949716395 5.5236298520729435e-07 0 -0.016970976879678128 6.2614994333678485e-05 0 -0.018673460342750647 -0.00080230218013669274 0 -0.018840424704360412 -0.00033670857708201901 0 -0.017227627535829924 1.4575347765669799e-05 0 -0.017461280949716395 5.5236298520729435e-07 0 -0.016970976879678128 6.2614994333678485e-05 0 -0.016775234957610359 -0.00018958643733861289 0 -0.017100668369077095 3.5333786190689442e-06 0 -0.016970976879678128 6.2614994333678485e-05 0 -0.018366409232883688 0.00059290345776192503 0 -0.018393544186696142 0.00070553389438589818 0 -0.018483673293048706 0.00056835653337175562 0 -0.021311726343375966 -0.00048235249418284744 0 -0.019281613266192259 0.00014718022047482208 0 -0.020225947364006552 -0.00021840845293770876 0 -0.020649837701226789 -0.0007831478834545737 0 -0.020893092299410228 -0.00039303157951171667 0 -0.021311726343375966 -0.00048235249418284744 0 -0.01976251645480967 -0.00071310207200487425 0 -0.018366409232883688 0.00059290345776192503 0 -0.018252268205024669 0.00065464464336981263 0 -0.018245279805026007 0.00054227988979552221 0 -0.018366409232883688 0.00059290345776192503 0 -0.018393544186696142 0.00070553389438589818 0 -0.018252268205024669 0.00065464464336981263 0 -0.018179134787578183 0.00046593156754540726 0 -0.018245279805026007 0.00054227988979552221 0 -0.018355153037559743 0.00041792867506207994 0 -0.018366409232883688 0.00059290345776192503 0 -0.018245279805026007 0.00054227988979552221 0 -0.018355153037559743 0.00041792867506207994 0 -0.018483673293048706 0.00056835653337175562 0 -0.018355153037559743 0.00041792867506207994 0 -0.018503228937961184 0.00043892150537646425 0 -0.018366409232883688 0.00059290345776192503 0 -0.018483673293048706 0.00056835653337175562 0 -0.018355153037559743 0.00041792867506207994 0 -0.018355153037559743 0.00041792867506207994 0 -0.018574516152442499 0.00021380104169830202 0 -0.018503228937961184 0.00043892150537646425 0 -0.017014972721618542 0.00061963204620746662 0 -0.017805934636958107 -0.00018897769699185936 0 -0.018574516152442499 0.00021380104169830202 0 -0.01770043196997325 0.00048249433129885752 0 -0.018525460708441389 0.00023202793002994164 0 -0.017014972721618542 0.00061963204620746662 0 -0.015926727042820308 0.0002771789112847736 0 -0.01627966114430112 -0.00022261255896337248 0 -0.015493784968709663 0.00062226065265623745 0 -0.017014972721618542 0.00061963204620746662 0 -0.015926727042820308 0.0002771789112847736 0 -0.016924805924344338 0.00052726275970726045 0 -0.01770043196997325 0.00048249433129885752 0 -0.015667254261359422 -5.0506814412794604e-06 0 -0.015926727042820308 0.0002771789112847736 0 -0.01627966114430112 -0.00022261255896337248 0 -0.015474752510602171 -0.00087398825594899975 0 -0.01627966114430112 -0.00022261255896337248 0 -0.016646501932616339 -0.00083410593021327058 0 -0.017014972721618542 0.00061963204620746662 0 -0.01627966114430112 -0.00022261255896337248 0 -0.017186788265613803 -0.00052527155664938425 0 -0.01627966114430112 -0.00022261255896337248 0 -0.016646501932616339 -0.00083410593021327058 0 -0.017186788265613803 -0.00052527155664938425 0 -0.017014972721618542 0.00061963204620746662 0 -0.017805934636958107 -0.00018897769699185936 0 -0.017186788265613803 -0.00052527155664938425 0 -0.017402277434360781 -0.0010411124669513457 0 -0.016646501932616339 -0.00083410593021327058 0 -0.017186788265613803 -0.00052527155664938425 0 -0.017402277434360781 -0.0010411124669513457 0 -0.017186788265613803 -0.00052527155664938425 0 -0.017983771420766122 -0.00066958826581249955 0 -0.017805934636958107 -0.00018897769699185936 0 -0.017186788265613803 -0.00052527155664938425 0 -0.017983771420766122 -0.00066958826581249955 0 -0.018426577480133387 -0.00033133469582588717 0 -0.019575228631123872 -0.00059795764629654838 0 -0.018574516152442499 0.00021380104169830202 0 -0.01858659407913776 -0.00075745390279705364 0 -0.018426577480133387 -0.00033133469582588717 0 -0.019575228631123872 -0.00059795764629654838 0 -0.017983771420766122 -0.00066958826581249955 0 -0.01858659407913776 -0.00075745390279705364 0 -0.018426577480133387 -0.00033133469582588717 0 -0.017805934636958107 -0.00018897769699185936 0 -0.017983771420766122 -0.00066958826581249955 0 -0.018426577480133387 -0.00033133469582588717 0 -0.017805934636958107 -0.00018897769699185936 0 -0.018426577480133387 -0.00033133469582588717 0 -0.018574516152442499 0.00021380104169830202 0 -0.019623362380284268 -0.00055400076226383996 0 -0.01963638430708169 -0.00026052030529890549 0 -0.01858659407913776 -0.00075745390279705364 0 -0.019575228631123872 -0.00059795764629654838 0 -0.019011238174142527 -0.00097167948597956999 0 -0.020470425248913234 -0.0007097129619236482 0 -0.020362091826352558 -0.00077934940738746299 0 -0.019814140780695062 -0.00069545766580869617 0 -0.019575228631123872 -0.00059795764629654838 0 -0.020470425248913234 -0.0007097129619236482 0 -0.019814140780695062 -0.00069545766580869617 0 -0.020362091826352558 -0.00077934940738746299 0 -0.019844321455310964 -0.0008861621390696292 0 -0.019814140780695062 -0.00069545766580869617 0 -0.019575228631123872 -0.00059795764629654838 0 -0.018574516152442499 0.00021380104169830202 0 -0.018708137825467749 0.00043529551892426699 0 -0.020470425248913234 -0.0007097129619236482 0 -0.020645390654704041 -0.00077217225915907344 0 -0.020362091826352558 -0.00077934940738746299 0 -0.018574516152442499 0.00021380104169830202 0 -0.018708137825467749 0.00043529551892426699 0 -0.018503228937961184 0.00043892150537646425 0 -0.019281613266192259 0.00014718022047482208 0 -0.01963638430708169 -0.00026052030529890549 0 -0.018483673293048706 0.00056835653337175562 0 -0.018708137825467749 0.00043529551892426699 0 -0.018503228937961184 0.00043892150537646425 0 -0.020649837701226789 -0.0007831478834545737 0 -0.020470425248913234 -0.0007097129619236482 0 -0.020645390654704041 -0.00077217225915907344 0 -0.020649837701226789 -0.0007831478834545737 0 -0.020645390654704041 -0.00077217225915907344 0 -0.020978093107015358 -0.00071082472503248054 0 -0.020889882758432895 -0.000666844760972525 0 -0.020958978537465006 -0.00071022983757257786 0 -0.021595969655869272 -0.00030670656087140473 0 -0.020978093107015358 -0.00071082472503248054 0 -0.0220541878577908 -0.00059291999243966367 0 -0.020362091826352558 -0.00077934940738746299 0 -0.020978093107015358 -0.00071082472503248054 0 -0.019844321455310964 -0.0008861621390696292 0 -0.020645390654704041 -0.00077217225915907344 0 -0.020362091826352558 -0.00077934940738746299 0 -0.020978093107015358 -0.00071082472503248054 0 -0.021188574218717462 0.00020489612570968754 0 -0.021595969655869272 -0.00030670656087140473 0 -0.020893092299410228 -0.00039303157951171667 0 -0.021595969655869272 -0.00030670656087140473 0 -0.020893092299410228 -0.00039303157951171667 0 -0.020978093107015358 -0.00071082472503248054 0 -0.020649837701226789 -0.0007831478834545737 0 -0.020893092299410228 -0.00039303157951171667 0 -0.020978093107015358 -0.00071082472503248054 0 -0.022229616722511416 -0.00016299682233634539 0 -0.022092104408806195 -0.00022754321211406462 0 -0.022164534485302582 -0.00031895803685047178 0 -0.022324452718047838 -1.7889404268090295e-05 0 -0.022229616722511416 -0.00016299682233634539 0 -0.022092104408806195 -0.00022754321211406462 0 -0.022229616722511416 -0.00016299682233634539 0 -0.022164534485302582 -0.00031895803685047178 0 -0.02213190490273163 -0.0002976053744444018 0 -0.021595969655869272 -0.00030670656087140473 0 -0.022092104408806195 -0.00022754321211406462 0 -0.0220541878577908 -0.00059291999243966367 0 -0.022053326970371184 -5.0544340313027408e-05 0 -0.021595969655869272 -0.00030670656087140473 0 -0.022092104408806195 -0.00022754321211406462 0 -0.022092104408806195 -0.00022754321211406462 0 -0.0220541878577908 -0.00059291999243966367 0 -0.022164534485302582 -0.00031895803685047178 0 -0.0220541878577908 -0.00059291999243966367 0 -0.022164534485302582 -0.00031895803685047178 0 -0.022163213602367341 -0.00030459077139611721 0 -0.022164534485302582 -0.00031895803685047178 0 -0.022163213602367341 -0.00030459077139611721 0 -0.02213190490273163 -0.0002976053744444018 0 -0.0220541878577908 -0.00059291999243966367 0 -0.022163213602367341 -0.00030459077139611721 0 -0.022202611303690219 -3.750815231257387e-05 0 -0.020958978537465006 -0.00071022983757257786 0 -0.020663579236616554 -0.00035936321253703677 0 -0.019844321455310964 -0.0008861621390696292 0 -0.019567974056755439 -0.00085576851823160652 0 -0.019814140780695062 -0.00069545766580869617 0 -0.019575228631123872 -0.00059795764629654838 0 -0.019814140780695062 -0.00069545766580869617 0 -0.019650772650988965 -0.00072788534803163482 0 -0.019567974056755439 -0.00085576851823160652 0 -0.019814140780695062 -0.00069545766580869617 0 -0.019650772650988965 -0.00072788534803163482 0 -0.019567974056755439 -0.00085576851823160652 0 -0.01959200866632509 -0.00078309026945302897 0 -0.019438876101356285 -0.00076564206684987305 0 -0.019567974056755439 -0.00085576851823160652 0 -0.019650772650988965 -0.00072788534803163482 0 -0.01959200866632509 -0.00078309026945302897 0 -0.019648453750446583 -0.00079495057863085178 0 -0.019617522015209662 -0.00058100666604574288 0 -0.019438876101356285 -0.00076564206684987305 0 -0.01959200866632509 -0.00078309026945302897 0 -0.019648453750446583 -0.00079495057863085178 0 -0.019438876101356285 -0.00076564206684987305 0 -0.019650772650988965 -0.00072788534803163482 0 -0.01959200866632509 -0.00078309026945302897 0 -0.019648453750446583 -0.00079495057863085178 0 -0.0066086387417207968 0.001308417847600798 0 -0.0064028596360819999 0.0014849623528692016 0 -0.0061226699513544898 0.0012650163433708596 0 -0.019648453750446583 -0.00079495057863085178 0 -0.019724006419204517 -0.0011586422521524769 0 -0.019525361891525605 -0.00099917744740422453 0 -0.018711739471208255 -0.00076828410301585479 0 -0.015947179310960215 -0.0010165839606859311 0 -0.015947179310960215 -0.0010165839606859311 0 -0.019979070231686352 -0.001277207085626868 0 -0.019525361891525605 -0.00099917744740422453 0 -0.019389920934009614 -0.0010374876992921686 0 -0.018965654789671878 -0.0012184324026158575 0 -0.017053628327622219 -0.0016630042483181844 0 -0.018965654789671878 -0.0012184324026158575 0 -0.018071757679519632 -0.00094257473215761259 0 -0.019724006419204517 -0.0011586422521524769 0 -0.019525361891525605 -0.00099917744740422453 0 -0.018965654789671878 -0.0012184324026158575 0 -0.017053628327622219 -0.0016630042483181844 0 -0.017558189779668183 -0.00088357721333270304 0 -0.018071757679519632 -0.00094257473215761259 0 -0.019650772650988965 -0.00072788534803163482 0 -0.019648453750446583 -0.00079495057863085178 0 -0.019525361891525605 -0.00099917744740422453 0 -0.019650772650988965 -0.00072788534803163482 0 -0.019389920934009614 -0.0010374876992921686 0 -0.01934385160947066 -0.0009821980149622234 0 -0.019650772650988965 -0.00072788534803163482 0 -0.019525361891525605 -0.00099917744740422453 0 -0.019389920934009614 -0.0010374876992921686 0 -0.019575228631123872 -0.00059795764629654838 0 -0.019650772650988965 -0.00072788534803163482 0 -0.01934385160947066 -0.0009821980149622234 0 -0.019575228631123872 -0.00059795764629654838 0 -0.01934385160947066 -0.0009821980149622234 0 -0.019011238174142527 -0.00097167948597956999 0 -0.01934385160947066 -0.0009821980149622234 0 -0.019039968273241545 -0.00136092020252906 0 -0.019192934573645366 -0.0012242344174092782 0 -0.01934385160947066 -0.0009821980149622234 0 -0.019011238174142527 -0.00097167948597956999 0 -0.019039968273241545 -0.00136092020252906 0 -0.019389920934009614 -0.0010374876992921686 0 -0.01934385160947066 -0.0009821980149622234 0 -0.019192934573645366 -0.0012242344174092782 0 -0.017402277434360781 -0.0010411124669513457 0 -0.018436228065530493 -0.0011162908844162679 0 -0.018625342776536536 -0.0017426320650965102 0 -0.017983771420766122 -0.00066958826581249955 0 -0.01858659407913776 -0.00075745390279705364 0 -0.018436228065530493 -0.0011162908844162679 0 -0.01858659407913776 -0.00075745390279705364 0 -0.018436228065530493 -0.0011162908844162679 0 -0.019011238174142527 -0.00097167948597956999 0 -0.018436228065530493 -0.0011162908844162679 0 -0.019039968273241545 -0.00136092020252906 0 -0.018625342776536536 -0.0017426320650965102 0 -0.018436228065530493 -0.0011162908844162679 0 -0.019011238174142527 -0.00097167948597956999 0 -0.019039968273241545 -0.00136092020252906 0 -0.01252209079497631 5.6573153287274362e-05 0 -0.012639589965851898 8.9872878941883586e-05 0 -0.012599300653501264 4.414308599198432e-05 0 -0.017962406097657164 -0.0012645161252623916 0 -0.016449843222500437 -2.2835770009377746e-05 0 -0.019039968273241545 -0.00136092020252906 0 -0.018712667427259192 -0.0017712437495059992 0 -0.018910435495744889 -0.0020248372071937368 0 -0.019039968273241545 -0.00136092020252906 0 -0.019376230531721692 -0.0013441853465510916 0 -0.019144735424710485 -0.0013210216263693896 0 -0.016727472138185331 -0.0010922859791375192 0 -0.016449843222500437 -2.2835770009377746e-05 0 -0.018712667427259192 -0.0017712437495059992 0 -0.018614468086999212 -0.0017297946540862511 0 -0.018910435495744889 -0.0020248372071937368 0 -0.01691772060206306 -0.0011687325155815074 0 -0.016727472138185331 -0.0010922859791375192 0 -0.019039968273241545 -0.00136092020252906 0 -0.018712667427259192 -0.0017712437495059992 0 -0.018625342776536536 -0.0017426320650965102 0 -0.012639589965851898 8.9872878941883586e-05 0 -0.012663920734732119 6.9197218676482421e-05 0 -0.012599300653501264 4.414308599198432e-05 0 -0.019376230531721692 -0.0013441853465510916 0 -0.018965654789671878 -0.0012184324026158575 0 -0.018394228000808172 -0.00042647388307123638 0 -0.019389920934009614 -0.0010374876992921686 0 -0.019192934573645366 -0.0012242344174092782 0 -0.018965654789671878 -0.0012184324026158575 0 -0.019192934573645366 -0.0012242344174092782 0 -0.019144735424710485 -0.0013210216263693896 0 -0.018965654789671878 -0.0012184324026158575 0 -0.019039968273241545 -0.00136092020252906 0 -0.019192934573645366 -0.0012242344174092782 0 -0.019144735424710485 -0.0013210216263693896 0 -0.019376230531721692 -0.0013441853465510916 0 -0.019144735424710485 -0.0013210216263693896 0 -0.018965654789671878 -0.0012184324026158575 0 -0.014555938641788013 0.0026872760927728061 0 -0.015602722016317717 0.001723378718352226 0 -0.014316441175234338 0.0017154976374902683 0 -0.016449843222500437 -2.2835770009377746e-05 0 -0.01704502969504379 0.00070717921340737483 0 -0.018965654789671878 -0.0012184324026158575 0 -0.018394228000808172 -0.00042647388307123638 0 -0.018071757679519632 -0.00094257473215761259 0 -0.015602722016317717 0.001723378718352226 0 -0.014316441175234338 0.0017154976374902683 0 -0.014917506640330855 0.001321902248422252 0 -0.015602722016317717 0.001723378718352226 0 -0.014917506640330855 0.001321902248422252 0 -0.015704831727975637 0.0011617423730983668 0 -0.012663920734732119 6.9197218676482421e-05 0 -0.012599300653501264 4.414308599198432e-05 0 -0.012627701555318985 -1.1323905324641348e-06 0 -0.016449843222500437 -2.2835770009377746e-05 0 -0.013510665840850859 0.00098324590798925106 0 -0.012561957357912743 -6.1545865330946852e-06 0 -0.012627701555318985 -1.1323905324641348e-06 0 -0.012604396491316155 -7.7335865290224459e-05 0 -0.012561957357912743 -6.1545865330946852e-06 0 -0.012599300653501264 4.414308599198432e-05 0 -0.012627701555318985 -1.1323905324641348e-06 0 -0.013510665840850859 0.00098324590798925106 0 -0.01291250568299171 0.00033809955191720439 0 -0.014316441175234338 0.0017154976374902683 0 -0.014058688539347521 0.00068857286952089727 0 -0.014917506640330855 0.001321902248422252 0 -0.014058688539347521 0.00068857286952089727 0 -0.014917506640330855 0.001321902248422252 0 -0.015704831727975637 0.0011617423730983668 0 -0.01341211022359374 0.00053072465721547691 0 -0.015704831727975637 0.0011617423730983668 0 -0.015095116722612184 -0.00066065750548190139 0 -0.01291250568299171 0.00033809955191720439 0 -0.015958908013217921 0.0012532539134232346 0 -0.018394228000808172 -0.00042647388307123638 0 -0.017296977004078395 -3.7381162210956568e-06 0 -0.017026447390491813 0.00046567941431412916 0 -0.015602722016317717 0.001723378718352226 0 -0.015704831727975637 0.0011617423730983668 0 -0.017026447390491813 0.00046567941431412916 0 -0.015704831727975637 0.0011617423730983668 0 -0.017026447390491813 0.00046567941431412916 0 -0.015095116722612184 -0.00066065750548190139 0 -0.01704502969504379 0.00070717921340737483 0 -0.017050140474294238 0.00045156615119374771 0 -0.0064833729377864989 0.0019602123039623716 0 -0.0064586349501366026 0.0019485788997084064 0 -0.0065472940889294892 0.0016511867347362055 0 -0.017296977004078395 -3.7381162210956568e-06 0 -0.017026447390491813 0.00046567941431412916 0 -0.017126139297862875 0.00047040009441519555 0 -0.017296977004078395 -3.7381162210956568e-06 0 -0.017126139297862875 0.00047040009441519555 0 -0.017067305441868623 -0.00044667481724753862 0 -0.0064586349501366026 0.0019485788997084064 0 -0.006370089708940852 0.0017998977806878286 0 -0.0065472940889294892 0.0016511867347362055 0 -0.0097227058579808269 0.0018720866115995904 0 -0.011773024680761992 0.00061262157311393428 0 -0.0097227058579808269 0.0018720866115995904 0 -0.009457290338832549 0.0017850792640866336 0 -0.0064804063385309448 0.0019571958570311463 0 -0.0064586349501366026 0.0019485788997084064 0 -0.0063531552739495671 0.0019914461455769381 0 -0.0063531552739495671 0.0019914461455769381 0 -0.0062138926783853552 0.0019527640013023838 0 -0.0062282206804383173 0.0020812651823416475 0 -0.0064586349501366026 0.0019485788997084064 0 -0.0063502324886964123 0.0019233154287446219 0 -0.006370089708940852 0.0017998977806878286 0 -0.0063502324886964123 0.0019233154287446219 0 -0.006370089708940852 0.0017998977806878286 0 -0.0062138926783853552 0.0019527640013023838 0 -0.0063531552739495671 0.0019914461455769381 0 -0.0063502324886964123 0.0019233154287446219 0 -0.0062138926783853552 0.0019527640013023838 0 -0.0064586349501366026 0.0019485788997084064 0 -0.0063531552739495671 0.0019914461455769381 0 -0.0063502324886964123 0.0019233154287446219 0 -0.015947179310960215 -0.0010165839606859311 0 -0.011773024680761992 0.00061262157311393428 0 -0.017053628327622219 -0.0016630042483181844 0 -0.017067305441868623 -0.00044667481724753862 0 -0.017558189779668183 -0.00088357721333270304 0 -0.0066086387417207968 0.001308417847600798 0 -0.0065472940889294892 0.0016511867347362055 0 -0.0064028596360819999 0.0014849623528692016 0 -0.006370089708940852 0.0017998977806878286 0 -0.0065472940889294892 0.0016511867347362055 0 -0.0063049893869150135 0.0016604219404021329 0 -0.0065472940889294892 0.0016511867347362055 0 -0.0063049893869150135 0.0016604219404021329 0 -0.0064028596360819999 0.0014849623528692016 0 -0.017067305441868623 -0.00044667481724753862 0 -0.017558189779668183 -0.00088357721333270304 0 -0.017670237948254112 -0.00053948874658428243 0 -0.017558189779668183 -0.00088357721333270304 0 -0.018071757679519632 -0.00094257473215761259 0 -0.017670237948254112 -0.00053948874658428243 0 -0.018394228000808172 -0.00042647388307123638 0 -0.018071757679519632 -0.00094257473215761259 0 -0.017670237948254112 -0.00053948874658428243 0 -0.018394228000808172 -0.00042647388307123638 0 -0.017296977004078395 -3.7381162210956568e-06 0 -0.017670237948254112 -0.00053948874658428243 0 -0.017296977004078395 -3.7381162210956568e-06 0 -0.017067305441868623 -0.00044667481724753862 0 -0.017670237948254112 -0.00053948874658428243 0 -0.0059425844974522459 0.0017098506885604001 0 -0.0059326145689302242 0.0018520962612694214 0 -0.0057519687230739918 0.0018062171779224929 0 -0.0058337647080590532 0.0016578653514139198 0 -0.0057519687230739918 0.0018062171779224929 0 -0.0056965499645374893 0.0016743183184674798 0 -0.0059425844974522459 0.0017098506885604001 0 -0.0058337647080590532 0.0016578653514139198 0 -0.0057519687230739918 0.0018062171779224929 0 -0.0058337647080590532 0.0016578653514139198 0 -0.0058042274599622995 0.0015362865747382431 0 -0.0056965499645374893 0.0016743183184674798 0 -0.0058337647080590532 0.0016578653514139198 0 -0.0058042274599622995 0.0015362865747382431 0 -0.0059965324034517041 0.0015192272569232324 0 -0.0059425844974522459 0.0017098506885604001 0 -0.0058337647080590532 0.0016578653514139198 0 -0.0059965324034517041 0.0015192272569232324 0 -0.0059425844974522459 0.0017098506885604001 0 -0.0059965324034517041 0.0015192272569232324 0 -0.0061079709346514351 0.0016753711047887859 0 -0.0059965324034517041 0.0015192272569232324 0 -0.0061990699047295714 0.001521393119277796 0 -0.0061079709346514351 0.0016753711047887859 0 -0.0063049893869150135 0.0016604219404021329 0 -0.0064028596360819999 0.0014849623528692016 0 -0.0061990699047295714 0.001521393119277796 0 -0.0063049893869150135 0.0016604219404021329 0 -0.0061990699047295714 0.001521393119277796 0 -0.0061079709346514351 0.0016753711047887859 0 -0.0063049893869150135 0.0016604219404021329 0 -0.0061079709346514351 0.0016753711047887859 0 -0.0061528968122240638 0.0018212588319183774 0 -0.006370089708940852 0.0017998977806878286 0 -0.0063049893869150135 0.0016604219404021329 0 -0.0061528968122240638 0.0018212588319183774 0 -0.0059425844974522459 0.0017098506885604001 0 -0.0061079709346514351 0.0016753711047887859 0 -0.0059326145689302242 0.0018520962612694214 0 -0.0061528968122240638 0.0018212588319183774 0 -0.0059745207752223634 0.001970274893195336 0 -0.0059326145689302242 0.0018520962612694214 0 -0.0061079709346514351 0.0016753711047887859 0 -0.0061528968122240638 0.0018212588319183774 0 -0.0059326145689302242 0.0018520962612694214 0 -0.006370089708940852 0.0017998977806878286 0 -0.0061528968122240638 0.0018212588319183774 0 -0.0062138926783853552 0.0019527640013023838 0 -0.0062138926783853552 0.0019527640013023838 0 -0.0059745207752223634 0.001970274893195336 0 -0.006045622146253142 0.0021033368786240116 0 -0.0061528968122240638 0.0018212588319183774 0 -0.0062138926783853552 0.0019527640013023838 0 -0.0059745207752223634 0.001970274893195336 0 -0.0059745207752223634 0.001970274893195336 0 -0.0059326145689302242 0.0018520962612694214 0 -0.0057726335143478353 0.0019615217424142064 0 -0.0059745207752223634 0.001970274893195336 0 -0.0057726335143478353 0.0019615217424142064 0 -0.0058093420575894309 0.0021141733167434687 0 -0.0059326145689302242 0.0018520962612694214 0 -0.0057519687230739918 0.0018062171779224929 0 -0.0057726335143478353 0.0019615217424142064 0 -0.0057519687230739918 0.0018062171779224929 0 -0.0057726335143478353 0.0019615217424142064 0 -0.0056061449553775483 0.0019502201524823548 0 -0.0057726335143478353 0.0019615217424142064 0 -0.0056061449553775483 0.0019502201524823548 0 -0.0056201704411065001 0.0020993339930582802 0 -0.0054619914415669655 0.0020839750792119725 0 -0.0056061449553775483 0.0019502201524823548 0 -0.0056201704411065001 0.0020993339930582802 0 -0.0054619914415669655 0.0020839750792119725 0 -0.0054880200932640698 0.0019269987868779368 0 -0.0053481227135296948 0.0019854257360961262 0 -0.0054619914415669655 0.0020839750792119725 0 -0.0054880200932640698 0.0019269987868779368 0 -0.0056061449553775483 0.0019502201524823548 0 -0.0054880200932640698 0.0019269987868779368 0 -0.0054110904790737619 0.0018211146244451314 0 -0.0055708883673039255 0.0018035465543007017 0 -0.0057519687230739918 0.0018062171779224929 0 -0.0056061449553775483 0.0019502201524823548 0 -0.0055708883673039255 0.0018035465543007017 0 -0.0054880200932640698 0.0019269987868779368 0 -0.0056061449553775483 0.0019502201524823548 0 -0.0055708883673039255 0.0018035465543007017 0 -0.0053481227135296948 0.0019854257360961262 0 -0.0051871912891038579 0.0020492569682796094 0 -0.0053373204146115747 0.0021416106513585513 0 -0.0054619914415669655 0.0020839750792119725 0 -0.0053481227135296948 0.0019854257360961262 0 -0.0053373204146115747 0.0021416106513585513 0 -0.0053481227135296948 0.0019854257360961262 0 -0.0052197366174232497 0.001879378609778686 0 -0.0054110904790737619 0.0018211146244451314 0 -0.0054880200932640698 0.0019269987868779368 0 -0.0053481227135296948 0.0019854257360961262 0 -0.0054110904790737619 0.0018211146244451314 0 -0.0053481227135296948 0.0019854257360961262 0 -0.0052197366174232497 0.001879378609778686 0 -0.0051871912891038579 0.0020492569682796094 0 -0.0052693043882960219 0.0017858417604517517 0 -0.0052197366174232497 0.001879378609778686 0 -0.0051567993328716756 0.0017648843799236006 0 -0.0052693043882960219 0.0017858417604517517 0 -0.0052197366174232497 0.001879378609778686 0 -0.0054110904790737619 0.0018211146244451314 0 -0.0052693043882960219 0.0017858417604517517 0 -0.0054110904790737619 0.0018211146244451314 0 -0.0054487456632723594 0.0016367439460533509 0 -0.0052693043882960219 0.0017858417604517517 0 -0.0054487456632723594 0.0016367439460533509 0 -0.0053955592685617998 0.001543356555602025 0 -0.0052693043882960219 0.0017858417604517517 0 -0.0052257515165922627 0.0015042504181063765 0 -0.0053955592685617998 0.001543356555602025 0 -0.0064283590937922967 0.00089254314607810077 0 -0.011098594091774163 0.0024108795289236123 0 -0.0052693043882960219 0.0017858417604517517 0 -0.0052511684911196376 0.0016482686412666605 0 -0.0051567993328716756 0.0017648843799236006 0 -0.0057519687230739918 0.0018062171779224929 0 -0.0055708883673039255 0.0018035465543007017 0 -0.0056965499645374893 0.0016743183184674798 0 -0.0055708883673039255 0.0018035465543007017 0 -0.0055737187200248011 0.0016424879831568777 0 -0.0056965499645374893 0.0016743183184674798 0 -0.0054110904790737619 0.0018211146244451314 0 -0.0055708883673039255 0.0018035465543007017 0 -0.0055737187200248011 0.0016424879831568777 0 -0.0054110904790737619 0.0018211146244451314 0 -0.0054487456632723594 0.0016367439460533509 0 -0.0055737187200248011 0.0016424879831568777 0 -0.0054487456632723594 0.0016367439460533509 0 -0.0055737187200248011 0.0016424879831568777 0 -0.0055859708642030503 0.0015354722850438218 0 -0.0055737187200248011 0.0016424879831568777 0 -0.0056807539026069798 0.0014995874075410258 0 -0.0055859708642030503 0.0015354722850438218 0 -0.0055737187200248011 0.0016424879831568777 0 -0.0056965499645374893 0.0016743183184674798 0 -0.0056807539026069798 0.0014995874075410258 0 -0.0058042274599622995 0.0015362865747382431 0 -0.0056965499645374893 0.0016743183184674798 0 -0.0056807539026069798 0.0014995874075410258 0 -0.0056807539026069798 0.0014995874075410258 0 -0.0056085748761256927 0.0014309386287587828 0 -0.0056838993896205286 0.0013444935578247595 0 -0.0056807539026069798 0.0014995874075410258 0 -0.0056838993896205286 0.0013444935578247595 0 -0.0058060149040275221 0.0013428372491105529 0 -0.0056482169799358956 0.0012683517743880047 0 -0.0052257515165922627 0.0015042504181063765 0 -0.0057037823898643042 0.0012080947001776171 0 -0.0058042274599622995 0.0015362865747382431 0 -0.0056807539026069798 0.0014995874075410258 0 -0.0058060149040275221 0.0013428372491105529 0 -0.0056807539026069798 0.0014995874075410258 0 -0.0055859708642030503 0.0015354722850438218 0 -0.0056085748761256927 0.0014309386287587828 0 -0.0055859708642030503 0.0015354722850438218 0 -0.0055105978354107604 0.00150233285301537 0 -0.0056085748761256927 0.0014309386287587828 0 -0.0054487456632723594 0.0016367439460533509 0 -0.0055859708642030503 0.0015354722850438218 0 -0.0055105978354107604 0.00150233285301537 0 -0.0055105978354107604 0.00150233285301537 0 -0.0056085748761256927 0.0014309386287587828 0 -0.0055286657890699356 0.001400828080158427 0 -0.0056085748761256927 0.0014309386287587828 0 -0.0056207134712978578 0.0013576478780136789 0 -0.0056838993896205286 0.0013444935578247595 0 -0.0056207134712978578 0.0013576478780136789 0 -0.0056482169799358956 0.0012683517743880047 0 -0.0056838993896205286 0.0013444935578247595 0 -0.0056207134712978578 0.0013576478780136789 0 -0.0055286657890699356 0.001400828080158427 0 -0.0056482169799358956 0.0012683517743880047 0 -0.0056085748761256927 0.0014309386287587828 0 -0.0056207134712978578 0.0013576478780136789 0 -0.0055286657890699356 0.001400828080158427 0 -0.0056482169799358956 0.0012683517743880047 0 -0.0056984660266924773 0.0012625647241609602 0 -0.0056838993896205286 0.0013444935578247595 0 -0.0056482169799358956 0.0012683517743880047 0 -0.0056984660266924773 0.0012625647241609602 0 -0.0057037823898643042 0.0012080947001776171 0 -0.0056984660266924773 0.0012625647241609602 0 -0.005739880405594232 0.0012895268006893757 0 -0.0057037823898643042 0.0012080947001776171 0 -0.0056984660266924773 0.0012625647241609602 0 -0.005739880405594232 0.0012895268006893757 0 -0.0056838993896205286 0.0013444935578247595 0 -0.005739880405594232 0.0012895268006893757 0 -0.0057037823898643042 0.0012080947001776171 0 -0.0058060149040275221 0.0013428372491105529 0 -0.005739880405594232 0.0012895268006893757 0 -0.0056838993896205286 0.0013444935578247595 0 -0.0058060149040275221 0.0013428372491105529 0 -0.0055286657890699356 0.001400828080158427 0 -0.0056482169799358956 0.0012683517743880047 0 -0.0052257515165922627 0.0015042504181063765 0 -0.011098594091774163 0.0024108795289236123 0 -0.014606371148930885 0.00043958965630976776 0 -0.019317467702685005 0.0026321486398392163 0 -0.019915252570103851 0.0018621520293424126 0 -0.020882358820289063 0.0015921569928913323 0 -0.019317467702685005 0.0026321486398392163 0 -0.019915252570103851 0.0018621520293424126 0 -0.018897320451116011 0.0012761357432722379 0 -0.0055286657890699356 0.001400828080158427 0 -0.0052257515165922627 0.0015042504181063765 0 -0.0053955592685617998 0.001543356555602025 0 -0.0054487456632723594 0.0016367439460533509 0 -0.0055105978354107604 0.00150233285301537 0 -0.0053955592685617998 0.001543356555602025 0 -0.0055105978354107604 0.00150233285301537 0 -0.0055286657890699356 0.001400828080158427 0 -0.0053955592685617998 0.001543356555602025 0 -0.01992317647114358 0.0017846111005502248 0 -0.019214480827047214 0.00081233300270943862 0 -0.019915252570103851 0.0018621520293424126 0 -0.020201825749925965 0.0012301393815973502 0 -0.019733458669762644 0.00089733960740752308 0 -0.019915252570103851 0.0018621520293424126 0 -0.019397122953018216 0.00063034267234879306 0 -0.018897320451116011 0.0012761357432722379 0 -0.019915252570103851 0.0018621520293424126 0 -0.020201825749925965 0.0012301393815973502 0 -0.020462122617086249 0.0013611439091917353 0 -0.020201825749925965 0.0012301393815973502 0 -0.019733458669762644 0.00089733960740752308 0 -0.02029066507088521 0.00081227029859110001 0 -0.020201825749925965 0.0012301393815973502 0 -0.020457003925674927 0.0010414045994505169 0 -0.02029066507088521 0.00081227029859110001 0 -0.020882358820289063 0.0015921569928913323 0 -0.021290485518876367 0.0005985267970001557 0 -0.020894702053970454 0.00085551085117919806 0 -0.020882358820289063 0.0015921569928913323 0 -0.020462122617086249 0.0013611439091917353 0 -0.020678630474030318 0.0011058955506797975 0 -0.019915252570103851 0.0018621520293424126 0 -0.020882358820289063 0.0015921569928913323 0 -0.020462122617086249 0.0013611439091917353 0 -0.020678630474030318 0.0011058955506797975 0 -0.020457003925674927 0.0010414045994505169 0 -0.020642717679977034 0.00072283966448115735 0 -0.020678630474030318 0.0011058955506797975 0 -0.020642717679977034 0.00072283966448115735 0 -0.020894702053970454 0.00085551085117919806 0 -0.020201825749925965 0.0012301393815973502 0 -0.020462122617086249 0.0013611439091917353 0 -0.020457003925674927 0.0010414045994505169 0 -0.020462122617086249 0.0013611439091917353 0 -0.020678630474030318 0.0011058955506797975 0 -0.020457003925674927 0.0010414045994505169 0 -0.020882358820289063 0.0015921569928913323 0 -0.020678630474030318 0.0011058955506797975 0 -0.020894702053970454 0.00085551085117919806 0 -0.014606371148930885 0.00043958965630976776 0 -0.021383089607921839 -0.00031536889076659911 0 -0.018942157677221814 -0.00063860963923205959 0 -0.019227490541071715 -0.00053453525370882092 0 -0.019199522816095892 -0.00087066276348011801 0 -0.018682541622685515 -0.00057073732870773441 0 -0.018942157677221814 -0.00063860963923205959 0 -0.019199522816095892 -0.00087066276348011801 0 -0.020882358820289063 0.0015921569928913323 0 -0.021290485518876367 0.0005985267970001557 0 -0.021765822058360543 0.00068955136048974455 0 -0.018682541622685515 -0.00057073732870773441 0 -0.018942157677221814 -0.00063860963923205959 0 -0.019227490541071715 -0.00053453525370882092 0 -0.0059965324034517041 0.0015192272569232324 0 -0.0058060149040275221 0.0013428372491105529 0 -0.0061226699513544898 0.0012650163433708596 0 -0.014606371148930885 0.00043958965630976776 0 -0.011610230820463634 0.00041336793501007548 0 -0.0057037823898643042 0.0012080947001776171 0 -0.0058060149040275221 0.0013428372491105529 0 -0.0061226699513544898 0.0012650163433708596 0 -0.0058042274599622995 0.0015362865747382431 0 -0.0059965324034517041 0.0015192272569232324 0 -0.0058060149040275221 0.0013428372491105529 0 -0.015947179310960215 -0.0010165839606859311 0 -0.011610230820463634 0.00041336793501007548 0 -0.0064028596360819999 0.0014849623528692016 0 -0.0061990699047295714 0.001521393119277796 0 -0.0061226699513544898 0.0012650163433708596 0 -0.0059965324034517041 0.0015192272569232324 0 -0.0061990699047295714 0.001521393119277796 0 -0.0061226699513544898 0.0012650163433708596 0 -0.019227490541071715 -0.00053453525370882092 0 -0.019438876101356285 -0.00076564206684987305 0 -0.019199522816095892 -0.00087066276348011801 0 -0.019617522015209662 -0.00058100666604574288 0 -0.019227490541071715 -0.00053453525370882092 0 -0.019438876101356285 -0.00076564206684987305 0 -0.022202611303690219 -3.750815231257387e-05 0 -0.02179430586462254 0.00020316540917183151 0 -0.021765822058360543 0.00068955136048974455 0 -0.020663579236616554 -0.00035936321253703677 0 -0.021383089607921839 -0.00031536889076659911 0 -0.019567974056755439 -0.00085576851823160652 0 -0.019438876101356285 -0.00076564206684987305 0 -0.019199522816095892 -0.00087066276348011801 0 -0.02179430586462254 0.00020316540917183151 0 -0.021290485518876367 0.0005985267970001557 0 -0.021765822058360543 0.00068955136048974455 0 -0.02179430586462254 0.00020316540917183151 0 -0.021290485518876367 0.0005985267970001557 0 -0.021368048107990797 0.00016893603546517773 0 -0.02179430586462254 0.00020316540917183151 0 -0.021368048107990797 0.00016893603546517773 0 -0.021907596025127749 -0.00014786567473615162 0 -0.021368048107990797 0.00016893603546517773 0 -0.021471812925099323 -0.0001345095241279172 0 -0.021907596025127749 -0.00014786567473615162 0 -0.021471812925099323 -0.0001345095241279172 0 -0.021907596025127749 -0.00014786567473615162 0 -0.021701910480331505 -0.0002442718658889074 0 -0.022202611303690219 -3.750815231257387e-05 0 -0.02179430586462254 0.00020316540917183151 0 -0.021907596025127749 -0.00014786567473615162 0 -0.022163213602367341 -0.00030459077139611721 0 -0.022202611303690219 -3.750815231257387e-05 0 -0.021907596025127749 -0.00014786567473615162 0 -0.022163213602367341 -0.00030459077139611721 0 -0.021907596025127749 -0.00014786567473615162 0 -0.02213190490273163 -0.0002976053744444018 0 -0.02213190490273163 -0.0002976053744444018 0 -0.021872555349896312 -0.00030589102339522925 0 -0.022201108733175458 -0.00020489059941714518 0 -0.021907596025127749 -0.00014786567473615162 0 -0.02213190490273163 -0.0002976053744444018 0 -0.021872555349896312 -0.00030589102339522925 0 -0.021555052645701581 -0.0004777483067070273 0 -0.021872555349896312 -0.00030589102339522925 0 -0.022201108733175458 -0.00020489059941714518 0 -0.02159976055279517 -0.00031548676468217681 0 -0.021555052645701581 -0.0004777483067070273 0 -0.021872555349896312 -0.00030589102339522925 0 -0.021701910480331505 -0.0002442718658889074 0 -0.02159976055279517 -0.00031548676468217681 0 -0.021872555349896312 -0.00030589102339522925 0 -0.021907596025127749 -0.00014786567473615162 0 -0.021701910480331505 -0.0002442718658889074 0 -0.021872555349896312 -0.00030589102339522925 0 -0.021471812925099323 -0.0001345095241279172 0 -0.021701910480331505 -0.0002442718658889074 0 -0.02159976055279517 -0.00031548676468217681 0 -0.021471812925099323 -0.0001345095241279172 0 -0.02159976055279517 -0.00031548676468217681 0 -0.021413310530618707 -0.00034007758013386796 0 -0.02159976055279517 -0.00031548676468217681 0 -0.021413310530618707 -0.00034007758013386796 0 -0.021555052645701581 -0.0004777483067070273 0 -0.022272724911780711 0.00011610014323359172 0 -0.02204504021763809 0.00039977293489903699 0 -0.022149063812149466 0.00039793822870165161 0 -0.022203670251548509 -0.0001557542905802919 0 -0.022201108733175458 -0.00020489059941714518 0 -0.022328853555349637 0.00034542394950404844 0 -0.022100928518080629 0.00036134976898539219 0 -0.022017660989002052 0.00045742650349380804 0 -0.022149063812149466 0.00039793822870165161 0 -0.022203670251548509 -0.0001557542905802919 0 -0.022017660989002052 0.00045742650349380804 0 -0.021792508056359221 9.3145508480162496e-06 0 -0.022130679542815685 -0.00017485193646814043 0 -0.022229616722511416 -0.00016299682233634539 0 -0.02213190490273163 -0.0002976053744444018 0 -0.022201108733175458 -0.00020489059941714518 0 -0.022229616722511416 -0.00016299682233634539 0 -0.022203670251548509 -0.0001557542905802919 0 -0.022201108733175458 -0.00020489059941714518 0 -0.021915536373181325 0.00046383530769116465 0 -0.021634005300675045 0.00043957880685866136 0 -0.022001882191679881 0.00033024309143623925 0 -0.021915536373181325 0.00046383530769116465 0 -0.021634005300675045 0.00043957880685866136 0 -0.021702845089129851 0.00058598172716183483 0 -0.021634005300675045 0.00043957880685866136 0 -0.021702845089129851 0.00058598172716183483 0 -0.021482711867128249 0.00058293438807493765 0 -0.021915536373181325 0.00046383530769116465 0 -0.022001882191679881 0.00033024309143623925 0 -0.022100928518080629 0.00036134976898539219 0 -0.021915536373181325 0.00046383530769116465 0 -0.022100928518080629 0.00036134976898539219 0 -0.022017660989002052 0.00045742650349380804 0 -0.021792508056359221 9.3145508480162496e-06 0 -0.021461281618505974 0.00025037702302096857 0 -0.022149063812149466 0.00039793822870165161 0 -0.022017660989002052 0.00045742650349380804 0 -0.021877997043301928 0.00080159411877832787 0 -0.021413310530618707 -0.00034007758013386796 0 -0.021555052645701581 -0.0004777483067070273 0 -0.020785357579350253 -0.00012058745842393271 0 -0.021915536373181325 0.00046383530769116465 0 -0.022017660989002052 0.00045742650349380804 0 -0.021862366470523708 0.00059614464078387155 0 -0.022017660989002052 0.00045742650349380804 0 -0.021862366470523708 0.00059614464078387155 0 -0.021877997043301928 0.00080159411877832787 0 -0.021729243569072836 0.00069080028753768473 0 -0.021644056978602506 0.00079881566941961634 0 -0.021877997043301928 0.00080159411877832787 0 -0.021862366470523708 0.00059614464078387155 0 -0.021729243569072836 0.00069080028753768473 0 -0.021877997043301928 0.00080159411877832787 0 -0.021862366470523708 0.00059614464078387155 0 -0.021702845089129851 0.00058598172716183483 0 -0.021729243569072836 0.00069080028753768473 0 -0.021915536373181325 0.00046383530769116465 0 -0.021862366470523708 0.00059614464078387155 0 -0.021702845089129851 0.00058598172716183483 0 -0.021702845089129851 0.00058598172716183483 0 -0.021729243569072836 0.00069080028753768473 0 -0.021573337983517373 0.00069353462170532621 0 -0.021729243569072836 0.00069080028753768473 0 -0.021644056978602506 0.00079881566941961634 0 -0.021573337983517373 0.00069353462170532621 0 -0.021644056978602506 0.00079881566941961634 0 -0.021877997043301928 0.00080159411877832787 0 -0.021522491517800429 0.001021873235801105 0 -0.020785357579350253 -0.00012058745842393271 0 -0.020868134041590283 0.00034055303506247463 0 -0.020428812281006008 0.00057875170061178513 0 -0.021461281618505974 0.00025037702302096857 0 -0.02013080763184805 0.0011097398465157342 0 -0.020785357579350253 -0.00012058745842393271 0 -0.020428812281006008 0.00057875170061178513 0 -0.020012339514962479 0.00031573358565375163 0 -0.021413310530618707 -0.00034007758013386796 0 -0.020785357579350253 -0.00012058745842393271 0 -0.020868134041590283 0.00034055303506247463 0 -0.021368048107990797 0.00016893603546517773 0 -0.021471812925099323 -0.0001345095241279172 0 -0.020652488264824902 8.4651493094675131e-05 0 -0.021308130784530619 -0.00028925862309761905 0 -0.020862079287995924 0.0002075369950605813 0 -0.021471812925099323 -0.0001345095241279172 0 -0.021413310530618707 -0.00034007758013386796 0 -0.020652488264824902 8.4651493094675131e-05 0 -0.021368048107990797 0.00016893603546517773 0 -0.020652488264824902 8.4651493094675131e-05 0 -0.020931207051159043 0.00040266114452405783 0 -0.020652488264824902 8.4651493094675131e-05 0 -0.020642717679977034 0.00072283966448115735 0 -0.02029066507088521 0.00081227029859110001 0 -0.021290485518876367 0.0005985267970001557 0 -0.021368048107990797 0.00016893603546517773 0 -0.020931207051159043 0.00040266114452405783 0 -0.020652488264824902 8.4651493094675131e-05 0 -0.020931207051159043 0.00040266114452405783 0 -0.020642717679977034 0.00072283966448115735 0 -0.020931207051159043 0.00040266114452405783 0 -0.020642717679977034 0.00072283966448115735 0 -0.020894702053970454 0.00085551085117919806 0 -0.020457003925674927 0.0010414045994505169 0 -0.020642717679977034 0.00072283966448115735 0 -0.02029066507088521 0.00081227029859110001 0 -0.021290485518876367 0.0005985267970001557 0 -0.020931207051159043 0.00040266114452405783 0 -0.020894702053970454 0.00085551085117919806 0 -0.020305951836731305 0.0010606643895050318 0 -0.020428812281006008 0.00057875170061178513 0 -0.020012339514962479 0.00031573358565375163 0 -0.020305951836731305 0.0010606643895050318 0 -0.020868134041590283 0.00034055303506247463 0 -0.020428812281006008 0.00057875170061178513 0 -0.019733458669762644 0.00089733960740752308 0 -0.020652488264824902 8.4651493094675131e-05 0 -0.02029066507088521 0.00081227029859110001 0 -0.019214480827047214 0.00081233300270943862 0 -0.020862079287995924 0.0002075369950605813 0 -0.017294135741984778 0.0014149400570711032 0 -0.017531169383387054 0.0016658433018629745 0 -0.017441408398075727 0.0017187784532817743 0 -0.017294135741984778 0.0014149400570711032 0 -0.017531169383387054 0.0016658433018629745 0 -0.017383015397068775 0.0012808872853060402 0 -0.018675746338936646 0.0020672019834568245 0 -0.013226335642778697 0.0018155846636840273 0 -0.019214480827047214 0.00081233300270943862 0 -0.02013080763184805 0.0011097398465157342 0 -0.018675746338936646 0.0020672019834568245 0 -0.017299423964281278 0.0026078714373013114 0 -0.021588317360202818 0.0024383458004397264 0 -0.020793698084922485 0.0028949136156765296 0 -0.020874919197990598 0.0024397722107715072 0 -0.014444505494941582 0.0019954307993259265 0 -0.013557850313413151 0.0024969717244326356 0 -0.013951402604778996 0.0031679699753437355 0 -0.021588317360202818 0.0024383458004397264 0 -0.021212554277218586 0.0019049743999518401 0 -0.021267076600227423 0.0012314741192184266 0 -0.021588317360202818 0.0024383458004397264 0 -0.020874919197990598 0.0024397722107715072 0 -0.021200176686052414 0.0022237398377312726 0 -0.020874919197990598 0.0024397722107715072 0 -0.020945416370920376 0.0019820696231288674 0 -0.020498153808171899 0.0022101689586612205 0 -0.020874919197990598 0.0024397722107715072 0 -0.021200176686052414 0.0022237398377312726 0 -0.020945416370920376 0.0019820696231288674 0 -0.021588317360202818 0.0024383458004397264 0 -0.021200176686052414 0.0022237398377312726 0 -0.021212554277218586 0.0019049743999518401 0 -0.021212554277218586 0.0019049743999518401 0 -0.020945416370920376 0.0019820696231288674 0 -0.02106458940056884 0.0016496937070576594 0 -0.021200176686052414 0.0022237398377312726 0 -0.021212554277218586 0.0019049743999518401 0 -0.020945416370920376 0.0019820696231288674 0 -0.020945416370920376 0.0019820696231288674 0 -0.020786619328231844 0.001465969212281317 0 -0.020603533732608658 0.0018242888872057109 0 -0.018675746338936646 0.0020672019834568245 0 -0.022070897079381157 0.0015325541615482771 0 -0.021520101481615161 0.0022545140925513893 0 -0.021744874955474724 0.0021235733548491905 0 -0.021498631719862216 0.0014147337748362156 0 -0.021522491517800429 0.001021873235801105 0 -0.021539464201414942 0.00080872271300990871 0 -0.021414764022991889 0.00073175055536109498 0 -0.02013080763184805 0.0011097398465157342 0 -0.02157283055018748 0.001224795601378427 0 -0.018675746338936646 0.0020672019834568245 0 -0.02013080763184805 0.0011097398465157342 0 -0.021644056978602506 0.00079881566941961634 0 -0.021522491517800429 0.001021873235801105 0 -0.021539464201414942 0.00080872271300990871 0 -0.021520101481615161 0.0022545140925513893 0 -0.021498631719862216 0.0014147337748362156 0 -0.021267076600227423 0.0012314741192184266 0 -0.021539464201414942 0.00080872271300990871 0 -0.021573337983517373 0.00069353462170532621 0 -0.021414764022991889 0.00073175055536109498 0 -0.021644056978602506 0.00079881566941961634 0 -0.021539464201414942 0.00080872271300990871 0 -0.021573337983517373 0.00069353462170532621 0 -0.021573337983517373 0.00069353462170532621 0 -0.021414764022991889 0.00073175055536109498 0 -0.021482711867128249 0.00058293438807493765 0 -0.021702845089129851 0.00058598172716183483 0 -0.021573337983517373 0.00069353462170532621 0 -0.021482711867128249 0.00058293438807493765 0 -0.021212554277218586 0.0019049743999518401 0 -0.02106458940056884 0.0016496937070576594 0 -0.021267076600227423 0.0012314741192184266 0 -0.021498631719862216 0.0014147337748362156 0 -0.021267076600227423 0.0012314741192184266 0 -0.021204085764682728 0.00058909846153586229 0 -0.02106458940056884 0.0016496937070576594 0 -0.020786619328231844 0.001465969212281317 0 -0.021267076600227423 0.0012314741192184266 0 -0.020945416370920376 0.0019820696231288674 0 -0.02106458940056884 0.0016496937070576594 0 -0.020786619328231844 0.001465969212281317 0 -0.020786619328231844 0.001465969212281317 0 -0.021267076600227423 0.0012314741192184266 0 -0.020915983650851979 0.00098747815896791887 0 -0.020786619328231844 0.001465969212281317 0 -0.020915983650851979 0.00098747815896791887 0 -0.020544140607200608 0.0010698036798307213 0 -0.02157283055018748 0.001224795601378427 0 -0.021198068893469164 0.00054961929249882149 0 -0.021267076600227423 0.0012314741192184266 0 -0.020915983650851979 0.00098747815896791887 0 -0.021204085764682728 0.00058909846153586229 0 -0.020915983650851979 0.00098747815896791887 0 -0.020796536923645626 0.00061746699933882437 0 -0.021204085764682728 0.00058909846153586229 0 -0.021179846828869205 0.00026899086528162644 0 -0.021204085764682728 0.00058909846153586229 0 -0.021390408864029632 0.00041327347705312706 0 -0.021179846828869205 0.00026899086528162644 0 -0.020796536923645626 0.00061746699933882437 0 -0.021204085764682728 0.00058909846153586229 0 -0.021414764022991889 0.00073175055536109498 0 -0.021204085764682728 0.00058909846153586229 0 -0.021482711867128249 0.00058293438807493765 0 -0.021204085764682728 0.00058909846153586229 0 -0.021390408864029632 0.00041327347705312706 0 -0.021482711867128249 0.00058293438807493765 0 -0.021634005300675045 0.00043957880685866136 0 -0.021390408864029632 0.00041327347705312706 0 -0.021482711867128249 0.00058293438807493765 0 -0.020207916285092348 0.00059820328567873247 0 -0.019456469893566201 0.0011712817852127821 0 -0.019312490192169608 0.0005716784625611651 0 -0.020207916285092348 0.00059820328567873247 0 -0.020070366661432758 0.0013246358670809914 0 -0.019456469893566201 0.0011712817852127821 0 -0.020207916285092348 0.00059820328567873247 0 -0.020544140607200608 0.0010698036798307213 0 -0.020070366661432758 0.0013246358670809914 0 -0.020915983650851979 0.00098747815896791887 0 -0.020796536923645626 0.00061746699933882437 0 -0.020544140607200608 0.0010698036798307213 0 -0.020796536923645626 0.00061746699933882437 0 -0.020207916285092348 0.00059820328567873247 0 -0.020544140607200608 0.0010698036798307213 0 -0.020544140607200608 0.0010698036798307213 0 -0.020070366661432758 0.0013246358670809914 0 -0.020426797658801985 0.0015038729079759571 0 -0.020786619328231844 0.001465969212281317 0 -0.020544140607200608 0.0010698036798307213 0 -0.020426797658801985 0.0015038729079759571 0 -0.020786619328231844 0.001465969212281317 0 -0.020426797658801985 0.0015038729079759571 0 -0.020603533732608658 0.0018242888872057109 0 -0.020426797658801985 0.0015038729079759571 0 -0.020603533732608658 0.0018242888872057109 0 -0.020193801534938851 0.0018382607154535514 0 -0.020070366661432758 0.0013246358670809914 0 -0.020426797658801985 0.0015038729079759571 0 -0.020193801534938851 0.0018382607154535514 0 -0.020070366661432758 0.0013246358670809914 0 -0.019604084343688672 0.0017966902762968984 0 -0.020193801534938851 0.0018382607154535514 0 -0.020070366661432758 0.0013246358670809914 0 -0.019456469893566201 0.0011712817852127821 0 -0.019604084343688672 0.0017966902762968984 0 -0.019604084343688672 0.0017966902762968984 0 -0.019819102108661415 0.0021427217446964774 0 -0.020193801534938851 0.0018382607154535514 0 -0.019819102108661415 0.0021427217446964774 0 -0.020058703829697148 0.0024526281534428922 0 -0.019683126533158776 0.0026618407217954784 0 -0.019819102108661415 0.0021427217446964774 0 -0.019683126533158776 0.0026618407217954784 0 -0.019326799937879072 0.0023801816713872096 0 -0.019604084343688672 0.0017966902762968984 0 -0.019819102108661415 0.0021427217446964774 0 -0.019326799937879072 0.0023801816713872096 0 -0.020945416370920376 0.0019820696231288674 0 -0.020603533732608658 0.0018242888872057109 0 -0.020498153808171899 0.0022101689586612205 0 -0.020603533732608658 0.0018242888872057109 0 -0.020193801534938851 0.0018382607154535514 0 -0.020498153808171899 0.0022101689586612205 0 -0.020193801534938851 0.0018382607154535514 0 -0.020498153808171899 0.0022101689586612205 0 -0.020058703829697148 0.0024526281534428922 0 -0.019819102108661415 0.0021427217446964774 0 -0.020193801534938851 0.0018382607154535514 0 -0.020058703829697148 0.0024526281534428922 0 -0.020793698084922485 0.0028949136156765296 0 -0.020330167324128387 0.0027729763159805858 0 -0.019989979712144119 0.0033577688402030509 0 -0.017299423964281278 0.0026078714373013114 0 -0.015131528889909115 0.0039793231034049373 0 -0.020793698084922485 0.0028949136156765296 0 -0.020874919197990598 0.0024397722107715072 0 -0.020330167324128387 0.0027729763159805858 0 -0.020874919197990598 0.0024397722107715072 0 -0.020498153808171899 0.0022101689586612205 0 -0.020330167324128387 0.0027729763159805858 0 -0.020498153808171899 0.0022101689586612205 0 -0.020330167324128387 0.0027729763159805858 0 -0.020058703829697148 0.0024526281534428922 0 -0.020330167324128387 0.0027729763159805858 0 -0.020058703829697148 0.0024526281534428922 0 -0.019830214040261751 0.0030518713597724933 0 -0.020330167324128387 0.0027729763159805858 0 -0.019830214040261751 0.0030518713597724933 0 -0.019989979712144119 0.0033577688402030509 0 -0.019683126533158776 0.0026618407217954784 0 -0.01930650536935772 0.0028587718245567085 0 -0.019326799937879072 0.0023801816713872096 0 -0.020058703829697148 0.0024526281534428922 0 -0.019683126533158776 0.0026618407217954784 0 -0.019830214040261751 0.0030518713597724933 0 -0.019683126533158776 0.0026618407217954784 0 -0.019830214040261751 0.0030518713597724933 0 -0.01930650536935772 0.0028587718245567085 0 -0.019830214040261751 0.0030518713597724933 0 -0.019451965573658806 0.0032182198287114363 0 -0.01930650536935772 0.0028587718245567085 0 -0.019451965573658806 0.0032182198287114363 0 -0.019388094395358692 0.0037190754160356682 0 -0.01998872698629145 0.003365661423441588 0 -0.019830214040261751 0.0030518713597724933 0 -0.019451965573658806 0.0032182198287114363 0 -0.01998872698629145 0.003365661423441588 0 -0.017662737064975627 0.004321454091089633 0 -0.015131528889909115 0.0039793231034049373 0 -0.010425479403949136 0.0077306495063908277 0 -0.0092476605757766048 0.0072617193705300787 0 -0.0090370739739194829 0.0083903585175845539 0 -0.014584877337851927 0.0058229214332523472 0 -0.015131528889909115 0.0039793231034049373 0 -0.010425479403949136 0.0077306495063908277 0 -0.0097841399135233428 0.0068574732298104244 0 -0.010582256440583403 0.0061637474976878283 0 -0.010425479403949136 0.0077306495063908277 0 -0.0097841399135233428 0.0068574732298104244 0 -0.0092476605757766048 0.0072617193705300787 0 -0.0097841399135233428 0.0068574732298104244 0 -0.0092476605757766048 0.0072617193705300787 0 -0.0088630225269527105 0.0064448570219702624 0 -0.0097841399135233428 0.0068574732298104244 0 -0.010582256440583403 0.0061637474976878283 0 -0.0088630225269527105 0.0064448570219702624 0 -0.010668390706613079 0.0055216670619647433 0 -0.0084374296012712062 0.0046952549441206639 0 -0.0088630225269527105 0.0064448570219702624 0 -0.008196959594007373 0.0067154623923461254 0 -0.0083353159919540808 0.006132694872528135 0 -0.0092476605757766048 0.0072617193705300787 0 -0.0088630225269527105 0.0064448570219702624 0 -0.008196959594007373 0.0067154623923461254 0 -0.010668390706613079 0.0055216670619647433 0 -0.015131528889909115 0.0039793231034049373 0 -0.013557850313413151 0.0024969717244326356 0 -0.012687929480273004 0.0030009636793778089 0 -0.013951402604778996 0.0031679699753437355 0 -0.0092476605757766048 0.0072617193705300787 0 -0.008196959594007373 0.0067154623923461254 0 -0.0090370739739194829 0.0083903585175845539 0 -0.013129104610664888 0.0038255092582320433 0 -0.012687929480273004 0.0030009636793778089 0 -0.013951402604778996 0.0031679699753437355 0 -0.013951402604778996 0.0031679699753437355 0 -0.014740334299515916 0.0031916444339007495 0 -0.014149929941836458 0.0039251788150611693 0 -0.014444505494941582 0.0019954307993259265 0 -0.013951402604778996 0.0031679699753437355 0 -0.014740334299515916 0.0031916444339007495 0 -0.019214480827047214 0.00081233300270943862 0 -0.013226335642778697 0.0018155846636840273 0 -0.0052216663749597072 0.0012482016604981115 0 -0.0048987300717015991 0.0015603179828091629 0 -0.0050730499080596176 0.0016437274938505605 0 -0.0052511684911196376 0.0016482686412666605 0 -0.0052216663749597072 0.0012482016604981115 0 -0.0050730499080596176 0.0016437274938505605 0 -0.011098594091774163 0.0024108795289236123 0 -0.013226335642778697 0.0018155846636840273 0 -0.013226335642778697 0.0018155846636840273 0 -0.0093729403847415335 0.0028118325065283156 0 -0.0048987300717015991 0.0015603179828091629 0 -0.0050730499080596176 0.0016437274938505605 0 -0.0049320483882621469 0.0018510730156709985 0 -0.0052511684911196376 0.0016482686412666605 0 -0.0050730499080596176 0.0016437274938505605 0 -0.0051567993328716756 0.0017648843799236006 0 -0.013129104610664888 0.0038255092582320433 0 -0.013951402604778996 0.0031679699753437355 0 -0.014149929941836458 0.0039251788150611693 0 -0.013129104610664888 0.0038255092582320433 0 -0.014149929941836458 0.0039251788150611693 0 -0.013560794420211381 0.0046503011664424457 0 -0.0045816088438069506 0.0019305534710925402 0 -0.0049320483882621469 0.0018510730156709985 0 -0.0047217588718555942 0.0024403018262397391 0 -0.0048987300717015991 0.0015603179828091629 0 -0.0045816088438069506 0.0019305534710925402 0 -0.0049320483882621469 0.0018510730156709985 0 -0.0093729403847415335 0.0028118325065283156 0 -0.0084374296012712062 0.0046952549441206639 0 -0.0052197366174232497 0.001879378609778686 0 -0.0049320483882621469 0.0018510730156709985 0 -0.0051871912891038579 0.0020492569682796094 0 -0.0050730499080596176 0.0016437274938505605 0 -0.0051567993328716756 0.0017648843799236006 0 -0.0049320483882621469 0.0018510730156709985 0 -0.0052197366174232497 0.001879378609778686 0 -0.0051567993328716756 0.0017648843799236006 0 -0.0049320483882621469 0.0018510730156709985 0 -0.0049163276892732781 0.0018611524286234493 0 -0.0050115961478882001 0.0022230114331304152 0 -0.0049320483882621469 0.0018510730156709985 0 -0.0047217588718555942 0.0024403018262397391 0 -0.0048734295357745119 0.0024410961778412394 0 -0.0084374296012712062 0.0046952549441206639 0 -0.0047595015897874777 0.003737379476683953 0 -0.0063730484209133824 0.0068444863728633438 0 -0.0055482898260188892 0.005447735660900308 0 -0.0064504062567435801 0.0056404353088004532 0 -0.0063730484209133824 0.0068444863728633438 0 -0.0064504062567435801 0.0056404353088004532 0 -0.0073919283996590713 0.0055788399846220136 0 -0.0084374296012712062 0.0046952549441206639 0 -0.0075681775652377478 0.0057672633471934362 0 -0.008316325816157176 0.0052732447540506707 0 -0.0086132461010881636 0.0058332021187703902 0 -0.0090792656384786809 0.0056732660563052276 0 -0.008316325816157176 0.0052732447540506707 0 -0.0090792656384786809 0.0056732660563052276 0 -0.0090852340431841466 0.0049802359815572274 0 -0.010582256440583403 0.0061637474976878283 0 -0.0088630225269527105 0.0064448570219702624 0 -0.01108082659780677 0.0041823278579527961 0 -0.0088994763928860326 0.00638948978841309 0 -0.010067905992439242 0.0049779031002063117 0 -0.0088630225269527105 0.0064448570219702624 0 -0.0086132461010881636 0.0058332021187703902 0 -0.0090792656384786809 0.0056732660563052276 0 -0.0078866685951879817 0.0058989200709152314 0 -0.0086132461010881636 0.0058332021187703902 0 -0.0083353159919540808 0.006132694872528135 0 -0.0088630225269527105 0.0064448570219702624 0 -0.0086132461010881636 0.0058332021187703902 0 -0.0083353159919540808 0.006132694872528135 0 -0.0078866685951879817 0.0058989200709152314 0 -0.008316325816157176 0.0052732447540506707 0 -0.0086132461010881636 0.0058332021187703902 0 -0.008196959594007373 0.0067154623923461254 0 -0.0078866685951879817 0.0058989200709152314 0 -0.0083353159919540808 0.006132694872528135 0 -0.0069202069201533363 0.0033371900065389867 0 -0.0085041662446804639 0.0043533433206014542 0 -0.0064911230676059691 0.0046866794229231548 0 -0.0085041662446804639 0.0043533433206014542 0 -0.0078479044845581412 0.0025250653983345441 0 -0.0095426383805811456 0.0036554678151243256 0 -0.0069202069201533363 0.0033371900065389867 0 -0.0085041662446804639 0.0043533433206014542 0 -0.0078479044845581412 0.0025250653983345441 0 -0.0075681775652377478 0.0057672633471934362 0 -0.0086205412331051539 0.0042544439676152276 0 -0.008316325816157176 0.0052732447540506707 0 -0.0085041662446804639 0.0043533433206014542 0 -0.0090852340431841466 0.0049802359815572274 0 -0.0073919283996590713 0.0055788399846220136 0 -0.0085041662446804639 0.0043533433206014542 0 -0.0064911230676059691 0.0046866794229231548 0 -0.0064504062567435801 0.0056404353088004532 0 -0.0073919283996590713 0.0055788399846220136 0 -0.0064911230676059691 0.0046866794229231548 0 -0.0055482898260188892 0.005447735660900308 0 -0.0064504062567435801 0.0056404353088004532 0 -0.0064911230676059691 0.0046866794229231548 0 -0.0055482898260188892 0.005447735660900308 0 -0.0064911230676059691 0.0046866794229231548 0 -0.0056034288097865578 0.0044686429737214664 0 -0.0064911230676059691 0.0046866794229231548 0 -0.0056034288097865578 0.0044686429737214664 0 -0.0055981885712796222 0.0037658080531085217 0 -0.0047217588718555942 0.0024403018262397391 0 -0.0048734295357745119 0.0024410961778412394 0 -0.0046890243235160299 0.00266630764919329 0 -0.0047595015897874777 0.003737379476683953 0 -0.0048299783313540514 0.0033920153833188688 0 -0.0055482898260188892 0.005447735660900308 0 -0.0056034288097865578 0.0044686429737214664 0 -0.0048164520003703753 0.0039862784553780254 0 -0.0048164520003703753 0.0039862784553780254 0 -0.0055981885712796222 0.0037658080531085217 0 -0.0050255150035719591 0.0031058401902184984 0 -0.0056034288097865578 0.0044686429737214664 0 -0.0048164520003703753 0.0039862784553780254 0 -0.0055981885712796222 0.0037658080531085217 0 -0.0069202069201533363 0.0033371900065389867 0 -0.0064911230676059691 0.0046866794229231548 0 -0.0055981885712796222 0.0037658080531085217 0 -0.0055880837839898867 0.0036976793603560537 0 -0.0057730506356679792 0.0023077307002931642 0 -0.0069202069201533363 0.0033371900065389867 0 -0.0055981885712796222 0.0037658080531085217 0 -0.005936389353975704 0.002052518995422884 0 -0.0050255150035719591 0.0031058401902184984 0 -0.0048448436741241043 0.002477511496770138 0 -0.005588688843497734 0.0024993730461196637 0 -0.0055981885712796222 0.0037658080531085217 0 -0.0050255150035719591 0.0031058401902184984 0 -0.005588688843497734 0.0024993730461196637 0 -0.0048448436741241043 0.002477511496770138 0 -0.005588688843497734 0.0024993730461196637 0 -0.0048776202324304057 0.0018054794771552704 0 -0.005936389353975704 0.002052518995422884 0 -0.0078479044845581412 0.0025250653983345441 0 -0.0075654602650170062 0.0010370733360591292 0 -0.0069202069201533363 0.0033371900065389867 0 -0.005936389353975704 0.002052518995422884 0 -0.0078479044845581412 0.0025250653983345441 0 -0.0078479044845581412 0.0025250653983345441 0 -0.0075654602650170062 0.0010370733360591292 0 -0.0090837707082510721 0.0021694778807328976 0 -0.005936389353975704 0.002052518995422884 0 -0.0075654602650170062 0.0010370733360591292 0 -0.0062255952982621264 0.0004466081554244136 0 -0.0075654602650170062 0.0010370733360591292 0 -0.0071602147512096412 -0.00018813100251833644 0 -0.0062255952982621264 0.0004466081554244136 0 -0.0071602147512096412 -0.00018813100251833644 0 -0.0062451646809795333 -0.00050307589891429485 0 -0.0062255952982621264 0.0004466081554244136 0 -0.0071602147512096412 -0.00018813100251833644 0 -0.0077330794733207163 -0.00072518413928654261 0 -0.0084128201010361496 -0.00032587222831553911 0 -0.0075654602650170062 0.0010370733360591292 0 -0.0071602147512096412 -0.00018813100251833644 0 -0.0084128201010361496 -0.00032587222831553911 0 -0.0071602147512096412 -0.00018813100251833644 0 -0.0077330794733207163 -0.00072518413928654261 0 -0.007019029276513474 -0.00077217151907478304 0 -0.0077330794733207163 -0.00072518413928654261 0 -0.0075881635152012881 -0.0011327162022676189 0 -0.0082823322808121599 -0.0011159978489057515 0 -0.0077330794733207163 -0.00072518413928654261 0 -0.007019029276513474 -0.00077217151907478304 0 -0.0075881635152012881 -0.0011327162022676189 0 -0.0071602147512096412 -0.00018813100251833644 0 -0.0062451646809795333 -0.00050307589891429485 0 -0.007019029276513474 -0.00077217151907478304 0 -0.0062451646809795333 -0.00050307589891429485 0 -0.0066687249809050247 -0.0014363946149267878 0 -0.0059946058650643909 -0.0013049130918325342 0 -0.0062451646809795333 -0.00050307589891429485 0 -0.007019029276513474 -0.00077217151907478304 0 -0.0066687249809050247 -0.0014363946149267878 0 -0.0066687249809050247 -0.0014363946149267878 0 -0.0059946058650643909 -0.0013049130918325342 0 -0.0065969476973155722 -0.0017920880384947907 0 -0.0066687249809050247 -0.0014363946149267878 0 -0.0066836466410619888 -0.0017405238556299381 0 -0.0066754271300008428 -0.0017835101044322004 0 -0.0066921876303501927 -0.0014790178464125919 0 -0.0074379144594427767 -0.0016977458048357118 0 -0.0066687249809050247 -0.0014363946149267878 0 -0.0075881635152012881 -0.0011327162022676189 0 -0.0082031092391172435 -0.0017239282182816636 0 -0.007019029276513474 -0.00077217151907478304 0 -0.0066687249809050247 -0.0014363946149267878 0 -0.0075881635152012881 -0.0011327162022676189 0 -0.004814682642328468 -0.0011756373332457092 0 -0.0039241909261026166 -0.0006137846935171411 0 -0.0037485016257029903 -0.0014589597562041888 0 -0.004814682642328468 -0.0011756373332457092 0 -0.0049900118298793613 -0.00039529394756964619 0 -0.0039241909261026166 -0.0006137846935171411 0 -0.004814682642328468 -0.0011756373332457092 0 -0.0059946058650643909 -0.0013049130918325342 0 -0.0049900118298793613 -0.00039529394756964619 0 -0.0062451646809795333 -0.00050307589891429485 0 -0.0059946058650643909 -0.0013049130918325342 0 -0.0049900118298793613 -0.00039529394756964619 0 -0.0062451646809795333 -0.00050307589891429485 0 -0.0049900118298793613 -0.00039529394756964619 0 -0.0049380544745058945 0.00086048596165326312 0 -0.0049900118298793613 -0.00039529394756964619 0 -0.0042400051356019314 0.00034704098643609563 0 -0.0039241909261026166 -0.0006137846935171411 0 -0.0049900118298793613 -0.00039529394756964619 0 -0.0049380544745058945 0.00086048596165326312 0 -0.0042400051356019314 0.00034704098643609563 0 -0.0049380544745058945 0.00086048596165326312 0 -0.0041818940851695479 0.0011020909673293288 0 -0.0042400051356019314 0.00034704098643609563 0 -0.0049380544745058945 0.00086048596165326312 0 -0.0048776202324304057 0.0018054794771552704 0 -0.0041818940851695479 0.0011020909673293288 0 -0.0062451646809795333 -0.00050307589891429485 0 -0.0049380544745058945 0.00086048596165326312 0 -0.0058659236773707674 0.0014271612500223669 0 -0.0062464288800402404 -0.00043194539350736193 0 -0.0060396682449997 0.00090359911687426769 0 -0.0057730506356679792 0.0023077307002931642 0 -0.0060396682449997 0.00090359911687426769 0 -0.005588688843497734 0.0024993730461196637 0 -0.0058659236773707674 0.0014271612500223669 0 -0.0048776202324304057 0.0018054794771552704 0 -0.0049380544745058945 0.00086048596165326312 0 -0.0058659236773707674 0.0014271612500223669 0 -0.0048776202324304057 0.0018054794771552704 0 -0.0048776202324304057 0.0018054794771552704 0 -0.0041047109168919262 0.0018713120437684485 0 -0.0041818940851695479 0.0011020909673293288 0 -0.0048776202324304057 0.0018054794771552704 0 -0.0041047109168919262 0.0018713120437684485 0 -0.0044162868253703113 0.0022962621866962976 0 -0.0041047109168919262 0.0018713120437684485 0 -0.0043263435129882932 0.0021926002754987977 0 -0.0044162868253703113 0.0022962621866962976 0 -0.0041047109168919262 0.0018713120437684485 0 -0.0044826815426410038 0.0023325076939503865 0 -0.0043263435129882932 0.0021926002754987977 0 -0.004138791038842007 0.0019591720543375895 0 -0.003606175124282609 0.0022132275154624695 0 -0.0041047109168919262 0.0018713120437684485 0 -0.0028753739591681916 0.002147162938238547 0 -0.0030888910432569252 0.0012297043844198747 0 -0.0044826815426410038 0.0023325076939503865 0 -0.0044644831803982337 0.0022627410193829878 0 -0.0043263435129882932 0.0021926002754987977 0 -0.0044826815426410038 0.0023325076939503865 0 -0.0046868737073999219 0.0022515754308924879 0 -0.0044644831803982337 0.0022627410193829878 0 -0.0028753739591681916 0.002147162938238547 0 -0.0030888910432569252 0.0012297043844198747 0 -0.0023502605475533346 0.0018083054181337942 0 -0.0030888910432569252 0.0012297043844198747 0 -0.003447798201384807 0.00035644264450906488 0 -0.002619062872204573 0.00024758219464498458 0 -0.0030888910432569252 0.0012297043844198747 0 -0.0041818940851695479 0.0011020909673293288 0 -0.003447798201384807 0.00035644264450906488 0 -0.0041047109168919262 0.0018713120437684485 0 -0.0030888910432569252 0.0012297043844198747 0 -0.0041818940851695479 0.0011020909673293288 0 -0.0041818940851695479 0.0011020909673293288 0 -0.0042400051356019314 0.00034704098643609563 0 -0.003447798201384807 0.00035644264450906488 0 -0.003447798201384807 0.00035644264450906488 0 -0.0030718904803123119 -0.0003938346114650764 0 -0.0039241909261026166 -0.0006137846935171411 0 -0.0042400051356019314 0.00034704098643609563 0 -0.003447798201384807 0.00035644264450906488 0 -0.0039241909261026166 -0.0006137846935171411 0 -0.003447798201384807 0.00035644264450906488 0 -0.0030718904803123119 -0.0003938346114650764 0 -0.002619062872204573 0.00024758219464498458 0 -0.0030718904803123119 -0.0003938346114650764 0 -0.0022599742449659703 -0.00062668179110647625 0 -0.0030498898264405051 -0.0010913780963337639 0 -0.0030718904803123119 -0.0003938346114650764 0 -0.0022599742449659703 -0.00062668179110647625 0 -0.002619062872204573 0.00024758219464498458 0 -0.0030718904803123119 -0.0003938346114650764 0 -0.0039241909261026166 -0.0006137846935171411 0 -0.0030498898264405051 -0.0010913780963337639 0 -0.0014649683169150438 -0.0006614855797236254 0 -0.0022599742449659703 -0.00062668179110647625 0 -0.0016597808877926565 0.00024813778200866832 0 -0.0008888463770608952 -0.00043109585511832814 0 -0.0009790461055183945 0.00036954247982377934 0 -0.00037565217567211322 -6.0128664612242442e-05 0 -0.0011792104322298426 -0.00056512716571349155 0 -0.0012749003098455932 0.00026538520194661084 0 -0.002619062872204573 0.00024758219464498458 0 -0.0016597808877926565 0.00024813778200866832 0 -0.002289213463589485 0.00076595949400352914 0 -0.0022599742449659703 -0.00062668179110647625 0 -0.002619062872204573 0.00024758219464498458 0 -0.0016597808877926565 0.00024813778200866832 0 -0.0012749003098455932 0.00026538520194661084 0 -0.0020352870248645282 0.0014814451906037473 0 -0.0006876327312302417 0.00087447440633308922 0 -0.0011462556426676004 0.0011871927434733923 0 -0.00049912918732630698 0.0012724542571314029 0 -0.0009790461055183945 0.00036954247982377934 0 -0.0006876327312302417 0.00087447440633308922 0 -0.0011462556426676004 0.0011871927434733923 0 -0.0009790461055183945 0.00036954247982377934 0 -0.0006876327312302417 0.00087447440633308922 0 -0.0001269051210712224 0.00066648731691735619 0 -0.0016597808877926565 0.00024813778200866832 0 -0.002289213463589485 0.00076595949400352914 0 -0.0018420145612675169 0.0013856233604663498 0 -0.0030888910432569252 0.0012297043844198747 0 -0.002289213463589485 0.00076595949400352914 0 -0.0018420145612675169 0.0013856233604663498 0 -0.0030888910432569252 0.0012297043844198747 0 -0.002619062872204573 0.00024758219464498458 0 -0.002289213463589485 0.00076595949400352914 0 -0.0028853229119573773 0.0012465662483817719 0 -0.0020352870248645282 0.0014814451906037473 0 -0.003606175124282609 0.0022132275154624695 0 -0.0039461380754999605 0.0023829188482173552 0 -0.0044826815426410038 0.0023325076939503865 0 -0.0047858502804684492 0.0022865410776272692 0 -0.0046868737073999219 0.0022515754308924879 0 -0.0028753739591681916 0.002147162938238547 0 -0.0023502605475533346 0.0018083054181337942 0 -0.0018151152833966668 0.0023688690628381045 0 -0.0030888910432569252 0.0012297043844198747 0 -0.0016353163989773509 0.0014757964576907925 0 -0.0023502605475533346 0.0018083054181337942 0 -0.0020352870248645282 0.0014814451906037473 0 -0.0039461380754999605 0.0023829188482173552 0 -0.0016353163989773509 0.0014757964576907925 0 -0.0023502605475533346 0.0018083054181337942 0 -0.0018151152833966668 0.0023688690628381045 0 -0.003152424453353923 0.0016936521895584125 0 -0.0033249654196379533 0.0015396149186921986 0 -0.0032782225799342125 0.0017866089661290607 0 -0.0030209728934740511 0.0018232897947818912 0 -0.003152424453353923 0.0016936521895584125 0 -0.0032782225799342125 0.0017866089661290607 0 -0.0029874601865310085 0.0016231014548055834 0 -0.003152424453353923 0.0016936521895584125 0 -0.0033249654196379533 0.0015396149186921986 0 -0.0020352870248645282 0.0014814451906037473 0 -0.0018979448758790628 0.0015275043843640691 0 -0.0030209728934740511 0.0018232897947818912 0 -0.0029874601865310085 0.0016231014548055834 0 -0.003152424453353923 0.0016936521895584125 0 -0.0039461380754999605 0.0023829188482173552 0 -0.0048500120186822189 0.0024787355000641929 0 -0.0055790522323871496 0.0035678356696627156 0 -0.0059190585638990677 0.0031927538570910661 0 -0.0062559989364131549 0.0034210663710323311 0 -0.0059190585638990677 0.0031927538570910661 0 -0.0058964608750706254 0.002868774518483328 0 -0.0054909366669067036 0.0031130260022623583 0 -0.0058964608750706254 0.002868774518483328 0 -0.0061910132731647031 0.0026630231732841631 0 -0.0063490477460105632 0.0029942125260273541 0 -0.0059190585638990677 0.0031927538570910661 0 -0.0058964608750706254 0.002868774518483328 0 -0.0063490477460105632 0.0029942125260273541 0 -0.0058964608750706254 0.002868774518483328 0 -0.0053898618550231167 0.0025956332944031841 0 -0.0059066626606892212 0.0024976243816077649 0 -0.0058964608750706254 0.002868774518483328 0 -0.0059066626606892212 0.0024976243816077649 0 -0.0061910132731647031 0.0026630231732841631 0 -0.0053898618550231167 0.0025956332944031841 0 -0.0049158545866528867 0.0023746296270132665 0 -0.0053714074773836655 0.0025391431065508612 0 -0.0052971420079916962 0.0025536820046201591 0 -0.0052054669971543805 0.0028445800892386332 0 -0.0058964608750706254 0.002868774518483328 0 -0.0053898618550231167 0.0025956332944031841 0 -0.0054909366669067036 0.0031130260022623583 0 -0.0049158545866528867 0.0023746296270132665 0 -0.0046868737073999219 0.0022515754308924879 0 -0.0053714074773836655 0.0025391431065508612 0 -0.0047858502804684492 0.0022865410776272692 0 -0.0049158545866528867 0.0023746296270132665 0 -0.0046868737073999219 0.0022515754308924879 0 -0.0055790522323871496 0.0035678356696627156 0 -0.0059190585638990677 0.0031927538570910661 0 -0.0054909366669067036 0.0031130260022623583 0 -0.0039461380754999605 0.0023829188482173552 0 -0.0052054669971543805 0.0028445800892386332 0 -0.0046868737073999219 0.0022515754308924879 0 -0.0044644831803982337 0.0022627410193829878 0 -0.0043910082705882524 0.0023311452072760437 0 -0.0046868737073999219 0.0022515754308924879 0 -0.0043910082705882524 0.0023311452072760437 0 -0.0043323952101654893 0.0025397760954851923 0 -0.0047251724552447158 0.0023235860146897914 0 -0.0048639140274593078 0.0025393673895479406 0 -0.0044644831803982337 0.0022627410193829878 0 -0.0043263435129882932 0.0021926002754987977 0 -0.0043910082705882524 0.0023311452072760437 0 -0.0043263435129882932 0.0021926002754987977 0 -0.0043910082705882524 0.0023311452072760437 0 -0.0044162868253703113 0.0022962621866962976 0 -0.0043910082705882524 0.0023311452072760437 0 -0.0043960610746484417 0.0024597577492791898 0 -0.0043323952101654893 0.0025397760954851923 0 -0.0043910082705882524 0.0023311452072760437 0 -0.0043960610746484417 0.0024597577492791898 0 -0.0044162868253703113 0.0022962621866962976 0 -0.0048448436741241043 0.002477511496770138 0 -0.0044162868253703113 0.0022962621866962976 0 -0.0044825792682344134 0.0026870468259489271 0 -0.0048448436741241043 0.002477511496770138 0 -0.0048776202324304057 0.0018054794771552704 0 -0.0044162868253703113 0.0022962621866962976 0 -0.0043960610746484417 0.0024597577492791898 0 -0.0044162868253703113 0.0022962621866962976 0 -0.0044825792682344134 0.0026870468259489271 0 -0.0044825792682344134 0.0026870468259489271 0 -0.0043323952101654893 0.0025397760954851923 0 -0.0046395469298159686 0.0026892573317553463 0 -0.0050255150035719591 0.0031058401902184984 0 -0.0048448436741241043 0.002477511496770138 0 -0.0044825792682344134 0.0026870468259489271 0 -0.0053898618550231167 0.0025956332944031841 0 -0.0053714074773836655 0.0025391431065508612 0 -0.0054410873274313388 0.0024267972533875068 0 -0.0043960610746484417 0.0024597577492791898 0 -0.0044825792682344134 0.0026870468259489271 0 -0.0043323952101654893 0.0025397760954851923 0 -0.0048639140274593078 0.0025393673895479406 0 -0.004973798841501665 0.0025004247268649547 0 -0.0053714074773836655 0.0025391431065508612 0 -0.0054410873274313388 0.0024267972533875068 0 -0.0053172256403107802 0.0023491674159241294 0 -0.0054410873274313388 0.0024267972533875068 0 -0.0053172256403107802 0.0023491674159241294 0 -0.0054796946786625613 0.0022550855352094848 0 -0.0054410873274313388 0.0024267972533875068 0 -0.0054796946786625613 0.0022550855352094848 0 -0.0056279386151697839 0.0022575484591054835 0 -0.0048299783313540514 0.0033920153833188688 0 -0.0044838241028067622 0.0027372420292586085 0 -0.0048164520003703753 0.0039862784553780254 0 -0.0050255150035719591 0.0031058401902184984 0 -0.0044825792682344134 0.0026870468259489271 0 -0.0046890243235160299 0.00266630764919329 0 -0.0044825792682344134 0.0026870468259489271 0 -0.0046395469298159686 0.0026892573317553463 0 -0.0048734295357745119 0.0024410961778412394 0 -0.0046890243235160299 0.00266630764919329 0 -0.0046395469298159686 0.0026892573317553463 0 -0.0051871912891038579 0.0020492569682796094 0 -0.0053172256403107802 0.0023491674159241294 0 -0.0053373204146115747 0.0021416106513585513 0 -0.0050115961478882001 0.0022230114331304152 0 -0.004973798841501665 0.0025004247268649547 0 -0.0053172256403107802 0.0023491674159241294 0 -0.0053373204146115747 0.0021416106513585513 0 -0.0053981731234688836 0.0022103834231180799 0 -0.0054796946786625613 0.0022550855352094848 0 -0.0056201704411065001 0.0020993339930582802 0 -0.0056279386151697839 0.0022575484591054835 0 -0.0053172256403107802 0.0023491674159241294 0 -0.0054796946786625613 0.0022550855352094848 0 -0.0053981731234688836 0.0022103834231180799 0 -0.0054619914415669655 0.0020839750792119725 0 -0.0054796946786625613 0.0022550855352094848 0 -0.0053981731234688836 0.0022103834231180799 0 -0.0054619914415669655 0.0020839750792119725 0 -0.0053373204146115747 0.0021416106513585513 0 -0.0053981731234688836 0.0022103834231180799 0 -0.0054619914415669655 0.0020839750792119725 0 -0.0054796946786625613 0.0022550855352094848 0 -0.0056201704411065001 0.0020993339930582802 0 -0.0056201704411065001 0.0020993339930582802 0 -0.0056279386151697839 0.0022575484591054835 0 -0.0058093420575894309 0.0021141733167434687 0 -0.0057726335143478353 0.0019615217424142064 0 -0.0056201704411065001 0.0020993339930582802 0 -0.0058093420575894309 0.0021141733167434687 0 -0.0056279386151697839 0.0022575484591054835 0 -0.0058093420575894309 0.0021141733167434687 0 -0.0058502286427357499 0.0022744083001011686 0 -0.0059745207752223634 0.001970274893195336 0 -0.0058093420575894309 0.0021141733167434687 0 -0.006045622146253142 0.0021033368786240116 0 -0.0062138926783853552 0.0019527640013023838 0 -0.006045622146253142 0.0021033368786240116 0 -0.0062282206804383173 0.0020812651823416475 0 -0.006045622146253142 0.0021033368786240116 0 -0.0058502286427357499 0.0022744083001011686 0 -0.0062160078543347539 0.0022568024095337407 0 -0.006045622146253142 0.0021033368786240116 0 -0.0062160078543347539 0.0022568024095337407 0 -0.0062282206804383173 0.0020812651823416475 0 -0.0058093420575894309 0.0021141733167434687 0 -0.006045622146253142 0.0021033368786240116 0 -0.0058502286427357499 0.0022744083001011686 0 -0.0059066626606892212 0.0024976243816077649 0 -0.0062160078543347539 0.0022568024095337407 0 -0.0061910132731647031 0.0026630231732841631 0 -0.0058502286427357499 0.0022744083001011686 0 -0.0059066626606892212 0.0024976243816077649 0 -0.0056130660466303531 0.002402660181303157 0 -0.0058502286427357499 0.0022744083001011686 0 -0.0059066626606892212 0.0024976243816077649 0 -0.0062160078543347539 0.0022568024095337407 0 -0.0053898618550231167 0.0025956332944031841 0 -0.0059066626606892212 0.0024976243816077649 0 -0.0056130660466303531 0.002402660181303157 0 -0.0053898618550231167 0.0025956332944031841 0 -0.0054410873274313388 0.0024267972533875068 0 -0.0056130660466303531 0.002402660181303157 0 -0.0054410873274313388 0.0024267972533875068 0 -0.0056279386151697839 0.0022575484591054835 0 -0.0056130660466303531 0.002402660181303157 0 -0.0056279386151697839 0.0022575484591054835 0 -0.0058502286427357499 0.0022744083001011686 0 -0.0056130660466303531 0.002402660181303157 0 -0.0069916980645795294 0.0022676529068917321 0 -0.0065339348474399497 0.002540395014460177 0 -0.0065651060141759315 0.001930566636897937 0 -0.0069916980645795294 0.0022676529068917321 0 -0.0073826883506422957 0.0024575038114333743 0 -0.0068486706168436953 0.0026988448691705382 0 -0.0069916980645795294 0.0022676529068917321 0 -0.0065339348474399497 0.002540395014460177 0 -0.0068486706168436953 0.0026988448691705382 0 -0.0065339348474399497 0.002540395014460177 0 -0.0062160078543347539 0.0022568024095337407 0 -0.0061910132731647031 0.0026630231732841631 0 -0.0065339348474399497 0.002540395014460177 0 -0.0064721338223055298 0.0022255665761417155 0 -0.0062160078543347539 0.0022568024095337407 0 -0.0065319093309310601 0.0025039745964841324 0 -0.0065664375753689214 0.0020491643717065627 0 -0.0064804063385309448 0.0019571958570311463 0 -0.0064721338223055298 0.0022255665761417155 0 -0.0063581127463268041 0.0020992233046573864 0 -0.0097227058579808269 0.0018720866115995904 0 -0.0065664375753689214 0.0020491643717065627 0 -0.0062160078543347539 0.0022568024095337407 0 -0.0062282206804383173 0.0020812651823416475 0 -0.0063581127463268041 0.0020992233046573864 0 -0.0064721338223055298 0.0022255665761417155 0 -0.0062160078543347539 0.0022568024095337407 0 -0.0063581127463268041 0.0020992233046573864 0 -0.0063531552739495671 0.0019914461455769381 0 -0.0062282206804383173 0.0020812651823416475 0 -0.0063581127463268041 0.0020992233046573864 0 -0.0064804063385309448 0.0019571958570311463 0 -0.0063531552739495671 0.0019914461455769381 0 -0.0063581127463268041 0.0020992233046573864 0 -0.0097227058579808269 0.0018720866115995904 0 -0.011880243616473503 0.00054776788307596999 0 -0.0065853323536726729 0.0013630276415116209 0 -0.0065651060141759315 0.001930566636897937 0 -0.0074305289592371095 0.0017627770637219018 0 -0.0069916980645795294 0.0022676529068917321 0 -0.0065651060141759315 0.001930566636897937 0 -0.0074305289592371095 0.0017627770637219018 0 -0.017026447390491813 0.00046567941431412916 0 -0.017126139297862875 0.00047040009441519555 0 -0.015095116722612184 -0.00066065750548190139 0 -0.01291250568299171 0.00033809955191720439 0 -0.009419348725725047 0.00010703119936598134 0 -0.01341211022359374 0.00053072465721547691 0 -0.015095116722612184 -0.00066065750548190139 0 -0.012866381562932263 -0.0017152424883046214 0 -0.011880243616473503 0.00054776788307596999 0 -0.009419348725725047 0.00010703119936598134 0 -0.0043693413243128506 -5.2567044373210408e-05 0 -0.0044663665381308969 -8.3089732019893042e-05 0 -0.0045125366919106964 -0.00017044512598204297 0 -0.0078731943679599212 0.0022973572782326226 0 -0.0076797396369458343 0.0026988082018368342 0 -0.0083106026427476783 0.0022296923745761007 0 -0.0074305289592371095 0.0017627770637219018 0 -0.0078731943679599212 0.0022973572782326226 0 -0.0082951011097681156 0.0021589307659891674 0 -0.0057496745882534509 0.0014680807864646522 0 -0.0078902076121984115 0.00034856757467967568 0 -0.0078731943679599212 0.0022973572782326226 0 -0.0082951011097681156 0.0021589307659891674 0 -0.0083106026427476783 0.0022296923745761007 0 -0.0044663665381308969 -8.3089732019893042e-05 0 -0.0045199089268594013 -0.00012611180634461091 0 -0.0045125366919106964 -0.00017044512598204297 0 -0.0069916980645795294 0.0022676529068917321 0 -0.0074305289592371095 0.0017627770637219018 0 -0.0073826883506422957 0.0024575038114333743 0 -0.0074305289592371095 0.0017627770637219018 0 -0.0078731943679599212 0.0022973572782326226 0 -0.0073826883506422957 0.0024575038114333743 0 -0.0078731943679599212 0.0022973572782326226 0 -0.0073826883506422957 0.0024575038114333743 0 -0.0076797396369458343 0.0026988082018368342 0 -0.0071912920791076676 0.0027973562420733991 0 -0.0076797396369458343 0.0026988082018368342 0 -0.0070331778320087638 0.0031511196206115005 0 -0.0057496745882534509 0.0014680807864646522 0 -0.005880449200467157 0.0018628097354766585 0 -0.0043693413243128506 -5.2567044373210408e-05 0 -0.004355589800375345 2.2438009419011446e-05 0 -0.0043072718286163774 2.1652924266182333e-05 0 -0.0073826883506422957 0.0024575038114333743 0 -0.0071912920791076676 0.0027973562420733991 0 -0.0076797396369458343 0.0026988082018368342 0 -0.0044079327054743966 -3.2366912999534876e-05 0 -0.0044003008876974132 7.8157356490021422e-07 0 -0.004355589800375345 2.2438009419011446e-05 0 -0.0044663665381308969 -8.3089732019893042e-05 0 -0.0044079327054743966 -3.2366912999534876e-05 0 -0.0044780905855571571 -3.6831785478894411e-05 0 -0.0044663665381308969 -8.3089732019893042e-05 0 -0.0044780905855571571 -3.6831785478894411e-05 0 -0.0045197312272308851 -8.6685148600058136e-05 0 -0.0043693413243128506 -5.2567044373210408e-05 0 -0.0044663665381308969 -8.3089732019893042e-05 0 -0.0044079327054743966 -3.2366912999534876e-05 0 -0.0043693413243128506 -5.2567044373210408e-05 0 -0.0044079327054743966 -3.2366912999534876e-05 0 -0.004355589800375345 2.2438009419011446e-05 0 -0.0044780905855571571 -3.6831785478894411e-05 0 -0.0044003008876974132 7.8157356490021422e-07 0 -0.0045071227121318957 2.1439042710551756e-05 0 -0.0044079327054743966 -3.2366912999534876e-05 0 -0.0044780905855571571 -3.6831785478894411e-05 0 -0.0044003008876974132 7.8157356490021422e-07 0 -0.0043841690442308961 -3.6408146457681069e-06 0 -0.0041583181208953331 5.9809003574852087e-05 0 -0.0044003008876974132 7.8157356490021422e-07 0 -0.0042658808675265936 0.00017177246189778678 0 -0.0040574312424301838 1.3946790309697513e-05 0 -0.0042658808675265936 0.00017177246189778678 0 -0.0044065518260193812 0.00027087623808345407 0 -0.0045071227121318957 2.1439042710551756e-05 0 -0.0044003008876974132 7.8157356490021422e-07 0 -0.0042658808675265936 0.00017177246189778678 0 -0.0045071227121318957 2.1439042710551756e-05 0 -0.003920219902997811 0.00023746630722900738 0 -0.0040574312424301838 1.3946790309697513e-05 0 -0.0036905376740517391 7.5649585681518373e-05 0 -0.004355589800375345 2.2438009419011446e-05 0 -0.004298054622655134 4.8489115433078578e-05 0 -0.0043072718286163774 2.1652924266182333e-05 0 -0.0041583181208953331 5.9809003574852087e-05 0 -0.0045365795541194055 0.00095227571988049857 0 -0.0042658808675265936 0.00017177246189778678 0 -0.003920219902997811 0.00023746630722900738 0 -0.0040574312424301838 1.3946790309697513e-05 0 -0.0035682266562171235 0.0014778411588867002 0 -0.0036772546274222748 0.0014518316225970223 0 -0.0035417467503269079 0.001747368767825394 0 -0.0050918585430542642 0.0018899192314301562 0 -0.0045365795541194055 0.00095227571988049857 0 -0.006725600416660908 0.003330090369693328 0 -0.0070296726175057356 0.0031107537862843631 0 -0.0067083942349397963 0.0029928418485968217 0 -0.0050918585430542642 0.0018899192314301562 0 -0.005880449200467157 0.0018628097354766585 0 -0.005116985360745 0.0019066289765609298 0 -0.0054012380950832391 0.0018424391822243725 0 -0.0055066701654807029 0.0015879710858648886 0 -0.0045365795541194055 0.00095227571988049857 0 -0.005880449200467157 0.0018628097354766585 0 -0.0071912920791076676 0.0027973562420733991 0 -0.0070296726175057356 0.0031107537862843631 0 -0.0068486706168436953 0.0026988448691705382 0 -0.0066220902092636201 0.0027692096554387288 0 -0.005880449200467157 0.0018628097354766585 0 -0.0070296726175057356 0.0031107537862843631 0 -0.0067083942349397963 0.0029928418485968217 0 -0.0068486706168436953 0.0026988448691705382 0 -0.0065339348474399497 0.002540395014460177 0 -0.0067083942349397963 0.0029928418485968217 0 -0.0068486706168436953 0.0026988448691705382 0 -0.0073826883506422957 0.0024575038114333743 0 -0.0071912920791076676 0.0027973562420733991 0 -0.0068486706168436953 0.0026988448691705382 0 -0.0065339348474399497 0.002540395014460177 0 -0.0061910132731647031 0.0026630231732841631 0 -0.0063490477460105632 0.0029942125260273541 0 -0.0065339348474399497 0.002540395014460177 0 -0.0067083942349397963 0.0029928418485968217 0 -0.0063490477460105632 0.0029942125260273541 0 -0.0059190585638990677 0.0031927538570910661 0 -0.0063490477460105632 0.0029942125260273541 0 -0.0062559989364131549 0.0034210663710323311 0 -0.006725600416660908 0.003330090369693328 0 -0.0067083942349397963 0.0029928418485968217 0 -0.0063490477460105632 0.0029942125260273541 0 -0.006725600416660908 0.003330090369693328 0 -0.0063490477460105632 0.0029942125260273541 0 -0.0062559989364131549 0.0034210663710323311 0 -0.0050918585430542642 0.0018899192314301562 0 -0.0048500120186822189 0.0024787355000641929 0 -0.0018979448758790628 0.0015275043843640691 0 -0.001615649870851499 0.00092999862887924742 0 -0.0035682266562171235 0.0014778411588867002 0 -0.0033249654196379533 0.0015396149186921986 0 -0.0035417467503269079 0.001747368767825394 0 -0.0033249654196379533 0.0015396149186921986 0 -0.0032782225799342125 0.0017866089661290607 0 -0.0035417467503269079 0.001747368767825394 0 -0.003920219902997811 0.00023746630722900738 0 -0.0036905376740517391 7.5649585681518373e-05 0 -0.0034900818077568912 0.00052555210870809828 0 -0.0045365795541194055 0.00095227571988049857 0 -0.001615649870851499 0.00092999862887924742 0 0.00042044528521897201 0.00027746925969260008 0 0.00015597220649803432 0.00018090619471513013 0 0.00065264087480354537 9.645959113896187e-05 0 -0.001615649870851499 0.00092999862887924742 0 0.00011092872708750069 0.00047276797778007313 0 -0.00049912918732630698 0.0012724542571314029 0 0.00012579352211298476 0.0013542252102659877 0 -0.0001269051210712224 0.00066648731691735619 0 -0.0006876327312302417 0.00087447440633308922 0 -0.00049912918732630698 0.0012724542571314029 0 -0.0001269051210712224 0.00066648731691735619 0 0.00015597220649803432 0.00018090619471513013 0 0.00024609060148474734 -9.4647761222219296e-05 0 -0.00037565217567211322 -6.0128664612242442e-05 0 -0.0009790461055183945 0.00036954247982377934 0 -0.0001269051210712224 0.00066648731691735619 0 -0.00037565217567211322 -6.0128664612242442e-05 0 0.00011092872708750069 0.00047276797778007313 0 -0.0003438468272872195 -9.2511606897548122e-05 0 0.00015597220649803432 0.00018090619471513013 0 0.00024609060148474734 -9.4647761222219296e-05 0 0.00065264087480354537 9.645959113896187e-05 0 0.00024609060148474734 -9.4647761222219296e-05 0 -0.00034494339453682357 -0.00046393677842307114 0 0.0002341151710214516 -0.0006504537727993466 0 0.00024609060148474734 -9.4647761222219296e-05 0 0.00090837833900166782 -0.00012383148578964481 0 0.0002341151710214516 -0.0006504537727993466 0 0.00024609060148474734 -9.4647761222219296e-05 0 -0.00034494339453682357 -0.00046393677842307114 0 -0.00037565217567211322 -6.0128664612242442e-05 0 -0.0008888463770608952 -0.00043109585511832814 0 -0.00034494339453682357 -0.00046393677842307114 0 -0.00037565217567211322 -6.0128664612242442e-05 0 0.00090837833900166782 -0.00012383148578964481 0 0.00084839507391987711 2.0993674067247874e-05 0 0.0015604209468337853 -0.0001418738420837784 0 0.00024609060148474734 -9.4647761222219296e-05 0 0.00090837833900166782 -0.00012383148578964481 0 0.00065264087480354537 9.645959113896187e-05 0 0.00090837833900166782 -0.00012383148578964481 0 0.00084839507391987711 2.0993674067247874e-05 0 0.00065264087480354537 9.645959113896187e-05 0 0.00084839507391987711 2.0993674067247874e-05 0 0.00065264087480354537 9.645959113896187e-05 0 0.00077280714812711575 -1.6362908862550263e-05 0 -0.001615649870851499 0.00092999862887924742 0 -0.001690130065865702 0.00011026289666271182 0 -0.003920219902997811 0.00023746630722900738 0 -0.0034900818077568912 0.00052555210870809828 0 -0.0041303532631114517 0.00039957762501755076 0 -0.0042658808675265936 0.00017177246189778678 0 -0.003920219902997811 0.00023746630722900738 0 -0.0041303532631114517 0.00039957762501755076 0 0.00042044528521897201 0.00027746925969260008 0 0.00065264087480354537 9.645959113896187e-05 0 0.00077280714812711575 -1.6362908862550263e-05 0 -0.0042658808675265936 0.00017177246189778678 0 -0.0041303532631114517 0.00039957762501755076 0 -0.0044065518260193812 0.00027087623808345407 0 -0.0041303532631114517 0.00039957762501755076 0 -0.0044065518260193812 0.00027087623808345407 0 -0.004568351792359376 0.00023625006953281795 0 0.00084839507391987711 2.0993674067247874e-05 0 0.00077280714812711575 -1.6362908862550263e-05 0 0.00048671613121916595 -0.00059163201190100311 0 -0.001690130065865702 0.00011026289666271182 0 -0.0020732250732737765 -0.00015716201094716066 0 -0.0020732250732737765 -0.00015716201094716066 0 -0.0029920659670443334 -0.00031938154277793689 0 0.00023531947297365639 -0.00014289490956329571 0 -0.00067887141398395882 -9.7693397945573752e-05 0 -0.0012605605319852536 -0.00084135313289011393 0 0.00048671613121916595 -0.00059163201190100311 0 0.00023531947297365639 -0.00014289490956329571 0 -0.0012605605319852536 -0.00084135313289011393 0 0.00023531947297365639 -0.00014289490956329571 0 0.00075748510259992998 3.9446983211135597e-05 0 -0.00067887141398395882 -9.7693397945573752e-05 0 0.00084839507391987711 2.0993674067247874e-05 0 0.00048671613121916595 -0.00059163201190100311 0 0.00023531947297365639 -0.00014289490956329571 0 0.00084839507391987711 2.0993674067247874e-05 0 0.00075748510259992998 3.9446983211135597e-05 0 0.0015604209468337853 -0.0001418738420837784 0 0.00084839507391987711 2.0993674067247874e-05 0 0.00023531947297365639 -0.00014289490956329571 0 0.00075748510259992998 3.9446983211135597e-05 0 0.00075748510259992998 3.9446983211135597e-05 0 0.0015604209468337853 -0.0001418738420837784 0 0.001814294170434732 -0.00014667720661783881 0 0.00075748510259992998 3.9446983211135597e-05 0 0.00045083287453536722 8.7233532966654869e-05 0 0.001814294170434732 -0.00014667720661783881 0 0.00045083287453536722 8.7233532966654869e-05 0 -0.0026811590720538783 1.5321399893957715e-06 0 -0.00067887141398395882 -9.7693397945573752e-05 0 0.00075748510259992998 3.9446983211135597e-05 0 0.00045083287453536722 8.7233532966654869e-05 0 -0.00067887141398395882 -9.7693397945573752e-05 0 -0.00069427523436500478 -2.6180799270192345e-07 0 0.00045083287453536722 8.7233532966654869e-05 0 -0.0026811590720538783 1.5321399893957715e-06 0 -0.0026811590720538783 1.5321399893957715e-06 0 -0.00067887141398395882 -9.7693397945573752e-05 0 -0.0012605605319852536 -0.00084135313289011393 0 -0.0026811590720538783 1.5321399893957715e-06 0 -0.0046615926120708775 -4.2695537872571092e-06 0 -0.0012605605319852536 -0.00084135313289011393 0 -0.0046660376042186183 -1.7197696941526169e-07 0 -0.0029920659670443334 -0.00031938154277793689 0 -0.0046698752512596125 6.1056897678586895e-07 0 -0.0047953041829951653 4.2010738087258486e-05 0 -0.0047931638662452826 8.4670663454829826e-05 0 -0.0047953041829951653 4.2010738087258486e-05 0 -0.0051851288133299084 -5.5989982458868189e-07 0 -0.0047949457897459719 -0.00011921218464029181 0 -0.0055101730659487622 -1.3513039247839324e-05 0 -0.0057850053052668294 -4.9962194512528053e-05 0 -0.0051884795525960923 -1.0000887897633684e-07 0 -0.0057850053052668294 -4.9962194512528053e-05 0 -0.0046698752512596125 6.1056897678586895e-07 0 -0.0047953041829951653 4.2010738087258486e-05 0 -0.0051851288133299084 -5.5989982458868189e-07 0 -0.0051903056311467868 -7.9345896644636351e-07 0 -0.006416302086070887 7.8863567061881312e-07 0 -0.0062495135328331014 3.5754191118273358e-05 0 -0.006416302086070887 7.8863567061881312e-07 0 -0.0062495135328331014 3.5754191118273358e-05 0 -0.0067977880857100197 4.6848407466759236e-05 0 -0.0057850053052668294 -4.9962194512528053e-05 0 -0.007951098516613948 -0.00020032825140261752 0 -0.0057850053052668294 -4.9962194512528053e-05 0 -0.0056465253868364504 -0.00018607413820805583 0 -0.0068412570436752326 -0.0001900357224938779 0 -0.006783941590263509 -0.00021984648214900661 0 -0.006853557402376878 -0.00028987097446626063 0 -0.0048090031230157209 2.4285202759347458e-05 0 -0.0047648674603546631 -3.692854722272551e-05 0 -0.0047813564668995629 3.6421613846558601e-05 0 -0.0047648674603546631 -3.692854722272551e-05 0 -0.0047813564668995629 3.6421613846558601e-05 0 -0.0047298891899585412 4.0309815658179958e-05 0 -0.0047813564668995629 3.6421613846558601e-05 0 -0.0047931638662452826 8.4670663454829826e-05 0 -0.0047298891899585412 4.0309815658179958e-05 0 -0.0047953041829951653 4.2010738087258486e-05 0 -0.0047813564668995629 3.6421613846558601e-05 0 -0.0047931638662452826 8.4670663454829826e-05 0 -0.0047953041829951653 4.2010738087258486e-05 0 -0.0048090031230157209 2.4285202759347458e-05 0 -0.0047813564668995629 3.6421613846558601e-05 0 -0.0047931638662452826 8.4670663454829826e-05 0 -0.0047298891899585412 4.0309815658179958e-05 0 -0.0046262662103697403 9.9136184162178164e-05 0 -0.004568351792359376 0.00023625006953281795 0 -0.0047931638662452826 8.4670663454829826e-05 0 -0.0046262662103697403 9.9136184162178164e-05 0 -0.0047298891899585412 4.0309815658179958e-05 0 -0.0046262662103697403 9.9136184162178164e-05 0 -0.0046532974034636312 1.4513943789883576e-05 0 -0.004568351792359376 0.00023625006953281795 0 -0.0046262662103697403 9.9136184162178164e-05 0 -0.004507820925583818 3.622686139880896e-05 0 -0.0044065518260193812 0.00027087623808345407 0 -0.004568351792359376 0.00023625006953281795 0 -0.004507820925583818 3.622686139880896e-05 0 -0.0044265890032524893 0.00024412467780546534 0 -0.0045002064041442247 3.5837192748002884e-05 0 -0.0046262662103697403 9.9136184162178164e-05 0 -0.004507820925583818 3.622686139880896e-05 0 -0.0046532974034636312 1.4513943789883576e-05 0 -0.0044780905855571571 -3.6831785478894411e-05 0 -0.0045071227121318957 2.1439042710551756e-05 0 -0.0045510717737816233 -9.8727788802861779e-05 0 -0.004507820925583818 3.622686139880896e-05 0 -0.0046301322666205472 -5.10068042414929e-05 0 -0.004570565294287926 -9.3828197241271571e-05 0 -0.0045002064041442247 3.5837192748002884e-05 0 -0.0053098648091686714 0.00011789547870405857 0 -0.004507820925583818 3.622686139880896e-05 0 -0.0046301322666205472 -5.10068042414929e-05 0 -0.0046532974034636312 1.4513943789883576e-05 0 -0.0046301322666205472 -5.10068042414929e-05 0 -0.004570565294287926 -9.3828197241271571e-05 0 -0.004651005482158712 -0.00011351105372141729 0 -0.0044780905855571571 -3.6831785478894411e-05 0 -0.0045510717737816233 -9.8727788802861779e-05 0 -0.0045197312272308851 -8.6685148600058136e-05 0 -0.0053098648091686714 0.00011789547870405857 0 -0.0049526270869594867 0.00015293896817132797 0 -0.0044663665381308969 -8.3089732019893042e-05 0 -0.0045197312272308851 -8.6685148600058136e-05 0 -0.0045199089268594013 -0.00012611180634461091 0 -0.0056465253868364504 -0.00018607413820805583 0 -0.0066032118287538055 -0.0001855226921523084 0 -0.0047648674603546631 -3.692854722272551e-05 0 -0.0046301322666205472 -5.10068042414929e-05 0 -0.0046532974034636312 1.4513943789883576e-05 0 -0.0047648674603546631 -3.692854722272551e-05 0 -0.0046301322666205472 -5.10068042414929e-05 0 -0.004651005482158712 -0.00011351105372141729 0 -0.0047648674603546631 -3.692854722272551e-05 0 -0.0047298891899585412 4.0309815658179958e-05 0 -0.0046532974034636312 1.4513943789883576e-05 0 -0.0066032118287538055 -0.0001855226921523084 0 -0.0080281882256584489 -0.00021016018493763417 0 -0.0085916786426315436 8.4048586460657346e-05 0 -0.0087195509659063145 -0.00013596383161106724 0 -0.008943516892401724 -2.9284091290155163e-05 0 -0.006783941590263509 -0.00021984648214900661 0 -0.0067227938224854152 -0.00024824182747664191 0 -0.0067884856435025303 -0.00027033433325462155 0 -0.0085916786426315436 8.4048586460657346e-05 0 -0.0087195509659063145 -0.00013596383161106724 0 -0.0084215914077434891 9.3965982677128082e-07 0 -0.0087195509659063145 -0.00013596383161106724 0 -0.0090078474193303545 -0.00021011121286704221 0 -0.008943516892401724 -2.9284091290155163e-05 0 -0.006875028740424725 -0.00028701597502307969 0 -0.0078902076121984115 0.00034856757467967568 0 -0.0045199089268594013 -0.00012611180634461091 0 -0.0045359472924331682 -0.00018432006608236386 0 -0.0045230144385172231 -0.00017452661196333522 0 -0.0045687454109148802 -9.598447059983511e-05 0 -0.0045199089268594013 -0.00012611180634461091 0 -0.004594493018814344 -0.00015681635818498631 0 -0.0045687454109148802 -9.598447059983511e-05 0 -0.0045197312272308851 -8.6685148600058136e-05 0 -0.0045199089268594013 -0.00012611180634461091 0 -0.0045199089268594013 -0.00012611180634461091 0 -0.004594493018814344 -0.00015681635818498631 0 -0.0045359472924331682 -0.00018432006608236386 0 -0.0053098648091686714 0.00011789547870405857 0 -0.0066032118287538055 -0.0001855226921523084 0 -0.0062262950817869129 -0.00010603043340308564 0 -0.0065454080264962123 -0.00021080671793818431 0 -0.0062859515663238165 -0.0003358858624163707 0 -0.0053098648091686714 0.00011789547870405857 0 -0.0070687678606543786 -0.00021944436151163924 0 -0.0066032118287538055 -0.0001855226921523084 0 -0.0070687678606543786 -0.00021944436151163924 0 -0.0087195509659063145 -0.00013596383161106724 0 -0.0084215914077434891 9.3965982677128082e-07 0 -0.008487724133449219 -0.000229086758824804 0 -0.0070687678606543786 -0.00021944436151163924 0 -0.0093370102903164373 -7.1763212042924557e-05 0 -0.0083562960787860584 -1.903596558643908e-05 0 -0.0093370102903164373 -7.1763212042924557e-05 0 -0.0083287605535299555 0.00017445959286168644 0 -0.0080669987326093939 4.73902262397354e-05 0 -0.008432482096644385 -0.00022181596981333759 0 -0.010916930859163922 -6.9319736547474153e-05 0 -0.010874315265615482 -8.9180525656873345e-05 0 -0.010669041147316784 6.5257210887549518e-05 0 -0.0070687678606543786 -0.00021944436151163924 0 -0.0083562960787860584 -1.903596558643908e-05 0 -0.009419348725725047 0.00010703119936598134 0 -0.0083562960787860584 -1.903596558643908e-05 0 -0.009419348725725047 0.00010703119936598134 0 -0.0078902076121984115 0.00034856757467967568 0 -0.0085834799952511347 -0.00054785191362986764 0 -0.0086188264233342249 -0.00053075853716200443 0 -0.0085906826258715045 -0.00050951207900401811 0 -0.0083562960787860584 -1.903596558643908e-05 0 -0.0078902076121984115 0.00034856757467967568 0 -0.011066523226916236 0.00049859235752465318 0 -0.010916930859163922 -6.9319736547474153e-05 0 -0.010669041147316784 6.5257210887549518e-05 0 -0.011066523226916236 0.00049859235752465318 0 -0.010669041147316784 6.5257210887549518e-05 0 -0.010604297273699187 0.00035928396978848818 0 -0.0093370102903164373 -7.1763212042924557e-05 0 -0.011406407867020405 -3.6975725571543309e-05 0 -0.0087195509659063145 -0.00013596383161106724 0 -0.0088000570437981925 -0.00044878588877340963 0 -0.0090078474193303545 -0.00021011121286704221 0 -0.0087195509659063145 -0.00013596383161106724 0 -0.008487724133449219 -0.000229086758824804 0 -0.0088000570437981925 -0.00044878588877340963 0 -0.0093370102903164373 -7.1763212042924557e-05 0 -0.011101996855566515 -0.00012917393850330757 0 -0.011406407867020405 -3.6975725571543309e-05 0 -0.011101996855566515 -0.00012917393850330757 0 -0.012458515835740201 -7.6914506143380669e-05 0 -0.012489791059526101 -0.00010498313222467929 0 -0.012440258823835884 -0.00012479300715718359 0 -0.010301922003100423 0.00021416559892816178 0 -0.010459516623886582 -0.00039328065327058452 0 -0.010932346032525277 -0.00024848592859644578 0 -0.012341084325802373 -5.0680878142702545e-05 0 -0.012340336832688295 -7.712540854992881e-05 0 -0.012301483703767277 -9.7029236597619503e-05 0 -0.011101996855566515 -0.00012917393850330757 0 -0.0097716361169672642 -0.00026915087801321602 0 -0.0088000570437981925 -0.00044878588877340963 0 -0.0090078474193303545 -0.00021011121286704221 0 -0.0092859893843971943 -0.000294265513245812 0 -0.0090078474193303545 -0.00021011121286704221 0 -0.0092859893843971943 -0.000294265513245812 0 -0.009284872104523707 -0.0001407200804817687 0 -0.0091010587496557632 3.327401300322318e-05 0 -0.0086200499528693002 -5.0126349552238684e-05 0 -0.0088960996951611953 -0.00012672747564910795 0 -0.0091010587496557632 3.327401300322318e-05 0 -0.0086200499528693002 -5.0126349552238684e-05 0 -0.0077805933116313671 -9.1920883539690417e-07 0 -0.0086200499528693002 -5.0126349552238684e-05 0 -0.0082286401084783883 -0.00024425465028831518 0 -0.0077805933116313671 -9.1920883539690417e-07 0 -0.0078114597583506511 -9.6794630828843625e-05 0 -0.0077783469226786785 -2.879582294193239e-07 0 -0.0077098698340565489 -3.6654712456861336e-08 0 -0.0077776580643126418 2.121027279407461e-10 0 -0.0076453968284224353 -2.138925145803435e-10 0 -0.0078114597583506511 -9.6794630828843625e-05 0 -0.0076450351618660125 -3.7343996490154573e-07 0 -0.0081286523649955061 -0.00030785119864251069 0 -0.0087079009232180742 -0.00013083915910639009 0 -0.008700481816919698 -0.000493215749543211 0 -0.0078114597583506511 -9.6794630828843625e-05 0 -0.0097716361169672642 -0.00026915087801321602 0 -0.0086200499528693002 -5.0126349552238684e-05 0 -0.0082286401084783883 -0.00024425465028831518 0 -0.0088960996951611953 -0.00012672747564910795 0 -0.0097716361169672642 -0.00026915087801321602 0 -0.007951098516613948 -0.00020032825140261752 0 -0.006416302086070887 7.8863567061881312e-07 0 -0.0076433891772562431 -7.8833524297291388e-07 0 -0.0067977880857100197 4.6848407466759236e-05 0 -0.0062495135328331014 3.5754191118273358e-05 0 -0.0067530622043513394 -2.8395921951363443e-05 0 -0.0067977880857100197 4.6848407466759236e-05 0 -0.0078114597583506511 -9.6794630828843625e-05 0 -0.007951098516613948 -0.00020032825140261752 0 -0.0072779942846188644 -0.00013792530675915338 0 -0.0067530622043513394 -2.8395921951363443e-05 0 -0.0067977880857100197 4.6848407466759236e-05 0 -0.0072779942846188644 -0.00013792530675915338 0 -0.0076433891772562431 -7.8833524297291388e-07 0 -0.0067977880857100197 4.6848407466759236e-05 0 -0.0090078474193303545 -0.00021011121286704221 0 -0.009284872104523707 -0.0001407200804817687 0 -0.008943516892401724 -2.9284091290155163e-05 0 -0.006783941590263509 -0.00021984648214900661 0 -0.006853557402376878 -0.00028987097446626063 0 -0.0067884856435025303 -0.00027033433325462155 0 -0.007951098516613948 -0.00020032825140261752 0 -0.0080281882256584489 -0.00021016018493763417 0 -0.021549005686367161 0.00094117751699662614 0 -0.02195363345574779 0.00093086055986807339 0 -0.021449168141251976 0.00053348083933420481 0 -0.021195889252592557 0.0015130102210802042 0 -0.020897729748625356 0.0016219563947243946 0 -0.020966654282038061 0.0015751541608584377 0 -0.021558811239263041 0.0012090526806017383 0 -0.021298409253821572 0.00098313088092875944 0 -0.021195889252592557 0.0015130102210802042 0 -0.020966654282038061 0.0015751541608584377 0 -0.021175364434216373 0.0014414499378080793 0 -0.021195889252592557 0.0015130102210802042 0 -0.021175364434216373 0.0014414499378080793 0 -0.021576209753915006 0.0012992345912377333 0 -0.02195363345574779 0.00093086055986807339 0 -0.022048969836135881 0.0013191381718624553 0 -0.021736304445611768 0.0012485189097002436 0 -0.02195363345574779 0.00093086055986807339 0 -0.022048969836135881 0.0013191381718624553 0 -0.022312332560154004 0.00143859242322107 0 -0.021549005686367161 0.00094117751699662614 0 -0.02195363345574779 0.00093086055986807339 0 -0.021736304445611768 0.0012485189097002436 0 -0.021549005686367161 0.00094117751699662614 0 -0.021736304445611768 0.0012485189097002436 0 -0.021426996284366204 0.0011770516411930996 0 -0.021426996284366204 0.0011770516411930996 0 -0.021192990420036129 0.0009042544682113827 0 -0.021161897415111066 0.0012890656588153684 0 -0.021549005686367161 0.00094117751699662614 0 -0.021426996284366204 0.0011770516411930996 0 -0.021192990420036129 0.0009042544682113827 0 -0.020853739677004168 0.0010245210079182668 0 -0.021192990420036129 0.0009042544682113827 0 -0.021161897415111066 0.0012890656588153684 0 -0.020853739677004168 0.0010245210079182668 0 -0.021192990420036129 0.0009042544682113827 0 -0.020989914315593237 0.00062878653432081014 0 -0.020853739677004168 0.0010245210079182668 0 -0.020989914315593237 0.00062878653432081014 0 -0.020663574273597971 0.00073963610617937346 0 -0.021192990420036129 0.0009042544682113827 0 -0.021449168141251976 0.00053348083933420481 0 -0.020989914315593237 0.00062878653432081014 0 -0.021549005686367161 0.00094117751699662614 0 -0.021192990420036129 0.0009042544682113827 0 -0.021449168141251976 0.00053348083933420481 0 -0.021449168141251976 0.00053348083933420481 0 -0.020989914315593237 0.00062878653432081014 0 -0.020990805374830803 0.00020399262411946133 0 -0.021298409253821572 0.00098313088092875944 0 -0.020233965260068251 0.001777753432671493 0 -0.020989914315593237 0.00062878653432081014 0 -0.020990805374830803 0.00020399262411946133 0 -0.020657768381313207 0.00041763340764221116 0 -0.020021690679715789 0.0021043160043772002 0 -0.020197051905253054 0.0017055469074344248 0 -0.019684575245754104 0.0019342198117052185 0 -0.019406060114926633 0.0022550990496989286 0 -0.020021690679715789 0.0021043160043772002 0 -0.019684575245754104 0.0019342198117052185 0 -0.020233965260068251 0.001777753432671493 0 -0.020477991356940187 0.001933513222884944 0 -0.020897729748625356 0.0016219563947243946 0 -0.021125019239235255 0.0018496809718256905 0 -0.020948995632320076 0.0018004989461350605 0 -0.020021690679715789 0.0021043160043772002 0 -0.020740681190780864 0.0017756226851612885 0 -0.020197051905253054 0.0017055469074344248 0 -0.01423508739413339 0.00011742998771777954 0 -0.014196598885129587 0.00034434639065218713 0 -0.020477991356940187 0.001933513222884944 0 -0.020652454497733494 0.0018372168590100821 0 -0.0074810128585444729 -0.0015614630747531129 0 -0.0074118482205942577 -0.00093098356871251569 0 -0.0081422105598626844 -0.00087508198702199061 0 -0.020740681190780864 0.0017756226851612885 0 -0.020883426311476227 0.0016700982365961787 0 -0.020197051905253054 0.0017055469074344248 0 -0.020897729748625356 0.0016219563947243946 0 -0.020948995632320076 0.0018004989461350605 0 -0.020740681190780864 0.0017756226851612885 0 -0.020740681190780864 0.0017756226851612885 0 -0.020966654282038061 0.0015751541608584377 0 -0.020883426311476227 0.0016700982365961787 0 -0.020897729748625356 0.0016219563947243946 0 -0.020740681190780864 0.0017756226851612885 0 -0.020966654282038061 0.0015751541608584377 0 -0.021175364434216373 0.0014414499378080793 0 -0.021238668785276839 0.0013947341816423779 0 -0.020883426311476227 0.0016700982365961787 0 -0.0071209593087320005 -0.0020050937872551932 0 -0.0074810128585444729 -0.0015614630747531129 0 -0.0068240349189810316 -0.001724648887995288 0 -0.020966654282038061 0.0015751541608584377 0 -0.021175364434216373 0.0014414499378080793 0 -0.020883426311476227 0.0016700982365961787 0 -0.021175364434216373 0.0014414499378080793 0 -0.021238668785276839 0.0013947341816423779 0 -0.021576209753915006 0.0012992345912377333 0 -0.013374727109012509 1.8728691848162372e-05 0 -0.01423508739413339 0.00011742998771777954 0 -0.0074810128585444729 -0.0015614630747531129 0 -0.0070207901023970612 -0.0010854920489245473 0 -0.0074118482205942577 -0.00093098356871251569 0 -0.0074810128585444729 -0.0015614630747531129 0 -0.0067293537479403004 -0.0013774788750838454 0 -0.0070207901023970612 -0.0010854920489245473 0 -0.0067293537479403004 -0.0013774788750838454 0 -0.0070207901023970612 -0.0010854920489245473 0 -0.0063768384124390501 -0.00097460889350924843 0 -0.0074810128585444729 -0.0015614630747531129 0 -0.0067293537479403004 -0.0013774788750838454 0 -0.0068240349189810316 -0.001724648887995288 0 -0.0067293537479403004 -0.0013774788750838454 0 -0.0059527342338261315 -0.0014031199297552862 0 -0.0063768384124390501 -0.00097460889350924843 0 -0.0067293537479403004 -0.0013774788750838454 0 -0.0059527342338261315 -0.0014031199297552862 0 -0.0068240349189810316 -0.001724648887995288 0 -0.012664155051972249 0.00084802472279554863 0 -0.016073160827235894 0.0016105289060368232 0 -0.0059527342338261315 -0.0014031199297552862 0 -0.0066248141217344608 -0.0020039549673298248 0 -0.0068240349189810316 -0.001724648887995288 0 -0.018278509536957855 0.0018308083838521592 0 -0.018611756762543053 0.0018658551181750837 0 -0.018447954093867024 0.0019874550353841587 0 -0.012341712681925399 0.00070749172593431633 0 -0.011819540147018094 0.0012243965369855535 0 -0.012518009041367262 0.0012378144309719407 0 -0.0087671036998935754 -0.00041155454061685853 0 -0.012664155051972249 0.00084802472279554863 0 -0.012664155051972249 0.00084802472279554863 0 -0.017803002284317561 0.0017204576050080106 0 -0.013374727109012509 1.8728691848162372e-05 0 -0.012664155051972249 0.00084802472279554863 0 -0.014992303231730378 0.00087786707811494404 0 -0.014340343877320166 0.00089441639344916353 0 -0.014721185331638883 0.00054006025032996431 0 -0.0071209593087320005 -0.0020050937872551932 0 -0.0066248141217344608 -0.0020039549673298248 0 -0.0068240349189810316 -0.001724648887995288 0 -0.013506796771962409 0.00051782124805977152 0 -0.013009336119628734 0.00080387921665903963 0 -0.012880461549840972 0.00015934518122453375 0 -0.0087671036998935754 -0.00041155454061685853 0 -0.0086080214890131273 -9.9151700810018253e-05 0 -0.012341712681925399 0.00070749172593431633 0 -0.013009336119628734 0.00080387921665903963 0 -0.012880461549840972 0.00015934518122453375 0 -0.012341712681925399 0.00070749172593431633 0 -0.013009336119628734 0.00080387921665903963 0 -0.012518009041367262 0.0012378144309719407 0 -0.016073160827235894 0.0016105289060368232 0 -0.015875587633507288 0.0015969061208960212 0 -0.013009336119628734 0.00080387921665903963 0 -0.012518009041367262 0.0012378144309719407 0 -0.013248262887448717 0.0012569431493778375 0 -0.013596618649768922 0.00093610012019952962 0 -0.013009336119628734 0.00080387921665903963 0 -0.013248262887448717 0.0012569431493778375 0 -0.018867287748112162 0.0019425269401486735 0 -0.018695781732641869 0.0020694292087101232 0 -0.018928737357606706 0.0020658438410427618 0 -0.018611756762543053 0.0018658551181750837 0 -0.018867287748112162 0.0019425269401486735 0 -0.018695781732641869 0.0020694292087101232 0 -0.018611756762543053 0.0018658551181750837 0 -0.018695781732641869 0.0020694292087101232 0 -0.018447954093867024 0.0019874550353841587 0 -0.018695781732641869 0.0020694292087101232 0 -0.018834907937252364 0.0022740409009540789 0 -0.018459775507901129 0.0022317130151082326 0 -0.019159030946093905 0.0023147002050803349 0 -0.018834907937252364 0.0022740409009540789 0 -0.018928737357606706 0.0020658438410427618 0 -0.018695781732641869 0.0020694292087101232 0 -0.018834907937252364 0.0022740409009540789 0 -0.018928737357606706 0.0020658438410427618 0 -0.017803002284317561 0.0017204576050080106 0 -0.02089648343896295 0.0018742826312998539 0 -0.018278509536957855 0.0018308083838521592 0 -0.018171274668454283 0.0019393197901082782 0 -0.018447954093867024 0.0019874550353841587 0 -0.013374727109012509 1.8728691848162372e-05 0 -0.017803002284317561 0.0017204576050080106 0 -0.018171274668454283 0.0019393197901082782 0 -0.018447954093867024 0.0019874550353841587 0 -0.018459775507901129 0.0022317130151082326 0 -0.018695781732641869 0.0020694292087101232 0 -0.018447954093867024 0.0019874550353841587 0 -0.018459775507901129 0.0022317130151082326 0 -0.021195889252592557 0.0015130102210802042 0 -0.021576209753915006 0.0012992345912377333 0 -0.022312332560154004 0.00143859242322107 0 -0.021576209753915006 0.0012992345912377333 0 -0.022607830363257884 0.0012881587003194166 0 -0.022312332560154004 0.00143859242322107 0 -0.021558811239263041 0.0012090526806017383 0 -0.022217191556764174 0.0014230925075365921 0 -0.022048969836135881 0.0013191381718624553 0 -0.022312332560154004 0.00143859242322107 0 -0.022223950284062828 0.0014794221959107804 0 -0.022223950284062828 0.0014794221959107804 0 -0.022454149588580077 0.0015806065368800476 0 -0.022323479244235167 0.0016922559625165887 0 -0.022312332560154004 0.00143859242322107 0 -0.022454149588580077 0.0015806065368800476 0 -0.022792570749236636 0.0016152964487398289 0 -0.022312332560154004 0.00143859242322107 0 -0.022223950284062828 0.0014794221959107804 0 -0.022454149588580077 0.0015806065368800476 0 -0.022607830363257884 0.0012881587003194166 0 -0.022792570749236636 0.0016152964487398289 0 -0.023563301956292599 0.0016966875195142217 0 -0.022607830363257884 0.0012881587003194166 0 -0.022312332560154004 0.00143859242322107 0 -0.022792570749236636 0.0016152964487398289 0 -0.022454149588580077 0.0015806065368800476 0 -0.022792570749236636 0.0016152964487398289 0 -0.022754140138848213 0.0018436083976825105 0 -0.022792570749236636 0.0016152964487398289 0 -0.023097247554862421 0.0019161122816243651 0 -0.023563301956292599 0.0016966875195142217 0 -0.022792570749236636 0.0016152964487398289 0 -0.022754140138848213 0.0018436083976825105 0 -0.023097247554862421 0.0019161122816243651 0 -0.023097247554862421 0.0019161122816243651 0 -0.02345231331858209 0.0023152382091715129 0 -0.022977264825319681 0.0021669947707125986 0 -0.022754140138848213 0.0018436083976825105 0 -0.023097247554862421 0.0019161122816243651 0 -0.022977264825319681 0.0021669947707125986 0 -0.022754140138848213 0.0018436083976825105 0 -0.022491909986573449 0.001886659149420211 0 -0.022538806062449557 0.0021251755106034007 0 -0.022754140138848213 0.0018436083976825105 0 -0.022538806062449557 0.0021251755106034007 0 -0.022977264825319681 0.0021669947707125986 0 -0.022491909986573449 0.001886659149420211 0 -0.022538806062449557 0.0021251755106034007 0 -0.022214509010127354 0.0018770218364103156 0 -0.022491909986573449 0.001886659149420211 0 -0.022323479244235167 0.0016922559625165887 0 -0.022214509010127354 0.0018770218364103156 0 -0.022454149588580077 0.0015806065368800476 0 -0.022754140138848213 0.0018436083976825105 0 -0.022323479244235167 0.0016922559625165887 0 -0.022754140138848213 0.0018436083976825105 0 -0.022491909986573449 0.001886659149420211 0 -0.022323479244235167 0.0016922559625165887 0 -0.019159030946093905 0.0023147002050803349 0 -0.019121845679016768 0.0025464613419955142 0 -0.018834907937252364 0.0022740409009540789 0 -0.019121845679016768 0.0025464613419955142 0 -0.018834907937252364 0.0022740409009540789 0 -0.018731881039012892 0.0025310606127888612 0 -0.018834907937252364 0.0022740409009540789 0 -0.018459775507901129 0.0022317130151082326 0 -0.018731881039012892 0.0025310606127888612 0 -0.02089648343896295 0.0018742826312998539 0 -0.021084506976797132 0.0021033505453579657 0 -0.023097247554862421 0.0019161122816243651 0 -0.023563301956292599 0.0016966875195142217 0 -0.02345231331858209 0.0023152382091715129 0 -0.021084506976797132 0.0021033505453579657 0 -0.021638035630542438 0.0026515748046594019 0 -0.019121845679016768 0.0025464613419955142 0 -0.018731881039012892 0.0025310606127888612 0 -0.019054676260872185 0.0028534782154017615 0 -0.023563301956292599 0.0016966875195142217 0 -0.024256929127798778 0.0024660228923468349 0 -0.023898149571991798 0.0025141000904799469 0 -0.024256929127798778 0.0024660228923468349 0 -0.023898149571991798 0.0025141000904799469 0 -0.024083217647270675 0.0027660238032512869 0 -0.023563301956292599 0.0016966875195142217 0 -0.023898149571991798 0.0025141000904799469 0 -0.02345231331858209 0.0023152382091715129 0 -0.02345231331858209 0.0023152382091715129 0 -0.02378126954287579 0.0026924998508384961 0 -0.023480493440035877 0.0025861438076479112 0 -0.023898149571991798 0.0025141000904799469 0 -0.02345231331858209 0.0023152382091715129 0 -0.02378126954287579 0.0026924998508384961 0 -0.02378126954287579 0.0026924998508384961 0 -0.023480493440035877 0.0025861438076479112 0 -0.023574074268687444 0.0027694373139863864 0 -0.02378126954287579 0.0026924998508384961 0 -0.024011934936680364 0.0030792564191950544 0 -0.023980717295492907 0.0028598029221406202 0 -0.02378126954287579 0.0026924998508384961 0 -0.024011934936680364 0.0030792564191950544 0 -0.023574074268687444 0.0027694373139863864 0 -0.025161216478042731 0.0024047213828628511 0 -0.024011934936680364 0.0030792564191950544 0 -0.024061877719635145 0.0029578442693805451 0 -0.024011934936680364 0.0030792564191950544 0 -0.024061877719635145 0.0029578442693805451 0 -0.023980717295492907 0.0028598029221406202 0 -0.024076023778106005 0.0028819744019973987 0 -0.023980717295492907 0.0028598029221406202 0 -0.024083217647270675 0.0027660238032512869 0 -0.024061877719635145 0.0029578442693805451 0 -0.024076023778106005 0.0028819744019973987 0 -0.023980717295492907 0.0028598029221406202 0 -0.023898149571991798 0.0025141000904799469 0 -0.02378126954287579 0.0026924998508384961 0 -0.023980717295492907 0.0028598029221406202 0 -0.023898149571991798 0.0025141000904799469 0 -0.023980717295492907 0.0028598029221406202 0 -0.024083217647270675 0.0027660238032512869 0 -0.024256929127798778 0.0024660228923468349 0 -0.024083217647270675 0.0027660238032512869 0 -0.024206615897578228 0.0027852024065254423 0 -0.02414779677589389 0.0028552024635851575 0 -0.024076023778106005 0.0028819744019973987 0 -0.024083217647270675 0.0027660238032512869 0 -0.02414779677589389 0.0028552024635851575 0 -0.024083217647270675 0.0027660238032512869 0 -0.024206615897578228 0.0027852024065254423 0 -0.022822995995306478 0.0023709914808256942 0 -0.022997091591477725 0.0025763619794375689 0 -0.022766916286534166 0.0026149376828166768 0 -0.022822995995306478 0.0023709914808256942 0 -0.022564212156571641 0.0024310394793189988 0 -0.022538806062449557 0.0021251755106034007 0 -0.022822995995306478 0.0023709914808256942 0 -0.022564212156571641 0.0024310394793189988 0 -0.022766916286534166 0.0026149376828166768 0 -0.022564212156571641 0.0024310394793189988 0 -0.022538806062449557 0.0021251755106034007 0 -0.022304838348814676 0.0023384678205538539 0 -0.022564212156571641 0.0024310394793189988 0 -0.022306937489322151 0.0025561766040994968 0 -0.022304838348814676 0.0023384678205538539 0 -0.022822995995306478 0.0023709914808256942 0 -0.022538806062449557 0.0021251755106034007 0 -0.022977264825319681 0.0021669947707125986 0 -0.022822995995306478 0.0023709914808256942 0 -0.022977264825319681 0.0021669947707125986 0 -0.023164654881627892 0.002438654223201366 0 -0.02345231331858209 0.0023152382091715129 0 -0.022977264825319681 0.0021669947707125986 0 -0.023164654881627892 0.002438654223201366 0 -0.02345231331858209 0.0023152382091715129 0 -0.023480493440035877 0.0025861438076479112 0 -0.023164654881627892 0.002438654223201366 0 -0.023480493440035877 0.0025861438076479112 0 -0.023164654881627892 0.002438654223201366 0 -0.023258688626353111 0.0026767319339496111 0 -0.022822995995306478 0.0023709914808256942 0 -0.023164654881627892 0.002438654223201366 0 -0.022997091591477725 0.0025763619794375689 0 -0.023164654881627892 0.002438654223201366 0 -0.022997091591477725 0.0025763619794375689 0 -0.023258688626353111 0.0026767319339496111 0 -0.022997091591477725 0.0025763619794375689 0 -0.023008065845991313 0.0027667160478484949 0 -0.022766916286534166 0.0026149376828166768 0 -0.022997091591477725 0.0025763619794375689 0 -0.023008065845991313 0.0027667160478484949 0 -0.023258688626353111 0.0026767319339496111 0 -0.023008065845991313 0.0027667160478484949 0 -0.023258688626353111 0.0026767319339496111 0 -0.023314497759769466 0.0029235373083260218 0 -0.024011934936680364 0.0030792564191950544 0 -0.023574074268687444 0.0027694373139863864 0 -0.023314497759769466 0.0029235373083260218 0 -0.023480493440035877 0.0025861438076479112 0 -0.023258688626353111 0.0026767319339496111 0 -0.023574074268687444 0.0027694373139863864 0 -0.023258688626353111 0.0026767319339496111 0 -0.023574074268687444 0.0027694373139863864 0 -0.023314497759769466 0.0029235373083260218 0 -0.026752561602085539 0.0023326499064906981 0 -0.025161216478042731 0.0024047213828628511 0 -0.024011934936680364 0.0030792564191950544 0 -0.026206401961559923 0.0022500331602981587 0 -0.023976396995837229 0.0032653661009413261 0 -0.023090651487310414 0.0032373712475480612 0 -0.024011934936680364 0.0030792564191950544 0 -0.023314497759769466 0.0029235373083260218 0 -0.023090651487310414 0.0032373712475480612 0 -0.023002889189198138 0.0029767127941327711 0 -0.022732450246108964 0.0030114868022148513 0 -0.023090651487310414 0.0032373712475480612 0 -0.023314497759769466 0.0029235373083260218 0 -0.023002889189198138 0.0029767127941327711 0 -0.023008065845991313 0.0027667160478484949 0 -0.023002889189198138 0.0029767127941327711 0 -0.022791727027721257 0.0028468547351134582 0 -0.023008065845991313 0.0027667160478484949 0 -0.023314497759769466 0.0029235373083260218 0 -0.023002889189198138 0.0029767127941327711 0 -0.023002889189198138 0.0029767127941327711 0 -0.022732450246108964 0.0030114868022148513 0 -0.022791727027721257 0.0028468547351134582 0 -0.022732450246108964 0.0030114868022148513 0 -0.022791727027721257 0.0028468547351134582 0 -0.022551803617852108 0.0029025431479394719 0 -0.022791727027721257 0.0028468547351134582 0 -0.022529118392594947 0.002690760686355678 0 -0.022551803617852108 0.0029025431479394719 0 -0.023008065845991313 0.0027667160478484949 0 -0.022791727027721257 0.0028468547351134582 0 -0.022766916286534166 0.0026149376828166768 0 -0.022564212156571641 0.0024310394793189988 0 -0.022766916286534166 0.0026149376828166768 0 -0.022529118392594947 0.002690760686355678 0 -0.022791727027721257 0.0028468547351134582 0 -0.022766916286534166 0.0026149376828166768 0 -0.022529118392594947 0.002690760686355678 0 -0.022564212156571641 0.0024310394793189988 0 -0.022529118392594947 0.002690760686355678 0 -0.022306937489322151 0.0025561766040994968 0 -0.022529118392594947 0.002690760686355678 0 -0.022255965429303644 0.002771975444993208 0 -0.022306937489322151 0.0025561766040994968 0 -0.022529118392594947 0.002690760686355678 0 -0.022551803617852108 0.0029025431479394719 0 -0.022255965429303644 0.002771975444993208 0 -0.022255965429303644 0.002771975444993208 0 -0.021931535717641486 0.0026380936322637251 0 -0.02205985680284574 0.0024503442445370604 0 -0.021958398614481935 0.0028218528295432827 0 -0.022255965429303644 0.002771975444993208 0 -0.021931535717641486 0.0026380936322637251 0 -0.021931535717641486 0.0026380936322637251 0 -0.02205985680284574 0.0024503442445370604 0 -0.021778351173598304 0.0022725443994500265 0 -0.022255965429303644 0.002771975444993208 0 -0.02205985680284574 0.0024503442445370604 0 -0.022306937489322151 0.0025561766040994968 0 -0.02205985680284574 0.0024503442445370604 0 -0.022306937489322151 0.0025561766040994968 0 -0.022304838348814676 0.0023384678205538539 0 -0.021558173390845328 0.0024658214529462148 0 -0.021778351173598304 0.0022725443994500265 0 -0.021382472436217995 0.0020980913497538182 0 -0.021686353783021917 0.0026928235574309256 0 -0.021931535717641486 0.0026380936322637251 0 -0.021558173390845328 0.0024658214529462148 0 -0.021931535717641486 0.0026380936322637251 0 -0.021558173390845328 0.0024658214529462148 0 -0.021778351173598304 0.0022725443994500265 0 -0.021778351173598304 0.0022725443994500265 0 -0.02207521491028263 0.0021252286083433929 0 -0.021718595717937255 0.0018970399789635117 0 -0.021778351173598304 0.0022725443994500265 0 -0.021718595717937255 0.0018970399789635117 0 -0.021382472436217995 0.0020980913497538182 0 -0.022538806062449557 0.0021251755106034007 0 -0.02207521491028263 0.0021252286083433929 0 -0.022214509010127354 0.0018770218364103156 0 -0.022538806062449557 0.0021251755106034007 0 -0.022304838348814676 0.0023384678205538539 0 -0.02207521491028263 0.0021252286083433929 0 -0.02205985680284574 0.0024503442445370604 0 -0.022304838348814676 0.0023384678205538539 0 -0.02207521491028263 0.0021252286083433929 0 -0.02205985680284574 0.0024503442445370604 0 -0.021778351173598304 0.0022725443994500265 0 -0.02207521491028263 0.0021252286083433929 0 -0.02207521491028263 0.0021252286083433929 0 -0.022214509010127354 0.0018770218364103156 0 -0.02198190695966528 0.0018741011159809375 0 -0.022323479244235167 0.0016922559625165887 0 -0.022214509010127354 0.0018770218364103156 0 -0.021924036516760385 0.0016094261022543011 0 -0.02198190695966528 0.0018741011159809375 0 -0.021718595717937255 0.0018970399789635117 0 -0.021924036516760385 0.0016094261022543011 0 -0.022214509010127354 0.0018770218364103156 0 -0.02198190695966528 0.0018741011159809375 0 -0.021924036516760385 0.0016094261022543011 0 -0.02207521491028263 0.0021252286083433929 0 -0.02198190695966528 0.0018741011159809375 0 -0.021718595717937255 0.0018970399789635117 0 -0.021718595717937255 0.0018970399789635117 0 -0.021531482747810832 0.0014881053053541198 0 -0.021924036516760385 0.0016094261022543011 0 -0.021736304445611768 0.0012485189097002436 0 -0.021531482747810832 0.0014881053053541198 0 -0.021924036516760385 0.0016094261022543011 0 -0.021736304445611768 0.0012485189097002436 0 -0.021426996284366204 0.0011770516411930996 0 -0.021531482747810832 0.0014881053053541198 0 -0.022223950284062828 0.0014794221959107804 0 -0.022323479244235167 0.0016922559625165887 0 -0.021924036516760385 0.0016094261022543011 0 -0.022048969836135881 0.0013191381718624553 0 -0.021736304445611768 0.0012485189097002436 0 -0.021924036516760385 0.0016094261022543011 0 -0.022048969836135881 0.0013191381718624553 0 -0.022223950284062828 0.0014794221959107804 0 -0.021924036516760385 0.0016094261022543011 0 -0.020853739677004168 0.0010245210079182668 0 -0.021161897415111066 0.0012890656588153684 0 -0.020760256121936937 0.001434644208518687 0 -0.021161897415111066 0.0012890656588153684 0 -0.021234560165057075 0.0017120836287209363 0 -0.020760256121936937 0.001434644208518687 0 -0.021426996284366204 0.0011770516411930996 0 -0.021531482747810832 0.0014881053053541198 0 -0.021161897415111066 0.0012890656588153684 0 -0.021531482747810832 0.0014881053053541198 0 -0.021161897415111066 0.0012890656588153684 0 -0.021234560165057075 0.0017120836287209363 0 -0.021718595717937255 0.0018970399789635117 0 -0.021531482747810832 0.0014881053053541198 0 -0.021234560165057075 0.0017120836287209363 0 -0.021718595717937255 0.0018970399789635117 0 -0.021234560165057075 0.0017120836287209363 0 -0.021382472436217995 0.0020980913497538182 0 -0.021234560165057075 0.0017120836287209363 0 -0.02087930621117336 0.0019260754873040792 0 -0.020760256121936937 0.001434644208518687 0 -0.02087930621117336 0.0019260754873040792 0 -0.021382472436217995 0.0020980913497538182 0 -0.021175842222705982 0.0023200066551577014 0 -0.021234560165057075 0.0017120836287209363 0 -0.02087930621117336 0.0019260754873040792 0 -0.021382472436217995 0.0020980913497538182 0 -0.021558173390845328 0.0024658214529462148 0 -0.021382472436217995 0.0020980913497538182 0 -0.021175842222705982 0.0023200066551577014 0 -0.021357734189745389 0.0026248603978042766 0 -0.021558173390845328 0.0024658214529462148 0 -0.021175842222705982 0.0023200066551577014 0 -0.02087930621117336 0.0019260754873040792 0 -0.021175842222705982 0.0023200066551577014 0 -0.020835464531547991 0.0022109789879808813 0 -0.020969368004940266 0.0024886935957403218 0 -0.021175842222705982 0.0023200066551577014 0 -0.020835464531547991 0.0022109789879808813 0 -0.020591267558671418 0.0023197973959436344 0 -0.020835464531547991 0.0022109789879808813 0 -0.020553254530127844 0.0020002057960524502 0 -0.02087930621117336 0.0019260754873040792 0 -0.020835464531547991 0.0022109789879808813 0 -0.020553254530127844 0.0020002057960524502 0 -0.02087930621117336 0.0019260754873040792 0 -0.020553254530127844 0.0020002057960524502 0 -0.020450652871350481 0.0016887474155089658 0 -0.02017487975678928 0.0019370003039721727 0 -0.020036724821397119 0.0016912021984477139 0 -0.020450652871350481 0.0016887474155089658 0 -0.020553254530127844 0.0020002057960524502 0 -0.02017487975678928 0.0019370003039721727 0 -0.020450652871350481 0.0016887474155089658 0 -0.020056216455979329 0.002042781930868679 0 -0.020591267558671418 0.0023197973959436344 0 -0.02017487975678928 0.0019370003039721727 0 -0.020591267558671418 0.0023197973959436344 0 -0.020553254530127844 0.0020002057960524502 0 -0.02017487975678928 0.0019370003039721727 0 -0.020056216455979329 0.002042781930868679 0 -0.02017487975678928 0.0019370003039721727 0 -0.019917039516947406 0.0019107684362284815 0 -0.019870093164923525 0.0018854531882909358 0 -0.019917039516947406 0.0019107684362284815 0 -0.019633528427914639 0.0017322182623224372 0 -0.019917039516947406 0.0019107684362284815 0 -0.020036724821397119 0.0016912021984477139 0 -0.019633528427914639 0.0017322182623224372 0 -0.02017487975678928 0.0019370003039721727 0 -0.019917039516947406 0.0019107684362284815 0 -0.020036724821397119 0.0016912021984477139 0 -0.020036724821397119 0.0016912021984477139 0 -0.019858008619923852 0.0014172823888871249 0 -0.020264253260796738 0.0013808666500246473 0 -0.020036724821397119 0.0016912021984477139 0 -0.019858008619923852 0.0014172823888871249 0 -0.019633528427914639 0.0017322182623224372 0 -0.01943979655616241 0.0016147148989115673 0 -0.019586732930287468 0.0017407571508809645 0 -0.019858008619923852 0.0014172823888871249 0 -0.020264253260796738 0.0013808666500246473 0 -0.020046279604206636 0.0010232843319289012 0 -0.01943979655616241 0.0016147148989115673 0 -0.019205388339896941 0.0015842297268143504 0 -0.020264253260796738 0.0013808666500246473 0 -0.020760256121936937 0.001434644208518687 0 -0.020466139455202762 0.0010308248328606993 0 -0.02087930621117336 0.0019260754873040792 0 -0.020760256121936937 0.001434644208518687 0 -0.020450652871350481 0.0016887474155089658 0 -0.020036724821397119 0.0016912021984477139 0 -0.020264253260796738 0.0013808666500246473 0 -0.020450652871350481 0.0016887474155089658 0 -0.020264253260796738 0.0013808666500246473 0 -0.020760256121936937 0.001434644208518687 0 -0.020450652871350481 0.0016887474155089658 0 -0.019456469893566201 0.0011712817852127821 0 -0.018716329577952114 0.00094413037650523113 0 -0.018738171187245235 0.0019480734330101562 0 -0.019082966081498266 0.0012907782476190908 0 -0.019191475179227719 0.0019206790370032689 0 -0.019456469893566201 0.0011712817852127821 0 -0.019604084343688672 0.0017966902762968984 0 -0.018738171187245235 0.0019480734330101562 0 -0.019456469893566201 0.0011712817852127821 0 -0.019312490192169608 0.0005716784625611651 0 -0.018716329577952114 0.00094413037650523113 0 -0.018660849100833949 -6.0484642577722096e-05 0 -0.019312490192169608 0.0005716784625611651 0 -0.018716329577952114 0.00094413037650523113 0 -0.019650314693621097 0.0017493963786683604 0 -0.019654190867581429 0.0017306900342395001 0 -0.019786943260145802 0.0017842223168791538 0 -0.019674576571600773 0.0019022541766721757 0 -0.019650314693621097 0.0017493963786683604 0 -0.019786943260145802 0.0017842223168791538 0 -0.019650314693621097 0.0017493963786683604 0 -0.019654190867581429 0.0017306900342395001 0 -0.019681232321472748 0.0017446275628851934 0 -0.019654190867581429 0.0017306900342395001 0 -0.019786943260145802 0.0017842223168791538 0 -0.019633528427914639 0.0017322182623224372 0 -0.019654190867581429 0.0017306900342395001 0 -0.019633528427914639 0.0017322182623224372 0 -0.019522755161205701 0.0017594236079365971 0 -0.019870093164923525 0.0018854531882909358 0 -0.019786943260145802 0.0017842223168791538 0 -0.019633528427914639 0.0017322182623224372 0 -0.019032025644666738 0.0017669336524933153 0 -0.019633528427914639 0.0017322182623224372 0 -0.019522755161205701 0.0017594236079365971 0 -0.019032025644666738 0.0017669336524933153 0 -0.019292272146482964 0.0020042893562721067 0 -0.018903267788003025 0.0020273969161294552 0 -0.019032025644666738 0.0017669336524933153 0 -0.019522755161205701 0.0017594236079365971 0 -0.019292272146482964 0.0020042893562721067 0 -0.019522755161205701 0.0017594236079365971 0 -0.019556427329321294 0.0018872775941116873 0 -0.019292272146482964 0.0020042893562721067 0 -0.019654190867581429 0.0017306900342395001 0 -0.019522755161205701 0.0017594236079365971 0 -0.019681232321472748 0.0017446275628851934 0 -0.019522755161205701 0.0017594236079365971 0 -0.019556427329321294 0.0018872775941116873 0 -0.019681232321472748 0.0017446275628851934 0 -0.019556427329321294 0.0018872775941116873 0 -0.019726378314360561 0.001950517314555193 0 -0.019546721051297039 0.0021336042834096381 0 -0.019556427329321294 0.0018872775941116873 0 -0.019726378314360561 0.001950517314555193 0 -0.019681232321472748 0.0017446275628851934 0 -0.019451965573658806 0.0032182198287114363 0 -0.018742250765261616 0.0029861458782798772 0 -0.01930650536935772 0.0028587718245567085 0 -0.019553570027469706 0.0022021590491545385 0 -0.019191475179227719 0.0019206790370032689 0 -0.018742250765261616 0.0029861458782798772 0 -0.01930650536935772 0.0028587718245567085 0 -0.019326799937879072 0.0023801816713872096 0 -0.018742250765261616 0.0029861458782798772 0 -0.018738171187245235 0.0019480734330101562 0 -0.019326799937879072 0.0023801816713872096 0 -0.019604084343688672 0.0017966902762968984 0 -0.018738171187245235 0.0019480734330101562 0 -0.019326799937879072 0.0023801816713872096 0 -0.010582256440583403 0.0061637474976878283 0 -0.011918290812991872 0.0069515314629737517 0 -0.011820256283540387 0.0051327662902477646 0 -0.015753012703638387 0.0046245517729628866 0 -0.011878482057789649 0.0058918745735424584 0 -0.014584877337851927 0.0058229214332523472 0 -0.015753012703638387 0.0046245517729628866 0 -0.010425479403949136 0.0077306495063908277 0 -0.010582256440583403 0.0061637474976878283 0 -0.011918290812991872 0.0069515314629737517 0 -0.019388094395358692 0.0037190754160356682 0 -0.018742250765261616 0.0029861458782798772 0 -0.01876512807858596 0.0040736305140160597 0 -0.019553570027469706 0.0022021590491545385 0 -0.015753012703638387 0.0046245517729628866 0 -0.019451965573658806 0.0032182198287114363 0 -0.019388094395358692 0.0037190754160356682 0 -0.018742250765261616 0.0029861458782798772 0 -0.019726378314360561 0.001950517314555193 0 -0.019763120696962649 0.0023195159407032409 0 -0.019546721051297039 0.0021336042834096381 0 -0.011955007791350699 0.0064455356719493109 0 -0.013951554100772203 0.0052517418561563315 0 -0.011820256283540387 0.0051327662902477646 0 -0.015753012703638387 0.0046245517729628866 0 -0.016671759349356573 0.0038765979178077975 0 -0.019763120696962649 0.0023195159407032409 0 -0.019546721051297039 0.0021336042834096381 0 -0.01935157679645147 0.0025788382662035674 0 -0.019546721051297039 0.0021336042834096381 0 -0.019292272146482964 0.0020042893562721067 0 -0.01935157679645147 0.0025788382662035674 0 -0.019292272146482964 0.0020042893562721067 0 -0.01883662519097792 0.0023399902995602721 0 -0.01935157679645147 0.0025788382662035674 0 -0.019556427329321294 0.0018872775941116873 0 -0.019546721051297039 0.0021336042834096381 0 -0.019292272146482964 0.0020042893562721067 0 -0.019292272146482964 0.0020042893562721067 0 -0.01883662519097792 0.0023399902995602721 0 -0.018903267788003025 0.0020273969161294552 0 -0.017187218209747401 0.0035106567917282199 0 -0.016671759349356573 0.0038765979178077975 0 -0.01883662519097792 0.0023399902995602721 0 -0.018691793905445672 0.0029199547866740989 0 -0.01935157679645147 0.0025788382662035674 0 -0.01570107366642929 0.0041312967921242538 0 -0.014129367429611097 0.0034017464477812155 0 -0.015245850825902718 0.0023467622978851454 0 -0.01570107366642929 0.0041312967921242538 0 -0.014129367429611097 0.0034017464477812155 0 -0.013951554100772203 0.0052517418561563315 0 -0.014129367429611097 0.0034017464477812155 0 -0.013951554100772203 0.0052517418561563315 0 -0.012778726098724073 0.0041134599592484783 0 -0.013951554100772203 0.0052517418561563315 0 -0.012778726098724073 0.0041134599592484783 0 -0.011820256283540387 0.0051327662902477646 0 -0.014129367429611097 0.0034017464477812155 0 -0.012778726098724073 0.0041134599592484783 0 -0.012721104772932746 0.0026851008914648743 0 -0.012778726098724073 0.0041134599592484783 0 -0.01108082659780677 0.0041823278579527961 0 -0.012721104772932746 0.0026851008914648743 0 -0.010067905992439242 0.0049779031002063117 0 -0.011367785989943839 0.0037574636484970364 0 -0.0090792656384786809 0.0056732660563052276 0 -0.0090852340431841466 0.0049802359815572274 0 -0.0099967419350470831 0.0048532676438971687 0 -0.012778726098724073 0.0041134599592484783 0 -0.01108082659780677 0.0041823278579527961 0 -0.011820256283540387 0.0051327662902477646 0 -0.010582256440583403 0.0061637474976878283 0 -0.01108082659780677 0.0041823278579527961 0 -0.011820256283540387 0.0051327662902477646 0 -0.020466139455202762 0.0010308248328606993 0 -0.020046279604206636 0.0010232843319289012 0 -0.020244917895680187 0.00057201056015581655 0 -0.020663574273597971 0.00073963610617937346 0 -0.020466139455202762 0.0010308248328606993 0 -0.020244917895680187 0.00057201056015581655 0 -0.020853739677004168 0.0010245210079182668 0 -0.020663574273597971 0.00073963610617937346 0 -0.020466139455202762 0.0010308248328606993 0 -0.020853739677004168 0.0010245210079182668 0 -0.020760256121936937 0.001434644208518687 0 -0.020466139455202762 0.0010308248328606993 0 -0.020264253260796738 0.0013808666500246473 0 -0.020466139455202762 0.0010308248328606993 0 -0.020046279604206636 0.0010232843319289012 0 -0.019032025644666738 0.0017669336524933153 0 -0.018389130222453098 0.0020685048173554165 0 -0.018903267788003025 0.0020273969161294552 0 -0.01883662519097792 0.0023399902995602721 0 -0.018389130222453098 0.0020685048173554165 0 -0.018903267788003025 0.0020273969161294552 0 -0.01883662519097792 0.0023399902995602721 0 -0.018389130222453098 0.0020685048173554165 0 -0.018207037283661076 0.0026822011838696872 0 -0.019205388339896941 0.0015842297268143504 0 -0.019040685214188103 0.0014982990049024235 0 -0.018389130222453098 0.0020685048173554165 0 -0.018207037283661076 0.0026822011838696872 0 -0.017782379571750388 0.0025795424262410192 0 -0.018207037283661076 0.0026822011838696872 0 -0.017709888588487609 0.0028234705747280766 0 -0.017782379571750388 0.0025795424262410192 0 -0.01883662519097792 0.0023399902995602721 0 -0.018691793905445672 0.0029199547866740989 0 -0.018207037283661076 0.0026822011838696872 0 -0.017187218209747401 0.0035106567917282199 0 -0.017566762427812282 0.0030571422239113345 0 -0.01570107366642929 0.0041312967921242538 0 -0.01754174544995089 0.0030202648890109937 0 -0.016501870819335615 0.0026479331039578179 0 -0.018691793905445672 0.0029199547866740989 0 -0.018207037283661076 0.0026822011838696872 0 -0.01754174544995089 0.0030202648890109937 0 -0.018207037283661076 0.0026822011838696872 0 -0.017709888588487609 0.0028234705747280766 0 -0.01754174544995089 0.0030202648890109937 0 -0.017709888588487609 0.0028234705747280766 0 -0.017600887236009652 0.0029210774880399967 0 -0.01754174544995089 0.0030202648890109937 0 -0.017600887236009652 0.0029210774880399967 0 -0.017515065502238039 0.0029614621216819126 0 -0.017580138707644556 0.0029015612788550649 0 -0.017709888588487609 0.0028234705747280766 0 -0.017515065502238039 0.0029614621216819126 0 -0.017782379571750388 0.0025795424262410192 0 -0.017709888588487609 0.0028234705747280766 0 -0.017600887236009652 0.0029210774880399967 0 -0.017515065502238039 0.0029614621216819126 0 -0.020450583845717126 0.00010208784786755289 0 -0.020244917895680187 0.00057201056015581655 0 -0.020657768381313207 0.00041763340764221116 0 -0.018947608461261971 0.0019411607653727057 0 -0.019040685214188103 0.0014982990049024235 0 -0.020663574273597971 0.00073963610617937346 0 -0.020244917895680187 0.00057201056015581655 0 -0.020657768381313207 0.00041763340764221116 0 -0.020989914315593237 0.00062878653432081014 0 -0.020663574273597971 0.00073963610617937346 0 -0.020657768381313207 0.00041763340764221116 0 -0.020990805374830803 0.00020399262411946133 0 -0.020450583845717126 0.00010208784786755289 0 -0.020657768381313207 0.00041763340764221116 0 -0.020233965260068251 0.001777753432671493 0 -0.018947608461261971 0.0019411607653727057 0 -0.020233965260068251 0.001777753432671493 0 -0.018389750931145775 0.0023418437187920178 0 -0.019513764324266897 0.0029704177956694773 0 -0.018197385323072534 0.0026805133945945179 0 -0.018534466468374367 0.0021760398867880027 0 -0.019406060114926633 0.0022550990496989286 0 -0.018534466468374367 0.0021760398867880027 0 -0.01895116464470575 0.0020260891685986897 0 -0.018197385323072534 0.0026805133945945179 0 -0.01841983703184355 0.0022355659544661165 0 -0.018534466468374367 0.0021760398867880027 0 -0.01841983703184355 0.0022355659544661165 0 -0.018534466468374367 0.0021760398867880027 0 -0.018423723019496296 0.0020178856864096714 0 -0.01841983703184355 0.0022355659544661165 0 -0.018423723019496296 0.0020178856864096714 0 -0.018285761035079208 0.0021710697081015022 0 -0.018534466468374367 0.0021760398867880027 0 -0.018423723019496296 0.0020178856864096714 0 -0.018687624384449712 0.001943746736059617 0 -0.018534466468374367 0.0021760398867880027 0 -0.01895116464470575 0.0020260891685986897 0 -0.018687624384449712 0.001943746736059617 0 -0.01895116464470575 0.0020260891685986897 0 -0.018687624384449712 0.001943746736059617 0 -0.018889843477433565 0.0017563519647455757 0 -0.018889843477433565 0.0017563519647455757 0 -0.018589143264992402 0.0017201539420900961 0 -0.018709541044023028 0.0013431737746810047 0 -0.018687624384449712 0.001943746736059617 0 -0.018889843477433565 0.0017563519647455757 0 -0.018589143264992402 0.0017201539420900961 0 -0.018309376739212024 0.0018150830171989303 0 -0.018589143264992402 0.0017201539420900961 0 -0.018247271718388088 0.001411153093779497 0 -0.018423723019496296 0.0020178856864096714 0 -0.018309376739212024 0.0018150830171989303 0 -0.018589143264992402 0.0017201539420900961 0 -0.018423723019496296 0.0020178856864096714 0 -0.018687624384449712 0.001943746736059617 0 -0.018589143264992402 0.0017201539420900961 0 -0.018423723019496296 0.0020178856864096714 0 -0.018309376739212024 0.0018150830171989303 0 -0.018120982923789799 0.0020836512651997911 0 -0.018589143264992402 0.0017201539420900961 0 -0.018247271718388088 0.001411153093779497 0 -0.018709541044023028 0.0013431737746810047 0 -0.017671986503307313 0.001478679481379598 0 -0.017718088426430131 0.0020035403561686686 0 -0.017167738996180699 0.0016520553815124468 0 -0.018247271718388088 0.001411153093779497 0 -0.017671986503307313 0.001478679481379598 0 -0.018018601434398932 0.0017582879571093684 0 -0.018309376739212024 0.0018150830171989303 0 -0.018247271718388088 0.001411153093779497 0 -0.018018601434398932 0.0017582879571093684 0 -0.018018601434398932 0.0017582879571093684 0 -0.017718088426430131 0.0020035403561686686 0 -0.018120982923789799 0.0020836512651997911 0 -0.018309376739212024 0.0018150830171989303 0 -0.018018601434398932 0.0017582879571093684 0 -0.018120982923789799 0.0020836512651997911 0 -0.017671986503307313 0.001478679481379598 0 -0.018018601434398932 0.0017582879571093684 0 -0.017718088426430131 0.0020035403561686686 0 -0.017718088426430131 0.0020035403561686686 0 -0.017401180118500736 0.0021934985263813932 0 -0.017624100681068667 0.0025089415180334111 0 -0.017718088426430131 0.0020035403561686686 0 -0.017926478066176754 0.0024705238375589884 0 -0.017624100681068667 0.0025089415180334111 0 -0.018947608461261971 0.0019411607653727057 0 -0.0173541218251189 0.0027623808969332716 0 -0.01820278802282841 0.0028458185490738328 0 -0.017926478066176754 0.0024705238375589884 0 -0.017580138707644556 0.0029015612788550649 0 -0.017718088426430131 0.0020035403561686686 0 -0.017926478066176754 0.0024705238375589884 0 -0.018120982923789799 0.0020836512651997911 0 -0.018423723019496296 0.0020178856864096714 0 -0.018120982923789799 0.0020836512651997911 0 -0.018285761035079208 0.0021710697081015022 0 -0.017926478066176754 0.0024705238375589884 0 -0.018120982923789799 0.0020836512651997911 0 -0.018166522164750759 0.0023533498035156982 0 -0.01841983703184355 0.0022355659544661165 0 -0.018166522164750759 0.0023533498035156982 0 -0.018285761035079208 0.0021710697081015022 0 -0.018120982923789799 0.0020836512651997911 0 -0.018166522164750759 0.0023533498035156982 0 -0.018285761035079208 0.0021710697081015022 0 -0.018947608461261971 0.0019411607653727057 0 -0.018403947648760351 0.0025596887670717629 0 -0.01820278802282841 0.0028458185490738328 0 -0.01841983703184355 0.0022355659544661165 0 -0.018166522164750759 0.0023533498035156982 0 -0.01820278802282841 0.0028458185490738328 0 -0.017926478066176754 0.0024705238375589884 0 -0.018166522164750759 0.0023533498035156982 0 -0.017926478066176754 0.0024705238375589884 0 -0.017580138707644556 0.0029015612788550649 0 -0.017624100681068667 0.0025089415180334111 0 -0.017600887236009652 0.0029210774880399967 0 -0.017580138707644556 0.0029015612788550649 0 -0.01754174544995089 0.0030202648890109937 0 -0.017496739776163211 0.0027852533559604726 0 -0.017624100681068667 0.0025089415180334111 0 -0.017309050249522447 0.0025691898304645885 0 -0.017580138707644556 0.0029015612788550649 0 -0.017496739776163211 0.0027852533559604726 0 -0.017624100681068667 0.0025089415180334111 0 -0.017496739776163211 0.0027852533559604726 0 -0.01754174544995089 0.0030202648890109937 0 -0.017309050249522447 0.0025691898304645885 0 -0.017580138707644556 0.0029015612788550649 0 -0.017496739776163211 0.0027852533559604726 0 -0.01754174544995089 0.0030202648890109937 0 -0.01754174544995089 0.0030202648890109937 0 -0.017309050249522447 0.0025691898304645885 0 -0.016501870819335615 0.0026479331039578179 0 -0.016976214551713067 0.0022100060901570659 0 -0.017309050249522447 0.0025691898304645885 0 -0.016501870819335615 0.0026479331039578179 0 -0.016976214551713067 0.0022100060901570659 0 -0.017401180118500736 0.0021934985263813932 0 -0.017309050249522447 0.0025691898304645885 0 -0.017401180118500736 0.0021934985263813932 0 -0.017624100681068667 0.0025089415180334111 0 -0.017309050249522447 0.0025691898304645885 0 -0.01570107366642929 0.0041312967921242538 0 -0.016501870819335615 0.0026479331039578179 0 -0.015245850825902718 0.0023467622978851454 0 -0.016501870819335615 0.0026479331039578179 0 -0.016310099075026594 0.0018628359453651128 0 -0.015245850825902718 0.0023467622978851454 0 -0.016976214551713067 0.0022100060901570659 0 -0.016501870819335615 0.0026479331039578179 0 -0.016310099075026594 0.0018628359453651128 0 -0.016310099075026594 0.0018628359453651128 0 -0.016287307546612312 0.00098019917126792688 0 -0.015468132313705873 0.0013299872025140092 0 -0.016310099075026594 0.0018628359453651128 0 -0.015245850825902718 0.0023467622978851454 0 -0.015468132313705873 0.0013299872025140092 0 -0.016976214551713067 0.0022100060901570659 0 -0.016310099075026594 0.0018628359453651128 0 -0.017167738996180699 0.0016520553815124468 0 -0.016310099075026594 0.0018628359453651128 0 -0.017167738996180699 0.0016520553815124468 0 -0.016287307546612312 0.00098019917126792688 0 -0.017718088426430131 0.0020035403561686686 0 -0.017401180118500736 0.0021934985263813932 0 -0.017167738996180699 0.0016520553815124468 0 -0.016976214551713067 0.0022100060901570659 0 -0.017401180118500736 0.0021934985263813932 0 -0.017167738996180699 0.0016520553815124468 0 -0.017671986503307313 0.001478679481379598 0 -0.017167738996180699 0.0016520553815124468 0 -0.017137154450436582 0.0010693755240699218 0 -0.017167738996180699 0.0016520553815124468 0 -0.017137154450436582 0.0010693755240699218 0 -0.016287307546612312 0.00098019917126792688 0 -0.017137154450436582 0.0010693755240699218 0 -0.016287307546612312 0.00098019917126792688 0 -0.01667329946283987 0.00059720760344980769 0 -0.016287307546612312 0.00098019917126792688 0 -0.015468132313705873 0.0013299872025140092 0 -0.015290693405113069 0.0003218994540034749 0 -0.016287307546612312 0.00098019917126792688 0 -0.016130239658685201 0.00020807676676702595 0 -0.015290693405113069 0.0003218994540034749 0 -0.016130239658685201 0.00020807676676702595 0 -0.015290693405113069 0.0003218994540034749 0 -0.015705075102326604 -0.00039369737258043627 0 -0.016130239658685201 0.00020807676676702595 0 -0.017118137446332719 0.00017279096676299207 0 -0.01667329946283987 0.00059720760344980769 0 -0.016287307546612312 0.00098019917126792688 0 -0.016130239658685201 0.00020807676676702595 0 -0.01667329946283987 0.00059720760344980769 0 -0.016130239658685201 0.00020807676676702595 0 -0.017118137446332719 0.00017279096676299207 0 -0.016836931382100715 -0.00039959048649913846 0 -0.017118137446332719 0.00017279096676299207 0 -0.01667329946283987 0.00059720760344980769 0 -0.017925426513439223 0.00066282722460326996 0 -0.017118137446332719 0.00017279096676299207 0 -0.017925426513439223 0.00066282722460326996 0 -0.018140518571046826 -0.00011958594896206752 0 -0.017925426513439223 0.00066282722460326996 0 -0.018140518571046826 -0.00011958594896206752 0 -0.018914938734631917 0.00069807711838902945 0 -0.012855259748271935 0.00067924515417900917 0 -0.013588253361828189 0.0015396623627980791 0 -0.0075888448888410572 0.0015330642929876248 0 -0.0080445335971222401 0.0014606177316489675 0 -0.0081748838664986914 0.0021161093927502426 0 -0.018709541044023028 0.0013431737746810047 0 -0.018422219542645731 0.0010090472556921104 0 -0.018914938734631917 0.00069807711838902945 0 -0.018247271718388088 0.001411153093779497 0 -0.018422219542645731 0.0010090472556921104 0 -0.017925426513439223 0.00066282722460326996 0 -0.018422219542645731 0.0010090472556921104 0 -0.017925426513439223 0.00066282722460326996 0 -0.018914938734631917 0.00069807711838902945 0 -0.018247271718388088 0.001411153093779497 0 -0.018709541044023028 0.0013431737746810047 0 -0.018422219542645731 0.0010090472556921104 0 -0.017137154450436582 0.0010693755240699218 0 -0.01667329946283987 0.00059720760344980769 0 -0.017925426513439223 0.00066282722460326996 0 -0.017671986503307313 0.001478679481379598 0 -0.017137154450436582 0.0010693755240699218 0 -0.017925426513439223 0.00066282722460326996 0 -0.018247271718388088 0.001411153093779497 0 -0.017671986503307313 0.001478679481379598 0 -0.017925426513439223 0.00066282722460326996 0 -0.0085041662446804639 0.0043533433206014542 0 -0.0095426383805811456 0.0036554678151243256 0 -0.0090852340431841466 0.0049802359815572274 0 -0.0095426383805811456 0.0036554678151243256 0 -0.0090852340431841466 0.0049802359815572274 0 -0.0099967419350470831 0.0048532676438971687 0 -0.011367785989943839 0.0037574636484970364 0 -0.012804822495887993 0.0024906664988113311 0 -0.0095426383805811456 0.0036554678151243256 0 -0.0099967419350470831 0.0048532676438971687 0 -0.011471812911756536 0.0036500645928793378 0 -0.014129367429611097 0.0034017464477812155 0 -0.012721104772932746 0.0026851008914648743 0 -0.014123397390878607 0.0013230660296477779 0 -0.014129367429611097 0.0034017464477812155 0 -0.014123397390878607 0.0013230660296477779 0 -0.015245850825902718 0.0023467622978851454 0 -0.014123397390878607 0.0013230660296477779 0 -0.015245850825902718 0.0023467622978851454 0 -0.015468132313705873 0.0013299872025140092 0 -0.014123397390878607 0.0013230660296477779 0 -0.015468132313705873 0.0013299872025140092 0 -0.015290693405113069 0.0003218994540034749 0 -0.013386793756559214 0.0020363935415114239 0 -0.010717238484617499 0.0023115182425192358 0 -0.01077862339232034 0.00064303226640156149 0 -0.012804822495887993 0.0024906664988113311 0 -0.014344532849521837 0.001134210319520717 0 -0.011471812911756536 0.0036500645928793378 0 -0.013386793756559214 0.0020363935415114239 0 -0.010717238484617499 0.0023115182425192358 0 -0.0095426383805811456 0.0036554678151243256 0 -0.011471812911756536 0.0036500645928793378 0 -0.010717238484617499 0.0023115182425192358 0 -0.010717238484617499 0.0023115182425192358 0 -0.0091141585535424331 0.00094928936805673935 0 -0.01077862339232034 0.00064303226640156149 0 -0.0075654602650170062 0.0010370733360591292 0 -0.0090837707082510721 0.0021694778807328976 0 -0.0091141585535424331 0.00094928936805673935 0 -0.010717238484617499 0.0023115182425192358 0 -0.0090837707082510721 0.0021694778807328976 0 -0.0091141585535424331 0.00094928936805673935 0 -0.0078479044845581412 0.0025250653983345441 0 -0.0095426383805811456 0.0036554678151243256 0 -0.0090837707082510721 0.0021694778807328976 0 -0.0095426383805811456 0.0036554678151243256 0 -0.010717238484617499 0.0023115182425192358 0 -0.0090837707082510721 0.0021694778807328976 0 -0.0085016192829170823 -0.00047868263771220343 0 -0.0094883994927501183 -0.0015108896103066894 0 -0.0084128201010361496 -0.00032587222831553911 0 -0.0091141585535424331 0.00094928936805673935 0 -0.01077862339232034 0.00064303226640156149 0 -0.0075654602650170062 0.0010370733360591292 0 -0.0084128201010361496 -0.00032587222831553911 0 -0.0091141585535424331 0.00094928936805673935 0 -0.0084128201010361496 -0.00032587222831553911 0 -0.01077862339232034 0.00064303226640156149 0 -0.011449353813351279 -0.00099238146763449327 0 -0.0084128201010361496 -0.00032587222831553911 0 -0.011449353813351279 -0.00099238146763449327 0 -0.010268859201459915 -0.0023823202335297327 0 -0.011449353813351279 -0.00099238146763449327 0 -0.013113958541657962 -0.0013422298434823206 0 -0.012651281287656066 -0.0025392128291061708 0 -0.011449353813351279 -0.00099238146763449327 0 -0.013457862854443451 5.3879315858700554e-05 0 -0.013113958541657962 -0.0013422298434823206 0 -0.013386793756559214 0.0020363935415114239 0 -0.01077862339232034 0.00064303226640156149 0 -0.013457862854443451 5.3879315858700554e-05 0 -0.01077862339232034 0.00064303226640156149 0 -0.011449353813351279 -0.00099238146763449327 0 -0.013457862854443451 5.3879315858700554e-05 0 -0.013386793756559214 0.0020363935415114239 0 -0.013457862854443451 5.3879315858700554e-05 0 -0.015705075102326604 -0.00039369737258043627 0 -0.013113958541657962 -0.0013422298434823206 0 -0.012651281287656066 -0.0025392128291061708 0 -0.014717914687711896 -0.0020241349218003356 0 -0.013457862854443451 5.3879315858700554e-05 0 -0.013113958541657962 -0.0013422298434823206 0 -0.014717914687711896 -0.0020241349218003356 0 -0.013746582974628125 -0.0039299178707344392 0 -0.012651281287656066 -0.0025392128291061708 0 -0.014717914687711896 -0.0020241349218003356 0 -0.013746582974628125 -0.0039299178707344392 0 -0.012173194493740625 -0.0040232844555773946 0 -0.014013196017679648 -0.0054851336307764585 0 -0.0094283151136549288 -0.0013715984539796331 0 -0.0095562563243987014 -0.0017475106538194422 0 -0.010068061615765277 -0.0018831330300248586 0 -0.01105688643011821 -0.0029333761059193437 0 -0.010958809536154137 -0.0024221302109009063 0 -0.013746582974628125 -0.0039299178707344392 0 -0.012173194493740625 -0.0040232844555773946 0 -0.012651281287656066 -0.0025392128291061708 0 -0.0094283151136549288 -0.0013715984539796331 0 -0.009285316649617641 -0.0015891856862426227 0 -0.0095562563243987014 -0.0017475106538194422 0 -0.009285316649617641 -0.0015891856862426227 0 -0.0091139545892133678 -0.0017934881815625404 0 -0.0095562563243987014 -0.0017475106538194422 0 -0.0094283151136549288 -0.0013715984539796331 0 -0.009285316649617641 -0.0015891856862426227 0 -0.0090429689986896485 -0.0014369545070649298 0 -0.009285316649617641 -0.0015891856862426227 0 -0.0090429689986896485 -0.0014369545070649298 0 -0.0091139545892133678 -0.0017934881815625404 0 -0.01105688643011821 -0.0029333761059193437 0 -0.0094883994927501183 -0.0015108896103066894 0 -0.011449353813351279 -0.00099238146763449327 0 -0.012651281287656066 -0.0025392128291061708 0 -0.010268859201459915 -0.0023823202335297327 0 -0.012173194493740625 -0.0040232844555773946 0 -0.012651281287656066 -0.0025392128291061708 0 -0.010268859201459915 -0.0023823202335297327 0 -0.0088132984004264652 -0.0008014682876117434 0 -0.0086951604205557521 -0.0013478025820749923 0 -0.0082823322808121599 -0.0011159978489057515 0 -0.0086665449615150776 -0.0015783312046048926 0 -0.0082031092391172435 -0.0017239282182816636 0 -0.0091139545892133678 -0.0017934881815625404 0 -0.0094283151136549288 -0.0013715984539796331 0 -0.0088132984004264652 -0.0008014682876117434 0 -0.0090429689986896485 -0.0014369545070649298 0 -0.0088132984004264652 -0.0008014682876117434 0 -0.0090429689986896485 -0.0014369545070649298 0 -0.0086951604205557521 -0.0013478025820749923 0 -0.0090429689986896485 -0.0014369545070649298 0 -0.0088709073535878855 -0.0015571359442334261 0 -0.0091139545892133678 -0.0017934881815625404 0 -0.0088709073535878855 -0.0015571359442334261 0 -0.0086665449615150776 -0.0015783312046048926 0 -0.0091139545892133678 -0.0017934881815625404 0 -0.0090429689986896485 -0.0014369545070649298 0 -0.0088709073535878855 -0.0015571359442334261 0 -0.0086951604205557521 -0.0013478025820749923 0 -0.0088709073535878855 -0.0015571359442334261 0 -0.0086665449615150776 -0.0015783312046048926 0 -0.0086951604205557521 -0.0013478025820749923 0 -0.0086665449615150776 -0.0015783312046048926 0 -0.0086951604205557521 -0.0013478025820749923 0 -0.0084373217902299312 -0.0014563583286039861 0 -0.0086951604205557521 -0.0013478025820749923 0 -0.0082823322808121599 -0.0011159978489057515 0 -0.0084373217902299312 -0.0014563583286039861 0 -0.0086665449615150776 -0.0015783312046048926 0 -0.0084373217902299312 -0.0014563583286039861 0 -0.0082031092391172435 -0.0017239282182816636 0 -0.0082823322808121599 -0.0011159978489057515 0 -0.0084373217902299312 -0.0014563583286039861 0 -0.0082031092391172435 -0.0017239282182816636 0 -0.0075881635152012881 -0.0011327162022676189 0 -0.0082823322808121599 -0.0011159978489057515 0 -0.0082031092391172435 -0.0017239282182816636 0 -0.0077330794733207163 -0.00072518413928654261 0 -0.0084128201010361496 -0.00032587222831553911 0 -0.0082823322808121599 -0.0011159978489057515 0 -0.0084128201010361496 -0.00032587222831553911 0 -0.0088132984004264652 -0.0008014682876117434 0 -0.0082823322808121599 -0.0011159978489057515 0 -0.0063425539977101106 0.00018912081959651447 0 -0.006450546784398113 0.00056323974010569395 0 -0.0068411161858976484 0.0006939526807290137 0 -0.0068807654011561609 0.00058601872125877037 0 -0.0068683078958306975 0.00068242955118784062 0 -0.0070281102127077617 0.00096932700508670978 0 -0.0074086219109631623 0.00092574816060172983 0 -0.0068411161858976484 0.0006939526807290137 0 -0.0063425539977101106 0.00018912081959651447 0 -0.006450546784398113 0.00056323974010569395 0 -0.0061006978012638872 0.00051276596326306392 0 -0.0059040689247136366 0.00016877532228123417 0 -0.0063425539977101106 0.00018912081959651447 0 -0.0061006978012638872 0.00051276596326306392 0 -0.0074086219109631623 0.00092574816060172983 0 -0.0075888448888410572 0.0015330642929876248 0 -0.0080445335971222401 0.0014606177316489675 0 -0.0059040689247136366 0.00016877532228123417 0 -0.0063425539977101106 0.00018912081959651447 0 -0.0058098919207115367 -0.0002265520666088219 0 -0.0068807654011561609 0.00058601872125877037 0 -0.0069261816765841576 0.00062165973585029356 0 -0.0070281102127077617 0.00096932700508670978 0 -0.0074086219109631623 0.00092574816060172983 0 -0.0075888448888410572 0.0015330642929876248 0 -0.017118137446332719 0.00017279096676299207 0 -0.018140518571046826 -0.00011958594896206752 0 -0.016836931382100715 -0.00039959048649913846 0 -0.012116057185249725 8.5625277973920362e-06 0 -0.012855259748271935 0.00067924515417900917 0 -0.017296639237122942 -0.0010255726289339735 0 -0.018140518571046826 -0.00011958594896206752 0 -0.016836931382100715 -0.00039959048649913846 0 -0.016836931382100715 -0.00039959048649913846 0 -0.015705075102326604 -0.00039369737258043627 0 -0.016563101927234959 -0.0012144595478871098 0 -0.016130239658685201 0.00020807676676702595 0 -0.016836931382100715 -0.00039959048649913846 0 -0.015705075102326604 -0.00039369737258043627 0 -0.014344532849521837 0.001134210319520717 0 -0.015649162989380183 -0.00033343120543197316 0 -0.015705075102326604 -0.00039369737258043627 0 -0.014717914687711896 -0.0020241349218003356 0 -0.016563101927234959 -0.0012144595478871098 0 -0.013457862854443451 5.3879315858700554e-05 0 -0.015705075102326604 -0.00039369737258043627 0 -0.014717914687711896 -0.0020241349218003356 0 -0.014717914687711896 -0.0020241349218003356 0 -0.016563101927234959 -0.0012144595478871098 0 -0.016384979414846259 -0.0025947836832531717 0 -0.017296639237122942 -0.0010255726289339735 0 -0.016563101927234959 -0.0012144595478871098 0 -0.016427077218469761 -0.0020588336768667926 0 -0.012116057185249725 8.5625277973920362e-06 0 -0.0122370937888745 -0.0011026054226989856 0 -0.017296639237122942 -0.0010255726289339735 0 -0.016836931382100715 -0.00039959048649913846 0 -0.016563101927234959 -0.0012144595478871098 0 -0.016087439550640334 -0.0015388427546239188 0 -0.0122370937888745 -0.0011026054226989856 0 -0.0070281102127077617 0.00096932700508670978 0 -0.0068027210900866953 0.00070383704626870568 0 -0.0068411161858976484 0.0006939526807290137 0 -0.0068027210900866953 0.00070383704626870568 0 -0.0067578487881414483 0.00083360508569176105 0 -0.0068411161858976484 0.0006939526807290137 0 -0.014717914687711896 -0.0020241349218003356 0 -0.016384979414846259 -0.0025947836832531717 0 -0.015218789483344134 -0.0040156219746167697 0 -0.013746582974628125 -0.0039299178707344392 0 -0.014717914687711896 -0.0020241349218003356 0 -0.015218789483344134 -0.0040156219746167697 0 -0.0122370937888745 -0.0011026054226989856 0 -0.012258059746999523 -0.0026592743189632769 0 -0.013746582974628125 -0.0039299178707344392 0 -0.015218789483344134 -0.0040156219746167697 0 -0.014013196017679648 -0.0054851336307764585 0 -0.0092862758977059132 -0.0010927698286681711 0 -0.0095288052383277859 -0.00129228905694475 0 -0.0092588448302450988 -0.0014097883132851085 0 -0.012258059746999523 -0.0026592743189632769 0 -0.010958809536154137 -0.0024221302109009063 0 -0.0092862758977059132 -0.0010927698286681711 0 -0.0092588448302450988 -0.0014097883132851085 0 -0.0089589711385238031 -0.0014920035229777416 0 -0.0096443302750433592 -0.00068716929093947375 0 -0.0092862758977059132 -0.0010927698286681711 0 -0.0095288052383277859 -0.00129228905694475 0 -0.0068027210900866953 0.00070383704626870568 0 -0.0067578487881414483 0.00083360508569176105 0 -0.0068161225210100649 0.00090571712611419255 0 -0.0122370937888745 -0.0011026054226989856 0 -0.0080308173971946808 0.00020453531468117843 0 -0.0067578487881414483 0.00083360508569176105 0 -0.0068161225210100649 0.00090571712611419255 0 -0.0067505514721668191 0.00094357345202969976 0 -0.0065825895764701041 0.00093311436925493877 0 -0.0065100376303691698 0.00084194102199178331 0 -0.0065350420883139139 0.00095825562445935497 0 -0.0066511564701835675 0.00090430637855596859 0 -0.0065825895764701041 0.00093311436925493877 0 -0.0065100376303691698 0.00084194102199178331 0 -0.0067578487881414483 0.00083360508569176105 0 -0.0066511564701835675 0.00090430637855596859 0 -0.0067505514721668191 0.00094357345202969976 0 -0.0066511564701835675 0.00090430637855596859 0 -0.0065825895764701041 0.00093311436925493877 0 -0.0066369938162705944 0.0009697830297594294 0 -0.0066511564701835675 0.00090430637855596859 0 -0.0066823465063528794 0.00083780769136300849 0 -0.0065100376303691698 0.00084194102199178331 0 -0.0067578487881414483 0.00083360508569176105 0 -0.0066511564701835675 0.00090430637855596859 0 -0.0066823465063528794 0.00083780769136300849 0 -0.0067578487881414483 0.00083360508569176105 0 -0.0066823465063528794 0.00083780769136300849 0 -0.0068411161858976484 0.0006939526807290137 0 -0.0066823465063528794 0.00083780769136300849 0 -0.0065100376303691698 0.00084194102199178331 0 -0.0068411161858976484 0.0006939526807290137 0 -0.0065100376303691698 0.00084194102199178331 0 -0.006450546784398113 0.00056323974010569395 0 -0.0068411161858976484 0.0006939526807290137 0 -0.0065100376303691698 0.00084194102199178331 0 -0.0061006978012638872 0.00051276596326306392 0 -0.0056493236897827859 0.00093807528744410055 0 -0.0065100376303691698 0.00084194102199178331 0 -0.006450546784398113 0.00056323974010569395 0 -0.0061006978012638872 0.00051276596326306392 0 -0.0045204954867786072 0.000312737095917814 0 -0.004445867295853786 0.00034734051104493799 0 -0.0044245818126031336 0.00035424873971071004 0 -0.0065100376303691698 0.00084194102199178331 0 -0.0056493236897827859 0.00093807528744410055 0 -0.0062949438351770706 0.0015055665252376427 0 -0.0049903285007444759 0.00061160677382845943 0 -0.00591298742332681 0.00080340919771801497 0 -0.0065467888976089746 0.00098410261187464139 0 -0.00591298742332681 0.00080340919771801497 0 -0.0045204954867786072 0.000312737095917814 0 -0.00446056429918307 0.00035799868525962362 0 -0.004445867295853786 0.00034734051104493799 0 -0.0044947204488369431 0.00034067881639386892 0 -0.0045204954867786072 0.000312737095917814 0 -0.00446056429918307 0.00035799868525962362 0 -0.0049903285007444759 0.00061160677382845943 0 -0.0048291728310063259 0.00027542132651201852 0 -0.0044947204488369431 0.00034067881639386892 0 -0.0045204954867786072 0.000312737095917814 0 -0.0045550878977515226 0.000134561697628725 0 -0.0044947204488369431 0.00034067881639386892 0 -0.0044623061524108922 0.00029136506672581923 0 -0.0045550878977515226 0.000134561697628725 0 -0.0061006978012638872 0.00051276596326306392 0 -0.0056493236897827859 0.00093807528744410055 0 -0.0056718876109264713 0.00039575381386263076 0 -0.0056493236897827859 0.00093807528744410055 0 -0.0056718876109264713 0.00039575381386263076 0 -0.0050808052226895117 0.00042979660776287071 0 -0.00433291946142377 0.00035894709669771454 0 -0.0044623061524108922 0.00029136506672581923 0 -0.0044381544453061033 0.00012748485295162396 0 -0.00433291946142377 0.00035894709669771454 0 -0.0044623061524108922 0.00029136506672581923 0 -0.0044452741568734196 0.00039763200797697485 0 -0.0044947204488369431 0.00034067881639386892 0 -0.0044623061524108922 0.00029136506672581923 0 -0.0044452741568734196 0.00039763200797697485 0 -0.0044623061524108922 0.00029136506672581923 0 -0.0044381544453061033 0.00012748485295162396 0 -0.0045550878977515226 0.000134561697628725 0 -0.00433291946142377 0.00035894709669771454 0 -0.0044381544453061033 0.00012748485295162396 0 -0.0041352083721232884 0.00017530164324247808 0 -0.0044381544453061033 0.00012748485295162396 0 -0.0045697927209253008 -9.8338859279427837e-05 0 -0.0043577223463235381 -0.00015745013115477606 0 -0.0045628671999955314 -7.4534992646487985e-05 0 -0.0048291728310063259 0.00027542132651201852 0 -0.0044381544453061033 0.00012748485295162396 0 -0.0045697927209253008 -9.8338859279427837e-05 0 -0.0045550878977515226 0.000134561697628725 0 -0.0045697927209253008 -9.8338859279427837e-05 0 -0.0051595905252386116 -7.6195280785698333e-05 0 -0.0050559616156210969 -0.00033868136000690457 0 -0.0045697927209253008 -9.8338859279427837e-05 0 -0.0050808052226895117 0.00042979660776287071 0 -0.0051595905252386116 -7.6195280785698333e-05 0 -0.0045697927209253008 -9.8338859279427837e-05 0 -0.0044627006635349709 -0.00036126726826652696 0 -0.0043577223463235381 -0.00015745013115477606 0 -0.0056718876109264713 0.00039575381386263076 0 -0.0050808052226895117 0.00042979660776287071 0 -0.0055365881204582973 4.005606769924558e-05 0 -0.0059040689247136366 0.00016877532228123417 0 -0.0056718876109264713 0.00039575381386263076 0 -0.0055365881204582973 4.005606769924558e-05 0 -0.0059040689247136366 0.00016877532228123417 0 -0.0061006978012638872 0.00051276596326306392 0 -0.0056718876109264713 0.00039575381386263076 0 -0.0050808052226895117 0.00042979660776287071 0 -0.0051595905252386116 -7.6195280785698333e-05 0 -0.0055365881204582973 4.005606769924558e-05 0 -0.0051595905252386116 -7.6195280785698333e-05 0 -0.0053733909037253329 -0.00023502183355965264 0 -0.0050559616156210969 -0.00033868136000690457 0 -0.0051595905252386116 -7.6195280785698333e-05 0 -0.0053733909037253329 -0.00023502183355965264 0 -0.0055365881204582973 4.005606769924558e-05 0 -0.0053733909037253329 -0.00023502183355965264 0 -0.0055365881204582973 4.005606769924558e-05 0 -0.0058098919207115367 -0.0002265520666088219 0 -0.0059040689247136366 0.00016877532228123417 0 -0.0055365881204582973 4.005606769924558e-05 0 -0.0058098919207115367 -0.0002265520666088219 0 -0.0053733909037253329 -0.00023502183355965264 0 -0.0058098919207115367 -0.0002265520666088219 0 -0.005335528661329564 -0.00053466762258579006 0 -0.0080445335971222401 0.0014606177316489675 0 -0.0086006017310505858 0.0020248916510500754 0 -0.0081748838664986914 0.0021161093927502426 0 -0.0069261816765841576 0.00062165973585029356 0 -0.0069978759655115672 0.00079414442477259578 0 -0.0086006017310505858 0.0020248916510500754 0 -0.0081748838664986914 0.0021161093927502426 0 -0.0086804550072645901 0.0026588919533985732 0 -0.018709541044023028 0.0013431737746810047 0 -0.018914938734631917 0.00069807711838902945 0 -0.019177620649849948 0.0014388904159239474 0 -0.018914938734631917 0.00069807711838902945 0 -0.019177620649849948 0.0014388904159239474 0 -0.019494259312371941 0.0013565830867159627 0 -0.013588253361828189 0.0015396623627980791 0 -0.014071541056404523 0.0011850591001383861 0 -0.0086006017310505858 0.0020248916510500754 0 -0.0086804550072645901 0.0026588919533985732 0 -0.0090803252644553207 0.0025505142741910577 0 -0.005335528661329564 -0.00053466762258579006 0 -0.0050382073134309065 -0.00052710979003725371 0 -0.0049825484298529083 -0.00077269552339986306 0 -0.0069978759655115672 0.00079414442477259578 0 -0.0069851374841436694 0.00064083318769120475 0 -0.005335528661329564 -0.00053466762258579006 0 -0.0050382073134309065 -0.00052710979003725371 0 -0.0050559616156210969 -0.00033868136000690457 0 -0.0053733909037253329 -0.00023502183355965264 0 -0.005335528661329564 -0.00053466762258579006 0 -0.0050559616156210969 -0.00033868136000690457 0 -0.0045697927209253008 -9.8338859279427837e-05 0 -0.0050559616156210969 -0.00033868136000690457 0 -0.0047824018841773567 -0.00045705426434666986 0 -0.0050382073134309065 -0.00052710979003725371 0 -0.0050559616156210969 -0.00033868136000690457 0 -0.0047824018841773567 -0.00045705426434666986 0 -0.0045697927209253008 -9.8338859279427837e-05 0 -0.0047824018841773567 -0.00045705426434666986 0 -0.0044627006635349709 -0.00036126726826652696 0 -0.0047824018841773567 -0.00045705426434666986 0 -0.0044627006635349709 -0.00036126726826652696 0 -0.004586331178280674 -0.00055961646172509206 0 -0.0044627006635349709 -0.00036126726826652696 0 -0.004586331178280674 -0.00055961646172509206 0 -0.0044474642530850155 -0.0001876295587366481 0 -0.0059380869714822709 -0.00024425781183780141 0 -0.0069851374841436694 0.00064083318769120475 0 -0.0050382073134309065 -0.00052710979003725371 0 -0.0047824018841773567 -0.00045705426434666986 0 -0.0049825484298529083 -0.00077269552339986306 0 -0.0047824018841773567 -0.00045705426434666986 0 -0.004586331178280674 -0.00055961646172509206 0 -0.0049825484298529083 -0.00077269552339986306 0 -0.0078919344106391197 -0.00015124764446428364 0 -0.0069851374841436694 0.00064083318769120475 0 -0.0078087032416355572 -0.00036799937134215292 0 -0.0081422105598626844 -0.00087508198702199061 0 -0.0083363456515556655 0.00022415413049931839 0 -0.0073641421421507683 0.00019370005722415892 0 -0.0078087032416355572 -0.00036799937134215292 0 -0.0081458336878413324 4.3814568026057015e-05 0 -0.0073641421421507683 0.00019370005722415892 0 -0.0071807843664408464 -0.00043143604714351538 0 -0.0065805961418751056 -0.00023101059630907213 0 -0.0073641421421507683 0.00019370005722415892 0 -0.0078087032416355572 -0.00036799937134215292 0 -0.0071807843664408464 -0.00043143604714351538 0 -0.0071807843664408464 -0.00043143604714351538 0 -0.0074118482205942577 -0.00093098356871251569 0 -0.0067434805985616773 -0.00075448591647973894 0 -0.0078087032416355572 -0.00036799937134215292 0 -0.0071807843664408464 -0.00043143604714351538 0 -0.0074118482205942577 -0.00093098356871251569 0 -0.0070207901023970612 -0.0010854920489245473 0 -0.0074118482205942577 -0.00093098356871251569 0 -0.0067434805985616773 -0.00075448591647973894 0 -0.0078087032416355572 -0.00036799937134215292 0 -0.0074118482205942577 -0.00093098356871251569 0 -0.0081422105598626844 -0.00087508198702199061 0 -0.020197051905253054 0.0017055469074344248 0 -0.019684575245754104 0.0019342198117052185 0 -0.019502085387880605 0.0016699322170613681 0 -0.019406060114926633 0.0022550990496989286 0 -0.019684575245754104 0.0019342198117052185 0 -0.019244549269565401 0.0019048307524846047 0 -0.019406060114926633 0.0022550990496989286 0 -0.01895116464470575 0.0020260891685986897 0 -0.019244549269565401 0.0019048307524846047 0 -0.01895116464470575 0.0020260891685986897 0 -0.018889843477433565 0.0017563519647455757 0 -0.019244549269565401 0.0019048307524846047 0 -0.018889843477433565 0.0017563519647455757 0 -0.019244549269565401 0.0019048307524846047 0 -0.019183634990208372 0.0016933376244107905 0 -0.019684575245754104 0.0019342198117052185 0 -0.019244549269565401 0.0019048307524846047 0 -0.019502085387880605 0.0016699322170613681 0 -0.019244549269565401 0.0019048307524846047 0 -0.019502085387880605 0.0016699322170613681 0 -0.019183634990208372 0.0016933376244107905 0 -0.019502085387880605 0.0016699322170613681 0 -0.019183634990208372 0.0016933376244107905 0 -0.019177620649849948 0.0014388904159239474 0 -0.019502085387880605 0.0016699322170613681 0 -0.019177620649849948 0.0014388904159239474 0 -0.019510293303590973 0.00131829911131147 0 -0.018889843477433565 0.0017563519647455757 0 -0.019183634990208372 0.0016933376244107905 0 -0.019177620649849948 0.0014388904159239474 0 -0.018889843477433565 0.0017563519647455757 0 -0.018709541044023028 0.0013431737746810047 0 -0.019177620649849948 0.0014388904159239474 0 -0.019563189042297025 0.00074376518020693603 0 -0.014071541056404523 0.0011850591001383861 0 -0.020197051905253054 0.0017055469074344248 0 -0.019502085387880605 0.0016699322170613681 0 -0.019510293303590973 0.00131829911131147 0 -0.014196598885129587 0.00034434639065218713 0 -0.014071541056404523 0.0011850591001383861 0 -0.0081422105598626844 -0.00087508198702199061 0 -0.0090168831559451715 8.3721643942697823e-05 0 -0.0083363456515556655 0.00022415413049931839 0 -0.014071541056404523 0.0011850591001383861 0 -0.0069851374841436694 0.00064083318769120475 0 -0.0057833003161249412 -0.00028121066276330203 0 -0.005617562860518701 -0.00031981226613335965 0 -0.0057597761827867982 -0.00050936406224794117 0 -0.0057833003161249412 -0.00028121066276330203 0 -0.0057342032440965947 -5.7141257914590672e-05 0 -0.0056321142697665603 -0.00018144833674927277 0 -0.0057833003161249412 -0.00028121066276330203 0 -0.005617562860518701 -0.00031981226613335965 0 -0.0056321142697665603 -0.00018144833674927277 0 -0.005617562860518701 -0.00031981226613335965 0 -0.0056321142697665603 -0.00018144833674927277 0 -0.0055716865172248768 -0.00017729074562772038 0 -0.005519880088327129 -0.00028122834797441058 0 -0.005617562860518701 -0.00031981226613335965 0 -0.0055716865172248768 -0.00017729074562772038 0 -0.005519880088327129 -0.00028122834797441058 0 -0.005617562860518701 -0.00031981226613335965 0 -0.005619330544063752 -0.00050679244783398338 0 -0.005519880088327129 -0.00028122834797441058 0 -0.0055507166058864901 -0.00015884059420252677 0 -0.0055716865172248768 -0.00017729074562772038 0 -0.0091736182952554257 1.3959035407974353e-05 0 -0.009320087855691354 0.0010370016181083803 0 -0.0085801526162154976 0.00058510537042386155 0 -0.011856807825512116 0.00098501710742534003 0 -0.0086080214890131273 -9.9151700810018253e-05 0 -0.0072255773698331922 -9.051097562875961e-05 0 -0.0086080214890131273 -9.9151700810018253e-05 0 -0.0059527342338261315 -0.0014031199297552862 0 -0.0053332237954791207 -0.00078453876668655191 0 -0.0057597761827867982 -0.00050936406224794117 0 -0.005617562860518701 -0.00031981226613335965 0 -0.005619330544063752 -0.00050679244783398338 0 -0.0057597761827867982 -0.00050936406224794117 0 -0.0086080214890131273 -9.9151700810018253e-05 0 -0.005070810625226841 -0.0010577441099293209 0 -0.0057597761827867982 -0.00050936406224794117 0 -0.0063768384124390501 -0.00097460889350924843 0 -0.0061783692227013231 -0.00051035675855920775 0 -0.0059527342338261315 -0.0014031199297552862 0 -0.0057597761827867982 -0.00050936406224794117 0 -0.0063768384124390501 -0.00097460889350924843 0 -0.0070207901023970612 -0.0010854920489245473 0 -0.0063768384124390501 -0.00097460889350924843 0 -0.0067434805985616773 -0.00075448591647973894 0 -0.0063768384124390501 -0.00097460889350924843 0 -0.0067434805985616773 -0.00075448591647973894 0 -0.0061783692227013231 -0.00051035675855920775 0 -0.0067434805985616773 -0.00075448591647973894 0 -0.0065805961418751056 -0.00023101059630907213 0 -0.0061783692227013231 -0.00051035675855920775 0 -0.0071807843664408464 -0.00043143604714351538 0 -0.0067434805985616773 -0.00075448591647973894 0 -0.0065805961418751056 -0.00023101059630907213 0 -0.0057833003161249412 -0.00028121066276330203 0 -0.0061783692227013231 -0.00051035675855920775 0 -0.0060504395245985342 -0.00022112286980633934 0 -0.0057833003161249412 -0.00028121066276330203 0 -0.0057597761827867982 -0.00050936406224794117 0 -0.0061783692227013231 -0.00051035675855920775 0 -0.0065805961418751056 -0.00023101059630907213 0 -0.0061783692227013231 -0.00051035675855920775 0 -0.0060504395245985342 -0.00022112286980633934 0 -0.0065805961418751056 -0.00023101059630907213 0 -0.0060504395245985342 -0.00022112286980633934 0 -0.0060667847610849888 -2.186545763387125e-05 0 -0.0057833003161249412 -0.00028121066276330203 0 -0.0060504395245985342 -0.00022112286980633934 0 -0.0057342032440965947 -5.7141257914590672e-05 0 -0.0060667847610849888 -2.186545763387125e-05 0 -0.0064980655424022272 0.00027017338274552095 0 -0.0055124429787954034 3.21226288444654e-05 0 -0.0060504395245985342 -0.00022112286980633934 0 -0.0057342032440965947 -5.7141257914590672e-05 0 -0.0060667847610849888 -2.186545763387125e-05 0 -0.0044474642530850155 -0.0001876295587366481 0 -0.0052913124143345799 -0.00027271608699671099 0 -0.0055124429787954034 3.21226288444654e-05 0 -0.0055409915638064532 1.7457803685854838e-05 0 -0.0055535207987847165 2.3415429929731771e-05 0 -0.0057342032440965947 -5.7141257914590672e-05 0 -0.0060667847610849888 -2.186545763387125e-05 0 -0.0055124429787954034 3.21226288444654e-05 0 -0.0059380869714822709 -0.00024425781183780141 0 -0.0055409915638064532 1.7457803685854838e-05 0 -0.0073641421421507683 0.00019370005722415892 0 -0.0065805961418751056 -0.00023101059630907213 0 -0.0064980655424022272 0.00027017338274552095 0 -0.0065805961418751056 -0.00023101059630907213 0 -0.0060667847610849888 -2.186545763387125e-05 0 -0.0064980655424022272 0.00027017338274552095 0 -0.0044627006635349709 -0.00036126726826652696 0 -0.0044474642530850155 -0.0001876295587366481 0 -0.0044510083068242225 -0.00048430230550041163 0 -0.0044510083068242225 -0.00048430230550041163 0 -0.0052913124143345799 -0.00027271608699671099 0 -0.0056003763239882935 -0.00052206699765559807 0 -0.0044530154984083348 -0.00049964797986557321 0 -0.00468562255831898 -0.00053450819581490894 0 -0.0044474642530850155 -0.0001876295587366481 0 -0.0044510083068242225 -0.00048430230550041163 0 -0.0052913124143345799 -0.00027271608699671099 0 -0.0052913124143345799 -0.00027271608699671099 0 -0.0056003763239882935 -0.00052206699765559807 0 -0.0056137290041477009 -0.00031459191385891787 0 -0.0056003763239882935 -0.00052206699765559807 0 -0.005832891635847175 -0.00035786533246054999 0 -0.0056137290041477009 -0.00031459191385891787 0 -0.005832891635847175 -0.00035786533246054999 0 -0.0056137290041477009 -0.00031459191385891787 0 -0.0056184608746224192 -9.7057432020180822e-05 0 -0.0052913124143345799 -0.00027271608699671099 0 -0.0056137290041477009 -0.00031459191385891787 0 -0.0056184608746224192 -9.7057432020180822e-05 0 -0.0052913124143345799 -0.00027271608699671099 0 -0.0056184608746224192 -9.7057432020180822e-05 0 -0.0055124429787954034 3.21226288444654e-05 0 -0.0057342032440965947 -5.7141257914590672e-05 0 -0.0056119289509599509 -3.2519465061600827e-05 0 -0.0056260320289016948 -7.8247573125195765e-05 0 -0.0057342032440965947 -5.7141257914590672e-05 0 -0.0055124429787954034 3.21226288444654e-05 0 -0.0056119289509599509 -3.2519465061600827e-05 0 -0.0056184608746224192 -9.7057432020180822e-05 0 -0.0055124429787954034 3.21226288444654e-05 0 -0.0056119289509599509 -3.2519465061600827e-05 0 -0.0056184608746224192 -9.7057432020180822e-05 0 -0.0056119289509599509 -3.2519465061600827e-05 0 -0.0056008697004646963 -0.00010227426929749553 0 -0.0056119289509599509 -3.2519465061600827e-05 0 -0.0056008697004646963 -0.00010227426929749553 0 -0.0056260320289016948 -7.8247573125195765e-05 0 -0.0056008697004646963 -0.00010227426929749553 0 -0.0056260320289016948 -7.8247573125195765e-05 0 -0.0056064851062090706 -0.00011644709656516817 0 -0.0056260320289016948 -7.8247573125195765e-05 0 -0.0056321142697665603 -0.00018144833674927277 0 -0.0056064851062090706 -0.00011644709656516817 0 -0.0057342032440965947 -5.7141257914590672e-05 0 -0.0056260320289016948 -7.8247573125195765e-05 0 -0.0056321142697665603 -0.00018144833674927277 0 -0.0055507166058864901 -0.00015884059420252677 0 -0.0055716865172248768 -0.00017729074562772038 0 -0.0055655974170285621 -0.00012365799736924939 0 -0.0056321142697665603 -0.00018144833674927277 0 -0.0056064851062090706 -0.00011644709656516817 0 -0.0055716865172248768 -0.00017729074562772038 0 -0.0056064851062090706 -0.00011644709656516817 0 -0.0055716865172248768 -0.00017729074562772038 0 -0.0055831244269671319 -0.00012202078160313359 0 -0.0056008697004646963 -0.00010227426929749553 0 -0.0055831244269671319 -0.00012202078160313359 0 -0.0055672432664575239 -0.00011930990744013741 0 -0.0056008697004646963 -0.00010227426929749553 0 -0.0056064851062090706 -0.00011644709656516817 0 -0.0055831244269671319 -0.00012202078160313359 0 -0.0055716865172248768 -0.00017729074562772038 0 -0.0055831244269671319 -0.00012202078160313359 0 -0.0055655974170285621 -0.00012365799736924939 0 -0.0055831244269671319 -0.00012202078160313359 0 -0.0055655974170285621 -0.00012365799736924939 0 -0.0055672432664575239 -0.00011930990744013741 0 -0.00468562255831898 -0.00053450819581490894 0 -0.0045779014714244582 -0.00049623365084602692 0 -0.0055730583497263456 -0.00012119674949543713 0 -0.0055655974170285621 -0.00012365799736924939 0 -0.0055672432664575239 -0.00011930990744013741 0 -0.0056184608746224192 -9.7057432020180822e-05 0 -0.0056008697004646963 -0.00010227426929749553 0 -0.0055494074124804518 -0.0001299836614636975 0 -0.0056003763239882935 -0.00052206699765559807 0 -0.005832891635847175 -0.00035786533246054999 0 -0.0061049404658152315 -0.00043704377054376489 0 -0.0055596353390380106 -0.00010541075426457501 0 -0.0059928148865432025 -0.00027780556743349911 0 -0.005832891635847175 -0.00035786533246054999 0 -0.0056184608746224192 -9.7057432020180822e-05 0 -0.0061098496311169622 -0.00038383018472792197 0 -0.0055730583497263456 -0.00012119674949543713 0 -0.0055672432664575239 -0.00011930990744013741 0 -0.0055494074124804518 -0.0001299836614636975 0 -0.0056008697004646963 -0.00010227426929749553 0 -0.0055672432664575239 -0.00011930990744013741 0 -0.0055494074124804518 -0.0001299836614636975 0 -0.005832891635847175 -0.00035786533246054999 0 -0.0061049404658152315 -0.00043704377054376489 0 -0.0061098496311169622 -0.00038383018472792197 0 -0.0037572668234048647 -0.00057801098795225582 0 -0.0032945751211747964 -0.00054122392234061238 0 -0.0035073104704772301 -0.00041151927166355591 0 -0.003077955285751984 -0.00031966795836830191 0 -0.0032945751211747964 -0.00054122392234061238 0 -0.0033131721368115682 -0.00030356813665441862 0 -0.0033131721368115682 -0.00030356813665441862 0 -0.0035073104704772301 -0.00041151927166355591 0 -0.0035192761899437057 -0.00026015760951516844 0 -0.0032945751211747964 -0.00054122392234061238 0 -0.0033131721368115682 -0.00030356813665441862 0 -0.0035073104704772301 -0.00041151927166355591 0 -0.0037572668234048647 -0.00057801098795225582 0 -0.0035073104704772301 -0.00041151927166355591 0 -0.0036657454396670773 -0.00039142175179514342 0 -0.0037572668234048647 -0.00057801098795225582 0 -0.0036657454396670773 -0.00039142175179514342 0 -0.003849385712398862 -0.00025662586877005613 0 -0.0036657454396670773 -0.00039142175179514342 0 -0.003849385712398862 -0.00025662586877005613 0 -0.0035192761899437057 -0.00026015760951516844 0 -0.0035073104704772301 -0.00041151927166355591 0 -0.0036657454396670773 -0.00039142175179514342 0 -0.0035192761899437057 -0.00026015760951516844 0 -0.0035192761899437057 -0.00026015760951516844 0 -0.0036772697101598328 -7.0876025116684927e-05 0 -0.0033824478256169986 -8.4839375810988291e-05 0 -0.003849385712398862 -0.00025662586877005613 0 -0.0035192761899437057 -0.00026015760951516844 0 -0.0036772697101598328 -7.0876025116684927e-05 0 -0.0036772697101598328 -7.0876025116684927e-05 0 -0.0033824478256169986 -8.4839375810988291e-05 0 -0.003460229576173591 9.7311065814029293e-05 0 -0.0031722453761509279 -0.00014606681175361298 0 -0.0031489331282344643 0.00010874080981929626 0 -0.0033824478256169986 -8.4839375810988291e-05 0 -0.0031722453761509279 -0.00014606681175361298 0 -0.0033131721368115682 -0.00030356813665441862 0 -0.0033824478256169986 -8.4839375810988291e-05 0 -0.0033131721368115682 -0.00030356813665441862 0 -0.0035192761899437057 -0.00026015760951516844 0 -0.0033824478256169986 -8.4839375810988291e-05 0 -0.0043577223463235381 -0.00015745013115477606 0 -0.00417362666781332 -0.00026806145617629281 0 -0.0040409769628974431 -7.4397833474102302e-05 0 -0.0044510083068242225 -0.00048430230550041163 0 -0.0043577223463235381 -0.00015745013115477606 0 -0.00417362666781332 -0.00026806145617629281 0 -0.0044627006635349709 -0.00036126726826652696 0 -0.0044510083068242225 -0.00048430230550041163 0 -0.0043577223463235381 -0.00015745013115477606 0 -0.0044510083068242225 -0.00048430230550041163 0 -0.0037572668234048647 -0.00057801098795225582 0 -0.00417362666781332 -0.00026806145617629281 0 -0.0037572668234048647 -0.00057801098795225582 0 -0.003849385712398862 -0.00025662586877005613 0 -0.00417362666781332 -0.00026806145617629281 0 -0.003849385712398862 -0.00025662586877005613 0 -0.00417362666781332 -0.00026806145617629281 0 -0.0040409769628974431 -7.4397833474102302e-05 0 -0.003849385712398862 -0.00025662586877005613 0 -0.0036772697101598328 -7.0876025116684927e-05 0 -0.0040409769628974431 -7.4397833474102302e-05 0 -0.0036772697101598328 -7.0876025116684927e-05 0 -0.0040409769628974431 -7.4397833474102302e-05 0 -0.0038089941936683652 0.00012419614688274482 0 -0.0043577223463235381 -0.00015745013115477606 0 -0.0040409769628974431 -7.4397833474102302e-05 0 -0.0041352083721232884 0.00017530164324247808 0 -0.0044381544453061033 0.00012748485295162396 0 -0.0043577223463235381 -0.00015745013115477606 0 -0.0041352083721232884 0.00017530164324247808 0 -0.0041352083721232884 0.00017530164324247808 0 -0.0038089941936683652 0.00012419614688274482 0 -0.0037569372453050334 0.00037300299781663611 0 -0.0040409769628974431 -7.4397833474102302e-05 0 -0.0041352083721232884 0.00017530164324247808 0 -0.0038089941936683652 0.00012419614688274482 0 -0.0041352083721232884 0.00017530164324247808 0 -0.0037569372453050334 0.00037300299781663611 0 -0.0041160197873053245 0.00045147631551701006 0 -0.00433291946142377 0.00035894709669771454 0 -0.0041352083721232884 0.00017530164324247808 0 -0.0041160197873053245 0.00045147631551701006 0 -0.0031489331282344643 0.00010874080981929626 0 -0.0033824478256169986 -8.4839375810988291e-05 0 -0.003460229576173591 9.7311065814029293e-05 0 -0.0031489331282344643 0.00010874080981929626 0 -0.003460229576173591 9.7311065814029293e-05 0 -0.0033178824357888324 0.00037895864581121227 0 -0.0038089941936683652 0.00012419614688274482 0 -0.003460229576173591 9.7311065814029293e-05 0 -0.0033178824357888324 0.00037895864581121227 0 -0.0036772697101598328 -7.0876025116684927e-05 0 -0.0038089941936683652 0.00012419614688274482 0 -0.003460229576173591 9.7311065814029293e-05 0 -0.0038089941936683652 0.00012419614688274482 0 -0.0037569372453050334 0.00037300299781663611 0 -0.0033178824357888324 0.00037895864581121227 0 -0.0033178824357888324 0.00037895864581121227 0 -0.0031673928164991988 0.00071444911342626179 0 -0.0029821863016992987 0.00068338444958257721 0 -0.0037569372453050334 0.00037300299781663611 0 -0.0031673928164991988 0.00071444911342626179 0 -0.0039088380413200945 0.00074391307275993893 0 -0.0037569372453050334 0.00037300299781663611 0 -0.0033178824357888324 0.00037895864581121227 0 -0.0031673928164991988 0.00071444911342626179 0 -0.003178412579521007 0.00071897679907604575 0 -0.0033901358774820205 0.00071413360042455604 0 -0.0031673928164991988 0.00071444911342626179 0 -0.0029743711417033612 0.0006893014469353001 0 -0.0028826306341607748 0.00071327484243637854 0 -0.0031673928164991988 0.00071444911342626179 0 -0.0029475319179266407 0.00074900908732666133 0 -0.0029821863016992987 0.00068338444958257721 0 -0.0031673928164991988 0.00071444911342626179 0 -0.0029743711417033612 0.0006893014469353001 0 -0.0029475319179266407 0.00074900908732666133 0 -0.0041160197873053245 0.00045147631551701006 0 -0.0039088380413200945 0.00074391307275993893 0 -0.0043346057989338046 0.00058527768788053296 0 -0.0037569372453050334 0.00037300299781663611 0 -0.0041160197873053245 0.00045147631551701006 0 -0.0039088380413200945 0.00074391307275993893 0 -0.0029743711417033612 0.0006893014469353001 0 -0.0028826306341607748 0.00071327484243637854 0 -0.0029023917556863371 0.00066876556305631607 0 -0.0028826306341607748 0.00071327484243637854 0 -0.0028428867894033155 0.00064039395855361653 0 -0.0029023917556863371 0.00066876556305631607 0 -0.0033901358774820205 0.00071413360042455604 0 -0.0035711190149642401 0.00055716520606874799 0 -0.0028826306341607748 0.00071327484243637854 0 -0.0028428867894033155 0.00064039395855361653 0 -0.0027959570383207831 0.00053584953643806674 0 -0.0028428867894033155 0.00064039395855361653 0 -0.0029023917556863371 0.00066876556305631607 0 -0.0028863356687177286 0.0006533145731050131 0 -0.0029023917556863371 0.00066876556305631607 0 -0.0028794310091273829 0.00072180478306827379 0 -0.0028863356687177286 0.0006533145731050131 0 -0.0020952472362448121 0.0012185912176466175 0 -0.0024194352465348851 0.00084425986382616455 0 -0.001260843723647214 0.0015372917978429214 0 -0.0019295615617836714 0.0010046158484572187 0 -0.0014784275369882681 0.0016771635319752017 0 -0.0028794310091273829 0.00072180478306827379 0 -0.002960248331493514 0.00086194556483178684 0 -0.0028863356687177286 0.0006533145731050131 0 -0.0019295615617836714 0.0010046158484572187 0 -0.0018935638311884738 0.0016786012740504304 0 -0.0022550533605298403 0.0013811457807689606 0 -0.0029743711417033612 0.0006893014469353001 0 -0.0029475319179266407 0.00074900908732666133 0 -0.0028521713970091063 0.00073769387195699368 0 -0.0029743711417033612 0.0006893014469353001 0 -0.0029023917556863371 0.00066876556305631607 0 -0.0028521713970091063 0.00073769387195699368 0 -0.0029023917556863371 0.00066876556305631607 0 -0.0028794310091273829 0.00072180478306827379 0 -0.0028521713970091063 0.00073769387195699368 0 -0.0028521713970091063 0.00073769387195699368 0 -0.0027630415785876244 0.00077203273362844464 0 -0.0028320568948409387 0.00077774333455406567 0 -0.0028794310091273829 0.00072180478306827379 0 -0.0028521713970091063 0.00073769387195699368 0 -0.0027630415785876244 0.00077203273362844464 0 -0.0028794310091273829 0.00072180478306827379 0 -0.0027630415785876244 0.00077203273362844464 0 -0.002628092095062371 0.00080778597764579352 0 -0.0028794310091273829 0.00072180478306827379 0 -0.002960248331493514 0.00086194556483178684 0 -0.002628092095062371 0.00080778597764579352 0 -0.0027630415785876244 0.00077203273362844464 0 -0.002628092095062371 0.00080778597764579352 0 -0.0028320568948409387 0.00077774333455406567 0 -0.0028320568948409387 0.00077774333455406567 0 -0.0028894344614302692 0.00071589648732311236 0 -0.0029019137061540141 0.00076280949790925856 0 -0.0029475319179266407 0.00074900908732666133 0 -0.0028320568948409387 0.00077774333455406567 0 -0.0029019137061540141 0.00076280949790925856 0 -0.0029475319179266407 0.00074900908732666133 0 -0.0028521713970091063 0.00073769387195699368 0 -0.0028320568948409387 0.00077774333455406567 0 -0.002628092095062371 0.00080778597764579352 0 -0.0028320568948409387 0.00077774333455406567 0 -0.0028894344614302692 0.00071589648732311236 0 -0.0025520341730484084 0.00085443896264625254 0 -0.00222024757934884 0.0012102739477789705 0 -0.002628092095062371 0.00080778597764579352 0 -0.0011781225527246937 0.0017093380131860173 0 -0.0014262917426386319 0.0018821032512175405 0 -0.0011781225527246937 0.0017093380131860173 0 -0.0014262917426386319 0.0018821032512175405 0 -0.0013187144088163056 0.0018398856581948479 0 -0.0014262917426386319 0.0018821032512175405 0 -0.0012571025258648638 0.001869585260544368 0 -0.0013187144088163056 0.0018398856581948479 0 -0.0014262917426386319 0.0018821032512175405 0 -0.0012571025258648638 0.001869585260544368 0 -0.0011988453860990959 0.0018900432725786937 0 -0.0012571025258648638 0.001869585260544368 0 -0.0014161727831680578 0.0017791858368744456 0 -0.0013187144088163056 0.0018398856581948479 0 -0.0011988453860990959 0.0018900432725786937 0 -0.0012008571330533995 0.0018354219743628266 0 -0.00089817012175572074 0.002048897023164404 0 -0.0014262917426386319 0.0018821032512175405 0 -0.0011988453860990959 0.0018900432725786937 0 -0.0012008571330533995 0.0018354219743628266 0 -0.0012571025258648638 0.001869585260544368 0 -0.0011988453860990959 0.0018900432725786937 0 -0.00089817012175572074 0.002048897023164404 0 -0.0020952472362448121 0.0012185912176466175 0 -0.0014723953520607278 0.0018051263628177108 0 -0.0014262917426386319 0.0018821032512175405 0 -0.0012008571330533995 0.0018354219743628266 0 -0.0012667891423805981 0.001730046706467477 0 -0.001260843723647214 0.0015372917978429214 0 -0.0014262917426386319 0.0018821032512175405 0 -0.0012667891423805981 0.001730046706467477 0 -0.002960248331493514 0.00086194556483178684 0 -0.002628092095062371 0.00080778597764579352 0 -0.0014262917426386319 0.0018821032512175405 0 -0.001260843723647214 0.0015372917978429214 0 -0.0012667891423805981 0.001730046706467477 0 -0.0014784275369882681 0.0016771635319752017 0 -0.0014784275369882681 0.0016771635319752017 0 -0.0018935638311884738 0.0016786012740504304 0 -0.0014413210823428506 0.0018689109123612082 0 -0.0012667891423805981 0.001730046706467477 0 -0.0014784275369882681 0.0016771635319752017 0 -0.0014413210823428506 0.0018689109123612082 0 -0.0019295615617836714 0.0010046158484572187 0 -0.0014784275369882681 0.0016771635319752017 0 -0.0018935638311884738 0.0016786012740504304 0 -0.0018935638311884738 0.0016786012740504304 0 -0.0018317386046956437 0.0019393442506037617 0 -0.0022548294890942897 0.0019696946691286099 0 -0.0018935638311884738 0.0016786012740504304 0 -0.0018317386046956437 0.0019393442506037617 0 -0.0014413210823428506 0.0018689109123612082 0 -0.0018317386046956437 0.0019393442506037617 0 -0.0014413210823428506 0.0018689109123612082 0 -0.0017294171325568204 0.0022299637656239798 0 -0.0018317386046956437 0.0019393442506037617 0 -0.0017294171325568204 0.0022299637656239798 0 -0.0022548294890942897 0.0019696946691286099 0 -0.0012008571330533995 0.0018354219743628266 0 -0.0014413210823428506 0.0018689109123612082 0 -0.00089817012175572074 0.002048897023164404 0 -0.0014413210823428506 0.0018689109123612082 0 -0.0017294171325568204 0.0022299637656239798 0 -0.00089817012175572074 0.002048897023164404 0 -0.0012008571330533995 0.0018354219743628266 0 -0.0012667891423805981 0.001730046706467477 0 -0.0014413210823428506 0.0018689109123612082 0 -0.00014913383223341136 0.0021379655845100236 0 -0.00083540804164960222 0.0021043584185223029 0 -0.0017294171325568204 0.0022299637656239798 0 -0.0017388263944928294 0.0023014176805031279 0 -0.00089817012175572074 0.002048897023164404 0 0.0014483365323017254 0.0021308332386066244 0 0.00042027056544606474 0.0012719021825980334 0 -0.00089817012175572074 0.002048897023164404 0 0.0014483365323017254 0.0021308332386066244 0 0.0015623054612571533 0.0013799674262283128 0 0.0022861316990310868 0.0013374739732149117 0 0.0014483365323017254 0.0021308332386066244 0 0.0015623054612571533 0.0013799674262283128 0 0.00042027056544606474 0.0012719021825980334 0 0.0015623054612571533 0.0013799674262283128 0 0.00042027056544606474 0.0012719021825980334 0 0.0015621357610044735 0.00071232704076810407 0 0.0015623054612571533 0.0013799674262283128 0 0.0022861316990310868 0.0013374739732149117 0 0.0015621357610044735 0.00071232704076810407 0 0.00042027056544606474 0.0012719021825980334 0 -0.00074480931618716622 0.0010694461756944023 0 0.00013768989879281998 0.00026669587984277162 0 0.00042027056544606474 0.0012719021825980334 0 0.00013768989879281998 0.00026669587984277162 0 0.0015621357610044735 0.00071232704076810407 0 0.00042027056544606474 0.0012719021825980334 0 -0.00074480931618716622 0.0010694461756944023 0 -0.00089817012175572074 0.002048897023164404 0 -0.00074480931618716622 0.0010694461756944023 0 -0.0013361010792243833 0.0015574865747688352 0 -0.001258230424602235 0.00081936246959718386 0 -0.0013361010792243833 0.0015574865747688352 0 -0.001258230424602235 0.00081936246959718386 0 -0.001736150937544347 0.00099933355071689682 0 -0.0012571025258648638 0.001869585260544368 0 -0.0013361010792243833 0.0015574865747688352 0 -0.00089817012175572074 0.002048897023164404 0 -0.0012571025258648638 0.001869585260544368 0 -0.0013361010792243833 0.0015574865747688352 0 -0.0014161727831680578 0.0017791858368744456 0 -0.00074480931618716622 0.0010694461756944023 0 -0.0013361010792243833 0.0015574865747688352 0 -0.00089817012175572074 0.002048897023164404 0 -0.00095848826407183695 0.0023502972153915179 0 -0.00083997413851695458 0.0020812068316291422 0 -0.0013681498961889379 0.0020828837817201667 0 -0.0026650876700524163 0.0019725984525663376 0 -0.0014646142461564465 0.00079270555480831777 0 -0.0026650876700524163 0.0019725984525663376 0 -0.0031950001789379815 0.00037171791188317241 0 -0.0021897200581717036 0.00089118970052466326 0 -0.0023319079302555204 0.0012827979722656339 0 -0.0028688228815962301 0.00087698521993410797 0 -0.0014646142461564465 0.00079270555480831777 0 -0.0031950001789379815 0.00037171791188317241 0 -0.0020270360035274022 -0.00073317375298210608 0 -0.0014268909392567612 -0.00061465901906316894 0 -0.0022348171221832852 -0.0012100177607251702 0 -0.0020270360035274022 -0.00073317375298210608 0 -0.0014268909392567612 -0.00061465901906316894 0 -0.0018439997009932531 -0.00053265932058183549 0 -0.0014268909392567612 -0.00061465901906316894 0 -0.0015498895432453199 -0.00027090565909963305 0 -0.0018439997009932531 -0.00053265932058183549 0 -0.0015498895432453199 -0.00027090565909963305 0 -0.0018439997009932531 -0.00053265932058183549 0 -0.0023484254587772049 -0.00050550591323396312 0 -0.0014646142461564465 0.00079270555480831777 0 0.0015905795044744804 -0.00016516628217139526 0 0.0048817515411753963 0.0011661294758784325 0 0.0035046056410112784 0.0016295253855101402 0 0.004030126198555202 0.00066366093934881471 0 0.0015905795044744804 -0.00016516628217139526 0 0.0011364093686760041 0.0021096379855164602 0 -0.00083997413851695458 0.0020812068316291422 0 -0.00077216174604013705 0.0019100369705783889 0 -0.0013681498961889379 0.0020828837817201667 0 0.0035046056410112784 0.0016295253855101402 0 0.003240078083731824 0.00083380515018432707 0 0.004030126198555202 0.00066366093934881471 0 0.0035046056410112784 0.0016295253855101402 0 0.003240078083731824 0.00083380515018432707 0 0.0022861316990310868 0.0013374739732149117 0 0.0014483365323017254 0.0021308332386066244 0 0.0035046056410112784 0.0016295253855101402 0 0.0022861316990310868 0.0013374739732149117 0 0.003240078083731824 0.00083380515018432707 0 0.0022861316990310868 0.0013374739732149117 0 0.0015621357610044735 0.00071232704076810407 0 -0.0017965557967273089 0.0022436803805572277 0 -0.0019535019428120132 0.0023799033336621366 0 -0.0017388263944928294 0.0023014176805031279 0 -0.0013681498961889379 0.0020828837817201667 0 -0.0014596840041391909 0.0023315519481975295 0 -0.00014913383223341136 0.0021379655845100236 0 0.0011364093686760041 0.0021096379855164602 0 -0.0017294171325568204 0.0022299637656239798 0 -0.0017388263944928294 0.0023014176805031279 0 -0.0014596840041391909 0.0023315519481975295 0 -0.0026650876700524163 0.0019725984525663376 0 -0.0019535019428120132 0.0023799033336621366 0 -0.00095848826407183695 0.0023502972153915179 0 -0.0013681498961889379 0.0020828837817201667 0 -0.0014596840041391909 0.0023315519481975295 0 -0.0026680609771980125 0.002363394976733641 0 -0.0029108431936383894 0.0019403348426556286 0 -0.0022548294890942897 0.0019696946691286099 0 -0.0034976881214541481 0.002352123503838299 0 -0.0026680609771980125 0.002363394976733641 0 -0.0029108431936383894 0.0019403348426556286 0 -0.0029108431936383894 0.0019403348426556286 0 -0.0022548294890942897 0.0019696946691286099 0 -0.0025384190837347566 0.0016691164291176227 0 -0.0017294171325568204 0.0022299637656239798 0 -0.0026680609771980125 0.002363394976733641 0 -0.0022548294890942897 0.0019696946691286099 0 -0.0018935638311884738 0.0016786012740504304 0 -0.0025384190837347566 0.0016691164291176227 0 -0.0022550533605298403 0.0013811457807689606 0 -0.0018935638311884738 0.0016786012740504304 0 -0.0022548294890942897 0.0019696946691286099 0 -0.0025384190837347566 0.0016691164291176227 0 -0.0029108431936383894 0.0019403348426556286 0 -0.0025384190837347566 0.0016691164291176227 0 -0.0031841348486636822 0.001373302740421273 0 -0.003607006119469465 0.0014389242904174866 0 -0.0033786772360937262 0.0018159562720533467 0 -0.0031841348486636822 0.001373302740421273 0 -0.0033828808965042628 0.0019208004159164778 0 -0.0031879326565719939 0.0013881106201338708 0 -0.0029108431936383894 0.0019403348426556286 0 -0.0033173237133702592 0.0018491380561488533 0 -0.0031841348486636822 0.001373302740421273 0 -0.0026650876700524163 0.0019725984525663376 0 -0.0033828808965042628 0.0019208004159164778 0 -0.0035430696937709177 0.0022451605896979692 0 -0.0033786772360937262 0.0018159562720533467 0 -0.003777475779785178 0.0020048938654028898 0 -0.0034976881214541481 0.002352123503838299 0 -0.0029108431936383894 0.0019403348426556286 0 -0.0033173237133702592 0.0018491380561488533 0 -0.0033786772360937262 0.0018159562720533467 0 -0.003777475779785178 0.0020048938654028898 0 -0.0040162415411451272 0.0017264569869242271 0 -0.003777475779785178 0.0020048938654028898 0 -0.0040162415411451272 0.0017264569869242271 0 -0.0041699221970399238 0.0022296302663027071 0 -0.0035430696937709177 0.0022451605896979692 0 -0.003777475779785178 0.0020048938654028898 0 -0.0041699221970399238 0.0022296302663027071 0 -0.003607006119469465 0.0014389242904174866 0 -0.0033786772360937262 0.0018159562720533467 0 -0.0040162415411451272 0.0017264569869242271 0 -0.003607006119469465 0.0014389242904174866 0 -0.0040162415411451272 0.0017264569869242271 0 -0.0039160821477986401 0.0012111294288473073 0 -0.003607006119469465 0.0014389242904174866 0 -0.0039160821477986401 0.0012111294288473073 0 -0.0035366694683914919 0.00085776267304499168 0 -0.0031841348486636822 0.001373302740421273 0 -0.0035366694683914919 0.00085776267304499168 0 -0.003089015853173247 0.00091512097170113075 0 -0.003607006119469465 0.0014389242904174866 0 -0.0031841348486636822 0.001373302740421273 0 -0.0035366694683914919 0.00085776267304499168 0 -0.0035366694683914919 0.00085776267304499168 0 -0.003089015853173247 0.00091512097170113075 0 -0.0033221252945674512 0.00030481442584545795 0 -0.0039160821477986401 0.0012111294288473073 0 -0.0041684159494769762 0.0005968755680403658 0 -0.0042474260457275315 0.00058021352885299872 0 -0.0039160821477986401 0.0012111294288473073 0 -0.0035366694683914919 0.00085776267304499168 0 -0.0041684159494769762 0.0005968755680403658 0 -0.0037848517679564455 0.0010475133840223785 0 -0.0049445453616565709 0.00094923006274908145 0 -0.0019295615617836714 0.0010046158484572187 0 -0.0022550533605298403 0.0013811457807689606 0 -0.0026546146670611737 0.001161934485638899 0 -0.0025384190837347566 0.0016691164291176227 0 -0.0022550533605298403 0.0013811457807689606 0 -0.0026546146670611737 0.001161934485638899 0 -0.0031841348486636822 0.001373302740421273 0 -0.0026546146670611737 0.001161934485638899 0 -0.003089015853173247 0.00091512097170113075 0 -0.0025384190837347566 0.0016691164291176227 0 -0.0031841348486636822 0.001373302740421273 0 -0.0026546146670611737 0.001161934485638899 0 -0.003089015853173247 0.00091512097170113075 0 -0.0028076167758894627 0.00063878375016751608 0 -0.0033221252945674512 0.00030481442584545795 0 -0.0026546146670611737 0.001161934485638899 0 -0.003089015853173247 0.00091512097170113075 0 -0.0028076167758894627 0.00063878375016751608 0 -0.0019295615617836714 0.0010046158484572187 0 -0.0026546146670611737 0.001161934485638899 0 -0.0028076167758894627 0.00063878375016751608 0 -0.0028428867894033155 0.00064039395855361653 0 -0.0028863356687177286 0.0006533145731050131 0 -0.0028076167758894627 0.00063878375016751608 0 -0.0024194352465348851 0.00084425986382616455 0 -0.0027691374865501006 0.00064722625985872177 0 -0.0028428867894033155 0.00064039395855361653 0 -0.0028076167758894627 0.00063878375016751608 0 -0.0027959570383207831 0.00053584953643806674 0 -0.0035711190149642401 0.00055716520606874799 0 -0.0039088433660030893 0.00037367878776690169 0 -0.0028076167758894627 0.00063878375016751608 0 -0.0027959570383207831 0.00053584953643806674 0 -0.0033221252945674512 0.00030481442584545795 0 -0.0043346057989338046 0.00058527768788053296 0 -0.0044452741568734196 0.00039763200797697485 0 -0.0044827881118107201 0.00041027528222344512 0 -0.00433291946142377 0.00035894709669771454 0 -0.0041160197873053245 0.00045147631551701006 0 -0.0043346057989338046 0.00058527768788053296 0 -0.00433291946142377 0.00035894709669771454 0 -0.0043346057989338046 0.00058527768788053296 0 -0.0044452741568734196 0.00039763200797697485 0 -0.0044827881118107201 0.00041027528222344512 0 -0.004405701638838657 0.00035692269488093076 0 -0.0043198724234066385 0.00035312331561184509 0 -0.0039088433660030893 0.00037367878776690169 0 -0.0042956010625997557 0.0003520452890254693 0 -0.0041684159494769762 0.0005968755680403658 0 -0.0033221252945674512 0.00030481442584545795 0 -0.0043198724234066385 0.00035312331561184509 0 -0.0035366694683914919 0.00085776267304499168 0 -0.0041684159494769762 0.0005968755680403658 0 -0.0033221252945674512 0.00030481442584545795 0 -0.0044947204488369431 0.00034067881639386892 0 -0.0044827881118107201 0.00041027528222344512 0 -0.00446056429918307 0.00035799868525962362 0 -0.0044947204488369431 0.00034067881639386892 0 -0.0044452741568734196 0.00039763200797697485 0 -0.0044827881118107201 0.00041027528222344512 0 -0.0044827881118107201 0.00041027528222344512 0 -0.00446056429918307 0.00035799868525962362 0 -0.004405701638838657 0.00035692269488093076 0 -0.004405701638838657 0.00035692269488093076 0 -0.004445867295853786 0.00034734051104493799 0 -0.004402345604072243 0.0002887273866718463 0 -0.00446056429918307 0.00035799868525962362 0 -0.004405701638838657 0.00035692269488093076 0 -0.004445867295853786 0.00034734051104493799 0 -0.004445867295853786 0.00034734051104493799 0 -0.0044245818126031336 0.00035424873971071004 0 -0.004402345604072243 0.0002887273866718463 0 -0.0064700956209800854 0.00092072274335968708 0 -0.0065068375724384531 0.0010637971739670016 0 -0.0065590894456453814 0.0010001308145962892 0 -0.00591298742332681 0.00080340919771801497 0 -0.0064247529629388907 0.0010861052259415731 0 -0.0064700956209800854 0.00092072274335968708 0 -0.0065068375724384531 0.0010637971739670016 0 -0.0064041557340540319 0.0011110314956687282 0 -0.00591298742332681 0.00080340919771801497 0 -0.0054127490715453318 0.00068859270893971251 0 -0.0065138555286826392 0.0011513998574632111 0 -0.0063365633843373778 0.0012958089601189811 0 -0.0066865720985787554 0.0012059767629631021 0 -0.004405701638838657 0.00035692269488093076 0 -0.004402345604072243 0.0002887273866718463 0 -0.0043198724234066385 0.00035312331561184509 0 -0.004402345604072243 0.0002887273866718463 0 -0.0043198724234066385 0.00035312331561184509 0 -0.0042673401185969843 0.0005577504324993603 0 -0.0049445453616565709 0.00094923006274908145 0 -0.0056523753227429282 9.5964105405417909e-06 0 -0.0064041557340540319 0.0011110314956687282 0 -0.0065138555286826392 0.0011513998574632111 0 -0.0063365633843373778 0.0012958089601189811 0 -0.0041271326390033411 0.00050073641670995257 0 -0.0049001646286097184 0.00030004211337327988 0 -0.0045317638143708115 0.00065604753593754173 0 -0.0065068375724384531 0.0010637971739670016 0 -0.0064041557340540319 0.0011110314956687282 0 -0.0065138555286826392 0.0011513998574632111 0 -0.0041684159494769762 0.0005968755680403658 0 -0.0043198724234066385 0.00035312331561184509 0 -0.0042673401185969843 0.0005577504324993603 0 -0.0054127490715453318 0.00068859270893971251 0 -0.0049445453616565709 0.00094923006274908145 0 -0.0065138555286826392 0.0011513998574632111 0 -0.0066865720985787554 0.0012059767629631021 0 -0.0066174276935062936 0.0010595227222779046 0 -0.0056523753227429282 9.5964105405417909e-06 0 -0.0068681186699472681 0.0013120771411981723 0 -0.0066865720985787554 0.0012059767629631021 0 -0.0066174276935062936 0.0010595227222779046 0 -0.0067505514721668191 0.00094357345202969976 0 -0.0065068375724384531 0.0010637971739670016 0 -0.0066174276935062936 0.0010595227222779046 0 -0.0065590894456453814 0.0010001308145962892 0 -0.0065068375724384531 0.0010637971739670016 0 -0.0065138555286826392 0.0011513998574632111 0 -0.0066174276935062936 0.0010595227222779046 0 -0.0065825895764701041 0.00093311436925493877 0 -0.0065590894456453814 0.0010001308145962892 0 -0.0066369938162705944 0.0009697830297594294 0 -0.0065825895764701041 0.00093311436925493877 0 -0.0065350420883139139 0.00095825562445935497 0 -0.0065590894456453814 0.0010001308145962892 0 -0.0066174276935062936 0.0010595227222779046 0 -0.0065590894456453814 0.0010001308145962892 0 -0.0066369938162705944 0.0009697830297594294 0 -0.0066511564701835675 0.00090430637855596859 0 -0.0066369938162705944 0.0009697830297594294 0 -0.0067505514721668191 0.00094357345202969976 0 -0.0066174276935062936 0.0010595227222779046 0 -0.0066369938162705944 0.0009697830297594294 0 -0.0067505514721668191 0.00094357345202969976 0 -0.0067415466547766315 0.00096439272619094636 0 -0.0067505514721668191 0.00094357345202969976 0 -0.0067792344914131813 0.00096228280665064522 0 -0.0080308173971946808 0.00020453531468117843 0 -0.0061272116923330802 -0.001496332287162949 0 -0.0068161225210100649 0.00090571712611419255 0 -0.0067505514721668191 0.00094357345202969976 0 -0.0067792344914131813 0.00096228280665064522 0 -0.0095288052383277859 -0.00129228905694475 0 -0.0092588448302450988 -0.0014097883132851085 0 -0.0094251694543324889 -0.0018734374049105547 0 -0.0092588448302450988 -0.0014097883132851085 0 -0.0090905171584703941 -0.0016020973223582354 0 -0.0094251694543324889 -0.0018734374049105547 0 -0.0090905171584703941 -0.0016020973223582354 0 -0.0094251694543324889 -0.0018734374049105547 0 -0.0087724043790325685 -0.0017173418256993455 0 -0.0092588448302450988 -0.0014097883132851085 0 -0.0090905171584703941 -0.0016020973223582354 0 -0.0089589711385238031 -0.0014920035229777416 0 -0.0042016978213415069 -0.003147524146724355 0 -0.0042382368859911939 -0.0026372442929177438 0 -0.0047778900710093051 -0.0027892163996622904 0 -0.0042016978213415069 -0.003147524146724355 0 -0.0050171637412577052 -0.0033605967023304208 0 -0.0047778900710093051 -0.0027892163996622904 0 -0.0061272116923330802 -0.001496332287162949 0 -0.0074080547662728783 -0.0025766847648585126 0 -0.0061272116923330802 -0.001496332287162949 0 -0.0042582526703935589 -0.0032617539399516721 0 -0.0037130461203198797 -0.0029195809147528349 0 -0.0041997568527028109 -0.0030451824174135677 0 -0.0038797383656020931 -0.0025620696665605096 0 -0.0056523753227429282 9.5964105405417909e-06 0 -0.0061272116923330802 -0.001496332287162949 0 -0.0041997568527028109 -0.0030451824174135677 0 -0.0038797383656020931 -0.0025620696665605096 0 -0.0042382368859911939 -0.0026372442929177438 0 -0.0038797383656020931 -0.0025620696665605096 0 -0.0038481754312118129 -0.0020636405834647191 0 -0.0035603222024406592 -0.0023619401204851447 0 -0.0038797383656020931 -0.0025620696665605096 0 -0.0041451435124395817 -0.002317881010740366 0 -0.0038481754312118129 -0.0020636405834647191 0 -0.0038797383656020931 -0.0025620696665605096 0 -0.0041451435124395817 -0.002317881010740366 0 -0.0042382368859911939 -0.0026372442929177438 0 -0.0042382368859911939 -0.0026372442929177438 0 -0.0045122368783489788 -0.0023459599632640773 0 -0.0047778900710093051 -0.0027892163996622904 0 -0.0041451435124395817 -0.002317881010740366 0 -0.0042382368859911939 -0.0026372442929177438 0 -0.0045122368783489788 -0.0023459599632640773 0 -0.0045122368783489788 -0.0023459599632640773 0 -0.0042705298468732559 -0.0019872517517711156 0 -0.0046502552731029524 -0.0020169680281507405 0 -0.0041451435124395817 -0.002317881010740366 0 -0.0045122368783489788 -0.0023459599632640773 0 -0.0042705298468732559 -0.0019872517517711156 0 -0.0042705298468732559 -0.0019872517517711156 0 -0.0046502552731029524 -0.0020169680281507405 0 -0.0044890014517202865 -0.0017059955537621616 0 -0.0041451435124395817 -0.002317881010740366 0 -0.0042705298468732559 -0.0019872517517711156 0 -0.0038481754312118129 -0.0020636405834647191 0 -0.0042705298468732559 -0.0019872517517711156 0 -0.0038481754312118129 -0.0020636405834647191 0 -0.0037995233473628741 -0.0015746763957810532 0 -0.0038481754312118129 -0.0020636405834647191 0 -0.0035603222024406592 -0.0023619401204851447 0 -0.0034127290559249272 -0.0017683953558508951 0 -0.0043409013892899105 0.00093765935240407573 0 -0.0047565970788419117 0.00088382527228772815 0 -0.0046070801585593136 0.0014524868537328086 0 -0.0041123461579349267 -0.00096975629309896567 0 -0.0040188446885478946 -1.599821378062976e-05 0 -0.0039160821477986401 0.0012111294288473073 0 -0.0043409013892899105 0.00093765935240407573 0 -0.0046070801585593136 0.0014524868537328086 0 -0.0039160821477986401 0.0012111294288473073 0 -0.0041271326390033411 0.00050073641670995257 0 -0.0043409013892899105 0.00093765935240407573 0 -0.0047758440617621739 0.00095130234674760535 0 -0.0049445453616565709 0.00094923006274908145 0 -0.0041271326390033411 0.00050073641670995257 0 -0.0043409013892899105 0.00093765935240407573 0 -0.0045317638143708115 0.00065604753593754173 0 -0.0049001646286097184 0.00030004211337327988 0 -0.0045317638143708115 0.00065604753593754173 0 -0.0047565970788419117 0.00088382527228772815 0 -0.0037130461203198797 -0.0029195809147528349 0 -0.0038797383656020931 -0.0025620696665605096 0 -0.0035603222024406592 -0.0023619401204851447 0 -0.0056523753227429282 9.5964105405417909e-06 0 -0.0041123461579349267 -0.00096975629309896567 0 -0.0043409013892899105 0.00093765935240407573 0 -0.0045317638143708115 0.00065604753593754173 0 -0.0047565970788419117 0.00088382527228772815 0 -0.0066376573333762727 -0.0020213804401918597 0 -0.0066201134920496679 -0.0020216673454181129 0 -0.006604499520913772 -0.0020533252613032208 0 -0.0066376573333762727 -0.0020213804401918597 0 -0.0066671709187695154 -0.0019892042684152046 0 -0.0066675110722365545 -0.001980426015593941 0 -0.0066376573333762727 -0.0020213804401918597 0 -0.0066400147769577738 -0.0020110195649009027 0 -0.0066675110722365545 -0.001980426015593941 0 -0.0066376573333762727 -0.0020213804401918597 0 -0.006604499520913772 -0.0020533252613032208 0 -0.0066140769665006226 -0.0020541340147305657 0 -0.0066376573333762727 -0.0020213804401918597 0 -0.0066400147769577738 -0.0020110195649009027 0 -0.0066140769665006226 -0.0020541340147305657 0 -0.0066201134920496679 -0.0020216673454181129 0 -0.0066618914128197823 -0.0019881756497573478 0 -0.0066671709187695154 -0.0019892042684152046 0 -0.0066376573333762727 -0.0020213804401918597 0 -0.0066201134920496679 -0.0020216673454181129 0 -0.0066671709187695154 -0.0019892042684152046 0 -0.0066618914128197823 -0.0019881756497573478 0 -0.0066671709187695154 -0.0019892042684152046 0 -0.006709047168278498 -0.0019518125748257261 0 -0.0066618914128197823 -0.0019881756497573478 0 -0.006709047168278498 -0.0019518125748257261 0 -0.0066886277913246767 -0.0019650647570270911 0 -0.0066671709187695154 -0.0019892042684152046 0 -0.006709047168278498 -0.0019518125748257261 0 -0.0067019918983321179 -0.0019466477213944506 0 -0.0066671709187695154 -0.0019892042684152046 0 -0.0067019918983321179 -0.0019466477213944506 0 -0.0066675110722365545 -0.001980426015593941 0 -0.0066400147769577738 -0.0020110195649009027 0 -0.0066675110722365545 -0.001980426015593941 0 -0.0066610400481687867 -0.0019557258897105146 0 -0.0067019918983321179 -0.0019466477213944506 0 -0.0066675110722365545 -0.001980426015593941 0 -0.0066610400481687867 -0.0019557258897105146 0 -0.0067019918983321179 -0.0019466477213944506 0 -0.0066945264466919474 -0.0019007664412431541 0 -0.0066610400481687867 -0.0019557258897105146 0 -0.0066945264466919474 -0.0019007664412431541 0 -0.0067599693915803222 -0.0019025075754633843 0 -0.0066754271300008428 -0.0017835101044322004 0 -0.0067019918983321179 -0.0019466477213944506 0 -0.0066945264466919474 -0.0019007664412431541 0 -0.0067599693915803222 -0.0019025075754633843 0 -0.0066836466410619888 -0.0017405238556299381 0 -0.0068208893502771225 -0.0018897351996367601 0 -0.0066754271300008428 -0.0017835101044322004 0 -0.0067599693915803222 -0.0019025075754633843 0 -0.0068208893502771225 -0.0018897351996367601 0 -0.0066754271300008428 -0.0017835101044322004 0 -0.0068208893502771225 -0.0018897351996367601 0 -0.006770860936290206 -0.0019092522974499229 0 -0.0067448035631354139 -0.0019257460772184878 0 -0.0067599693915803222 -0.0019025075754633843 0 -0.0068208893502771225 -0.0018897351996367601 0 -0.006770860936290206 -0.0019092522974499229 0 -0.006770860936290206 -0.0019092522974499229 0 -0.0067475822458529034 -0.0019231165858247497 0 -0.0067448035631354139 -0.0019257460772184878 0 -0.0067599693915803222 -0.0019025075754633843 0 -0.006770860936290206 -0.0019092522974499229 0 -0.0067475822458529034 -0.0019231165858247497 0 -0.006709047168278498 -0.0019518125748257261 0 -0.0067599693915803222 -0.0019025075754633843 0 -0.0067475822458529034 -0.0019231165858247497 0 -0.006709047168278498 -0.0019518125748257261 0 -0.0067019918983321179 -0.0019466477213944506 0 -0.0067599693915803222 -0.0019025075754633843 0 -0.006709047168278498 -0.0019518125748257261 0 -0.0067475822458529034 -0.0019231165858247497 0 -0.006717748815006877 -0.0019428963498479507 0 -0.0067903755195677807 -0.001894651293131503 0 -0.0074800011534423439 -0.0020301054988782824 0 -0.0068208893502771225 -0.0018897351996367601 0 -0.0079933792618751467 -0.002120364540378989 0 -0.00802105713364803 -0.0017834833769772775 0 -0.0074379144594427767 -0.0016977458048357118 0 -0.0085980057426688662 -0.001811681901018591 0 -0.0068208893502771225 -0.0018897351996367601 0 -0.0067448035631354139 -0.0019257460772184878 0 -0.006679310107541846 -0.0019630655540501599 0 -0.0066836466410619888 -0.0017405238556299381 0 -0.0068208893502771225 -0.0018897351996367601 0 -0.00802105713364803 -0.0017834833769772775 0 -0.006717748815006877 -0.0019428963498479507 0 -0.0067047011967511574 -0.0019478043865210981 0 -0.0066848359605088861 -0.0019625425871025305 0 -0.006717748815006877 -0.0019428963498479507 0 -0.0067448035631354139 -0.0019257460772184878 0 -0.0067047011967511574 -0.0019478043865210981 0 -0.0067475822458529034 -0.0019231165858247497 0 -0.006717748815006877 -0.0019428963498479507 0 -0.0067448035631354139 -0.0019257460772184878 0 -0.0067448035631354139 -0.0019257460772184878 0 -0.006679310107541846 -0.0019630655540501599 0 -0.0067047011967511574 -0.0019478043865210981 0 -0.006679310107541846 -0.0019630655540501599 0 -0.0066890296246072426 -0.0019592957083918276 0 -0.0066792976029547016 -0.0019756418296626682 0 -0.0067047011967511574 -0.0019478043865210981 0 -0.0066890296246072426 -0.0019592957083918276 0 -0.0066848359605088861 -0.0019625425871025305 0 -0.006679310107541846 -0.0019630655540501599 0 -0.0067047011967511574 -0.0019478043865210981 0 -0.0066890296246072426 -0.0019592957083918276 0 -0.0066470421344202108 -0.0019911835222447684 0 -0.0066792976029547016 -0.0019756418296626682 0 -0.0066579739855843739 -0.0020328834602882607 0 -0.0066848359605088861 -0.0019625425871025305 0 -0.0066470421344202108 -0.0019911835222447684 0 -0.0066792976029547016 -0.0019756418296626682 0 -0.0066890296246072426 -0.0019592957083918276 0 -0.0066848359605088861 -0.0019625425871025305 0 -0.0066792976029547016 -0.0019756418296626682 0 -0.0066848359605088861 -0.0019625425871025305 0 -0.0066886277913246767 -0.0019650647570270911 0 -0.0066470421344202108 -0.0019911835222447684 0 -0.006717748815006877 -0.0019428963498479507 0 -0.0066848359605088861 -0.0019625425871025305 0 -0.0066886277913246767 -0.0019650647570270911 0 -0.006709047168278498 -0.0019518125748257261 0 -0.006717748815006877 -0.0019428963498479507 0 -0.0066886277913246767 -0.0019650647570270911 0 -0.0066618914128197823 -0.0019881756497573478 0 -0.0066886277913246767 -0.0019650647570270911 0 -0.0066470421344202108 -0.0019911835222447684 0 -0.0066201134920496679 -0.0020216673454181129 0 -0.0066618914128197823 -0.0019881756497573478 0 -0.0066470421344202108 -0.0019911835222447684 0 -0.0074080547662728783 -0.0025766847648585126 0 -0.0058417928992482463 -0.0024403514798833886 0 -0.0066792976029547016 -0.0019756418296626682 0 -0.0067393954928301148 -0.0019646764648887411 0 -0.0066579739855843739 -0.0020328834602882607 0 -0.0085980057426688662 -0.001811681901018591 0 -0.0098429688075284526 -0.0020089329894608294 0 -0.0091139545892133678 -0.0017934881815625404 0 -0.0095562563243987014 -0.0017475106538194422 0 -0.0099165042581562772 -0.0020289880002038194 0 -0.0074800011534423439 -0.0020301054988782824 0 -0.0074080547662728783 -0.0025766847648585126 0 -0.006679310107541846 -0.0019630655540501599 0 -0.0066792976029547016 -0.0019756418296626682 0 -0.0067393954928301148 -0.0019646764648887411 0 -0.0079933792618751467 -0.002120364540378989 0 -0.00802105713364803 -0.0017834833769772775 0 -0.0095931474287210376 -0.0024742432992012845 0 -0.00802105713364803 -0.0017834833769772775 0 -0.0095931474287210376 -0.0024742432992012845 0 -0.0099165042581562772 -0.0020289880002038194 0 -0.0095562563243987014 -0.0017475106538194422 0 -0.0099165042581562772 -0.0020289880002038194 0 -0.010068061615765277 -0.0018831330300248586 0 -0.0095205523432834987 -0.0015042815647050005 0 -0.010958809536154137 -0.0024221302109009063 0 -0.0095931474287210376 -0.0024742432992012845 0 -0.0099165042581562772 -0.0020289880002038194 0 -0.010068061615765277 -0.0018831330300248586 0 -0.0074080547662728783 -0.0025766847648585126 0 -0.010958809536154137 -0.0024221302109009063 0 -0.0090905171584703941 -0.0016020973223582354 0 -0.0087724043790325685 -0.0017173418256993455 0 -0.0089578469808183139 -0.0014959255714779782 0 -0.0050171637412577052 -0.0033605967023304208 0 -0.0047778900710093051 -0.0027892163996622904 0 -0.0055902504983688078 -0.0027045027419151705 0 -0.0045122368783489788 -0.0023459599632640773 0 -0.0047778900710093051 -0.0027892163996622904 0 -0.0049844089861811307 -0.0022893643739811758 0 -0.0047778900710093051 -0.0027892163996622904 0 -0.0049844089861811307 -0.0022893643739811758 0 -0.0055902504983688078 -0.0027045027419151705 0 -0.0045122368783489788 -0.0023459599632640773 0 -0.0046502552731029524 -0.0020169680281507405 0 -0.0049844089861811307 -0.0022893643739811758 0 -0.0046502552731029524 -0.0020169680281507405 0 -0.0049844089861811307 -0.0022893643739811758 0 -0.0050298102843523151 -0.0017365931819862802 0 -0.0049844089861811307 -0.0022893643739811758 0 -0.0055316051271973882 -0.0019848289615886729 0 -0.0050298102843523151 -0.0017365931819862802 0 -0.0049844089861811307 -0.0022893643739811758 0 -0.0055316051271973882 -0.0019848289615886729 0 -0.0055902504983688078 -0.0027045027419151705 0 -0.0066579739855843739 -0.0020328834602882607 0 -0.006543673370502703 -0.0020311973712072379 0 -0.0063390303952880105 -0.001952330408642176 0 -0.0066470421344202108 -0.0019911835222447684 0 -0.0066579739855843739 -0.0020328834602882607 0 -0.006543673370502703 -0.0020311973712072379 0 -0.0066201134920496679 -0.0020216673454181129 0 -0.0066470421344202108 -0.0019911835222447684 0 -0.006543673370502703 -0.0020311973712072379 0 -0.0055316051271973882 -0.0019848289615886729 0 -0.0055902504983688078 -0.0027045027419151705 0 -0.0063390303952880105 -0.001952330408642176 0 -0.0058417928992482463 -0.0024403514798833886 0 -0.0064556276734378595 -0.0019077708577358704 0 -0.0055316051271973882 -0.0019848289615886729 0 -0.0063390303952880105 -0.001952330408642176 0 -0.0058446871978621081 -0.0016435856201499415 0 -0.006543673370502703 -0.0020311973712072379 0 -0.0063390303952880105 -0.001952330408642176 0 -0.0064927102591464114 -0.0020133140973927128 0 -0.0064927102591464114 -0.0020133140973927128 0 -0.0064718188204024489 -0.0015475294629677516 0 -0.00668017295049015 -0.0020399604416503903 0 -0.0063390303952880105 -0.001952330408642176 0 -0.0064927102591464114 -0.0020133140973927128 0 -0.0064718188204024489 -0.0015475294629677516 0 -0.0064927102591464114 -0.0020133140973927128 0 -0.0065685182784154797 -0.0020582743913406605 0 -0.006560700873962556 -0.0020485786941248688 0 -0.0065685182784154797 -0.0020582743913406605 0 -0.0065880860712399071 -0.0020699348486854104 0 -0.006560700873962556 -0.0020485786941248688 0 -0.006543673370502703 -0.0020311973712072379 0 -0.0064927102591464114 -0.0020133140973927128 0 -0.006560700873962556 -0.0020485786941248688 0 -0.0066201134920496679 -0.0020216673454181129 0 -0.006543673370502703 -0.0020311973712072379 0 -0.006560700873962556 -0.0020485786941248688 0 -0.0066201134920496679 -0.0020216673454181129 0 -0.006560700873962556 -0.0020485786941248688 0 -0.006604499520913772 -0.0020533252613032208 0 -0.0065880860712399071 -0.0020699348486854104 0 -0.006560700873962556 -0.0020485786941248688 0 -0.006604499520913772 -0.0020533252613032208 0 -0.0064718188204024489 -0.0015475294629677516 0 -0.006212270410599921 -0.0013306149096472277 0 -0.0067973693792184519 -0.0013601895395690085 0 -0.0060076863560107876 -0.0012030251754951754 0 -0.0046816426816978013 -0.0025133278082493031 0 -0.0052178957013865835 -0.0012845517298316778 0 -0.0052603984090513253 -0.0012649270024163396 0 -0.0052426859133767895 -0.0012939470246625217 0 -0.0052178957013865835 -0.0012845517298316778 0 -0.0052603984090513253 -0.0012649270024163396 0 -0.005180859809934814 -0.0012666078107812018 0 -0.0052178957013865835 -0.0012845517298316778 0 -0.005180859809934814 -0.0012666078107812018 0 -0.005181446758944515 -0.0013107952196435367 0 -0.0063390303952880105 -0.001952330408642176 0 -0.0064718188204024489 -0.0015475294629677516 0 -0.0062293187960106317 -0.0016444975266090701 0 -0.0064718188204024489 -0.0015475294629677516 0 -0.0062293187960106317 -0.0016444975266090701 0 -0.006212270410599921 -0.0013306149096472277 0 -0.0062293187960106317 -0.0016444975266090701 0 -0.0058446871978621081 -0.0016435856201499415 0 -0.006212270410599921 -0.0013306149096472277 0 -0.0058446871978621081 -0.0016435856201499415 0 -0.006212270410599921 -0.0013306149096472277 0 -0.0053370528150432439 -0.0013600035490936018 0 -0.0063390303952880105 -0.001952330408642176 0 -0.0062293187960106317 -0.0016444975266090701 0 -0.0058446871978621081 -0.0016435856201499415 0 -0.0052603984090513253 -0.0012649270024163396 0 -0.0052979707368115041 -0.0012827159442211117 0 -0.0052426859133767895 -0.0012939470246625217 0 -0.0060076863560107876 -0.0012030251754951754 0 -0.0052456002890534838 -0.0013733458866325473 0 -0.0052603984090513253 -0.0012649270024163396 0 -0.0053370528150432439 -0.0013600035490936018 0 -0.0052979707368115041 -0.0012827159442211117 0 -0.0053370528150432439 -0.0013600035490936018 0 -0.0052979707368115041 -0.0012827159442211117 0 -0.0050542538018829167 -0.0012341904484191942 0 -0.0052979707368115041 -0.0012827159442211117 0 -0.0050542538018829167 -0.0012341904484191942 0 -0.0052500788744876629 -0.0012473651027398746 0 -0.0055316051271973882 -0.0019848289615886729 0 -0.0053370528150432439 -0.0013600035490936018 0 -0.0050298102843523151 -0.0017365931819862802 0 -0.0055316051271973882 -0.0019848289615886729 0 -0.0058446871978621081 -0.0016435856201499415 0 -0.0053370528150432439 -0.0013600035490936018 0 -0.0047798040589905125 -0.0013363803625449408 0 -0.0045382331951521956 -0.0016523174278249139 0 -0.0053370528150432439 -0.0013600035490936018 0 -0.0050298102843523151 -0.0017365931819862802 0 -0.0050542538018829167 -0.0012341904484191942 0 -0.0050298102843523151 -0.0017365931819862802 0 -0.0050542538018829167 -0.0012341904484191942 0 -0.0044890014517202865 -0.0017059955537621616 0 -0.0046502552731029524 -0.0020169680281507405 0 -0.0050298102843523151 -0.0017365931819862802 0 -0.0044890014517202865 -0.0017059955537621616 0 -0.0046757463397861243 -0.0012190822404943189 0 -0.0043312628598812892 -0.0012634258069432304 0 -0.0044279677146605049 -0.00088752302176616025 0 -0.0046757463397861243 -0.0012190822404943189 0 -0.0049706511590634399 -0.00070563230704348242 0 -0.0044279677146605049 -0.00088752302176616025 0 -0.0045722641745861298 -0.00056432149611464959 0 -0.0049706511590634399 -0.00070563230704348242 0 -0.0044279677146605049 -0.00088752302176616025 0 -0.0047798040589905125 -0.0013363803625449408 0 -0.0054850711849175468 -0.00065523996099496531 0 -0.0045722641745861298 -0.00056432149611464959 0 -0.0044279677146605049 -0.00088752302176616025 0 -0.0042971953240239337 -0.00051848190495075029 0 -0.0045722641745861298 -0.00056432149611464959 0 -0.0045820892895716194 -0.00017313325767271355 0 -0.0042971953240239337 -0.00051848190495075029 0 -0.0045722641745861298 -0.00056432149611464959 0 -0.0045820892895716194 -0.00017313325767271355 0 -0.0049706511590634399 -0.00070563230704348242 0 -0.0016622574893299304 -0.0012581128267257575 0 -0.002492975901726324 -0.0017480260953993201 0 -0.0054850711849175468 -0.00065523996099496531 0 -0.002492975901726324 -0.0017480260953993201 0 -0.0045820892895716194 -0.00017313325767271355 0 -0.0049706511590634399 -0.00070563230704348242 0 -0.0052462066774912617 -0.00025026076905147981 0 -0.0052979707368115041 -0.0012827159442211117 0 -0.0052500788744876629 -0.0012473651027398746 0 -0.0052426859133767895 -0.0012939470246625217 0 -0.0052426859133767895 -0.0012939470246625217 0 -0.0052266736015334986 -0.0013258382779374833 0 -0.0052070144654428017 -0.0013218951037900399 0 -0.0052500788744876629 -0.0012473651027398746 0 -0.0052426859133767895 -0.0012939470246625217 0 -0.0052266736015334986 -0.0013258382779374833 0 -0.0052070144654428017 -0.0013218951037900399 0 -0.0051702679117699817 -0.0013506307852262627 0 -0.005181446758944515 -0.0013107952196435367 0 -0.0052266736015334986 -0.0013258382779374833 0 -0.0052070144654428017 -0.0013218951037900399 0 -0.0051702679117699817 -0.0013506307852262627 0 -0.002492975901726324 -0.0017480260953993201 0 -0.0023128111615333814 -0.0027085104910606972 0 -0.0052426859133767895 -0.0012939470246625217 0 -0.0052070144654428017 -0.0013218951037900399 0 -0.005181446758944515 -0.0013107952196435367 0 -0.0052178957013865835 -0.0012845517298316778 0 -0.0052426859133767895 -0.0012939470246625217 0 -0.005181446758944515 -0.0013107952196435367 0 -0.0034317489375758764 -0.0001870840125414881 0 -0.003797233259761047 -0.0017074128373791482 0 -0.0036129135601539867 -0.001052137220721503 0 -0.0032556401066561559 -0.0012449217985024779 0 -0.0037433492749367734 -0.0012771519888851632 0 -0.0032556401066561559 -0.0012449217985024779 0 -0.0037005411812177438 -0.0015968444323044863 0 -0.0037433492749367734 -0.0012771519888851632 0 -0.0034582846735802001 -0.0010919526402478022 0 -0.002933018345868333 -0.00073836735198077772 0 -0.0036129135601539867 -0.001052137220721503 0 -0.0032088889397412375 -0.0010388494030263626 0 -0.0032556401066561559 -0.0012449217985024779 0 -0.0034317489375758764 -0.0001870840125414881 0 -0.0031950001789379815 0.00037171791188317241 0 -0.002933018345868333 -0.00073836735198077772 0 -0.0034317489375758764 -0.0001870840125414881 0 -0.0040162415411451272 0.0017264569869242271 0 -0.0044687287916464541 0.0020013792157589703 0 -0.0041699221970399238 0.0022296302663027071 0 -0.0033330254925277381 -1.1488636876598282e-05 0 -0.0033762846760326641 -0.00020295587313765736 0 -0.0031234260193567192 -7.6588833939815823e-06 0 -0.002933018345868333 -0.00073836735198077772 0 -0.0031950001789379815 0.00037171791188317241 0 -0.0040162415411451272 0.0017264569869242271 0 -0.0039160821477986401 0.0012111294288473073 0 -0.0046070801585593136 0.0014524868537328086 0 -0.0040162415411451272 0.0017264569869242271 0 -0.0044687287916464541 0.0020013792157589703 0 -0.0046070801585593136 0.0014524868537328086 0 -0.0032728308113091778 -0.0011444003401152873 0 -0.0034127290559249272 -0.0017683953558508951 0 -0.0037995233473628741 -0.0015746763957810532 0 -0.0038481754312118129 -0.0020636405834647191 0 -0.0034127290559249272 -0.0017683953558508951 0 -0.0037995233473628741 -0.0015746763957810532 0 -0.0034317489375758764 -0.0001870840125414881 0 -0.0040188446885478946 -1.599821378062976e-05 0 -0.0042006288422444266 -0.0019201888161559176 0 -0.003797233259761047 -0.0017074128373791482 0 -0.0042705298468732559 -0.0019872517517711156 0 -0.0037005411812177438 -0.0015968444323044863 0 -0.0041347515990930216 -0.0016801893732684133 0 -0.0037005411812177438 -0.0015968444323044863 0 -0.0041347515990930216 -0.0016801893732684133 0 -0.0040925013381454909 -0.0014321506399617467 0 -0.0037005411812177438 -0.0015968444323044863 0 -0.0040925013381454909 -0.0014321506399617467 0 -0.0037433492749367734 -0.0012771519888851632 0 -0.0044890014517202865 -0.0017059955537621616 0 -0.0040925013381454909 -0.0014321506399617467 0 -0.0043312628598812892 -0.0012634258069432304 0 -0.0042705298468732559 -0.0019872517517711156 0 -0.0044890014517202865 -0.0017059955537621616 0 -0.0041347515990930216 -0.0016801893732684133 0 -0.0044890014517202865 -0.0017059955537621616 0 -0.0041347515990930216 -0.0016801893732684133 0 -0.0040925013381454909 -0.0014321506399617467 0 -0.0046757463397861243 -0.0012190822404943189 0 -0.0044890014517202865 -0.0017059955537621616 0 -0.0043312628598812892 -0.0012634258069432304 0 -0.0043312628598812892 -0.0012634258069432304 0 -0.0039675935720932679 -0.001068308739353661 0 -0.0044279677146605049 -0.00088752302176616025 0 -0.0040925013381454909 -0.0014321506399617467 0 -0.0043312628598812892 -0.0012634258069432304 0 -0.0039675935720932679 -0.001068308739353661 0 -0.0036129135601539867 -0.001052137220721503 0 -0.0037433492749367734 -0.0012771519888851632 0 -0.0039675935720932679 -0.001068308739353661 0 -0.0034582846735802001 -0.0010919526402478022 0 -0.0038898512782968991 -0.0010834008153227015 0 -0.0040925013381454909 -0.0014321506399617467 0 -0.0037433492749367734 -0.0012771519888851632 0 -0.0039675935720932679 -0.001068308739353661 0 -0.0033011680923737078 -0.0011647306883226572 0 -0.0039675935720932679 -0.001068308739353661 0 -0.0035023862486059385 -0.00081937382609924368 0 -0.0039675935720932679 -0.001068308739353661 0 -0.0035023862486059385 -0.00081937382609924368 0 -0.0039745317470340014 -0.00070264273246169499 0 -0.0035023862486059385 -0.00081937382609924368 0 -0.0039745317470340014 -0.00070264273246169499 0 -0.0035858009771236442 -0.00053923157617051282 0 -0.0035023862486059385 -0.00081937382609924368 0 -0.0035858009771236442 -0.00053923157617051282 0 -0.003130013910933743 -0.00056302831568696683 0 -0.0039675935720932679 -0.001068308739353661 0 -0.0044279677146605049 -0.00088752302176616025 0 -0.0039745317470340014 -0.00070264273246169499 0 -0.0044279677146605049 -0.00088752302176616025 0 -0.0039745317470340014 -0.00070264273246169499 0 -0.0042971953240239337 -0.00051848190495075029 0 -0.0045820892895716194 -0.00017313325767271355 0 -0.0042971953240239337 -0.00051848190495075029 0 -0.0039911494235302259 -0.0003641009501436787 0 -0.0045820892895716194 -0.00017313325767271355 0 -0.0039911494235302259 -0.0003641009501436787 0 -0.0037346946417767335 -2.4885641898143982e-06 0 -0.0039745317470340014 -0.00070264273246169499 0 -0.0042971953240239337 -0.00051848190495075029 0 -0.0039911494235302259 -0.0003641009501436787 0 -0.0035858009771236442 -0.00053923157617051282 0 -0.0036443872666007968 -0.00027478060603677461 0 -0.0033177604427908915 -0.00027786486122084682 0 -0.0039911494235302259 -0.0003641009501436787 0 -0.0035858009771236442 -0.00053923157617051282 0 -0.0036443872666007968 -0.00027478060603677461 0 -0.0039745317470340014 -0.00070264273246169499 0 -0.0039911494235302259 -0.0003641009501436787 0 -0.0035858009771236442 -0.00053923157617051282 0 -0.0039911494235302259 -0.0003641009501436787 0 -0.0036443872666007968 -0.00027478060603677461 0 -0.0037346946417767335 -2.4885641898143982e-06 0 -0.0036443872666007968 -0.00027478060603677461 0 -0.0033177604427908915 -0.00027786486122084682 0 -0.0037346946417767335 -2.4885641898143982e-06 0 -7.8615174300864126e-05 -0.0013494646430079202 0 -0.00029737157702142911 -0.0014246041835573608 0 -0.0027971559653677705 -7.6827023143992272e-05 0 -0.0033177604427908915 -0.00027786486122084682 0 -0.0037346946417767335 -2.4885641898143982e-06 0 -0.0027971559653677705 -7.6827023143992272e-05 0 -0.003130013910933743 -0.00056302831568696683 0 -0.0027636759143797691 -0.00058653170111546739 0 -0.0027971559653677705 -7.6827023143992272e-05 0 -0.0033177604427908915 -0.00027786486122084682 0 -0.003130013910933743 -0.00056302831568696683 0 -0.0035858009771236442 -0.00053923157617051282 0 -0.0033177604427908915 -0.00027786486122084682 0 -0.003130013910933743 -0.00056302831568696683 0 -0.0035023862486059385 -0.00081937382609924368 0 -0.003130013910933743 -0.00056302831568696683 0 -0.0029718719207166996 -0.00088928449564419198 0 -0.0033011680923737078 -0.0011647306883226572 0 -0.0026326568351054068 -0.0011872761931055052 0 -0.0029718719207166996 -0.00088928449564419198 0 -0.0027636759143797691 -0.00058653170111546739 0 -0.0029718719207166996 -0.00088928449564419198 0 -0.0025589630928410647 -0.00089500501736064172 0 -0.003130013910933743 -0.00056302831568696683 0 -0.0027636759143797691 -0.00058653170111546739 0 -0.0029718719207166996 -0.00088928449564419198 0 -0.0033011680923737078 -0.0011647306883226572 0 -0.0035023862486059385 -0.00081937382609924368 0 -0.0029718719207166996 -0.00088928449564419198 0 -0.0020270360035274022 -0.00073317375298210608 0 -0.0022348171221832852 -0.0012100177607251702 0 -0.0022929991930974556 -0.00083359209464585905 0 -0.0022348171221832852 -0.0012100177607251702 0 -0.0025589630928410647 -0.00089500501736064172 0 -0.0022929991930974556 -0.00083359209464585905 0 -0.0026326568351054068 -0.0011872761931055052 0 -0.0029718719207166996 -0.00088928449564419198 0 -0.0025589630928410647 -0.00089500501736064172 0 -0.002631545240352385 -0.0012123236159282949 0 -0.0022348171221832852 -0.0012100177607251702 0 -0.0025589630928410647 -0.00089500501736064172 0 -0.002933018345868333 -0.00073836735198077772 0 -0.0028106583014649664 -0.00092563541421073858 0 -0.0025589630928410647 -0.00089500501736064172 0 -0.0022929991930974556 -0.00083359209464585905 0 -0.0023484254587772049 -0.00050550591323396312 0 -0.0027636759143797691 -0.00058653170111546739 0 -0.0025589630928410647 -0.00089500501736064172 0 -0.0023484254587772049 -0.00050550591323396312 0 -0.0020270360035274022 -0.00073317375298210608 0 -0.0022929991930974556 -0.00083359209464585905 0 -0.0023484254587772049 -0.00050550591323396312 0 -0.0020270360035274022 -0.00073317375298210608 0 -0.0018439997009932531 -0.00053265932058183549 0 -0.0023484254587772049 -0.00050550591323396312 0 0.0015905795044744804 -0.00016516628217139526 0 -7.8615174300864126e-05 -0.0013494646430079202 0 -0.0015498895432453199 -0.00027090565909963305 0 -0.0027971559653677705 -7.6827023143992272e-05 0 -0.0023484254587772049 -0.00050550591323396312 0 -0.0027971559653677705 -7.6827023143992272e-05 0 -0.0027636759143797691 -0.00058653170111546739 0 -0.0023484254587772049 -0.00050550591323396312 0 0.00371434431585731 -0.0024406633642978337 0 0.0029968733795919895 -0.0023458459831403669 0 0.0035382705133114056 -0.0018552039741884226 0 0.0029968733795919895 -0.0023458459831403669 0 0.0029400882193627593 -0.0018705438758832289 0 0.0035382705133114056 -0.0018552039741884226 0 0.0030370748364271236 -0.0014716638229226057 0 0.0029400882193627593 -0.0018705438758832289 0 0.0035382705133114056 -0.0018552039741884226 0 0.0043318794392580582 -0.00090391738369121309 0 0.0046983389626525538 -0.0010613347257008225 0 0.0030370748364271236 -0.0014716638229226057 0 0.0033618396015415129 -0.0011701956622159292 0 0.0035382705133114056 -0.0018552039741884226 0 0.0029400882193627593 -0.0018705438758832289 0 0.002456375426047327 -0.0018890175334567458 0 0.0025930002701456036 -0.0014821604927007259 0 0.0030370748364271236 -0.0014716638229226057 0 0.0029400882193627593 -0.0018705438758832289 0 0.0025930002701456036 -0.0014821604927007259 0 0.0029400882193627593 -0.0018705438758832289 0 0.0026396132754701266 -0.0021223895252177253 0 0.002456375426047327 -0.0018890175334567458 0 0.0029968733795919895 -0.0023458459831403669 0 0.0026396132754701266 -0.0021223895252177253 0 0.0023085980487506153 -0.0023031112382374493 0 0.0029968733795919895 -0.0023458459831403669 0 0.0029400882193627593 -0.0018705438758832289 0 0.0026396132754701266 -0.0021223895252177253 0 0.0026396132754701266 -0.0021223895252177253 0 0.0023085980487506153 -0.0023031112382374493 0 0.002173625487232995 -0.0022980382730009336 0 0.0026396132754701266 -0.0021223895252177253 0 0.002173625487232995 -0.0022980382730009336 0 0.0023248346628482945 -0.0020878752789591794 0 -0.00029737157702142911 -0.0014246041835573608 0 0.0011037362409911742 -0.0017742604153742222 0 0.002173625487232995 -0.0022980382730009336 0 0.0023248346628482945 -0.0020878752789591794 0 0.0021393057609772931 -0.0021292484177066729 0 0.0023248346628482945 -0.0020878752789591794 0 0.0021536745133064611 -0.001958204045756945 0 0.002456375426047327 -0.0018890175334567458 0 0.0023248346628482945 -0.0020878752789591794 0 0.0021536745133064611 -0.001958204045756945 0 0.0021393057609772931 -0.0021292484177066729 0 0.0026396132754701266 -0.0021223895252177253 0 0.0023248346628482945 -0.0020878752789591794 0 0.002456375426047327 -0.0018890175334567458 0 -0.0016622574893299304 -0.0012581128267257575 0 -0.00029737157702142911 -0.0014246041835573608 0 0.0014037887666318661 -0.0024986628662612941 0 0.0023230921641569226 -0.0023047238844305113 0 0.002173625487232995 -0.0022980382730009336 0 0.0014037887666318661 -0.0024986628662612941 0 0.002173625487232995 -0.0022980382730009336 0 0.0019026472796536374 -0.0021318147436451664 0 0.0014037887666318661 -0.0024986628662612941 0 0.0019026472796536374 -0.0021318147436451664 0 0.0016035186914150395 -0.0019789975388617717 0 0.002173625487232995 -0.0022980382730009336 0 0.0021393057609772931 -0.0021292484177066729 0 0.0019026472796536374 -0.0021318147436451664 0 0.0021536745133064611 -0.001958204045756945 0 0.0021393057609772931 -0.0021292484177066729 0 0.0019026472796536374 -0.0021318147436451664 0 0.0021536745133064611 -0.001958204045756945 0 0.0019026472796536374 -0.0021318147436451664 0 0.001908216277172092 -0.00188154050934984 0 0.0019026472796536374 -0.0021318147436451664 0 0.001908216277172092 -0.00188154050934984 0 0.0016035186914150395 -0.0019789975388617717 0 0.001908216277172092 -0.00188154050934984 0 0.0017828217274318153 -0.0015377776461884196 0 0.0016035186914150395 -0.0019789975388617717 0 0.0021536745133064611 -0.001958204045756945 0 0.0020747382637398564 -0.0016776636262443015 0 0.001908216277172092 -0.00188154050934984 0 0.0020747382637398564 -0.0016776636262443015 0 0.001908216277172092 -0.00188154050934984 0 0.0017828217274318153 -0.0015377776461884196 0 0.0020747382637398564 -0.0016776636262443015 0 0.0017828217274318153 -0.0015377776461884196 0 0.0021800822523742737 -0.0013112263093426019 0 0.002456375426047327 -0.0018890175334567458 0 0.0023222267865501242 -0.0016307156360547833 0 0.0025930002701456036 -0.0014821604927007259 0 0.0021536745133064611 -0.001958204045756945 0 0.0020747382637398564 -0.0016776636262443015 0 0.0023222267865501242 -0.0016307156360547833 0 0.0021536745133064611 -0.001958204045756945 0 0.002456375426047327 -0.0018890175334567458 0 0.0023222267865501242 -0.0016307156360547833 0 0.0023222267865501242 -0.0016307156360547833 0 0.0025930002701456036 -0.0014821604927007259 0 0.0021800822523742737 -0.0013112263093426019 0 0.0020747382637398564 -0.0016776636262443015 0 0.0023222267865501242 -0.0016307156360547833 0 0.0021800822523742737 -0.0013112263093426019 0 0.0025930002701456036 -0.0014821604927007259 0 0.0021800822523742737 -0.0013112263093426019 0 0.0024803118857942685 -0.00091934695463802643 0 0.0021800822523742737 -0.0013112263093426019 0 0.0024803118857942685 -0.00091934695463802643 0 0.0020551383370357472 -0.00083127066552903114 0 0.0017828217274318153 -0.0015377776461884196 0 0.0021800822523742737 -0.0013112263093426019 0 0.0018057818898100856 -0.0011626010130644422 0 0.0021800822523742737 -0.0013112263093426019 0 0.0018057818898100856 -0.0011626010130644422 0 0.0020551383370357472 -0.00083127066552903114 0 0.0018057818898100856 -0.0011626010130644422 0 0.0020551383370357472 -0.00083127066552903114 0 0.0015829077065750226 -0.00087670394319170307 0 0.0020551383370357472 -0.00083127066552903114 0 0.0024828972759865595 -0.00041151533415517618 0 0.0021223435078612492 -0.00027296355905378832 0 0.0020551383370357472 -0.00083127066552903114 0 0.0017399778494327622 -0.00055115434644310293 0 0.0021223435078612492 -0.00027296355905378832 0 0.0020551383370357472 -0.00083127066552903114 0 0.0017399778494327622 -0.00055115434644310293 0 0.0015829077065750226 -0.00087670394319170307 0 0.0024803118857942685 -0.00091934695463802643 0 0.0020551383370357472 -0.00083127066552903114 0 0.0024828972759865595 -0.00041151533415517618 0 0.0024803118857942685 -0.00091934695463802643 0 0.0024828972759865595 -0.00041151533415517618 0 0.0027447223215064003 -0.0006917266677753149 0 0.0027447223215064003 -0.0006917266677753149 0 0.003124230500720933 -0.00042719204167096687 0 0.0028906990169653667 -0.0010164720540926599 0 0.0024828972759865595 -0.00041151533415517618 0 0.0027447223215064003 -0.0006917266677753149 0 0.003124230500720933 -0.00042719204167096687 0 0.0024803118857942685 -0.00091934695463802643 0 0.0027447223215064003 -0.0006917266677753149 0 0.0028906990169653667 -0.0010164720540926599 0 0.003124230500720933 -0.00042719204167096687 0 0.0033618396015415129 -0.0011701956622159292 0 0.0028906990169653667 -0.0010164720540926599 0 0.0043669504195156554 -0.00092391115581296032 0 0.0043318794392580582 -0.00090391738369121309 0 0.005628780108080292 -0.0014221406254412738 0 0.0053973440536040466 -0.0007496820247283886 0 0.005107148912087617 -0.0012800851990122013 0 0.0030370748364271236 -0.0014716638229226057 0 0.0033618396015415129 -0.0011701956622159292 0 0.0028906990169653667 -0.0010164720540926599 0 0.0025930002701456036 -0.0014821604927007259 0 0.0024803118857942685 -0.00091934695463802643 0 0.0028906990169653667 -0.0010164720540926599 0 0.0030370748364271236 -0.0014716638229226057 0 0.0025930002701456036 -0.0014821604927007259 0 0.0028906990169653667 -0.0010164720540926599 0 -0.00080829418313735108 -0.0017433005479070825 0 -0.00062467275060034582 -0.00097903616582519881 0 -0.0013322941635835351 -0.0018044479321634255 0 -0.00034334954729072517 -0.0018636702541567273 0 -0.00080829418313735108 -0.0017433005479070825 0 -0.00062467275060034582 -0.00097903616582519881 0 -0.00034334954729072517 -0.0018636702541567273 0 -0.00080829418313735108 -0.0017433005479070825 0 -0.00088206089484533774 -0.002256267295315618 0 -0.00080829418313735108 -0.0017433005479070825 0 -0.00088206089484533774 -0.002256267295315618 0 -0.0013322941635835351 -0.0018044479321634255 0 0.00032820768152736922 -0.002940134068110993 0 -0.0010022042816976999 -0.0030003640357763703 0 -0.00088206089484533774 -0.002256267295315618 0 0.00032820768152736922 -0.002940134068110993 0 -0.00034334954729072517 -0.0018636702541567273 0 -0.00088206089484533774 -0.002256267295315618 0 -0.0011216527389738223 -0.0029002457562242899 0 -0.00088206089484533774 -0.002256267295315618 0 -0.0013161987296071219 -0.0026224904224123736 0 -0.0023128111615333814 -0.0027085104910606972 0 -0.001015400374495114 -0.0023373789466720834 0 -0.002492975901726324 -0.0017480260953993201 0 0.00063545660593890795 -0.0025242850572414345 0 0.00036167486984950198 -0.0026550140013728457 0 -0.00034334954729072517 -0.0018636702541567273 0 0.000455043031897716 -0.0020349275088435465 0 -0.00034334954729072517 -0.0018636702541567273 0 0.000455043031897716 -0.0020349275088435465 0 0.00031268702311859306 -0.0015730822965983814 0 -0.00034334954729072517 -0.0018636702541567273 0 0.00031268702311859306 -0.0015730822965983814 0 1.5052742756087882e-06 -0.0012646927939197702 0 0.000455043031897716 -0.0020349275088435465 0 0.00073262589029347814 -0.0017417835140936557 0 0.0010939100410772521 -0.0020713923901557766 0 0.0011044964810768118 -0.0014730932927692168 0 0.00073262589029347814 -0.0017417835140936557 0 0.0010939100410772521 -0.0020713923901557766 0 0.00031268702311859306 -0.0015730822965983814 0 0.00073262589029347814 -0.0017417835140936557 0 0.00063451597716135508 -0.0012856038702071442 0 0.0011044964810768118 -0.0014730932927692168 0 0.00073262589029347814 -0.0017417835140936557 0 0.00063451597716135508 -0.0012856038702071442 0 0.000455043031897716 -0.0020349275088435465 0 0.00031268702311859306 -0.0015730822965983814 0 0.00073262589029347814 -0.0017417835140936557 0 0.0014037887666318661 -0.0024986628662612941 0 0.00036167486984950198 -0.0026550140013728457 0 0.0010939100410772521 -0.0020713923901557766 0 0.00036167486984950198 -0.0026550140013728457 0 0.000455043031897716 -0.0020349275088435465 0 0.0010939100410772521 -0.0020713923901557766 0 0.0014037887666318661 -0.0024986628662612941 0 0.0010939100410772521 -0.0020713923901557766 0 0.0016035186914150395 -0.0019789975388617717 0 0.0011044964810768118 -0.0014730932927692168 0 0.0010939100410772521 -0.0020713923901557766 0 0.0014520168635838943 -0.0016691158197168715 0 0.0017828217274318153 -0.0015377776461884196 0 0.0016035186914150395 -0.0019789975388617717 0 0.0014520168635838943 -0.0016691158197168715 0 0.0010939100410772521 -0.0020713923901557766 0 0.0016035186914150395 -0.0019789975388617717 0 0.0014520168635838943 -0.0016691158197168715 0 0.0011044964810768118 -0.0014730932927692168 0 0.0014520168635838943 -0.0016691158197168715 0 0.0013918504610972837 -0.0012326840297978466 0 0.0017828217274318153 -0.0015377776461884196 0 0.0014520168635838943 -0.0016691158197168715 0 0.0013918504610972837 -0.0012326840297978466 0 0.0017828217274318153 -0.0015377776461884196 0 0.0018057818898100856 -0.0011626010130644422 0 0.0013918504610972837 -0.0012326840297978466 0 0.0011044964810768118 -0.0014730932927692168 0 0.0013918504610972837 -0.0012326840297978466 0 0.00098428800300777268 -0.0011233025936104187 0 0.0013918504610972837 -0.0012326840297978466 0 0.00119797116673606 -0.00087554017121283824 0 0.00098428800300777268 -0.0011233025936104187 0 0.0013918504610972837 -0.0012326840297978466 0 0.00119797116673606 -0.00087554017121283824 0 0.0015829077065750226 -0.00087670394319170307 0 0.0018057818898100856 -0.0011626010130644422 0 0.0013918504610972837 -0.0012326840297978466 0 0.0015829077065750226 -0.00087670394319170307 0 0.0017399778494327622 -0.00055115434644310293 0 0.0015829077065750226 -0.00087670394319170307 0 0.0013514016800084674 -0.00050555808391463254 0 0.0017399778494327622 -0.00055115434644310293 0 0.0013514016800084674 -0.00050555808391463254 0 0.0016130241886078158 -0.00021317990278353505 0 0.00119797116673606 -0.00087554017121283824 0 0.0013514016800084674 -0.00050555808391463254 0 0.0010620883596757836 -0.00062744340390529256 0 0.00119797116673606 -0.00087554017121283824 0 0.0015829077065750226 -0.00087670394319170307 0 0.0013514016800084674 -0.00050555808391463254 0 0.00119797116673606 -0.00087554017121283824 0 0.0010620883596757836 -0.00062744340390529256 0 0.00084237995632119376 -0.00085185560597863467 0 0.0010620883596757836 -0.00062744340390529256 0 0.00045123723562978213 -0.00082323982094524345 0 0.0009516345703392612 -0.00031078447948023702 0 0.0031952562755620619 -0.00083903507324122441 0 0.0035942717459322292 -0.0010049023789664533 0 0.0013514016800084674 -0.00050555808391463254 0 0.0010620883596757836 -0.00062744340390529256 0 0.0009516345703392612 -0.00031078447948023702 0 0.0010620883596757836 -0.00062744340390529256 0 0.00084237995632119376 -0.00085185560597863467 0 0.00045123723562978213 -0.00082323982094524345 0 0.00057884869225779858 -0.00089478438376678889 0 0.00084237995632119376 -0.00085185560597863467 0 0.00045123723562978213 -0.00082323982094524345 0 0.00057884869225779858 -0.00089478438376678889 0 0.00070077010634345387 -0.0010330459188366216 0 0.00084237995632119376 -0.00085185560597863467 0 0.00057884869225779858 -0.00089478438376678889 0 0.00070077010634345387 -0.0010330459188366216 0 0.00051773645801062658 -0.0010208464949323594 0 0.00070077010634345387 -0.0010330459188366216 0 0.00084237995632119376 -0.00085185560597863467 0 0.00098428800300777268 -0.0011233025936104187 0 0.00119797116673606 -0.00087554017121283824 0 0.00084237995632119376 -0.00085185560597863467 0 0.00098428800300777268 -0.0011233025936104187 0 0.0011044964810768118 -0.0014730932927692168 0 0.00098428800300777268 -0.0011233025936104187 0 0.00063451597716135508 -0.0012856038702071442 0 0.00070077010634345387 -0.0010330459188366216 0 0.00098428800300777268 -0.0011233025936104187 0 0.00063451597716135508 -0.0012856038702071442 0 0.00070077010634345387 -0.0010330459188366216 0 0.00063451597716135508 -0.0012856038702071442 0 0.00051773645801062658 -0.0010208464949323594 0 0.0031952562755620619 -0.00083903507324122441 0 0.0027047262182071834 -0.0014514444438360821 0 0.0061221286511445819 -0.001789397693434747 0 0.0059939180826261125 -0.0017104151129292979 0 0.0058005943501216045 -0.0018963209006370302 0 1.5052742756087882e-06 -0.0012646927939197702 0 0.00045123723562978213 -0.00082323982094524345 0 -0.00062467275060034582 -0.00097903616582519881 0 0.00031268702311859306 -0.0015730822965983814 0 0.00032498404775715978 -0.0011172535797955739 0 1.5052742756087882e-06 -0.0012646927939197702 0 0.00031268702311859306 -0.0015730822965983814 0 0.00063451597716135508 -0.0012856038702071442 0 0.00032498404775715978 -0.0011172535797955739 0 0.00063451597716135508 -0.0012856038702071442 0 0.00032498404775715978 -0.0011172535797955739 0 0.00051773645801062658 -0.0010208464949323594 0 0.00032498404775715978 -0.0011172535797955739 0 1.5052742756087882e-06 -0.0012646927939197702 0 0.00045123723562978213 -0.00082323982094524345 0 0.00032498404775715978 -0.0011172535797955739 0 0.00051773645801062658 -0.0010208464949323594 0 0.00045123723562978213 -0.00082323982094524345 0 0.00057884869225779858 -0.00089478438376678889 0 0.00051773645801062658 -0.0010208464949323594 0 0.00045123723562978213 -0.00082323982094524345 0 0.0061018599245081587 -0.0016483453852198301 0 0.0060463479091973906 -0.0015735605822524816 0 0.0062314754574259151 -0.0015437914577530799 0 0.0061221286511445819 -0.001789397693434747 0 0.0061018599245081587 -0.0016483453852198301 0 0.0059939180826261125 -0.0017104151129292979 0 0.0061221286511445819 -0.001789397693434747 0 0.0061018599245081587 -0.0016483453852198301 0 0.0062314754574259151 -0.0015437914577530799 0 0.0061018599245081587 -0.0016483453852198301 0 0.0060463479091973906 -0.0015735605822524816 0 0.0059939180826261125 -0.0017104151129292979 0 0.0059939180826261125 -0.0017104151129292979 0 0.0057790187261299638 -0.0015373647520817023 0 0.0058005943501216045 -0.0018963209006370302 0 0.0060463479091973906 -0.0015735605822524816 0 0.0059939180826261125 -0.0017104151129292979 0 0.0057790187261299638 -0.0015373647520817023 0 -0.00034334954729072517 -0.0018636702541567273 0 1.5052742756087882e-06 -0.0012646927939197702 0 -0.00062467275060034582 -0.00097903616582519881 0 0.0078633882876303039 -0.0012302124004276874 0 0.0080933702539055675 -0.00083757479037552642 0 0.0073573442840569143 -0.0008293900497403807 0 0.0078633882876303039 -0.0012302124004276874 0 0.0077521875598908123 -0.00181614004255193 0 0.008453053315743397 -0.0012197858781889568 0 0.0078633882876303039 -0.0012302124004276874 0 0.0080933702539055675 -0.00083757479037552642 0 0.008453053315743397 -0.0012197858781889568 0 0.008195735399248243 -0.00030265494719075082 0 0.0080933702539055675 -0.00083757479037552642 0 0.0073573442840569143 -0.0008293900497403807 0 0.008195735399248243 -0.00030265494719075082 0 0.0080933702539055675 -0.00083757479037552642 0 0.0085533199261172699 -0.00062727284142363325 0 0.006871375332496891 -0.00098922976125894271 0 0.0067527702983511363 -0.0011274536630298711 0 0.0060463479091973906 -0.0015735605822524816 0 0.0057790187261299638 -0.0015373647520817023 0 0.0061372215743054808 -0.0014099471508456462 0 0.0060463479091973906 -0.0015735605822524816 0 0.0061372215743054808 -0.0014099471508456462 0 0.0062314754574259151 -0.0015437914577530799 0 0.0078633882876303039 -0.0012302124004276874 0 0.0073573442840569143 -0.0008293900497403807 0 0.0073683125597216563 -0.0012810647247404419 0 0.0078633882876303039 -0.0012302124004276874 0 0.0073683125597216563 -0.0012810647247404419 0 0.0076531510601975982 -0.0016578455693447586 0 0.0073573442840569143 -0.0008293900497403807 0 0.0073683125597216563 -0.0012810647247404419 0 0.0069367327873053322 -0.0014314641553875708 0 0.0061372215743054808 -0.0014099471508456462 0 0.0063004432195433628 -0.0014278932258785292 0 0.0063670800163714509 -0.0015182208007104843 0 0.0073573442840569143 -0.0008293900497403807 0 0.0063670800163714509 -0.0015182208007104843 0 0.0069367327873053322 -0.0014314641553875708 0 0.0067527702983511363 -0.0011274536630298711 0 0.0063630715344654767 -0.0015052301730614276 0 0.0035942717459322292 -0.0010049023789664533 0 0.003706702009368788 -0.00073283783886059065 0 0.0061372215743054808 -0.0014099471508456462 0 0.0062314754574259151 -0.0015437914577530799 0 0.0063004432195433628 -0.0014278932258785292 0 0.0013514016800084674 -0.00050555808391463254 0 0.0009516345703392612 -0.00031078447948023702 0 0.0016130241886078158 -0.00021317990278353505 0 0.0009516345703392612 -0.00031078447948023702 0 0.0016130241886078158 -0.00021317990278353505 0 0.0013446808190905343 0.00016367694460316231 0 0.0016130241886078158 -0.00021317990278353505 0 0.0013446808190905343 0.00016367694460316231 0 0.0018477274687883859 8.4198499448239828e-05 0 0.003706702009368788 -0.00073283783886059065 0 0.0048673517530896234 -0.00012430932988733638 0 0.0063004432195433628 -0.0014278932258785292 0 0.0060639534165368341 -0.0015824852102564073 0 0.0063670800163714509 -0.0015182208007104843 0 0.0013446808190905343 0.00016367694460316231 0 0.0017009729509408337 0.00073722731734051793 0 0.0018477274687883859 8.4198499448239828e-05 0 0.0048673517530896234 -0.00012430932988733638 0 0.0081067200107294811 -0.00047459037757317237 0 0.006490611660583203 0.0016458738206165501 0 0.007701769843847738 0.0004672879501398567 0 0.0070971811721570917 -0.00080877670149003694 0 0.006490611660583203 0.0016458738206165501 0 0.007701769843847738 0.0004672879501398567 0 0.0093151531168448216 0.00095969224345712647 0 0.0070971811721570917 -0.00080877670149003694 0 0.0044835953442925128 -0.0020171572006524156 0 0.006401376893071983 -0.0025404269919016716 0 0.006490611660583203 0.0016458738206165501 0 0.0070971811721570917 -0.00080877670149003694 0 0.0044835953442925128 -0.0020171572006524156 0 0.0070971811721570917 -0.00080877670149003694 0 0.0086651366071707203 -0.00040492733971695337 0 0.0084892123129661975 -0.0018124028465860533 0 0.0070971811721570917 -0.00080877670149003694 0 0.0084892123129661975 -0.0018124028465860533 0 0.006401376893071983 -0.0025404269919016716 0 0.007701769843847738 0.0004672879501398567 0 0.0070971811721570917 -0.00080877670149003694 0 0.0086651366071707203 -0.00040492733971695337 0 0.0086651366071707203 -0.00040492733971695337 0 0.010013208732440416 -0.00082976808159143092 0 0.0093151531168448216 0.00095969224345712647 0 0.0084892123129661975 -0.0018124028465860533 0 0.010013208732440416 -0.00082976808159143092 0 0.010968663277537632 -0.0022547495997581727 0 0.0086651366071707203 -0.00040492733971695337 0 0.0084892123129661975 -0.0018124028465860533 0 0.010013208732440416 -0.00082976808159143092 0 0.010013208732440416 -0.00082976808159143092 0 0.0093151531168448216 0.00095969224345712647 0 0.010923574398887663 -0.00011010269137742547 0 0.0060639534165368341 -0.0015824852102564073 0 0.0065090767174209351 -0.001840345729176542 0 0.0063670800163714509 -0.0015182208007104843 0 0.007701769843847738 0.0004672879501398567 0 0.0086651366071707203 -0.00040492733971695337 0 0.0093151531168448216 0.00095969224345712647 0 0.0065090767174209351 -0.001840345729176542 0 0.0063670800163714509 -0.0015182208007104843 0 0.0069367327873053322 -0.0014314641553875708 0 0.0065090767174209351 -0.001840345729176542 0 0.0069367327873053322 -0.0014314641553875708 0 0.0070811258800618088 -0.0016639459877141655 0 0.0093151531168448216 0.00095969224345712647 0 0.012136872372815901 0.00027477468933676349 0 0.010923574398887663 -0.00011010269137742547 0 0.0065090767174209351 -0.001840345729176542 0 0.0070811258800618088 -0.0016639459877141655 0 0.007436206717649948 -0.0021262985280005556 0 0.0081067200107294811 -0.00047459037757317237 0 0.010191107860426952 -0.00074038247790605754 0 0.0073683125597216563 -0.0012810647247404419 0 0.0069367327873053322 -0.0014314641553875708 0 0.0070811258800618088 -0.0016639459877141655 0 0.0073683125597216563 -0.0012810647247404419 0 0.0070811258800618088 -0.0016639459877141655 0 0.0073945954262727336 -0.001590120649756919 0 0.0073683125597216563 -0.0012810647247404419 0 0.0073945954262727336 -0.001590120649756919 0 0.0076531510601975982 -0.0016578455693447586 0 0.0070811258800618088 -0.0016639459877141655 0 0.0073945954262727336 -0.001590120649756919 0 0.0074699049285345135 -0.0017628197746061699 0 0.0076531510601975982 -0.0016578455693447586 0 0.0074699049285345135 -0.0017628197746061699 0 0.0077676376978015379 -0.0018416073347926167 0 0.0073945954262727336 -0.001590120649756919 0 0.0076531510601975982 -0.0016578455693447586 0 0.0074699049285345135 -0.0017628197746061699 0 0.0070811258800618088 -0.0016639459877141655 0 0.0074699049285345135 -0.0017628197746061699 0 0.007436206717649948 -0.0021262985280005556 0 0.0074699049285345135 -0.0017628197746061699 0 0.007436206717649948 -0.0021262985280005556 0 0.0077676376978015379 -0.0018416073347926167 0 0.010191107860426952 -0.00074038247790605754 0 0.010314859630571271 -0.0011367674525609912 0 0.012136872372815901 0.00027477468933676349 0 0.010923574398887663 -0.00011010269137742547 0 0.011768190325912144 -3.53781109823077e-05 0 0.010013208732440416 -0.00082976808159143092 0 0.010923574398887663 -0.00011010269137742547 0 0.011384601561513292 -0.00092160835070283209 0 0.011384601561513292 -0.00092160835070283209 0 0.014145938137428319 -0.00045435297751373401 0 0.010968663277537632 -0.0022547495997581727 0 0.011384601561513292 -0.00092160835070283209 0 0.011768190325912144 -3.53781109823077e-05 0 0.014145938137428319 -0.00045435297751373401 0 0.019895575708910866 -0.0011066302371528433 0 0.019570172015057282 -0.0020776231093430956 0 0.018427747878427402 -0.0019586744676433876 0 0.016408814518440062 -0.0014616837870198248 0 0.014476339964844704 -0.0021113757663467274 0 0.010923574398887663 -0.00011010269137742547 0 0.011384601561513292 -0.00092160835070283209 0 0.011768190325912144 -3.53781109823077e-05 0 0.010013208732440416 -0.00082976808159143092 0 0.011384601561513292 -0.00092160835070283209 0 0.010968663277537632 -0.0022547495997581727 0 0.012140162459656861 0.00027462855886221834 0 0.011768190325912144 -3.53781109823077e-05 0 0.013989054813183122 -0.00017948403149660989 0 0.010191107860426952 -0.00074038247790605754 0 0.010664999898839811 -0.00040141570266380151 0 0.010191107860426952 -0.00074038247790605754 0 0.014638484938651868 -0.001051158380704199 0 0.011768190325912144 -3.53781109823077e-05 0 0.013989054813183122 -0.00017948403149660989 0 0.014145938137428319 -0.00045435297751373401 0 0.017454699644164857 -0.0016109540269138307 0 0.017465293544908462 -0.0016051162254533771 0 0.017509739664176776 -0.0016928963841968861 0 0.014638484938651868 -0.001051158380704199 0 0.016408814518440062 -0.0014616837870198248 0 0.016408814518440062 -0.0014616837870198248 0 0.018967142980357683 -0.0018442507802320604 0 0.019895575708910866 -0.0011066302371528433 0 0.020534219554387015 -0.0021761341276882811 0 0.019570172015057282 -0.0020776231093430956 0 0.012785870222440342 -0.00092633666228840374 0 0.012748786959634788 -0.0009166023627610962 0 0.012696684142121273 -0.0010365825969878542 0 0.016180198223827807 -0.0019113934379342574 0 0.016013289711746474 -0.0016154424184618356 0 0.015700532787342791 -0.0017959875717189981 0 0.014638484938651868 -0.001051158380704199 0 0.015871138633400686 -0.0015218199880183473 0 0.016408814518440062 -0.0014616837870198248 0 0.015871138633400686 -0.0015218199880183473 0 0.012696684142121273 -0.0010365825969878542 0 0.01284202429852113 -0.0010462625459553665 0 0.012598303998144923 -0.0012448093969478142 0 0.010314859630571271 -0.0011367674525609912 0 0.01057626445573966 -0.001277402179360642 0 0.012785870222440342 -0.00092633666228840374 0 0.012696684142121273 -0.0010365825969878542 0 0.01284202429852113 -0.0010462625459553665 0 0.010772441816644407 -0.0009418002444581523 0 0.012604915485673234 -0.0013875071287526254 0 0.011838203654851795 -5.0503006516099632e-05 0 0.014638484938651868 -0.001051158380704199 0 0.010314859630571271 -0.0011367674525609912 0 0.0078633882876303039 -0.0012302124004276874 0 0.0076531510601975982 -0.0016578455693447586 0 0.0077521875598908123 -0.00181614004255193 0 0.0097041719125820249 -0.001000245568004986 0 0.010314859630571271 -0.0011367674525609912 0 0.0059154296415339057 -0.0020284736040067902 0 0.0053005653977355408 -0.0019503001140054165 0 0.0055082929499490453 -0.0022927458195106673 0 0.0053005653977355408 -0.0019503001140054165 0 0.0055082929499490453 -0.0022927458195106673 0 0.0051427159053907805 -0.0025033851186080694 0 0.005628780108080292 -0.0014221406254412738 0 0.0053005653977355408 -0.0019503001140054165 0 0.005107148912087617 -0.0012800851990122013 0 0.005628780108080292 -0.0014221406254412738 0 0.0059154296415339057 -0.0020284736040067902 0 0.0053005653977355408 -0.0019503001140054165 0 0.0043669504195156554 -0.00092391115581296032 0 0.0044501953875619787 -0.00094434775147687802 0 0.003124230500720933 -0.00042719204167096687 0 0.002760545114834504 0.00027764645044788683 0 0.0025949350762394718 -3.145254791602762e-06 0 0.0024828972759865595 -0.00041151533415517618 0 0.003124230500720933 -0.00042719204167096687 0 0.0025949350762394718 -3.145254791602762e-06 0 0.0024828972759865595 -0.00041151533415517618 0 0.0025949350762394718 -3.145254791602762e-06 0 0.0021223435078612492 -0.00027296355905378832 0 0.0025949350762394718 -3.145254791602762e-06 0 0.0021223435078612492 -0.00027296355905378832 0 0.002310254695259791 0.00012550249091904225 0 0.0016130241886078158 -0.00021317990278353505 0 0.0021223435078612492 -0.00027296355905378832 0 0.0018477274687883859 8.4198499448239828e-05 0 0.0021223435078612492 -0.00027296355905378832 0 0.002310254695259791 0.00012550249091904225 0 0.0018477274687883859 8.4198499448239828e-05 0 0.0017399778494327622 -0.00055115434644310293 0 0.0016130241886078158 -0.00021317990278353505 0 0.0021223435078612492 -0.00027296355905378832 0 0.0017009729509408337 0.00073722731734051793 0 0.002310254695259791 0.00012550249091904225 0 0.0028105264321194134 0.00028164749055033028 0 0.0017009729509408337 0.00073722731734051793 0 0.002310254695259791 0.00012550249091904225 0 0.0018477274687883859 8.4198499448239828e-05 0 0.0025949350762394718 -3.145254791602762e-06 0 0.002310254695259791 0.00012550249091904225 0 0.0028105264321194134 0.00028164749055033028 0 0.002760545114834504 0.00027764645044788683 0 0.0025949350762394718 -3.145254791602762e-06 0 0.0028105264321194134 0.00028164749055033028 0 0.002760545114834504 0.00027764645044788683 0 0.0028105264321194134 0.00028164749055033028 0 0.0025487395234439171 -0.00055827671277698047 0 0.0028105264321194134 0.00028164749055033028 0 0.0025487395234439171 -0.00055827671277698047 0 0.0037464801808471285 -0.00065338262715682049 0 0.0053143656145799309 2.9544025527150995e-06 0 0.0028105264321194134 0.00028164749055033028 0 0.0037464801808471285 -0.00065338262715682049 0 0.0048673517530896234 -0.00012430932988733638 0 0.0022500817937836032 0.00050178064139077064 0 0.0037464801808471285 -0.00065338262715682049 0 0.0044835953442925128 -0.0020171572006524156 0 0.0034915241349582739 -0.0015237750389992207 0 0.0053143656145799309 2.9544025527150995e-06 0 0.0037464801808471285 -0.00065338262715682049 0 0.0044835953442925128 -0.0020171572006524156 0 0.0048673517530896234 -0.00012430932988733638 0 0.0049026988047268004 -0.001440464707975483 0 0.0034604644319981732 -0.0016801450385383074 0 0.013398841639432411 -0.0016113226291595646 0 0.0025487395234439171 -0.00055827671277698047 0 0.0034915241349582739 -0.0015237750389992207 0 0.0031739091833554449 -0.0030000884891942785 0 0.0025487395234439171 -0.00055827671277698047 0 0.0037464801808471285 -0.00065338262715682049 0 0.0034915241349582739 -0.0015237750389992207 0 0.0044835953442925128 -0.0020171572006524156 0 0.0034915241349582739 -0.0015237750389992207 0 0.0031739091833554449 -0.0030000884891942785 0 0.0062595273288957561 -0.002668742600903759 0 0.0056797680990965911 -0.0026957387209706955 0 0.0058827603145810582 -0.0032421005528071108 0 0.0062595273288957561 -0.002668742600903759 0 0.0058827603145810582 -0.0032421005528071108 0 0.0066313114808084425 -0.0033903891908262265 0 0.0059154296415339057 -0.0020284736040067902 0 0.0062595273288957561 -0.002668742600903759 0 0.0056797680990965911 -0.0026957387209706955 0 0.0044501953875619787 -0.00094434775147687802 0 0.0034604644319981732 -0.0016801450385383074 0 0.0059154296415339057 -0.0020284736040067902 0 0.0055082929499490453 -0.0022927458195106673 0 0.0056797680990965911 -0.0026957387209706955 0 0.0055082929499490453 -0.0022927458195106673 0 0.0056797680990965911 -0.0026957387209706955 0 0.0051427159053907805 -0.0025033851186080694 0 0.0056797680990965911 -0.0026957387209706955 0 0.0052043504940982232 -0.0030791858387950789 0 0.0051427159053907805 -0.0025033851186080694 0 0.0056797680990965911 -0.0026957387209706955 0 0.0052043504940982232 -0.0030791858387950789 0 0.0058827603145810582 -0.0032421005528071108 0 0.0052043504940982232 -0.0030791858387950789 0 0.004868249255441652 -0.0027264288615562893 0 0.0051427159053907805 -0.0025033851186080694 0 0.0052043504940982232 -0.0030791858387950789 0 0.004868249255441652 -0.0027264288615562893 0 0.0045767699636477688 -0.0029047110851951573 0 0.01065561918944668 -0.0019666484268773894 0 0.01174529669202249 -0.0013707070598799683 0 0.016625029628376121 -0.0008549105771074435 0 0.016110416463312877 -0.00075894769786196857 0 0.016309415028749288 -0.0010045339890997467 0 0.015656148643999043 -0.00062061512065679947 0 0.015821723914466311 -0.00065062317832368494 0 0.016309415028749288 -0.0010045339890997467 0 0.01414719237794288 -0.0013927987897578297 0 0.024458229110382524 0.00035478239936369635 0 0.020090979517824452 0.00055061244456247117 0 0.019332808476957564 -0.0008378039372456212 0 0.022815636271304746 -0.0012138135943621452 0 0.016625029628376121 -0.0008549105771074435 0 0.015855519760894242 -0.00064009810741563321 0 0.016110416463312877 -0.00075894769786196857 0 0.01414719237794288 -0.0013927987897578297 0 0.01174529669202249 -0.0013707070598799683 0 0.015821723914466311 -0.00065062317832368494 0 0.016110416463312877 -0.00075894769786196857 0 0.016309415028749288 -0.0010045339890997467 0 0.01174529669202249 -0.0013707070598799683 0 0.015355893582733902 -0.0017761469431554022 0 0.004868249255441652 -0.0027264288615562893 0 0.0045767699636477688 -0.0029047110851951573 0 0.0045508090122609902 -0.002659801063132326 0 0.0045767699636477688 -0.0029047110851951573 0 0.0045508090122609902 -0.002659801063132326 0 0.0043731732744100409 -0.002802644079595502 0 0.011192136803679253 -0.0016797863463932998 0 0.012410857012148864 -0.0019551161531417911 0 0.010260520454512888 -0.0010514721968694666 0 0.01174529669202249 -0.0013707070598799683 0 0.0085587171442309973 -0.0011934356715350134 0 0.0045508090122609902 -0.002659801063132326 0 0.0046465872801637565 -0.002453174529193556 0 0.004296611981264473 -0.0024206765187047472 0 0.004868249255441652 -0.0027264288615562893 0 0.0045508090122609902 -0.002659801063132326 0 0.0046465872801637565 -0.002453174529193556 0 0.0046465872801637565 -0.002453174529193556 0 0.0045015813905199759 -0.0022301720039929231 0 0.004296611981264473 -0.0024206765187047472 0 0.004868249255441652 -0.0027264288615562893 0 0.0046465872801637565 -0.002453174529193556 0 0.0051427159053907805 -0.0025033851186080694 0 0.0046465872801637565 -0.002453174529193556 0 0.0051427159053907805 -0.0025033851186080694 0 0.0047736296742131815 -0.0021315532088919883 0 0.0053005653977355408 -0.0019503001140054165 0 0.0051427159053907805 -0.0025033851186080694 0 0.0047736296742131815 -0.0021315532088919883 0 0.0053005653977355408 -0.0019503001140054165 0 0.0047736296742131815 -0.0021315532088919883 0 0.0047529765216865723 -0.0016602890291309532 0 0.0047736296742131815 -0.0021315532088919883 0 0.0044207306283807809 -0.0019311732489329743 0 0.0047529765216865723 -0.0016602890291309532 0 0.0046465872801637565 -0.002453174529193556 0 0.0047736296742131815 -0.0021315532088919883 0 0.0045015813905199759 -0.0022301720039929231 0 0.0047736296742131815 -0.0021315532088919883 0 0.0045015813905199759 -0.0022301720039929231 0 0.0044207306283807809 -0.0019311732489329743 0 0.0045015813905199759 -0.0022301720039929231 0 0.0044207306283807809 -0.0019311732489329743 0 0.0042471566847477648 -0.0021422611276519709 0 0.0044207306283807809 -0.0019311732489329743 0 0.0044019868664604512 -0.0015931583895271264 0 0.0047529765216865723 -0.0016602890291309532 0 0.0044019868664604512 -0.0015931583895271264 0 0.0047529765216865723 -0.0016602890291309532 0 0.0044698724466354506 -0.0012371284796572945 0 0.0044207306283807809 -0.0019311732489329743 0 0.0044019868664604512 -0.0015931583895271264 0 0.0041982484960281967 -0.0017416926602287807 0 0.0053005653977355408 -0.0019503001140054165 0 0.0047529765216865723 -0.0016602890291309532 0 0.005107148912087617 -0.0012800851990122013 0 0.0038993905018790136 -0.002195619561705912 0 0.0041982108907698693 -0.0023888863071604874 0 0.003542190524016772 -0.0016737299386367494 0 0.0038302118727338566 -0.0021169724069119082 0 0.0031323941720369777 -0.0018824077457899053 0 0.003542190524016772 -0.0016737299386367494 0 0.0038924767978013616 -0.0017197803208909282 0 0.0038302118727338566 -0.0021169724069119082 0 0.003542190524016772 -0.0016737299386367494 0 0.0031323941720369777 -0.0018824077457899053 0 0.0032134085992935641 -0.0014297626774290948 0 0.003542190524016772 -0.0016737299386367494 0 0.0038924767978013616 -0.0017197803208909282 0 0.0036186831950071391 -0.001306674982541692 0 0.0038924767978013616 -0.0017197803208909282 0 0.0041982484960281967 -0.0017416926602287807 0 0.0040889653417918691 -0.0014362502282330321 0 0.0044019868664604512 -0.0015931583895271264 0 0.0041982484960281967 -0.0017416926602287807 0 0.0040889653417918691 -0.0014362502282330321 0 0.0044207306283807809 -0.0019311732489329743 0 0.0041982484960281967 -0.0017416926602287807 0 0.0040924197729223432 -0.0019711219422904849 0 0.0038924767978013616 -0.0017197803208909282 0 0.0040924197729223432 -0.0019711219422904849 0 0.0038302118727338566 -0.0021169724069119082 0 0.0038924767978013616 -0.0017197803208909282 0 0.0041982484960281967 -0.0017416926602287807 0 0.0040924197729223432 -0.0019711219422904849 0 0.0040924197729223432 -0.0019711219422904849 0 0.0040075928767659341 -0.002042363208467872 0 0.0042471566847477648 -0.0021422611276519709 0 0.0040924197729223432 -0.0019711219422904849 0 0.0040075928767659341 -0.002042363208467872 0 0.0038302118727338566 -0.0021169724069119082 0 0.0044207306283807809 -0.0019311732489329743 0 0.0040924197729223432 -0.0019711219422904849 0 0.0042471566847477648 -0.0021422611276519709 0 0.0040075928767659341 -0.002042363208467872 0 0.0040360755108609855 -0.0021644335623642839 0 0.0041348072602596531 -0.0022177000674134949 0 0.0040075928767659341 -0.002042363208467872 0 0.0042471566847477648 -0.0021422611276519709 0 0.0041348072602596531 -0.0022177000674134949 0 0.0040075928767659341 -0.002042363208467872 0 0.0039905281649056865 -0.0018711224013262437 0 0.0040360755108609855 -0.0021644335623642839 0 0.0038302118727338566 -0.0021169724069119082 0 0.0049047584561803604 -0.0020260961441427461 0 0.005344154343060464 -0.0029817986382293096 0 0.0038302118727338566 -0.0021169724069119082 0 0.0039905281649056865 -0.0018711224013262437 0 0.0049047584561803604 -0.0020260961441427461 0 0.0040075928767659341 -0.002042363208467872 0 0.0038302118727338566 -0.0021169724069119082 0 0.0039905281649056865 -0.0018711224013262437 0 0.0039905281649056865 -0.0018711224013262437 0 0.0049047584561803604 -0.0020260961441427461 0 0.0052465738777620228 -0.0010820664075557097 0 0.0039905281649056865 -0.0018711224013262437 0 0.0042411577130084437 0.00039805960684687763 0 0.0052465738777620228 -0.0010820664075557097 0 0.0035345887600320876 -0.0018436632520674341 0 0.0075999475189575325 -0.0012823577124101138 0 0.0039905281649056865 -0.0018711224013262437 0 0.0040360755108609855 -0.0021644335623642839 0 0.0037950214808499393 -0.0025534235025151796 0 0.0040360755108609855 -0.0021644335623642839 0 0.0037950214808499393 -0.0025534235025151796 0 0.0040989965618365171 -0.0023585985488967683 0 0.0037950214808499393 -0.0025534235025151796 0 0.0040989965618365171 -0.0023585985488967683 0 0.0041727392399143019 -0.0026409307509578598 0 0.010399053693151243 -0.0016096407234735786 0 0.01038246660289464 -0.0017785888727671353 0 0.0099556022957135466 -0.0017083739608402591 0 0.0045015813905199759 -0.0022301720039929231 0 0.0042471566847477648 -0.0021422611276519709 0 0.004296611981264473 -0.0024206765187047472 0 0.0042471566847477648 -0.0021422611276519709 0 0.004296611981264473 -0.0024206765187047472 0 0.0041348072602596531 -0.0022177000674134949 0 0.004296611981264473 -0.0024206765187047472 0 0.0041348072602596531 -0.0022177000674134949 0 0.0040989965618365171 -0.0023585985488967683 0 0.0040360755108609855 -0.0021644335623642839 0 0.0041348072602596531 -0.0022177000674134949 0 0.0040989965618365171 -0.0023585985488967683 0 0.004296611981264473 -0.0024206765187047472 0 0.0040989965618365171 -0.0023585985488967683 0 0.0041727392399143019 -0.0026409307509578598 0 0.0045508090122609902 -0.002659801063132326 0 0.004296611981264473 -0.0024206765187047472 0 0.0043731732744100409 -0.002802644079595502 0 0.004296611981264473 -0.0024206765187047472 0 0.0043731732744100409 -0.002802644079595502 0 0.0041727392399143019 -0.0026409307509578598 0 0.018678973398313699 0.00028308700277098245 0 0.025290256745607122 0.00062447102778152223 0 0.0075999475189575325 -0.0012823577124101138 0 0.0085587171442309973 -0.0011934356715350134 0 0.0037950214808499393 -0.0025534235025151796 0 0.0044348404538344611 -0.0028019105040296096 0 0.0041727392399143019 -0.0026409307509578598 0 0.01414719237794288 -0.0013927987897578297 0 0.01206738652383473 -0.00049763251325605389 0 0.011744857270276623 -0.0015851945671100111 0 0.011452168129089595 -0.0013920419997161051 0 0.0095391335753621034 -0.0011058794359078909 0 0.020090979517824452 0.00055061244456247117 0 0.016057007267776181 0.0013920968582680142 0 0.019332808476957564 -0.0008378039372456212 0 0.0085587171442309973 -0.0011934356715350134 0 0.0048836746985807776 -0.0013276312755662401 0 0.01414719237794288 -0.0013927987897578297 0 0.0085587171442309973 -0.0011934356715350134 0 0.00958767893501241 -0.00062930324095784157 0 0.011452168129089595 -0.0013920419997161051 0 0.0095391335753621034 -0.0011058794359078909 0 0.016057007267776181 0.0013920968582680142 0 0.015868745320031755 -0.00046435154172042248 0 0.019332808476957564 -0.0008378039372456212 0 0.010542953063426796 -0.0017681120602552167 0 0.010201752350627155 -0.0019648625449302671 0 0.0099556022957135466 -0.0017083739608402591 0 0.01206738652383473 -0.00049763251325605389 0 0.0097961310282140557 -0.0013686205253801149 0 0.0075999475189575325 -0.0012823577124101138 0 0.01206738652383473 -0.00049763251325605389 0 0.010542953063426796 -0.0017681120602552167 0 0.010500073305541043 -0.0022341592225819107 0 0.010201752350627155 -0.0019648625449302671 0 0.01206738652383473 -0.00049763251325605389 0 0.018678973398313699 0.00028308700277098245 0 0.018678973398313699 0.00028308700277098245 0 0.012791533992035919 -0.00059902067189991604 0 0.017620583491104794 0.00062606631073891864 0 0.015283218805933366 0.00087535105690708507 0 0.017500668617581341 -0.00052923562795105766 0 0.019966104725508797 0.00037708391057172811 0 0.017620583491104794 0.00062606631073891864 0 0.017500668617581341 -0.00052923562795105766 0 0.010500073305541043 -0.0022341592225819107 0 0.010201752350627155 -0.0019648625449302671 0 0.0098370075038171512 -0.0021398051812303114 0 0.010201752350627155 -0.0019648625449302671 0 0.0098370075038171512 -0.0021398051812303114 0 0.0099556022957135466 -0.0017083739608402591 0 0.0098370075038171512 -0.0021398051812303114 0 0.0096043465949121713 -0.0017978624865785109 0 0.0099556022957135466 -0.0017083739608402591 0 0.012791533992035919 -0.00059902067189991604 0 0.015227728692206467 -0.00022558164711325093 0 0.015227728692206467 -0.00022558164711325093 0 0.019898364266784915 -0.00016942662670894348 0 0.0098370075038171512 -0.0021398051812303114 0 0.0093385812319607096 -0.0020435465816464374 0 0.0096043465949121713 -0.0017978624865785109 0 0.015227728692206467 -0.00022558164711325093 0 0.01815839378300154 -0.00054895201979691434 0 0.0093385812319607096 -0.0020435465816464374 0 0.0093320458793157719 -0.0017281740541244231 0 0.0090969939506610337 -0.0018522547454298698 0 0.015227728692206467 -0.00022558164711325093 0 0.014230141398523114 -0.0010157941207568511 0 0.0093385812319607096 -0.0020435465816464374 0 0.0096043465949121713 -0.0017978624865785109 0 0.0093320458793157719 -0.0017281740541244231 0 0.0096043465949121713 -0.0017978624865785109 0 0.0093320458793157719 -0.0017281740541244231 0 0.0096010893154176522 -0.0013766321146596206 0 0.0091872827151810062 -0.001516377488076998 0 0.0096010893154176522 -0.0013766321146596206 0 0.0088967816981475774 -0.0015424032613334737 0 0.0093320458793157719 -0.0017281740541244231 0 0.0091872827151810062 -0.001516377488076998 0 0.0090969939506610337 -0.0018522547454298698 0 0.0093320458793157719 -0.0017281740541244231 0 0.0091872827151810062 -0.001516377488076998 0 0.0096010893154176522 -0.0013766321146596206 0 0.0042411577130084437 0.00039805960684687763 0 0.0066592822785557825 -0.00054912230983317179 0 0.0052465738777620228 -0.0010820664075557097 0 0.010399053693151243 -0.0016096407234735786 0 0.0096010893154176522 -0.0013766321146596206 0 0.0099556022957135466 -0.0017083739608402591 0 0.0075999475189575325 -0.0012823577124101138 0 0.0080562880234437521 -0.00090207745090411129 0 0.0096043465949121713 -0.0017978624865785109 0 0.0096010893154176522 -0.0013766321146596206 0 0.0099556022957135466 -0.0017083739608402591 0 0.025804224953494759 -0.0010648293942810184 0 0.026012213835664981 -0.00096655112214364455 0 0.026029721382351989 -0.0010198557089205688 0 0.017053153454192838 -0.0022526124932089726 0 0.01696592470858678 -0.002037944510690537 0 0.01644697970187689 -0.0021642921554534634 0 0.020815039983169702 -0.0014696803447180893 0 0.021314469567250402 -0.0015984682791968907 0 0.017427572297873128 -0.0011573003765476049 0 0.017436805042870922 -0.0011459950119358227 0 0.017411536743350005 -0.0011307432980477057 0 0.020815039983169702 -0.0014696803447180893 0 0.016045542001356571 -0.0015152827406353462 0 0.014230141398523114 -0.0010157941207568511 0 0.016045542001356571 -0.0015152827406353462 0 0.020815039983169702 -0.0014696803447180893 0 0.01815839378300154 -0.00054895201979691434 0 0.015617648888194478 -0.00097728877327928673 0 0.015665763074414297 -0.0009812169655718198 0 0.015673065541692194 -0.0010103654523702208 0 0.017427572297873128 -0.0011573003765476049 0 0.017443312076165014 -0.00115806098462357 0 0.017436805042870922 -0.0011459950119358227 0 0.01815839378300154 -0.00054895201979691434 0 0.014230141398523114 -0.0010157941207568511 0 0.0091872827151810062 -0.001516377488076998 0 0.0090969939506610337 -0.0018522547454298698 0 0.0090034260104617844 -0.0013713108374941245 0 0.012684762179060305 -0.0021365683869236504 0 0.012562001426505924 -0.002069542921188286 0 0.012584278679900389 -0.0019249314559502087 0 0.014230141398523114 -0.0010157941207568511 0 0.010576916829847445 -0.001706508633410942 0 0.016239634257515657 -0.0017734876342134847 0 0.016247861498391556 -0.0017765270959335781 0 0.016251748593672413 -0.0017743304860262353 0 0.01696592470858678 -0.002037944510690537 0 0.01664141551669648 -0.001874183710365074 0 0.01644697970187689 -0.0021642921554534634 0 0.016045542001356571 -0.0015152827406353462 0 0.016549577443680349 -0.0019003289702262712 0 0.012562001426505924 -0.002069542921188286 0 0.012410898592455538 -0.0017703123264255593 0 0.012584278679900389 -0.0019249314559502087 0 0.012410898592455538 -0.0017703123264255593 0 0.012584278679900389 -0.0019249314559502087 0 0.012480188559645765 -0.0017011083846315746 0 0.016247861498391556 -0.0017765270959335781 0 0.016251748593672413 -0.0017743304860262353 0 0.01622673340981394 -0.0017695496775953948 0 0.016045542001356571 -0.0015152827406353462 0 0.014517937878765543 -0.0018632933437473182 0 0.010576916829847445 -0.001706508633410942 0 0.011144916236789419 -0.0022321728271434511 0 0.0090034260104617844 -0.0013713108374941245 0 0.0088967816981475774 -0.0015424032613334737 0 0.0093837697655097269 -0.0024919859104727765 0 0.0088967816981475774 -0.0015424032613334737 0 0.0087287436447796973 -0.0022993020203227036 0 0.0093837697655097269 -0.0024919859104727765 0 0.0091872827151810062 -0.001516377488076998 0 0.0090034260104617844 -0.0013713108374941245 0 0.0088967816981475774 -0.0015424032613334737 0 0.0088967816981475774 -0.0015424032613334737 0 0.0087287436447796973 -0.0022993020203227036 0 0.0079411234729892498 -0.002081823577180121 0 0.0087287436447796973 -0.0022993020203227036 0 0.0093837697655097269 -0.0024919859104727765 0 0.0086075827649932136 -0.003423400597431338 0 0.0087287436447796973 -0.0022993020203227036 0 0.0081218387090294525 -0.002724219293701442 0 0.0086075827649932136 -0.003423400597431338 0 0.0087287436447796973 -0.0022993020203227036 0 0.0079411234729892498 -0.002081823577180121 0 0.0081218387090294525 -0.002724219293701442 0 0.012410898592455538 -0.0017703123264255593 0 0.012480188559645765 -0.0017011083846315746 0 0.012357220337216372 -0.0014412934843431751 0 0.014517937878765543 -0.0018632933437473182 0 0.011342907497092198 -0.0016001470053076882 0 0.011144916236789419 -0.0022321728271434511 0 0.0083951945627448003 -0.0024799295829248413 0 0.0049047584561803604 -0.0020260961441427461 0 0.0063695895622009596 -0.0019282393514151721 0 0.005344154343060464 -0.0029817986382293096 0 0.0049047584561803604 -0.0020260961441427461 0 0.0063695895622009596 -0.0019282393514151721 0 0.0052465738777620228 -0.0010820664075557097 0 0.0066592822785557825 -0.00054912230983317179 0 0.0063695895622009596 -0.0019282393514151721 0 0.0052465738777620228 -0.0010820664075557097 0 0.0066592822785557825 -0.00054912230983317179 0 0.0063695895622009596 -0.0019282393514151721 0 0.0074914643564416832 -0.0015118403075416937 0 0.0080562880234437521 -0.00090207745090411129 0 0.0089210529312173763 -0.0015064321041043324 0 0.0066592822785557825 -0.00054912230983317179 0 0.0088967816981475774 -0.0015424032613334737 0 0.0074914643564416832 -0.0015118403075416937 0 0.0088967816981475774 -0.0015424032613334737 0 0.0074914643564416832 -0.0015118403075416937 0 0.0079411234729892498 -0.002081823577180121 0 0.0063695895622009596 -0.0019282393514151721 0 0.0074914643564416832 -0.0015118403075416937 0 0.0079411234729892498 -0.002081823577180121 0 0.0081218387090294525 -0.002724219293701442 0 0.0074550481397116413 -0.0029933890836130739 0 0.0086075827649932136 -0.003423400597431338 0 0.0053061433201569488 -0.0023841260936768708 0 0.0064517264756656836 -0.0026558109164278648 0 0.0063695895622009596 -0.0019282393514151721 0 0.0079411234729892498 -0.002081823577180121 0 0.0070518271410431876 -0.003638849052659402 0 0.0078387774198584326 -0.0021574103607594078 0 0.0053061433201569488 -0.0023841260936768708 0 0.0079411234729892498 -0.002081823577180121 0 0.0081218387090294525 -0.002724219293701442 0 0.0074550481397116413 -0.0029933890836130739 0 0.0053061433201569488 -0.0023841260936768708 0 0.0041982108907698693 -0.0023888863071604874 0 0.0063695895622009596 -0.0019282393514151721 0 0.0070518271410431876 -0.003638849052659402 0 0.005344154343060464 -0.0029817986382293096 0 0.0026283178619941217 -0.0016700025529176005 0 0.0031323941720369777 -0.0018824077457899053 0 0.0032134085992935641 -0.0014297626774290948 0 0.0053061433201569488 -0.0023841260936768708 0 0.0031704727830404755 -0.0017264840429561338 0 0.0026283178619941217 -0.0016700025529176005 0 0.0032134085992935641 -0.0014297626774290948 0 0.0029071266110346204 -0.0011545531963392064 0 0.0032134085992935641 -0.0014297626774290948 0 0.0029071266110346204 -0.0011545531963392064 0 0.003295323882107929 -0.0010128433628239584 0 0.0038930472937126577 -0.0016977620403681537 0 0.0040903304286591191 -0.0021522248322979167 0 0.0044452349364486419 -0.0019126226547148209 0 0.0038930472937126577 -0.0016977620403681537 0 0.003588213949349692 -0.0022055144419271728 0 0.0040903304286591191 -0.0021522248322979167 0 0.003588213949349692 -0.0022055144419271728 0 0.0040903304286591191 -0.0021522248322979167 0 0.0041941379108037758 -0.0026259462245171979 0 0.0017890817279422441 -0.0023993105839881764 0 0.0029015657191924188 -0.0014994718913851717 0 0.0031704727830404755 -0.0017264840429561338 0 0.0029015657191924188 -0.0014994718913851717 0 0.0029071266110346204 -0.0011545531963392064 0 0.0031194685781809508 -0.00071145708781318812 0 0.003295323882107929 -0.0010128433628239584 0 0.003588213949349692 -0.0022055144419271728 0 0.0041941379108037758 -0.0026259462245171979 0 0.0032879416693242921 -0.0027107114596929718 0 0.0050040706036013757 -0.0021253701808366431 0 0.0048954802295495849 -0.0022985864102640671 0 0.0044452349364486419 -0.0019126226547148209 0 0.012410898592455538 -0.0017703123264255593 0 0.012357220337216372 -0.0014412934843431751 0 0.012235360329749079 -0.001412509666908802 0 0.0046799577549754617 -0.0016568236092758231 0 0.0049807516356527373 -0.001576679294330876 0 0.0045092095812431249 -0.0014738384934945728 0 0.012260401636815165 -0.0014048296553888639 0 0.012357220337216372 -0.0014412934843431751 0 0.012235360329749079 -0.001412509666908802 0 0.010617139489254461 -0.0024969692370914098 0 0.0105092184013933 -0.0025253451689849419 0 0.010483798380987175 -0.0024417842636953132 0 0.0094919638845719825 -0.0017743752317740753 0 0.0095095292908645278 -0.0012059123789270811 0 0.0094919638845719825 -0.0017743752317740753 0 0.0065303298083307683 -0.0023110490291819753 0 0.0065303298083307683 -0.0023110490291819753 0 0.0083951945627448003 -0.0024799295829248413 0 0.0083357139068823728 -0.0018778577568890297 0 0.0079866657814520008 -0.0019739629167104173 0 0.0079067612931318469 -0.0017148252636353574 0 0.0094919638845719825 -0.0017743752317740753 0 0.0083951945627448003 -0.0024799295829248413 0 0.0094919638845719825 -0.0017743752317740753 0 0.011342907497092198 -0.0016001470053076882 0 0.0065303298083307683 -0.0023110490291819753 0 0.0057186557611628372 -0.0024478142332166855 0 0.0050475223048102522 -0.0022622571314382892 0 0.0050040706036013757 -0.0021253701808366431 0 0.0048954802295495849 -0.0022985864102640671 0 0.0083951945627448003 -0.0024799295829248413 0 0.0064517264756656836 -0.0026558109164278648 0 0.0093837697655097269 -0.0024919859104727765 0 0.0097851878848105953 -0.0038657912589287785 0 0.0086075827649932136 -0.003423400597431338 0 0.0048954802295495849 -0.0022985864102640671 0 0.0045395529829214331 -0.0023043499319390054 0 0.0044452349364486419 -0.0019126226547148209 0 0.0040903304286591191 -0.0021522248322979167 0 0.0045395529829214331 -0.0023043499319390054 0 0.0044452349364486419 -0.0019126226547148209 0 0.0017890817279422441 -0.0023993105839881764 0 0.0029038933141798586 -0.0012352813985649063 0 0.0041941379108037758 -0.0026259462245171979 0 0.0045395529829214331 -0.0023043499319390054 0 0.0051118419653377965 -0.00252535220102219 0 2.4950724022066157e-05 -0.0017125611112949479 0 -0.0016844861484994276 -0.0018369757551372828 0 -0.0013430058362636573 -0.0010094510354468791 0 0.0040903304286591191 -0.0021522248322979167 0 0.0041941379108037758 -0.0026259462245171979 0 0.0045395529829214331 -0.0023043499319390054 0 0.0048954802295495849 -0.0022985864102640671 0 0.0045395529829214331 -0.0023043499319390054 0 0.0051118419653377965 -0.00252535220102219 0 0.0050353927617690399 -0.0022599904757503596 0 0.0048954802295495849 -0.0022985864102640671 0 0.0051118419653377965 -0.00252535220102219 0 0.0065303298083307683 -0.0023110490291819753 0 0.0029038933141798586 -0.0012352813985649063 0 0.0049807516356527373 -0.001576679294330876 0 0.0048247991513469431 -0.0011214411578714565 0 0.0045092095812431249 -0.0014738384934945728 0 0.0029038933141798586 -0.0012352813985649063 0 0.00031382564084259687 -0.0004709147435890359 0 -0.0013430058362636573 -0.0010094510354468791 0 -0.0009887802588643311 -0.00015063438933802262 0 -0.0020956510643992373 -0.00053051638913206931 0 -0.0012817415236596875 -3.5035888022752709e-05 0 0.00031382564084259687 -0.0004709147435890359 0 -0.0016844861484994276 -0.0018369757551372828 0 -0.0013430058362636573 -0.0010094510354468791 0 -0.0020956510643992373 -0.00053051638913206931 0 2.4950724022066157e-05 -0.0017125611112949479 0 -0.0013430058362636573 -0.0010094510354468791 0 -0.0009887802588643311 -0.00015063438933802262 0 2.4950724022066157e-05 -0.0017125611112949479 0 -0.0009887802588643311 -0.00015063438933802262 0 0.00013768989879281998 0.00026669587984277162 0 -0.0012817415236596875 -3.5035888022752709e-05 0 0.0001920622119232509 0.00030762848330748101 0 -0.00074480931618716622 0.0010694461756944023 0 -0.00088671538034165481 0.00023223617044466075 0 0.00013768989879281998 0.00026669587984277162 0 -0.00074480931618716622 0.0010694461756944023 0 -0.00088671538034165481 0.00023223617044466075 0 -0.001258230424602235 0.00081936246959718386 0 -0.00088671538034165481 0.00023223617044466075 0 -0.001258230424602235 0.00081936246959718386 0 -0.0015766115790271161 0.00011290778484763021 0 2.4950724022066157e-05 -0.0017125611112949479 0 0.0019873896634197918 -0.0016025346202361264 0 0.0012874501351928321 -0.00047208030872231339 0 2.4950724022066157e-05 -0.0017125611112949479 0 0.0012874501351928321 -0.00047208030872231339 0 0.00013768989879281998 0.00026669587984277162 0 0.0012874501351928321 -0.00047208030872231339 0 0.0015621357610044735 0.00071232704076810407 0 0.0030112274910788803 4.4494026919381815e-05 0 0.0012874501351928321 -0.00047208030872231339 0 0.00013768989879281998 0.00026669587984277162 0 0.0015621357610044735 0.00071232704076810407 0 0.003240078083731824 0.00083380515018432707 0 0.0015621357610044735 0.00071232704076810407 0 0.0030112274910788803 4.4494026919381815e-05 0 0.0029015657191924188 -0.0014994718913851717 0 0.0029364830604267198 9.4573682700005879e-05 0 0.0030208371906956738 -0.00070757783341504567 0 0.0030112274910788803 4.4494026919381815e-05 0 0.0032804583576999755 -0.00066658701410441377 0 0.0019873896634197918 -0.0016025346202361264 0 0.0012874501351928321 -0.00047208030872231339 0 0.0030112274910788803 4.4494026919381815e-05 0 0.0030112274910788803 4.4494026919381815e-05 0 0.0037007661397072894 -0.00054001506889070025 0 0.0032804583576999755 -0.00066658701410441377 0 0.0030112274910788803 4.4494026919381815e-05 0 0.0037007661397072894 -0.00054001506889070025 0 0.0038075167305632041 4.8013127429527494e-06 0 0.0037007661397072894 -0.00054001506889070025 0 0.0038075167305632041 4.8013127429527494e-06 0 0.0042267177640827758 -0.00045402890202322763 0 0.003240078083731824 0.00083380515018432707 0 0.0030112274910788803 4.4494026919381815e-05 0 0.0038075167305632041 4.8013127429527494e-06 0 0.003240078083731824 0.00083380515018432707 0 0.0038075167305632041 4.8013127429527494e-06 0 0.004030126198555202 0.00066366093934881471 0 0.0038075167305632041 4.8013127429527494e-06 0 0.0045100070356578819 9.394666176540285e-05 0 0.004030126198555202 0.00066366093934881471 0 0.0048817515411753963 0.0011661294758784325 0 0.0045100070356578819 9.394666176540285e-05 0 0.004030126198555202 0.00066366093934881471 0 0.0015905795044744804 -0.00016516628217139526 0 0.0046983389626525538 -0.0010613347257008225 0 0.0048817515411753963 0.0011661294758784325 0 0.0045100070356578819 9.394666176540285e-05 0 0.0051737939740912325 9.1410773874498331e-05 0 0.0045100070356578819 9.394666176540285e-05 0 0.0051737939740912325 9.1410773874498331e-05 0 0.0047511482132061083 -0.00066643297326891469 0 0.0053973440536040466 -0.0007496820247283886 0 0.0051737939740912325 9.1410773874498331e-05 0 0.0047511482132061083 -0.00066643297326891469 0 0.0038075167305632041 4.8013127429527494e-06 0 0.0045100070356578819 9.394666176540285e-05 0 0.0042267177640827758 -0.00045402890202322763 0 0.0045100070356578819 9.394666176540285e-05 0 0.0042267177640827758 -0.00045402890202322763 0 0.0047511482132061083 -0.00066643297326891469 0 0.0042511585594647685 -0.0008266716281313969 0 0.0047511482132061083 -0.00066643297326891469 0 0.0044698724466354506 -0.0012371284796572945 0 0.0042267177640827758 -0.00045402890202322763 0 0.0042511585594647685 -0.0008266716281313969 0 0.0047511482132061083 -0.00066643297326891469 0 0.0042511585594647685 -0.0008266716281313969 0 0.0044698724466354506 -0.0012371284796572945 0 0.0039094677274150438 -0.0010205018786766924 0 0.0053973440536040466 -0.0007496820247283886 0 0.0047511482132061083 -0.00066643297326891469 0 0.005107148912087617 -0.0012800851990122013 0 0.0047529765216865723 -0.0016602890291309532 0 0.005107148912087617 -0.0012800851990122013 0 0.0044698724466354506 -0.0012371284796572945 0 0.0047511482132061083 -0.00066643297326891469 0 0.005107148912087617 -0.0012800851990122013 0 0.0044698724466354506 -0.0012371284796572945 0 0.0044019868664604512 -0.0015931583895271264 0 0.0044698724466354506 -0.0012371284796572945 0 0.0040889653417918691 -0.0014362502282330321 0 0.0044698724466354506 -0.0012371284796572945 0 0.0040889653417918691 -0.0014362502282330321 0 0.0039094677274150438 -0.0010205018786766924 0 0.0040889653417918691 -0.0014362502282330321 0 0.0036186831950071391 -0.001306674982541692 0 0.0039094677274150438 -0.0010205018786766924 0 0.0036186831950071391 -0.001306674982541692 0 0.0035354716630939687 -0.0009052084853969092 0 0.0039094677274150438 -0.0010205018786766924 0 0.0038924767978013616 -0.0017197803208909282 0 0.0040889653417918691 -0.0014362502282330321 0 0.0036186831950071391 -0.001306674982541692 0 0.003542190524016772 -0.0016737299386367494 0 0.0032134085992935641 -0.0014297626774290948 0 0.0036186831950071391 -0.001306674982541692 0 0.0032134085992935641 -0.0014297626774290948 0 0.0036186831950071391 -0.001306674982541692 0 0.003295323882107929 -0.0010128433628239584 0 0.0036186831950071391 -0.001306674982541692 0 0.0035354716630939687 -0.0009052084853969092 0 0.003295323882107929 -0.0010128433628239584 0 0.0035354716630939687 -0.0009052084853969092 0 0.003295323882107929 -0.0010128433628239584 0 0.0032804583576999755 -0.00066658701410441377 0 0.0031194685781809508 -0.00071145708781318812 0 0.003295323882107929 -0.0010128433628239584 0 0.0032804583576999755 -0.00066658701410441377 0 0.0029015657191924188 -0.0014994718913851717 0 0.0032787467719256778 -0.0009969878310712439 0 0.0037007661397072894 -0.00054001506889070025 0 0.0035354716630939687 -0.0009052084853969092 0 0.0032804583576999755 -0.00066658701410441377 0 0.0037007661397072894 -0.00054001506889070025 0 0.0042511585594647685 -0.0008266716281313969 0 0.0039094677274150438 -0.0010205018786766924 0 0.0037007661397072894 -0.00054001506889070025 0 0.0035354716630939687 -0.0009052084853969092 0 0.0039094677274150438 -0.0010205018786766924 0 0.0037007661397072894 -0.00054001506889070025 0 0.0042267177640827758 -0.00045402890202322763 0 0.0042511585594647685 -0.0008266716281313969 0 0.0061444613043514697 -0.00010100889529800462 0 0.0050376707479121135 0.00035446286633628152 0 0.0056086718103991176 0.00019456020093162912 0 0.007247172304035183 7.5198563488300637e-07 0 0.0061444613043514697 -0.00010100889529800462 0 0.0056086718103991176 0.00019456020093162912 0 0.007247172304035183 7.5198563488300637e-07 0 0.0075507242084792729 -6.7187002536065114e-05 0 0.0061444613043514697 -0.00010100889529800462 0 0.0075507242084792729 -6.7187002536065114e-05 0 0.0061444613043514697 -0.00010100889529800462 0 0.0081775303062655066 -0.00043401491175863228 0 0.007247172304035183 7.5198563488300637e-07 0 0.0075507242084792729 -6.7187002536065114e-05 0 0.0092303872138634769 -2.1624432022416403e-06 0 0.0050751227334961931 0.00073990571509984415 0 0.0080484253838434706 0.00043476772406745489 0 0.0047089200014526333 0.0011509484276813586 0 0.0053313662946866533 0.0013706526413422352 0 0.0049733230701783223 0.0020669116139313522 0 0.0053313662946866533 0.0013706526413422352 0 0.0059902988592715634 0.0010697992409171241 0 0.0061067612619288949 0.0022347910220880981 0 0.0059902988592715634 0.0010697992409171241 0 0.0070595203878145666 0.0014573203567480679 0 0.0061067612619288949 0.0022347910220880981 0 0.0059902988592715634 0.0010697992409171241 0 0.0050376707479121135 0.00035446286633628152 0 0.0055885636262687265 0.0005168720820726187 0 0.0047089200014526333 0.0011509484276813586 0 0.0053313662946866533 0.0013706526413422352 0 0.0050376707479121135 0.00035446286633628152 0 0.0050751227334961931 0.00073990571509984415 0 0.0052115458507669028 0.00030400241075052706 0 0.0053313662946866533 0.0013706526413422352 0 0.0059902988592715634 0.0010697992409171241 0 0.0050376707479121135 0.00035446286633628152 0 0.0050376707479121135 0.00035446286633628152 0 0.0055885636262687265 0.0005168720820726187 0 0.0045315865881237673 0.00013483228424873014 0 0.0055885636262687265 0.0005168720820726187 0 0.0045315865881237673 0.00013483228424873014 0 0.0052211331493445369 0.0001489374592039595 0 0.0045315865881237673 0.00013483228424873014 0 0.0041281545056368859 -0.00026035167908145895 0 0.0052211331493445369 0.0001489374592039595 0 0.0050376707479121135 0.00035446286633628152 0 0.0045315865881237673 0.00013483228424873014 0 0.0042853659251864528 0.00014486059593922559 0 0.0050376707479121135 0.00035446286633628152 0 0.0042853659251864528 0.00014486059593922559 0 0.0056086718103991176 0.00019456020093162912 0 0.007247172304035183 7.5198563488300637e-07 0 0.0056086718103991176 0.00019456020093162912 0 0.0052612696072259378 3.3052893121773344e-07 0 0.0042853659251864528 0.00014486059593922559 0 0.0056086718103991176 0.00019456020093162912 0 0.0052612696072259378 3.3052893121773344e-07 0 0.0042853659251864528 0.00014486059593922559 0 0.0026478982130763167 -6.278512278425568e-05 0 0.0032761881030487455 1.0027208078325952e-07 0 0.0042853659251864528 0.00014486059593922559 0 0.0052612696072259378 3.3052893121773344e-07 0 0.0032761881030487455 1.0027208078325952e-07 0 0.0042853659251864528 0.00014486059593922559 0 0.0026478982130763167 -6.278512278425568e-05 0 0.0036312656147569821 -4.8982900786065388e-05 0 0.0026478982130763167 -6.278512278425568e-05 0 0.0032761881030487455 1.0027208078325952e-07 0 0.0012906939249749799 1.9611056461004126e-07 0 0.00045083287453536722 8.7233532966654869e-05 0 0.0012906939249749799 1.9611056461004126e-07 0 0.001814294170434732 -0.00014667720661783881 0 0.0026478982130763167 -6.278512278425568e-05 0 0.0012906939249749799 1.9611056461004126e-07 0 0.001814294170434732 -0.00014667720661783881 0 -0.00069427523436500478 -2.6180799270192345e-07 0 0.00045083287453536722 8.7233532966654869e-05 0 0.0012906939249749799 1.9611056461004126e-07 0 0.0015604209468337853 -0.0001418738420837784 0 0.001814294170434732 -0.00014667720661783881 0 0.0026345616819364944 -0.00085876747113992251 0 0.0026478982130763167 -6.278512278425568e-05 0 0.001814294170434732 -0.00014667720661783881 0 0.0028253734521772435 -0.00035875994753228121 0 0.001814294170434732 -0.00014667720661783881 0 0.0026345616819364944 -0.00085876747113992251 0 0.0028253734521772435 -0.00035875994753228121 0 0.0026345616819364944 -0.00085876747113992251 0 0.0028253734521772435 -0.00035875994753228121 0 0.0041281545056368859 -0.00026035167908145895 0 0.0026478982130763167 -6.278512278425568e-05 0 0.0028253734521772435 -0.00035875994753228121 0 0.0036312656147569821 -4.8982900786065388e-05 0 0.0028253734521772435 -0.00035875994753228121 0 0.0036312656147569821 -4.8982900786065388e-05 0 0.0041281545056368859 -0.00026035167908145895 0 0.0045315865881237673 0.00013483228424873014 0 0.0042853659251864528 0.00014486059593922559 0 0.0036312656147569821 -4.8982900786065388e-05 0 0.0045315865881237673 0.00013483228424873014 0 0.0036312656147569821 -4.8982900786065388e-05 0 0.0041281545056368859 -0.00026035167908145895 0 0.0041281545056368859 -0.00026035167908145895 0 0.0058654130072630824 -0.0001221254809721923 0 0.0052211331493445369 0.0001489374592039595 0 0.0041281545056368859 -0.00026035167908145895 0 0.0058654130072630824 -0.0001221254809721923 0 0.0052416598003787182 -0.00083651386402870968 0 0.0058654130072630824 -0.0001221254809721923 0 0.0052416598003787182 -0.00083651386402870968 0 0.0068978417165122246 -0.00046656241184972827 0 0.0032409057373969613 -0.0014218775664782835 0 0.0035233340308777959 -0.0017119432893585472 0 0.0028044987804291921 -0.0009333141445047804 0 0.0032409057373969613 -0.0014218775664782835 0 0.0026345616819364944 -0.00085876747113992251 0 0.0041281545056368859 -0.00026035167908145895 0 0.0052416598003787182 -0.00083651386402870968 0 0.0026345616819364944 -0.00085876747113992251 0 0.0012344964305931766 -0.0021812498780551721 0 0.0011330757804581249 -0.00076170402560973068 0 0.0012344964305931766 -0.0021812498780551721 0 0.0011330757804581249 -0.00076170402560973068 0 -0.00013730240743032324 -0.001786492377989493 0 0.00090837833900166782 -0.00012383148578964481 0 0.0011330757804581249 -0.00076170402560973068 0 0.0002341151710214516 -0.0006504537727993466 0 0.00090837833900166782 -0.00012383148578964481 0 0.0015604209468337853 -0.0001418738420837784 0 0.0011330757804581249 -0.00076170402560973068 0 0.0015604209468337853 -0.0001418738420837784 0 0.0026345616819364944 -0.00085876747113992251 0 0.0011330757804581249 -0.00076170402560973068 0 -0.00034494339453682357 -0.00046393677842307114 0 0.0002341151710214516 -0.0006504537727993466 0 -0.0010677923940623495 -0.0013388951909618307 0 0.0011330757804581249 -0.00076170402560973068 0 0.0002341151710214516 -0.0006504537727993466 0 -0.00013730240743032324 -0.001786492377989493 0 0.0002341151710214516 -0.0006504537727993466 0 -0.00013730240743032324 -0.001786492377989493 0 -0.0010677923940623495 -0.0013388951909618307 0 -0.00013730240743032324 -0.001786492377989493 0 -0.0011533860138469537 -0.0019595708123338108 0 -0.0010677923940623495 -0.0013388951909618307 0 -0.00013730240743032324 -0.001786492377989493 0 0.00012399947503921873 -0.0030120491586466394 0 -0.0011281276526470051 -0.002603217598139283 0 -0.00013730240743032324 -0.001786492377989493 0 -0.0011281276526470051 -0.002603217598139283 0 -0.0011533860138469537 -0.0019595708123338108 0 0.0012344964305931766 -0.0021812498780551721 0 -0.00013730240743032324 -0.001786492377989493 0 0.00012399947503921873 -0.0030120491586466394 0 0.00012399947503921873 -0.0030120491586466394 0 -0.0013220018691078037 -0.0031582445829918234 0 -0.0011281276526470051 -0.002603217598139283 0 0.0035233340308777959 -0.0017119432893585472 0 0.00364989972369774 -0.0017541073706081808 0 0.00012399947503921873 -0.0030120491586466394 0 -0.00092905448276703979 -0.0036421030167424467 0 -0.0013220018691078037 -0.0031582445829918234 0 0.0081650541293283446 6.9458166136624082e-05 0 0.0075587954311464017 0.00049801485470487542 0 0.0069327119255356666 0.00013380305219818644 0 0.0081650541293283446 6.9458166136624082e-05 0 0.0075587954311464017 0.00049801485470487542 0 0.0084575437917973201 0.00081942714473581888 0 0.0075587954311464017 0.00049801485470487542 0 0.0069327119255356666 0.00013380305219818644 0 0.0064748502024746654 0.00042934014211657784 0 0.0075587954311464017 0.00049801485470487542 0 0.0064748502024746654 0.00042934014211657784 0 0.0073973595991251731 0.0011470871336174231 0 0.0068978417165122246 -0.00046656241184972827 0 0.0081650541293283446 6.9458166136624082e-05 0 0.0069327119255356666 0.00013380305219818644 0 0.0058654130072630824 -0.0001221254809721923 0 0.0068978417165122246 -0.00046656241184972827 0 0.0069327119255356666 0.00013380305219818644 0 0.0058654130072630824 -0.0001221254809721923 0 0.0052211331493445369 0.0001489374592039595 0 0.0064748502024746654 0.00042934014211657784 0 0.0058654130072630824 -0.0001221254809721923 0 0.0069327119255356666 0.00013380305219818644 0 0.0064748502024746654 0.00042934014211657784 0 0.0055885636262687265 0.0005168720820726187 0 0.0064748502024746654 0.00042934014211657784 0 0.0066971173633395484 0.0010327587298607414 0 0.0055885636262687265 0.0005168720820726187 0 0.0052211331493445369 0.0001489374592039595 0 0.0064748502024746654 0.00042934014211657784 0 0.0064748502024746654 0.00042934014211657784 0 0.0066971173633395484 0.0010327587298607414 0 0.0073973595991251731 0.0011470871336174231 0 0.0066971173633395484 0.0010327587298607414 0 0.0075524686094235252 0.0015042548308256843 0 0.0073973595991251731 0.0011470871336174231 0 0.0059902988592715634 0.0010697992409171241 0 0.0055885636262687265 0.0005168720820726187 0 0.0066971173633395484 0.0010327587298607414 0 0.0059902988592715634 0.0010697992409171241 0 0.0066971173633395484 0.0010327587298607414 0 0.0070595203878145666 0.0014573203567480679 0 0.0066971173633395484 0.0010327587298607414 0 0.0070595203878145666 0.0014573203567480679 0 0.0075524686094235252 0.0015042548308256843 0 0.0079701064182449727 0.0013174122257025279 0 0.0073973595991251731 0.0011470871336174231 0 0.0079025188153770548 0.0016512739897381046 0 0.0075524686094235252 0.0015042548308256843 0 0.0073973595991251731 0.0011470871336174231 0 0.0079025188153770548 0.0016512739897381046 0 0.0079701064182449727 0.0013174122257025279 0 0.0079604398085678218 0.0015208846476396027 0 0.0079025188153770548 0.0016512739897381046 0 0.0072228511086286449 0.0017082789463587732 0 0.015027586827812455 -0.00039839988665336891 0 0.0078222745663308682 0.00045594188772333019 0 0.0072228511086286449 0.0017082789463587732 0 0.0075587954311464017 0.00049801485470487542 0 0.0082380257320728012 0.0015061592582682325 0 0.0084575437917973201 0.00081942714473581888 0 0.0075587954311464017 0.00049801485470487542 0 0.0079701064182449727 0.0013174122257025279 0 0.0073973595991251731 0.0011470871336174231 0 0.010107448805590382 0.0010882010617808751 0 0.010512736830745608 0.0011737279733678892 0 0.0094469329261812913 0.00073343005082586823 0 0.010107448805590382 0.0010882010617808751 0 0.0091128486361661595 0.001233228554049231 0 0.0094469329261812913 0.00073343005082586823 0 0.0042758468341540876 -0.001513278292058123 0 0.0037527295279803758 -0.0016859402330071996 0 -0.002578881488786522 -0.0043729578801082903 0 -0.0025565897663981187 -0.0040549829109037669 0 -0.0018752884387956672 -0.0040826507957824297 0 0.0082380257320728012 0.0015061592582682325 0 0.0091128486361661595 0.001233228554049231 0 0.0084575437917973201 0.00081942714473581888 0 0.0091128486361661595 0.001233228554049231 0 0.0094469329261812913 0.00073343005082586823 0 0.0084575437917973201 0.00081942714473581888 0 0.0082380257320728012 0.0015061592582682325 0 0.0091128486361661595 0.001233228554049231 0 0.0093872153505624913 0.0020226537930114379 0 0.0082380257320728012 0.0015061592582682325 0 0.0093872153505624913 0.0020226537930114379 0 0.00880304590770924 0.0027045788814146102 0 0.010107448805590382 0.0010882010617808751 0 0.0091128486361661595 0.001233228554049231 0 0.0093872153505624913 0.0020226537930114379 0 0.010402859747170166 0.00089520216875102682 0 0.0094460256470704496 0.0021321042643989087 0 0.010107448805590382 0.0010882010617808751 0 0.010873941042552316 0.0010294873183607663 0 0.010441197659349854 0.0010778093986895591 0 0.010873941042552316 0.0010294873183607663 0 0.010441197659349854 0.0010778093986895591 0 0.010552691984515203 0.00094555441113305363 0 0.010552691984515203 0.00094555441113305363 0 0.010512736830745608 0.0011737279733678892 0 0.0104408597184492 0.00082988286249013215 0 0.010512736830745608 0.0011737279733678892 0 0.010133057187927251 0.00077534073163333054 0 0.0104408597184492 0.00082988286249013215 0 0.010441197659349854 0.0010778093986895591 0 0.010552691984515203 0.00094555441113305363 0 0.010512736830745608 0.0011737279733678892 0 0.010107448805590382 0.0010882010617808751 0 0.010441197659349854 0.0010778093986895591 0 0.010512736830745608 0.0011737279733678892 0 -0.0034360065155440334 -0.0034968072896585855 0 -0.0031562093936966336 -0.003284903762633273 0 -0.0034808329831460478 -0.0027789265182153722 0 -0.002578881488786522 -0.0043729578801082903 0 -0.0028105366550516954 -0.0043161694449856697 0 -0.0027990121433120346 -0.0044726832200073638 0 -0.0035863510319255848 -0.0044158140735999314 0 0.0019494585854864504 -0.0018185105257257244 0 0.0042758468341540876 -0.001513278292058123 0 0.0019494585854864504 -0.0018185105257257244 0 -0.0034360065155440334 -0.0034968072896585855 0 -0.0029446090718520529 -0.0037566836792409398 0 -0.0032956017941379347 -0.0036796443390519052 0 -0.0035863510319255848 -0.0044158140735999314 0 -0.0028479883181276909 -0.0034771624672898754 0 -0.0028105366550516954 -0.0043161694449856697 0 -0.0025565897663981187 -0.0040549829109037669 0 -0.0029446090718520529 -0.0037566836792409398 0 -0.002578881488786522 -0.0043729578801082903 0 -0.0028105366550516954 -0.0043161694449856697 0 -0.0025565897663981187 -0.0040549829109037669 0 -0.0025565897663981187 -0.0040549829109037669 0 -0.0029446090718520529 -0.0037566836792409398 0 -0.00235061434266574 -0.0036650792810174544 0 -0.0029446090718520529 -0.0037566836792409398 0 -0.0028312182912055115 -0.0033729000089846844 0 -0.00235061434266574 -0.0036650792810174544 0 -0.0029446090718520529 -0.0037566836792409398 0 -0.0032654132141380866 -0.003574948774392362 0 -0.0028312182912055115 -0.0033729000089846844 0 -0.0029446090718520529 -0.0037566836792409398 0 -0.0032654132141380866 -0.003574948774392362 0 -0.0032956017941379347 -0.0036796443390519052 0 -0.0028312182912055115 -0.0033729000089846844 0 -0.0027815078784091088 -0.0029290013343759307 0 -0.003253098562556529 -0.0030930048910777861 0 -0.0032654132141380866 -0.003574948774392362 0 -0.0028312182912055115 -0.0033729000089846844 0 -0.003253098562556529 -0.0030930048910777861 0 -0.0028312182912055115 -0.0033729000089846844 0 -0.0021103974820060253 -0.0031460991030095031 0 -0.00235061434266574 -0.0036650792810174544 0 -0.0028312182912055115 -0.0033729000089846844 0 -0.0021103974820060253 -0.0031460991030095031 0 -0.0027815078784091088 -0.0029290013343759307 0 -0.0021103974820060253 -0.0031460991030095031 0 -0.00235061434266574 -0.0036650792810174544 0 -0.0017346735521984848 -0.0035353175751300621 0 -0.0018752884387956672 -0.0040826507957824297 0 -0.00235061434266574 -0.0036650792810174544 0 -0.0017346735521984848 -0.0035353175751300621 0 -0.0025565897663981187 -0.0040549829109037669 0 -0.0018752884387956672 -0.0040826507957824297 0 -0.00235061434266574 -0.0036650792810174544 0 0.00364989972369774 -0.0017541073706081808 0 0.0037527295279803758 -0.0016859402330071996 0 0.0081650541293283446 6.9458166136624082e-05 0 0.0094469329261812913 0.00073343005082586823 0 0.0084575437917973201 0.00081942714473581888 0 -0.00092905448276703979 -0.0036421030167424467 0 -0.0018752884387956672 -0.0040826507957824297 0 -0.0017346735521984848 -0.0035353175751300621 0 -0.00092905448276703979 -0.0036421030167424467 0 -0.0013220018691078037 -0.0031582445829918234 0 -0.0017346735521984848 -0.0035353175751300621 0 -0.0021103974820060253 -0.0031460991030095031 0 -0.0013220018691078037 -0.0031582445829918234 0 -0.0017346735521984848 -0.0035353175751300621 0 -0.0021103974820060253 -0.0031460991030095031 0 -0.0013220018691078037 -0.0031582445829918234 0 -0.0011281276526470051 -0.002603217598139283 0 -0.0021103974820060253 -0.0031460991030095031 0 -0.0011281276526470051 -0.002603217598139283 0 -0.0023462812434519066 -0.0026362956111425709 0 -0.0011281276526470051 -0.002603217598139283 0 -0.0023462812434519066 -0.0026362956111425709 0 -0.0020416847681993368 -0.0020411757168006849 0 -0.0011281276526470051 -0.002603217598139283 0 -0.0020416847681993368 -0.0020411757168006849 0 -0.0011533860138469537 -0.0019595708123338108 0 -0.0020416847681993368 -0.0020411757168006849 0 -0.0011533860138469537 -0.0019595708123338108 0 -0.0010677923940623495 -0.0013388951909618307 0 -0.0020416847681993368 -0.0020411757168006849 0 -0.0010677923940623495 -0.0013388951909618307 0 -0.0017311649649770573 -0.0011276097329069026 0 -0.0020416847681993368 -0.0020411757168006849 0 -0.0023835662574468669 -0.0013445951154180018 0 -0.0017311649649770573 -0.0011276097329069026 0 -0.0022599742449659703 -0.00062668179110647625 0 -0.0023835662574468669 -0.0013445951154180018 0 -0.0017311649649770573 -0.0011276097329069026 0 -0.0014649683169150438 -0.0006614855797236254 0 -0.0022599742449659703 -0.00062668179110647625 0 -0.0017311649649770573 -0.0011276097329069026 0 -0.0014649683169150438 -0.0006614855797236254 0 -0.0010677923940623495 -0.0013388951909618307 0 -0.0017311649649770573 -0.0011276097329069026 0 -0.0011792104322298426 -0.00056512716571349155 0 -0.0010597704363165261 -0.0013207651151425073 0 -0.0008888463770608952 -0.00043109585511832814 0 -0.00034494339453682357 -0.00046393677842307114 0 -0.0010677923940623495 -0.0013388951909618307 0 -0.0039241909261026166 -0.0006137846935171411 0 -0.0037485016257029903 -0.0014589597562041888 0 -0.0030498898264405051 -0.0010913780963337639 0 -0.0037485016257029903 -0.0014589597562041888 0 -0.0030498898264405051 -0.0010913780963337639 0 -0.0029796479482155649 -0.0017655304274923564 0 -0.0023835662574468669 -0.0013445951154180018 0 -0.0030498898264405051 -0.0010913780963337639 0 -0.0029796479482155649 -0.0017655304274923564 0 -0.0022599742449659703 -0.00062668179110647625 0 -0.0023835662574468669 -0.0013445951154180018 0 -0.0030498898264405051 -0.0010913780963337639 0 -0.0020416847681993368 -0.0020411757168006849 0 -0.0023835662574468669 -0.0013445951154180018 0 -0.0029796479482155649 -0.0017655304274923564 0 -0.0037485016257029903 -0.0014589597562041888 0 -0.0029796479482155649 -0.0017655304274923564 0 -0.0036040445532638222 -0.0020362263133599477 0 -0.0029796479482155649 -0.0017655304274923564 0 -0.0036040445532638222 -0.0020362263133599477 0 -0.0030334906243860388 -0.0024615792544893794 0 -0.0036040445532638222 -0.0020362263133599477 0 -0.0030334906243860388 -0.0024615792544893794 0 -0.0037484700519955167 -0.0026071486929005083 0 -0.0023462812434519066 -0.0026362956111425709 0 -0.0020416847681993368 -0.0020411757168006849 0 -0.0030334906243860388 -0.0024615792544893794 0 -0.0020416847681993368 -0.0020411757168006849 0 -0.0029796479482155649 -0.0017655304274923564 0 -0.0030334906243860388 -0.0024615792544893794 0 -0.0021103974820060253 -0.0031460991030095031 0 -0.0023462812434519066 -0.0026362956111425709 0 -0.0027815078784091088 -0.0029290013343759307 0 -0.0023462812434519066 -0.0026362956111425709 0 -0.0030334906243860388 -0.0024615792544893794 0 -0.0027815078784091088 -0.0029290013343759307 0 -0.0030334906243860388 -0.0024615792544893794 0 -0.003253098562556529 -0.0030930048910777861 0 -0.0037484700519955167 -0.0026071486929005083 0 -0.0030334906243860388 -0.0024615792544893794 0 -0.0027815078784091088 -0.0029290013343759307 0 -0.003253098562556529 -0.0030930048910777861 0 -0.003253098562556529 -0.0030930048910777861 0 -0.0037484700519955167 -0.0026071486929005083 0 -0.0036410111618333826 -0.0033074471298379202 0 -0.0041931188148303725 -0.0028716732610165182 0 -0.0043202567456336284 -0.0023475287123271358 0 -0.0046128796776570202 -0.0026595223000287528 0 -0.0037484700519955167 -0.0026071486929005083 0 -0.0041931188148303725 -0.0028716732610165182 0 -0.0043202567456336284 -0.0023475287123271358 0 -0.0037484700519955167 -0.0026071486929005083 0 -0.0041931188148303725 -0.0028716732610165182 0 -0.0036410111618333826 -0.0033074471298379202 0 -0.0037484700519955167 -0.0026071486929005083 0 -0.0043202567456336284 -0.0023475287123271358 0 -0.0040958454413661258 -0.0020959253012557198 0 -0.0036040445532638222 -0.0020362263133599477 0 -0.0037484700519955167 -0.0026071486929005083 0 -0.0040958454413661258 -0.0020959253012557198 0 -0.0037485016257029903 -0.0014589597562041888 0 -0.0036040445532638222 -0.0020362263133599477 0 -0.0041725046688407133 -0.0017306232679607863 0 -0.0036040445532638222 -0.0020362263133599477 0 -0.0040958454413661258 -0.0020959253012557198 0 -0.0041725046688407133 -0.0017306232679607863 0 -0.0043202567456336284 -0.0023475287123271358 0 -0.0040958454413661258 -0.0020959253012557198 0 -0.004539608323888591 -0.0016737717900238795 0 -0.0040958454413661258 -0.0020959253012557198 0 -0.0041725046688407133 -0.0017306232679607863 0 -0.004539608323888591 -0.0016737717900238795 0 -0.0043202567456336284 -0.0023475287123271358 0 -0.004539608323888591 -0.0016737717900238795 0 -0.0046929979917917026 -0.0021694953360045705 0 -0.004814682642328468 -0.0011756373332457092 0 -0.0041725046688407133 -0.0017306232679607863 0 -0.004539608323888591 -0.0016737717900238795 0 -0.0048086833134411188 -0.0011895386801946599 0 -0.0052399833939097357 -0.0018093931387850337 0 -0.004814682642328468 -0.0011756373332457092 0 -0.0059946058650643909 -0.0013049130918325342 0 -0.0059814668215528981 -0.0020659571148240836 0 -0.004814682642328468 -0.0011756373332457092 0 -0.0037485016257029903 -0.0014589597562041888 0 -0.0041725046688407133 -0.0017306232679607863 0 -0.0066687249809050247 -0.0014363946149267878 0 -0.0066754271300008428 -0.0017835101044322004 0 -0.0065969476973155722 -0.0017920880384947907 0 -0.0065969476973155722 -0.0017920880384947907 0 -0.0065305086662148914 -0.0020249672815111802 0 -0.0066183038753171684 -0.00193431274793238 0 -0.0066560691426766046 -0.0018786715361025521 0 -0.0065969476973155722 -0.0017920880384947907 0 -0.0066183038753171684 -0.00193431274793238 0 -0.0066560691426766046 -0.0018786715361025521 0 -0.0066183038753171684 -0.00193431274793238 0 -0.0066610400481687867 -0.0019557258897105146 0 -0.0066560691426766046 -0.0018786715361025521 0 -0.0066754271300008428 -0.0017835101044322004 0 -0.0065969476973155722 -0.0017920880384947907 0 -0.0066945264466919474 -0.0019007664412431541 0 -0.0066560691426766046 -0.0018786715361025521 0 -0.0066610400481687867 -0.0019557258897105146 0 -0.0066945264466919474 -0.0019007664412431541 0 -0.0066560691426766046 -0.0018786715361025521 0 -0.0066754271300008428 -0.0017835101044322004 0 -0.0059814668215528981 -0.0020659571148240836 0 -0.0065969476973155722 -0.0017920880384947907 0 -0.0065305086662148914 -0.0020249672815111802 0 -0.0059946058650643909 -0.0013049130918325342 0 -0.0059814668215528981 -0.0020659571148240836 0 -0.0065969476973155722 -0.0017920880384947907 0 -0.0059814668215528981 -0.0020659571148240836 0 -0.0065305086662148914 -0.0020249672815111802 0 -0.0064582317357797982 -0.0021597230369604426 0 -0.0052399833939097357 -0.0018093931387850337 0 -0.0055154940156469084 -0.0021503845145751858 0 -0.0065305086662148914 -0.0020249672815111802 0 -0.0065849628642464086 -0.0020691653109362667 0 -0.0064582317357797982 -0.0021597230369604426 0 -0.0065305086662148914 -0.0020249672815111802 0 -0.0065849628642464086 -0.0020691653109362667 0 -0.0066179452907349969 -0.0020093663639652991 0 -0.0065305086662148914 -0.0020249672815111802 0 -0.0066183038753171684 -0.00193431274793238 0 -0.0066179452907349969 -0.0020093663639652991 0 -0.0066183038753171684 -0.00193431274793238 0 -0.0066610400481687867 -0.0019557258897105146 0 -0.0066179452907349969 -0.0020093663639652991 0 -0.0066400147769577738 -0.0020110195649009027 0 -0.0066610400481687867 -0.0019557258897105146 0 -0.0066179452907349969 -0.0020093663639652991 0 -0.0066400147769577738 -0.0020110195649009027 0 -0.0066179452907349969 -0.0020093663639652991 0 -0.0066140769665006226 -0.0020541340147305657 0 -0.0065849628642464086 -0.0020691653109362667 0 -0.0066179452907349969 -0.0020093663639652991 0 -0.0066140769665006226 -0.0020541340147305657 0 -0.006604499520913772 -0.0020533252613032208 0 -0.0066140769665006226 -0.0020541340147305657 0 -0.0066004175698291031 -0.0020810317931525125 0 -0.0066236018605935823 -0.0020914153854976018 0 -0.0064582317357797982 -0.0021597230369604426 0 -0.0066509522480199977 -0.0020831475649231174 0 -0.0065880860712399071 -0.0020699348486854104 0 -0.006604499520913772 -0.0020533252613032208 0 -0.0066004175698291031 -0.0020810317931525125 0 -0.0065849628642464086 -0.0020691653109362667 0 -0.0066140769665006226 -0.0020541340147305657 0 -0.0066004175698291031 -0.0020810317931525125 0 -0.0065849628642464086 -0.0020691653109362667 0 -0.0066004175698291031 -0.0020810317931525125 0 -0.0065682174252521533 -0.0021108767781113356 0 -0.0065849628642464086 -0.0020691653109362667 0 -0.0065682174252521533 -0.0021108767781113356 0 -0.0064582317357797982 -0.0021597230369604426 0 -0.0066004175698291031 -0.0020810317931525125 0 -0.0065682174252521533 -0.0021108767781113356 0 -0.0065969741942132256 -0.002095850318499229 0 -0.0065682174252521533 -0.0021108767781113356 0 -0.0066236018605935823 -0.0020914153854976018 0 -0.0064582317357797982 -0.0021597230369604426 0 -0.0065682174252521533 -0.0021108767781113356 0 -0.0066236018605935823 -0.0020914153854976018 0 -0.0065969741942132256 -0.002095850318499229 0 -0.0066236018605935823 -0.0020914153854976018 0 -0.0066023495942111616 -0.0020839240511782253 0 -0.0065969741942132256 -0.002095850318499229 0 -0.0066236018605935823 -0.0020914153854976018 0 -0.0066023495942111616 -0.0020839240511782253 0 -0.0066223171974271128 -0.0020730831274739865 0 -0.0065685182784154797 -0.0020582743913406605 0 -0.0065880860712399071 -0.0020699348486854104 0 -0.0066023495942111616 -0.0020839240511782253 0 -0.0065685182784154797 -0.0020582743913406605 0 -0.0066023495942111616 -0.0020839240511782253 0 -0.0066223171974271128 -0.0020730831274739865 0 -0.0065880860712399071 -0.0020699348486854104 0 -0.0066004175698291031 -0.0020810317931525125 0 -0.0066023495942111616 -0.0020839240511782253 0 -0.0066004175698291031 -0.0020810317931525125 0 -0.0066023495942111616 -0.0020839240511782253 0 -0.0065969741942132256 -0.002095850318499229 0 -0.0055154940156469084 -0.0021503845145751858 0 -0.0063209341398732148 -0.00221032136088336 0 -0.0043202567456336284 -0.0023475287123271358 0 -0.0046929979917917026 -0.0021694953360045705 0 -0.0046128796776570202 -0.0026595223000287528 0 -0.0046929979917917026 -0.0021694953360045705 0 -0.0046128796776570202 -0.0026595223000287528 0 -0.0050341509320363676 -0.0026796434642198438 0 -0.0046128796776570202 -0.0026595223000287528 0 -0.0045471853773769695 -0.0030260888228403138 0 -0.0048868608151838924 -0.0029634875839370124 0 -0.0041931188148303725 -0.0028716732610165182 0 -0.0046128796776570202 -0.0026595223000287528 0 -0.0045471853773769695 -0.0030260888228403138 0 -0.0065685182784154797 -0.0020582743913406605 0 -0.0066223171974271128 -0.0020730831274739865 0 -0.00668017295049015 -0.0020399604416503903 0 -0.0064927102591464114 -0.0020133140973927128 0 -0.0065685182784154797 -0.0020582743913406605 0 -0.00668017295049015 -0.0020399604416503903 0 -0.0046128796776570202 -0.0026595223000287528 0 -0.0050341509320363676 -0.0026796434642198438 0 -0.0048868608151838924 -0.0029634875839370124 0 -0.0066236018605935823 -0.0020914153854976018 0 -0.0066223171974271128 -0.0020730831274739865 0 -0.00668017295049015 -0.0020399604416503903 0 -0.0063768320335276536 -0.0021508049172928633 0 -0.0063209341398732148 -0.00221032136088336 0 -0.0063209341398732148 -0.00221032136088336 0 -0.005964416534796773 -0.0025350877183254275 0 -0.0050341509320363676 -0.0026796434642198438 0 -0.0048868608151838924 -0.0029634875839370124 0 -0.0051288003229024506 -0.0031788058468667662 0 -0.0066208603469112629 -0.0015662631148670746 0 -0.0063209341398732148 -0.00221032136088336 0 -0.0064718188204024489 -0.0015475294629677516 0 -0.0068968770212453753 -0.0021670782140510371 0 -0.0068454852396955344 -0.0017600355149349602 0 -0.0048868608151838924 -0.0029634875839370124 0 -0.0051288003229024506 -0.0031788058468667662 0 -0.0047661693160938306 -0.0033887333520297015 0 -0.0051288003229024506 -0.0031788058468667662 0 -0.005221729608293162 -0.0037423812655240089 0 -0.0047661693160938306 -0.0033887333520297015 0 -0.0064718188204024489 -0.0015475294629677516 0 -0.0068454852396955344 -0.0017600355149349602 0 -0.0067973693792184519 -0.0013601895395690085 0 -0.005964416534796773 -0.0025350877183254275 0 -0.0046816426816978013 -0.0025133278082493031 0 -0.005221729608293162 -0.0037423812655240089 0 -0.0044566410515001409 -0.0038499158735747297 0 -0.0047661693160938306 -0.0033887333520297015 0 -0.0046816426816978013 -0.0025133278082493031 0 -0.0032694897013687604 -0.0023362160220564204 0 -0.0015519248345438831 -0.004230072108620574 0 -0.0014204488762613533 -0.0035120984596080014 0 -0.0018928993696501421 -0.0037788742797362335 0 -0.0015519248345438831 -0.004230072108620574 0 -0.0023450078918796457 -0.004161520354860419 0 -0.0018928993696501421 -0.0037788742797362335 0 -0.0046816426816978013 -0.0025133278082493031 0 -0.0031112051826392892 -0.0040795137735268102 0 -0.0023450078918796457 -0.004161520354860419 0 -0.0018928993696501421 -0.0037788742797362335 0 -0.002500214587690936 -0.0036115052138128538 0 -0.0044566410515001409 -0.0038499158735747297 0 -0.0047661693160938306 -0.0033887333520297015 0 -0.0041831244164407437 -0.0033325470042992792 0 -0.0045471853773769695 -0.0030260888228403138 0 -0.0048868608151838924 -0.0029634875839370124 0 -0.0047661693160938306 -0.0033887333520297015 0 -0.0041931188148303725 -0.0028716732610165182 0 -0.0045471853773769695 -0.0030260888228403138 0 -0.0041831244164407437 -0.0033325470042992792 0 -0.0045471853773769695 -0.0030260888228403138 0 -0.0047661693160938306 -0.0033887333520297015 0 -0.0041831244164407437 -0.0033325470042992792 0 -0.0041831244164407437 -0.0033325470042992792 0 -0.0036410111618333826 -0.0033074471298379202 0 -0.0033874186640636605 -0.0038429813687157893 0 -0.0041931188148303725 -0.0028716732610165182 0 -0.0041831244164407437 -0.0033325470042992792 0 -0.0036410111618333826 -0.0033074471298379202 0 -0.0032654132141380866 -0.003574948774392362 0 -0.003253098562556529 -0.0030930048910777861 0 -0.0036410111618333826 -0.0033074471298379202 0 -0.0032654132141380866 -0.003574948774392362 0 -0.0033874186640636605 -0.0038429813687157893 0 -0.0032956017941379347 -0.0036796443390519052 0 -0.0032654132141380866 -0.003574948774392362 0 -0.0036410111618333826 -0.0033074471298379202 0 -0.0033874186640636605 -0.0038429813687157893 0 -0.0031112051826392892 -0.0040795137735268102 0 -0.0034937019593032953 -0.0038706910537951874 0 -0.0023450078918796457 -0.004161520354860419 0 -0.0033874186640636605 -0.0038429813687157893 0 -0.002500214587690936 -0.0036115052138128538 0 -0.0044566410515001409 -0.0038499158735747297 0 -0.0041831244164407437 -0.0033325470042992792 0 -0.0033874186640636605 -0.0038429813687157893 0 -0.0033874186640636605 -0.0038429813687157893 0 -0.0030210752135784607 -0.0035162556215761788 0 -0.002500214587690936 -0.0036115052138128538 0 -0.0030210752135784607 -0.0035162556215761788 0 -0.0031562093936966336 -0.003284903762633273 0 -0.0025770136030999979 -0.0031479232260614603 0 -0.0030210752135784607 -0.0035162556215761788 0 -0.0025770136030999979 -0.0031479232260614603 0 -0.002500214587690936 -0.0036115052138128538 0 -0.0030210752135784607 -0.0035162556215761788 0 -0.0032956017941379347 -0.0036796443390519052 0 -0.0031562093936966336 -0.003284903762633273 0 -0.0033874186640636605 -0.0038429813687157893 0 -0.0030210752135784607 -0.0035162556215761788 0 -0.0032956017941379347 -0.0036796443390519052 0 -0.0034360065155440334 -0.0034968072896585855 0 -0.0032956017941379347 -0.0036796443390519052 0 -0.0031562093936966336 -0.003284903762633273 0 -0.0031562093936966336 -0.003284903762633273 0 -0.0028709901701929144 -0.0028335537261468596 0 -0.0034808329831460478 -0.0027789265182153722 0 -0.0031562093936966336 -0.003284903762633273 0 -0.0025770136030999979 -0.0031479232260614603 0 -0.0028709901701929144 -0.0028335537261468596 0 -0.0025770136030999979 -0.0031479232260614603 0 -0.0028709901701929144 -0.0028335537261468596 0 -0.002447336545131715 -0.002763239362263711 0 -0.0025770136030999979 -0.0031479232260614603 0 -0.002079480021570762 -0.0029077827158598651 0 -0.0018424279847511149 -0.0032555754949452429 0 -0.0025770136030999979 -0.0031479232260614603 0 -0.002447336545131715 -0.002763239362263711 0 -0.002079480021570762 -0.0029077827158598651 0 -0.002079480021570762 -0.0029077827158598651 0 -0.0017635109852339101 -0.0029334057796656043 0 -0.0018424279847511149 -0.0032555754949452429 0 -0.002079480021570762 -0.0029077827158598651 0 -0.0017635109852339101 -0.0029334057796656043 0 -0.0017015756317694474 -0.0026684232318954153 0 -0.0023128111615333814 -0.0027085104910606972 0 -0.0032694897013687604 -0.0023362160220564204 0 -0.001433369426906015 -0.0028879091982582177 0 -0.0018424279847511149 -0.0032555754949452429 0 -0.0014204488762613533 -0.0035120984596080014 0 -0.001245963879292932 -0.0028790624044904359 0 -0.001433369426906015 -0.0028879091982582177 0 -0.0014204488762613533 -0.0035120984596080014 0 -0.0017635109852339101 -0.0029334057796656043 0 -0.001433369426906015 -0.0028879091982582177 0 -0.0017015756317694474 -0.0026684232318954153 0 -0.0011216527389738223 -0.0029002457562242899 0 -0.001433369426906015 -0.0028879091982582177 0 -0.0013161987296071219 -0.0026224904224123736 0 -0.0023128111615333814 -0.0027085104910606972 0 -0.0015783288466370369 -0.0027449001462629759 0 -0.0017635109852339101 -0.0029334057796656043 0 -0.001433369426906015 -0.0028879091982582177 0 -0.0018424279847511149 -0.0032555754949452429 0 -0.0018424279847511149 -0.0032555754949452429 0 -0.0014204488762613533 -0.0035120984596080014 0 -0.0018928993696501421 -0.0037788742797362335 0 -0.0018424279847511149 -0.0032555754949452429 0 -0.0018928993696501421 -0.0037788742797362335 0 -0.002500214587690936 -0.0036115052138128538 0 -0.0025770136030999979 -0.0031479232260614603 0 -0.0018424279847511149 -0.0032555754949452429 0 -0.002500214587690936 -0.0036115052138128538 0 -0.0020307016092377334 -0.0019032906470439416 0 -0.002536266272198709 -0.0023103103707906364 0 -0.0025494639588239752 -0.0016261452233207005 0 -0.0020307016092377334 -0.0019032906470439416 0 -0.0025494639588239752 -0.0016261452233207005 0 -0.0016738273855594235 -0.0012868797898553312 0 -0.0020307016092377334 -0.0019032906470439416 0 -0.0013322941635835351 -0.0018044479321634255 0 -0.0017456158168733563 -0.0022459423475912179 0 -0.0020307016092377334 -0.0019032906470439416 0 -0.0013322941635835351 -0.0018044479321634255 0 -0.0016738273855594235 -0.0012868797898553312 0 -0.0013322941635835351 -0.0018044479321634255 0 -0.0017456158168733563 -0.0022459423475912179 0 -0.0013880500119880185 -0.0023398878349281628 0 -0.0017456158168733563 -0.0022459423475912179 0 -0.0013880500119880185 -0.0023398878349281628 0 -0.0017015756317694474 -0.0026684232318954153 0 -0.00088206089484533774 -0.002256267295315618 0 -0.0013880500119880185 -0.0023398878349281628 0 -0.0013161987296071219 -0.0026224904224123736 0 -0.00088206089484533774 -0.002256267295315618 0 -0.0013322941635835351 -0.0018044479321634255 0 -0.0013880500119880185 -0.0023398878349281628 0 -0.0013880500119880185 -0.0023398878349281628 0 -0.0013161987296071219 -0.0026224904224123736 0 -0.0017015756317694474 -0.0026684232318954153 0 -0.001433369426906015 -0.0028879091982582177 0 -0.0013161987296071219 -0.0026224904224123736 0 -0.0017015756317694474 -0.0026684232318954153 0 -0.002079480021570762 -0.0029077827158598651 0 -0.0017015756317694474 -0.0026684232318954153 0 -0.0021464366395282535 -0.0024885270487511862 0 -0.0017456158168733563 -0.0022459423475912179 0 -0.0017015756317694474 -0.0026684232318954153 0 -0.0021464366395282535 -0.0024885270487511862 0 -0.0020307016092377334 -0.0019032906470439416 0 -0.0017456158168733563 -0.0022459423475912179 0 -0.0021464366395282535 -0.0024885270487511862 0 -0.0020307016092377334 -0.0019032906470439416 0 -0.0021464366395282535 -0.0024885270487511862 0 -0.002536266272198709 -0.0023103103707906364 0 -0.002447336545131715 -0.002763239362263711 0 -0.002079480021570762 -0.0029077827158598651 0 -0.0021464366395282535 -0.0024885270487511862 0 -0.002447336545131715 -0.002763239362263711 0 -0.0021464366395282535 -0.0024885270487511862 0 -0.002536266272198709 -0.0023103103707906364 0 -0.0028709901701929144 -0.0028335537261468596 0 -0.002536266272198709 -0.0023103103707906364 0 -0.0030787998601518028 -0.0022255079324854116 0 -0.0028709901701929144 -0.0028335537261468596 0 -0.002447336545131715 -0.002763239362263711 0 -0.002536266272198709 -0.0023103103707906364 0 0.0036873606684351733 -0.001003808601841101 0 0.0039234626507669689 -0.0011920187802732757 0 0.00349398428265791 -0.0015638398127218961 0 -0.0028709901701929144 -0.0028335537261468596 0 -0.0030787998601518028 -0.0022255079324854116 0 -0.0034808329831460478 -0.0027789265182153722 0 -0.00024681550424528669 -0.0021276199747239364 0 0.0019494585854864504 -0.0018185105257257244 0 0.0036873606684351733 -0.001003808601841101 0 0.0039234626507669689 -0.0011920187802732757 0 0.0043361210353838704 -0.00083088988116714871 0 0.0087819746785017284 0.00016059440316873368 0 0.0041477537356411761 -0.0010092323132540226 0 0.010152115216368279 0.00071522703461967261 0 0.0095292164918866894 0.0005716912829463682 0 0.0098115243854811091 0.00037473838366596489 0 -0.002536266272198709 -0.0023103103707906364 0 -0.0030787998601518028 -0.0022255079324854116 0 -0.0025494639588239752 -0.0016261452233207005 0 -0.00024681550424528669 -0.0021276199747239364 0 0.0041477537356411761 -0.0010092323132540226 0 0.0095292164918866894 0.0005716912829463682 0 0.0098115243854811091 0.00037473838366596489 0 0.0095804246484886106 0.00015641131408652064 0 0.0098115243854811091 0.00037473838366596489 0 0.0095804246484886106 0.00015641131408652064 0 0.0099900598629362788 5.9387189986775755e-05 0 0.010187503905789165 0.0003802124622094201 0 0.010186643001804956 -3.8631508053229684e-05 0 0.010341193604403921 0.0001275074719616178 0 0.010152115216368279 0.00071522703461967261 0 0.0098115243854811091 0.00037473838366596489 0 0.0099900598629362788 5.9387189986775755e-05 0 0.0087819746785017284 0.00016059440316873368 0 0.01027211505412837 0.00014064882177153198 0 0.010186643001804956 -3.8631508053229684e-05 0 0.01042237324786088 -0.00010699894147664315 0 0.010341193604403921 0.0001275074719616178 0 0.010186643001804956 -3.8631508053229684e-05 0 0.010326484625255436 -0.00029868044798032862 0 0.010135099654470316 -0.00045888799031639302 0 0.01027211505412837 0.00014064882177153198 0 0.0099940919174546471 -0.00052014803555640223 0 0.010186643001804956 -3.8631508053229684e-05 0 0.010326484625255436 -0.00029868044798032862 0 0.01042237324786088 -0.00010699894147664315 0 0.0099900598629362788 5.9387189986775755e-05 0 0.0097540947471325343 -0.00020504091786485549 0 0.0099051890556396249 -0.00049232688286740512 0 0.0095804246484886106 0.00015641131408652064 0 0.0097540947471325343 -0.00020504091786485549 0 0.0092532483900894802 -0.00014003141004061096 0 0.0095804246484886106 0.00015641131408652064 0 0.0099900598629362788 5.9387189986775755e-05 0 0.0097540947471325343 -0.00020504091786485549 0 0.0095804246484886106 0.00015641131408652064 0 0.0092532483900894802 -0.00014003141004061096 0 0.0089260349028395802 0.00016664277381681479 0 0.0097540947471325343 -0.00020504091786485549 0 0.0092532483900894802 -0.00014003141004061096 0 0.0090839759349297649 -0.00076982109366776339 0 0.0092532483900894802 -0.00014003141004061096 0 0.0088552904427945545 -0.00019233499303910947 0 0.0090839759349297649 -0.00076982109366776339 0 0.0092532483900894802 -0.00014003141004061096 0 0.0089260349028395802 0.00016664277381681479 0 0.0088552904427945545 -0.00019233499303910947 0 0.0041477537356411761 -0.0010092323132540226 0 0.001270885567977009 -0.0018041089199441406 0 0.0095292164918866894 0.0005716912829463682 0 0.0095804246484886106 0.00015641131408652064 0 0.0089260349028395802 0.00016664277381681479 0 0.0049686195752801096 -0.0020962016708867951 0 0.0053874222528519497 -0.001787393844949391 0 0.0054024110778162502 -0.0020002013629890516 0 0.0041477537356411761 -0.0010092323132540226 0 0.0077068845899118136 -0.0006153245785613645 0 0.0027047262182071834 -0.0014514444438360821 0 0.001270885567977009 -0.0018041089199441406 0 -0.00062467275060034582 -0.00097903616582519881 0 -0.0013322941635835351 -0.0018044479321634255 0 -0.0016738273855594235 -0.0012868797898553312 0 0.0058005943501216045 -0.0018963209006370302 0 0.0053874222528519497 -0.001787393844949391 0 0.0054024110778162502 -0.0020002013629890516 0 0.0057790187261299638 -0.0015373647520817023 0 0.0058005943501216045 -0.0018963209006370302 0 0.0053874222528519497 -0.001787393844949391 0 0.008195735399248243 -0.00030265494719075082 0 0.0089260349028395802 0.00016664277381681479 0 0.0088552904427945545 -0.00019233499303910947 0 0.006871375332496891 -0.00098922976125894271 0 0.0077068845899118136 -0.0006153245785613645 0 0.0085533199261172699 -0.00062727284142363325 0 0.0090618890743669554 -0.00070148818368150631 0 0.008453053315743397 -0.0012197858781889568 0 0.008195735399248243 -0.00030265494719075082 0 0.0088552904427945545 -0.00019233499303910947 0 0.0085533199261172699 -0.00062727284142363325 0 0.0088552904427945545 -0.00019233499303910947 0 0.0085533199261172699 -0.00062727284142363325 0 0.0090618890743669554 -0.00070148818368150631 0 0.0088293625101010936 -0.00012016612432149728 0 0.010122439258073108 -0.00078169821635264624 0 0.0094991087328917811 -0.00027240894238307069 0 0.010122439258073108 -0.00078169821635264624 0 0.0095889966641851329 -0.0005266147922257427 0 0.009768627710607429 -0.00085129516035070555 0 0.0097756710800857294 -0.00058081712688535625 0 0.010122439258073108 -0.00078169821635264624 0 0.013058464432664814 -0.0012387316831150856 0 0.012348362253433961 -0.0014387435238672472 0 0.01243196218428776 -0.0012089015825183203 0 0.012263536489485855 -0.0011830849534705022 0 0.012348362253433961 -0.0014387435238672472 0 0.01243196218428776 -0.0012089015825183203 0 0.012598303998144923 -0.0012448093969478142 0 0.010122439258073108 -0.00078169821635264624 0 0.01057626445573966 -0.001277402179360642 0 0.0080933702539055675 -0.00083757479037552642 0 0.0085533199261172699 -0.00062727284142363325 0 0.008453053315743397 -0.0012197858781889568 0 0.015871138633400686 -0.0015218199880183473 0 0.015071900069850732 -0.0010854636120240487 0 0.012748786959634788 -0.0009166023627610962 0 0.012696684142121273 -0.0010365825969878542 0 0.012506902377744595 -0.0010488745695171689 0 0.012696684142121273 -0.0010365825969878542 0 0.012598303998144923 -0.0012448093969478142 0 0.012506902377744595 -0.0010488745695171689 0 0.01243196218428776 -0.0012089015825183203 0 0.012598303998144923 -0.0012448093969478142 0 0.012506902377744595 -0.0010488745695171689 0 0.017644103231074411 -0.0011238344249254798 0 0.017332626747374506 -0.0012862783146648639 0 0.017589439287459162 -0.0013745416214188478 0 0.013058464432664814 -0.0012387316831150856 0 0.015071900069850732 -0.0010854636120240487 0 0.01243196218428776 -0.0012089015825183203 0 0.012263536489485855 -0.0011830849534705022 0 0.012506902377744595 -0.0010488745695171689 0 0.017644103231074411 -0.0011238344249254798 0 0.017589439287459162 -0.0013745416214188478 0 0.017785495654199009 -0.0014696896832433644 0 0.017332626747374506 -0.0012862783146648639 0 0.017589439287459162 -0.0013745416214188478 0 0.017609935503308246 -0.001618765330406042 0 0.017589439287459162 -0.0013745416214188478 0 0.017609935503308246 -0.001618765330406042 0 0.017785495654199009 -0.0014696896832433644 0 0.017609935503308246 -0.001618765330406042 0 0.017742841948403552 -0.0016549855440764457 0 0.017785495654199009 -0.0014696896832433644 0 0.016937542821910255 -0.0015044784864615983 0 0.017332626747374506 -0.0012862783146648639 0 0.017609935503308246 -0.001618765330406042 0 0.017465293544908462 -0.0016051162254533771 0 0.017609935503308246 -0.001618765330406042 0 0.017509739664176776 -0.0016928963841968861 0 0.015871138633400686 -0.0015218199880183473 0 0.018162596301880891 -0.001677364878107239 0 0.010319946710358971 -0.0013401544168082776 0 0.010631818639231471 -0.0014260064605053867 0 0.010287427143918499 -0.0016212341830500613 0 0.010319946710358971 -0.0013401544168082776 0 0.010631818639231471 -0.0014260064605053867 0 0.01042103690092709 -0.0011259372658000476 0 0.017742841948403552 -0.0016549855440764457 0 0.017785495654199009 -0.0014696896832433644 0 0.01787910324453712 -0.0017210610753897963 0 0.013519631226418739 -0.0010263224880272368 0 0.020320249723947453 -0.0017629039973778883 0 0.010319946710358971 -0.0013401544168082776 0 0.01004022695568828 -0.0012428664513272946 0 0.010287427143918499 -0.0016212341830500613 0 0.010319946710358971 -0.0013401544168082776 0 0.01004022695568828 -0.0012428664513272946 0 0.010206972866280403 -0.001116296987611646 0 0.013058464432664814 -0.0012387316831150856 0 0.013519631226418739 -0.0010263224880272368 0 0.01004022695568828 -0.0012428664513272946 0 0.010206972866280403 -0.001116296987611646 0 0.0099849639197211616 -0.00092653662539862237 0 0.0098025912210676133 -0.00085145754389276179 0 0.01004022695568828 -0.0012428664513272946 0 0.0099849639197211616 -0.00092653662539862237 0 0.010206972866280403 -0.001116296987611646 0 0.0099849639197211616 -0.00092653662539862237 0 0.010255389680984901 -0.00093699253820520977 0 0.010319946710358971 -0.0013401544168082776 0 0.010206972866280403 -0.001116296987611646 0 0.01042103690092709 -0.0011259372658000476 0 0.010206972866280403 -0.001116296987611646 0 0.010255389680984901 -0.00093699253820520977 0 0.01042103690092709 -0.0011259372658000476 0 0.010255389680984901 -0.00093699253820520977 0 0.01042103690092709 -0.0011259372658000476 0 0.010527929761045758 -0.00082672181942292349 0 0.010255389680984901 -0.00093699253820520977 0 0.010254098648342182 -0.00073153177814407424 0 0.010527929761045758 -0.00082672181942292349 0 0.010254098648342182 -0.00073153177814407424 0 0.010135099654470316 -0.00045888799031639302 0 0.010383870396969147 -0.0005429879114334311 0 0.010254098648342182 -0.00073153177814407424 0 0.010383870396969147 -0.0005429879114334311 0 0.010527929761045758 -0.00082672181942292349 0 0.0099849639197211616 -0.00092653662539862237 0 0.0098785745813851963 -0.00079895375337981809 0 0.0099051890556396249 -0.00049232688286740512 0 0.0099849639197211616 -0.00092653662539862237 0 0.010254098648342182 -0.00073153177814407424 0 0.010135099654470316 -0.00045888799031639302 0 0.0099787022506796323 -0.00089289572300539448 0 0.0099940919174546471 -0.00052014803555640223 0 0.0098785745813851963 -0.00079895375337981809 0 0.0097756710800857294 -0.00058081712688535625 0 0.0099051890556396249 -0.00049232688286740512 0 0.0098025912210676133 -0.00085145754389276179 0 0.0099849639197211616 -0.00092653662539862237 0 0.0098785745813851963 -0.00079895375337981809 0 0.009768627710607429 -0.00085129516035070555 0 0.0098785745813851963 -0.00079895375337981809 0 0.0097756710800857294 -0.00058081712688535625 0 0.013058464432664814 -0.0012387316831150856 0 0.010998417286898272 -0.0016927932591217099 0 0.0099849639197211616 -0.00092653662539862237 0 0.010255389680984901 -0.00093699253820520977 0 0.010254098648342182 -0.00073153177814407424 0 0.0097540947471325343 -0.00020504091786485549 0 0.0095889966641851329 -0.0005266147922257427 0 0.0097756710800857294 -0.00058081712688535625 0 0.0097540947471325343 -0.00020504091786485549 0 0.0097756710800857294 -0.00058081712688535625 0 0.0099051890556396249 -0.00049232688286740512 0 0.010326484625255436 -0.00029868044798032862 0 0.010135099654470316 -0.00045888799031639302 0 0.010383870396969147 -0.0005429879114334311 0 0.010326484625255436 -0.00029868044798032862 0 0.010383870396969147 -0.0005429879114334311 0 0.010503615699288016 -0.00035789735791089572 0 0.010503615699288016 -0.00035789735791089572 0 0.010647723832918215 -0.00054999767287235374 0 0.010729506813134967 -0.0002708797535531452 0 0.010383870396969147 -0.0005429879114334311 0 0.010503615699288016 -0.00035789735791089572 0 0.010647723832918215 -0.00054999767287235374 0 0.011042113722727391 -0.00074555136908331936 0 0.011079172733417613 -0.0002980089843650432 0 0.010729506813134967 -0.0002708797535531452 0 0.010647723832918215 -0.00054999767287235374 0 0.011042113722727391 -0.00074555136908331936 0 0.010729506813134967 -0.0002708797535531452 0 0.010647723832918215 -0.00054999767287235374 0 0.011042113722727391 -0.00074555136908331936 0 0.010527929761045758 -0.00082672181942292349 0 0.011042113722727391 -0.00074555136908331936 0 0.010527929761045758 -0.00082672181942292349 0 0.010727308547772402 -0.0010682258293758793 0 0.010383870396969147 -0.0005429879114334311 0 0.010647723832918215 -0.00054999767287235374 0 0.010527929761045758 -0.00082672181942292349 0 0.01042103690092709 -0.0011259372658000476 0 0.010527929761045758 -0.00082672181942292349 0 0.010727308547772402 -0.0010682258293758793 0 0.029905410975966992 -0.0050892915963378976 0 0.030230054514496833 -0.0042005206854023071 0 0.029735057753018417 -0.0045923961192254623 0 0.020142460193212367 -0.0027157444909648716 0 0.023442552343357036 -0.0040625165459875802 0 0.029905410975966992 -0.0050892915963378976 0 0.030230054514496833 -0.0042005206854023071 0 0.030493591899552534 -0.0040773516220739235 0 0.011042113722727391 -0.00074555136908331936 0 0.010727308547772402 -0.0010682258293758793 0 0.010983071718640908 -0.0012408515638168381 0 0.030523733272799142 -0.004024459076489446 0 0.030284835982970777 -0.0039451379895422958 0 0.030532171008770002 -0.0037149085129583289 0 0.0287682974254676 -0.0028023408154222141 0 0.023442552343357036 -0.0040625165459875802 0 0.030230054514496833 -0.0042005206854023071 0 0.030523733272799142 -0.004024459076489446 0 0.030284835982970777 -0.0039451379895422958 0 0.030230054514496833 -0.0042005206854023071 0 0.030284835982970777 -0.0039451379895422958 0 0.029693285454670506 -0.0040742860235719863 0 0.030284835982970777 -0.0039451379895422958 0 0.030191086391720499 -0.0036904610049229565 0 0.030532171008770002 -0.0037149085129583289 0 0.030523733272799142 -0.004024459076489446 0 0.030532171008770002 -0.0037149085129583289 0 0.030716319553899151 -0.0036432268784734926 0 0.030837911773588002 -0.0036268783144579172 0 0.030523733272799142 -0.004024459076489446 0 0.030716319553899151 -0.0036432268784734926 0 0.020345215975875294 -0.0026169744683798447 0 0.023442552343357036 -0.0040625165459875802 0 0.010631818639231471 -0.0014260064605053867 0 0.010727308547772402 -0.0010682258293758793 0 0.010983071718640908 -0.0012408515638168381 0 0.010631818639231471 -0.0014260064605053867 0 0.01042103690092709 -0.0011259372658000476 0 0.010727308547772402 -0.0010682258293758793 0 0.029693285454670506 -0.0040742860235719863 0 0.028743144145003195 -0.0042207889440604735 0 0.028929615144575302 -0.0033422704645949598 0 0.030191086391720499 -0.0036904610049229565 0 0.029693285454670506 -0.0040742860235719863 0 0.029841994284566822 -0.003383895862263436 0 0.030284835982970777 -0.0039451379895422958 0 0.030191086391720499 -0.0036904610049229565 0 0.029693285454670506 -0.0040742860235719863 0 0.029693285454670506 -0.0040742860235719863 0 0.029735057753018417 -0.0045923961192254623 0 0.029120425586042605 -0.004799755154729698 0 0.030230054514496833 -0.0042005206854023071 0 0.029693285454670506 -0.0040742860235719863 0 0.029735057753018417 -0.0045923961192254623 0 0.029693285454670506 -0.0040742860235719863 0 0.028743144145003195 -0.0042207889440604735 0 0.029120425586042605 -0.004799755154729698 0 0.028743144145003195 -0.0042207889440604735 0 0.029120425586042605 -0.004799755154729698 0 0.028076059524494476 -0.0050029206816064866 0 0.029120425586042605 -0.004799755154729698 0 0.02882562947597811 -0.005523643300343788 0 0.028076059524494476 -0.0050029206816064866 0 0.029905410975966992 -0.0050892915963378976 0 0.029735057753018417 -0.0045923961192254623 0 0.029120425586042605 -0.004799755154729698 0 0.029905410975966992 -0.0050892915963378976 0 0.029120425586042605 -0.004799755154729698 0 0.02882562947597811 -0.005523643300343788 0 0.029905410975966992 -0.0050892915963378976 0 0.02882562947597811 -0.005523643300343788 0 0.029205896236222769 -0.0060582328086405714 0 0.020142460193212367 -0.0027157444909648716 0 0.020125229027333005 -0.0031176636814890359 0 0.02882562947597811 -0.005523643300343788 0 0.029205896236222769 -0.0060582328086405714 0 0.028086968855166899 -0.0060994640963359815 0 0.028573355554484071 -0.0068573480839131109 0 0.029205896236222769 -0.0060582328086405714 0 0.028086968855166899 -0.0060994640963359815 0 0.011141134074981851 0.00014154572785542562 0 0.011079172733417613 -0.0002980089843650432 0 0.010840805553169056 5.9992264700358011e-05 0 0.011141134074981851 0.00014154572785542562 0 0.010840805553169056 5.9992264700358011e-05 0 0.010813538828490904 0.00035591775719300662 0 0.020417996505958717 -0.0038255646351177822 0 0.020125229027333005 -0.0031176636814890359 0 0.011079172733417613 -0.0002980089843650432 0 0.010729506813134967 -0.0002708797535531452 0 0.010840805553169056 5.9992264700358011e-05 0 0.010729506813134967 -0.0002708797535531452 0 0.010559510565624189 7.4986715516295224e-05 0 0.010840805553169056 5.9992264700358011e-05 0 0.010729506813134967 -0.0002708797535531452 0 0.01042237324786088 -0.00010699894147664315 0 0.010559510565624189 7.4986715516295224e-05 0 0.010326484625255436 -0.00029868044798032862 0 0.010503615699288016 -0.00035789735791089572 0 0.01042237324786088 -0.00010699894147664315 0 0.010503615699288016 -0.00035789735791089572 0 0.010729506813134967 -0.0002708797535531452 0 0.01042237324786088 -0.00010699894147664315 0 0.01042237324786088 -0.00010699894147664315 0 0.010559510565624189 7.4986715516295224e-05 0 0.010341193604403921 0.0001275074719616178 0 0.010559510565624189 7.4986715516295224e-05 0 0.010341193604403921 0.0001275074719616178 0 0.010380847651142572 0.00029225740611260565 0 0.010559510565624189 7.4986715516295224e-05 0 0.010600582048656826 0.00031058098395417326 0 0.010380847651142572 0.00029225740611260565 0 0.010559510565624189 7.4986715516295224e-05 0 0.010840805553169056 5.9992264700358011e-05 0 0.010600582048656826 0.00031058098395417326 0 0.010840805553169056 5.9992264700358011e-05 0 0.010600582048656826 0.00031058098395417326 0 0.010813538828490904 0.00035591775719300662 0 0.010600582048656826 0.00031058098395417326 0 0.010436419354632454 0.00044907650314059025 0 0.010571869013983983 0.0006123756698769991 0 0.010600582048656826 0.00031058098395417326 0 0.010571869013983983 0.0006123756698769991 0 0.010813538828490904 0.00035591775719300662 0 0.010187503905789165 0.0003802124622094201 0 0.010341193604403921 0.0001275074719616178 0 0.010380847651142572 0.00029225740611260565 0 0.010187503905789165 0.0003802124622094201 0 0.010380847651142572 0.00029225740611260565 0 0.010256998277275742 0.00041702856098593664 0 0.010600582048656826 0.00031058098395417326 0 0.010380847651142572 0.00029225740611260565 0 0.010436419354632454 0.00044907650314059025 0 0.010436419354632454 0.00044907650314059025 0 0.010256998277275742 0.00041702856098593664 0 0.010372234020927235 0.00061809876186913351 0 0.010380847651142572 0.00029225740611260565 0 0.010436419354632454 0.00044907650314059025 0 0.010256998277275742 0.00041702856098593664 0 0.0087819746785017284 0.00016059440316873368 0 0.010051103835364297 0.00043719802946171966 0 0.010372234020927235 0.00061809876186913351 0 0.010133057187927251 0.00077534073163333054 0 0.0104408597184492 0.00082988286249013215 0 0.0087819746785017284 0.00016059440316873368 0 0.0019494585854864504 -0.0018185105257257244 0 0.010256998277275742 0.00041702856098593664 0 0.010372234020927235 0.00061809876186913351 0 0.010133057187927251 0.00077534073163333054 0 0.010094850877883558 0.0003738765193618982 0 0.010256998277275742 0.00041702856098593664 0 0.010133057187927251 0.00077534073163333054 0 0.010436419354632454 0.00044907650314059025 0 0.010372234020927235 0.00061809876186913351 0 0.010571869013983983 0.0006123756698769991 0 0.010372234020927235 0.00061809876186913351 0 0.010571869013983983 0.0006123756698769991 0 0.0104408597184492 0.00082988286249013215 0 0.010552691984515203 0.00094555441113305363 0 0.010571869013983983 0.0006123756698769991 0 0.0104408597184492 0.00082988286249013215 0 0.010552691984515203 0.00094555441113305363 0 0.010571869013983983 0.0006123756698769991 0 0.010900084343909161 0.0006614923321805183 0 0.010873941042552316 0.0010294873183607663 0 0.010552691984515203 0.00094555441113305363 0 0.010900084343909161 0.0006614923321805183 0 0.010873941042552316 0.0010294873183607663 0 0.010900084343909161 0.0006614923321805183 0 0.011273874139951109 0.0006780921422125392 0 0.0094460256470704496 0.0021321042643989087 0 0.015027586827812455 -0.00039839988665336891 0 0.020417996505958717 -0.0038255646351177822 0 0.015027586827812455 -0.00039839988665336891 0 0.011141134074981851 0.00014154572785542562 0 0.010900084343909161 0.0006614923321805183 0 0.011273874139951109 0.0006780921422125392 0 0.028573355554484071 -0.0068573480839131109 0 0.028090675389776922 -0.0074574763935743686 0 0.027656527326937651 -0.0069795117678705786 0 0.010571869013983983 0.0006123756698769991 0 0.010900084343909161 0.0006614923321805183 0 0.010813538828490904 0.00035591775719300662 0 0.011141134074981851 0.00014154572785542562 0 0.010900084343909161 0.0006614923321805183 0 0.010813538828490904 0.00035591775719300662 0 0.0079795158770755489 0.0012136024766970306 0 0.0079025188153770548 0.0016512739897381046 0 0.0086210341337330677 0.0011987831077190539 0 0.015027586827812455 -0.00039839988665336891 0 0.018469160542588656 -0.0035144325412137219 0 0.0079604398085678218 0.0015208846476396027 0 0.0079795158770755489 0.0012136024766970306 0 0.0079025188153770548 0.0016512739897381046 0 0.0075524686094235252 0.0015042548308256843 0 0.0079025188153770548 0.0016512739897381046 0 0.0083884144033571553 0.0019249357329815483 0 0.0083331355070772814 0.0019386230202470267 0 0.0084328516015710186 0.0018816603527831094 0 0.0070595203878145666 0.0014573203567480679 0 0.0083884144033571553 0.0019249357329815483 0 0.0061067612619288949 0.0022347910220880981 0 0.0070595203878145666 0.0014573203567480679 0 0.0075524686094235252 0.0015042548308256843 0 0.0083884144033571553 0.0019249357329815483 0 0.0083884144033571553 0.0019249357329815483 0 0.010604397499510552 0.00068101607932267256 0 0.010811439344335103 0.0016788615158159596 0 0.0083884144033571553 0.0019249357329815483 0 0.0086210341337330677 0.0011987831077190539 0 0.010604397499510552 0.00068101607932267256 0 0.0079025188153770548 0.0016512739897381046 0 0.0083884144033571553 0.0019249357329815483 0 0.0086210341337330677 0.0011987831077190539 0 0.0086210341337330677 0.0011987831077190539 0 0.010279826142500448 0.00018282501070055452 0 0.0088751295222558868 0.00022289762996641934 0 0.0086210341337330677 0.0011987831077190539 0 0.010279826142500448 0.00018282501070055452 0 0.010604397499510552 0.00068101607932267256 0 0.010279826142500448 0.00018282501070055452 0 0.0088751295222558868 0.00022289762996641934 0 0.010697504468666448 -0.00054173351665977895 0 0.027656527326937651 -0.0069795117678705786 0 0.026980543839262339 -0.0063928496521959786 0 0.028086968855166899 -0.0060994640963359815 0 0.026980543839262339 -0.0063928496521959786 0 0.028086968855166899 -0.0060994640963359815 0 0.02716468481365374 -0.0056118884218976598 0 0.018469160542588656 -0.0035144325412137219 0 0.017792473660366535 -0.0029012261314143493 0 0.0079795158770755489 0.0012136024766970306 0 0.0086210341337330677 0.0011987831077190539 0 0.0088751295222558868 0.00022289762996641934 0 0.028573355554484071 -0.0068573480839131109 0 0.027656527326937651 -0.0069795117678705786 0 0.028086968855166899 -0.0060994640963359815 0 0.02882562947597811 -0.005523643300343788 0 0.028086968855166899 -0.0060994640963359815 0 0.028076059524494476 -0.0050029206816064866 0 0.028086968855166899 -0.0060994640963359815 0 0.02716468481365374 -0.0056118884218976598 0 0.028076059524494476 -0.0050029206816064866 0 0.02716468481365374 -0.0056118884218976598 0 0.028076059524494476 -0.0050029206816064866 0 0.026624977737109062 -0.0045104681137294227 0 0.028743144145003195 -0.0042207889440604735 0 0.028076059524494476 -0.0050029206816064866 0 0.027778372895493411 -0.0038345063025222062 0 0.028076059524494476 -0.0050029206816064866 0 0.027778372895493411 -0.0038345063025222062 0 0.026624977737109062 -0.0045104681137294227 0 0.028743144145003195 -0.0042207889440604735 0 0.027778372895493411 -0.0038345063025222062 0 0.028929615144575302 -0.0033422704645949598 0 0.026624977737109062 -0.0045104681137294227 0 0.025343991638472684 -0.0037251187753773196 0 0.026342790603967929 -0.0027241004874434607 0 0.027778372895493411 -0.0038345063025222062 0 0.026624977737109062 -0.0045104681137294227 0 0.026342790603967929 -0.0027241004874434607 0 0.026624977737109062 -0.0045104681137294227 0 0.02506191292583897 -0.0048441910435787173 0 0.025343991638472684 -0.0037251187753773196 0 0.018388851037498904 -0.0030982050883281722 0 0.018695244717904746 -0.002694353840168437 0 0.026624977737109062 -0.0045104681137294227 0 0.026092065524152191 -0.005703436966273367 0 0.02506191292583897 -0.0048441910435787173 0 0.02716468481365374 -0.0056118884218976598 0 0.026624977737109062 -0.0045104681137294227 0 0.026092065524152191 -0.005703436966273367 0 0.026980543839262339 -0.0063928496521959786 0 0.02716468481365374 -0.0056118884218976598 0 0.026092065524152191 -0.005703436966273367 0 0.017792473660366535 -0.0029012261314143493 0 0.018388851037498904 -0.0030982050883281722 0 0.010279826142500448 0.00018282501070055452 0 0.010697504468666448 -0.00054173351665977895 0 0.011727297888727634 -5.3763162967571424e-05 0 0.010697504468666448 -0.00054173351665977895 0 0.011727297888727634 -5.3763162967571424e-05 0 0.01243222537915081 -0.00066934057155460522 0 0.013074312348030479 6.1800559278108183e-06 0 0.01243222537915081 -0.00066934057155460522 0 0.014378605232102309 -0.00012086930084804931 0 0.011727297888727634 -5.3763162967571424e-05 0 0.013074312348030479 6.1800559278108183e-06 0 0.011969686821220528 0.00038869223826467708 0 0.011727297888727634 -5.3763162967571424e-05 0 0.013074312348030479 6.1800559278108183e-06 0 0.01243222537915081 -0.00066934057155460522 0 0.01243222537915081 -0.00066934057155460522 0 0.014271581966995952 -0.0006634693933373311 0 0.014378605232102309 -0.00012086930084804931 0 0.02506191292583897 -0.0048441910435787173 0 0.023877648967206577 -0.0038710142228616882 0 0.025343991638472684 -0.0037251187753773196 0 0.018695244717904746 -0.002694353840168437 0 0.019039452291595163 -0.0022081696266004207 0 0.023877648967206577 -0.0038710142228616882 0 0.025343991638472684 -0.0037251187753773196 0 0.024671142252878722 -0.0026063108207181039 0 0.015833877761413689 -0.00021543993624707471 0 0.015870875005324858 -1.7762104847269128e-07 0 0.017844956102561708 -4.7295743453088592e-07 0 0.014271581966995952 -0.0006634693933373311 0 0.015833877761413689 -0.00021543993624707471 0 0.016660085455527971 -0.00055940177621196597 0 0.014271581966995952 -0.0006634693933373311 0 0.015833877761413689 -0.00021543993624707471 0 0.014378605232102309 -0.00012086930084804931 0 0.015833877761413689 -0.00021543993624707471 0 0.014378605232102309 -0.00012086930084804931 0 0.015870875005324858 -1.7762104847269128e-07 0 0.013074312348030479 6.1800559278108183e-06 0 0.013897966211917493 2.4344375845240664e-07 0 0.012597617269068774 0.00020157876606701706 0 0.014378605232102309 -0.00012086930084804931 0 0.015870875005324858 -1.7762104847269128e-07 0 0.013897966211917493 2.4344375845240664e-07 0 0.013074312348030479 6.1800559278108183e-06 0 0.014378605232102309 -0.00012086930084804931 0 0.013897966211917493 2.4344375845240664e-07 0 0.011923357819175962 9.7945174938200836e-07 0 0.012597617269068774 0.00020157876606701706 0 0.011478919313950297 0.00044322977246309577 0 0.013897966211917493 2.4344375845240664e-07 0 0.011923357819175962 9.7945174938200836e-07 0 0.012597617269068774 0.00020157876606701706 0 0.012597617269068774 0.00020157876606701706 0 0.011969686821220528 0.00038869223826467708 0 0.011478919313950297 0.00044322977246309577 0 0.013074312348030479 6.1800559278108183e-06 0 0.012597617269068774 0.00020157876606701706 0 0.011969686821220528 0.00038869223826467708 0 0.011727297888727634 -5.3763162967571424e-05 0 0.011969686821220528 0.00038869223826467708 0 0.010604397499510552 0.00068101607932267256 0 0.010279826142500448 0.00018282501070055452 0 0.011727297888727634 -5.3763162967571424e-05 0 0.010604397499510552 0.00068101607932267256 0 0.011969686821220528 0.00038869223826467708 0 0.010604397499510552 0.00068101607932267256 0 0.011522077282827741 0.00078372809278152858 0 0.011969686821220528 0.00038869223826467708 0 0.011522077282827741 0.00078372809278152858 0 0.011478919313950297 0.00044322977246309577 0 0.010604397499510552 0.00068101607932267256 0 0.011522077282827741 0.00078372809278152858 0 0.010811439344335103 0.0016788615158159596 0 0.011522077282827741 0.00078372809278152858 0 0.010811439344335103 0.0016788615158159596 0 0.011614311524657675 0.00064295840016648622 0 0.0053313662946866533 0.0013706526413422352 0 0.0061067612619288949 0.0022347910220880981 0 0.0049733230701783223 0.0020669116139313522 0 0.0084328516015710186 0.0018816603527831094 0 0.0080888786333999183 0.0013941630924493604 0 0.0080888786333999183 0.0013941630924493604 0 0.0080484253838434706 0.00043476772406745489 0 0.011614311524657675 0.00064295840016648622 0 0.010741240994930198 -0.00032979993717104517 0 0.011478919313950297 0.00044322977246309577 0 0.0047089200014526333 0.0011509484276813586 0 0.0049733230701783223 0.0020669116139313522 0 0.0041478816558725672 0.0019533029081065692 0 0.0075507242084792729 -6.7187002536065114e-05 0 0.0081775303062655066 -0.00043401491175863228 0 0.0092303872138634769 -2.1624432022416403e-06 0 0.0080484253838434706 0.00043476772406745489 0 0.0092326405457443996 4.6872788350178368e-07 0 0.0092738169928042232 1.7007439680001911e-06 0 0.0092347846117507588 9.7733172641795403e-09 0 0.009948359595283951 -6.4682099995371746e-09 0 0.0080484253838434706 0.00043476772406745489 0 0.0099498745407603922 -7.3057070649196031e-07 0 0.011923357819175962 9.7945174938200836e-07 0 0.0099538186084868769 1.0385337069056647e-07 0 0.011478919313950297 0.00044322977246309577 0 0.010741240994930198 -0.00032979993717104517 0 0.0099538186084868769 1.0385337069056647e-07 0 0.011478919313950297 0.00044322977246309577 0 0.011522077282827741 0.00078372809278152858 0 0.011614311524657675 0.00064295840016648622 0 0.011478919313950297 0.00044322977246309577 0 0.025442918684478774 0.00020008376544884397 0 0.02533492785289379 3.9952827926203047e-07 0 0.023497296918817877 -5.4660330075100211e-08 0 0.02533492785289379 3.9952827926203047e-07 0 0.026241855543042931 0.00020810288179289651 0 0.02717308248830054 4.9630185714733045e-07 0 0.025442918684478774 0.00020008376544884397 0 0.02533492785289379 3.9952827926203047e-07 0 0.026241855543042931 0.00020810288179289651 0 0.025442918684478774 0.00020008376544884397 0 0.026241855543042931 0.00020810288179289651 0 0.026732549608838727 0.00025767677804156182 0 0.025442918684478774 0.00020008376544884397 0 0.026732549608838727 0.00025767677804156182 0 0.026413748439192142 0.0001278032510192009 0 0.026732549608838727 0.00025767677804156182 0 0.026413748439192142 0.0001278032510192009 0 0.027361951121586514 0.00022402415801669844 0 0.026413748439192142 0.0001278032510192009 0 0.02718279310252443 -9.8414561219505218e-05 0 0.027361951121586514 0.00022402415801669844 0 0.026413748439192142 0.0001278032510192009 0 0.026434605096133428 0.00015796758170713725 0 0.02718279310252443 -9.8414561219505218e-05 0 0.026413748439192142 0.0001278032510192009 0 0.025482779515225817 0.00014703265969105177 0 0.026434605096133428 0.00015796758170713725 0 0.025442918684478774 0.00020008376544884397 0 0.026413748439192142 0.0001278032510192009 0 0.025482779515225817 0.00014703265969105177 0 0.025482779515225817 0.00014703265969105177 0 0.02606602181043682 -2.1792570144814655e-05 0 0.026434605096133428 0.00015796758170713725 0 0.025238226608809127 -0.00014107521683897866 0 0.025984522225334761 -0.00054772300823545373 0 0.02606602181043682 -2.1792570144814655e-05 0 0.025482779515225817 0.00014703265969105177 0 0.025238226608809127 -0.00014107521683897866 0 0.02606602181043682 -2.1792570144814655e-05 0 0.025482779515225817 0.00014703265969105177 0 0.025238226608809127 -0.00014107521683897866 0 0.024070826144419577 -4.8467499149476582e-05 0 0.024070826144419577 -4.8467499149476582e-05 0 0.024206073283278801 0.0001151030394330047 0 0.021658153594785817 1.4843253252448058e-06 0 0.025482779515225817 0.00014703265969105177 0 0.024070826144419577 -4.8467499149476582e-05 0 0.024206073283278801 0.0001151030394330047 0 0.025442918684478774 0.00020008376544884397 0 0.025482779515225817 0.00014703265969105177 0 0.024206073283278801 0.0001151030394330047 0 0.025442918684478774 0.00020008376544884397 0 0.024206073283278801 0.0001151030394330047 0 0.023497296918817877 -5.4660330075100211e-08 0 0.024206073283278801 0.0001151030394330047 0 0.023497296918817877 -5.4660330075100211e-08 0 0.021658153594785817 1.4843253252448058e-06 0 0.024070826144419577 -4.8467499149476582e-05 0 0.021658153594785817 1.4843253252448058e-06 0 0.022693558714257565 -0.00029540913269327879 0 0.024070826144419577 -4.8467499149476582e-05 0 0.022693558714257565 -0.00029540913269327879 0 0.02454295632108219 -0.00056978922452881136 0 0.021658153594785817 1.4843253252448058e-06 0 0.022693558714257565 -0.00029540913269327879 0 0.019824539398137397 -5.1320508399794645e-06 0 0.022693558714257565 -0.00029540913269327879 0 0.022460735415352741 -0.0026992165640370891 0 0.023984441820326236 -0.0014614989507347532 0 0.019819233452620134 -1.1633530347735806e-07 0 0.019477502731073706 -0.0014785355590686145 0 0.022693558714257565 -0.00029540913269327879 0 0.019824539398137397 -5.1320508399794645e-06 0 0.022460735415352741 -0.0026992165640370891 0 0.019817777782492978 -1.3414135868545939e-06 0 0.016660085455527971 -0.00055940177621196597 0 0.017844956102561708 -4.7295743453088592e-07 0 0.019039452291595163 -0.0022081696266004207 0 0.019477502731073706 -0.0014785355590686145 0 0.015833877761413689 -0.00021543993624707471 0 0.016660085455527971 -0.00055940177621196597 0 0.017844956102561708 -4.7295743453088592e-07 0 0.023877648967206577 -0.0038710142228616882 0 0.022460735415352741 -0.0026992165640370891 0 0.024671142252878722 -0.0026063108207181039 0 0.022460735415352741 -0.0026992165640370891 0 0.024671142252878722 -0.0026063108207181039 0 0.023984441820326236 -0.0014614989507347532 0 0.024671142252878722 -0.0026063108207181039 0 0.023984441820326236 -0.0014614989507347532 0 0.025316850953175738 -0.0013828802889206246 0 0.023984441820326236 -0.0014614989507347532 0 0.025316850953175738 -0.0013828802889206246 0 0.02454295632108219 -0.00056978922452881136 0 0.025316850953175738 -0.0013828802889206246 0 0.02454295632108219 -0.00056978922452881136 0 0.025696712856816979 -0.00022967912142790657 0 0.022693558714257565 -0.00029540913269327879 0 0.023984441820326236 -0.0014614989507347532 0 0.02454295632108219 -0.00056978922452881136 0 0.025238226608809127 -0.00014107521683897866 0 0.024070826144419577 -4.8467499149476582e-05 0 0.02454295632108219 -0.00056978922452881136 0 0.024645388165203931 -0.00058460841900425374 0 0.025854217687825153 -0.00037309104817062768 0 0.025238226608809127 -0.00014107521683897866 0 0.02454295632108219 -0.00056978922452881136 0 0.025984522225334761 -0.00054772300823545373 0 0.025854217687825153 -0.00037309104817062768 0 0.026589922790105646 2.2119009937031612e-05 0 0.025696712856816979 -0.00022967912142790657 0 0.026591008191872392 -0.0013078872581348726 0 0.0269904720241507 0.00018123121177961274 0 0.026591008191872392 -0.0013078872581348726 0 0.027800087725998398 -0.0011988734727053966 0 0.0269904720241507 0.00018123121177961274 0 0.025316850953175738 -0.0013828802889206246 0 0.025696712856816979 -0.00022967912142790657 0 0.026591008191872392 -0.0013078872581348726 0 0.024671142252878722 -0.0026063108207181039 0 0.025316850953175738 -0.0013828802889206246 0 0.026342790603967929 -0.0027241004874434607 0 0.025316850953175738 -0.0013828802889206246 0 0.026591008191872392 -0.0013078872581348726 0 0.026342790603967929 -0.0027241004874434607 0 0.026591008191872392 -0.0013078872581348726 0 0.026342790603967929 -0.0027241004874434607 0 0.027644439390422337 -0.0025408449947628966 0 0.025343991638472684 -0.0037251187753773196 0 0.024671142252878722 -0.0026063108207181039 0 0.026342790603967929 -0.0027241004874434607 0 0.027778372895493411 -0.0038345063025222062 0 0.027644439390422337 -0.0025408449947628966 0 0.028929615144575302 -0.0033422704645949598 0 0.027644439390422337 -0.0025408449947628966 0 0.028529744608472442 -0.0020980192495500616 0 0.028929615144575302 -0.0033422704645949598 0 0.027778372895493411 -0.0038345063025222062 0 0.026342790603967929 -0.0027241004874434607 0 0.027644439390422337 -0.0025408449947628966 0 0.027644439390422337 -0.0025408449947628966 0 0.028529744608472442 -0.0020980192495500616 0 0.027800087725998398 -0.0011988734727053966 0 0.026591008191872392 -0.0013078872581348726 0 0.027644439390422337 -0.0025408449947628966 0 0.027800087725998398 -0.0011988734727053966 0 0.028529744608472442 -0.0020980192495500616 0 0.028860264920610369 -0.001049029655361427 0 0.027800087725998398 -0.0011988734727053966 0 0.028860264920610369 -0.001049029655361427 0 0.027800087725998398 -0.0011988734727053966 0 0.028220881085213152 -0.00030697554395755925 0 0.027800087725998398 -0.0011988734727053966 0 0.028220881085213152 -0.00030697554395755925 0 0.0269904720241507 0.00018123121177961274 0 0.028220881085213152 -0.00030697554395755925 0 0.028335149533818483 0.0006077035587167478 0 0.029137485356462454 -8.5731865466583311e-05 0 0.028860264920610369 -0.001049029655361427 0 0.028220881085213152 -0.00030697554395755925 0 0.029137485356462454 -8.5731865466583311e-05 0 0.028833124938653622 -0.0010069338606671959 0 0.029954444366406506 -0.0012972994782091908 0 0.030220902759612197 -0.0020775903814960039 0 0.030617161753783033 -0.0021722837191913698 0 0.030670984186524392 -0.0024703055407413153 0 0.030002698420981942 -0.0022283798972405643 0 0.030189650083084586 -0.0018077920416539317 0 0.03066622004960674 -0.0019562538035381226 0 0.030220902759612197 -0.0020775903814960039 0 0.03066622004960674 -0.0019562538035381226 0 0.030617161753783033 -0.0021722837191913698 0 0.028833124938653622 -0.0010069338606671959 0 0.03080948760886849 -0.001817982321285755 0 0.030189650083084586 -0.0018077920416539317 0 0.02987779622267174 -0.0011995810853276212 0 0.030696765919469196 -0.0017922095639777351 0 0.030002698420981942 -0.0022283798972405643 0 0.030189650083084586 -0.0018077920416539317 0 0.0292825476106915 -0.0016932793810093458 0 0.030189650083084586 -0.0018077920416539317 0 0.0292825476106915 -0.0016932793810093458 0 0.02987779622267174 -0.0011995810853276212 0 0.030323290206897727 -0.0015167588381862251 0 0.031073816131406574 -0.0015903154204056208 0 0.031178285871095383 -0.0018899459262518446 0 0.030083974115731018 -0.0013231744964244862 0 0.030931184011482257 -0.0018595405732112402 0 0.028833124938653622 -0.0010069338606671959 0 0.027938563470797005 -0.00082542850785829981 0 0.028833124938653622 -0.0010069338606671959 0 0.026589922790105646 2.2119009937031612e-05 0 0.028220881085213152 -0.00030697554395755925 0 0.028335149533818483 0.0006077035587167478 0 0.0269904720241507 0.00018123121177961274 0 0.027037911634730565 -0.00020724453601003387 0 0.026677515807259723 8.2852869473087358e-05 0 0.026580798653742327 -0.00033737068294684814 0 0.026580798653742327 -0.00033737068294684814 0 0.02606602181043682 -2.1792570144814655e-05 0 0.026412447973500907 7.5081525150454191e-05 0 0.025984522225334761 -0.00054772300823545373 0 0.026580798653742327 -0.00033737068294684814 0 0.02606602181043682 -2.1792570144814655e-05 0 0.02606602181043682 -2.1792570144814655e-05 0 0.026412447973500907 7.5081525150454191e-05 0 0.026434605096133428 0.00015796758170713725 0 0.026677515807259723 8.2852869473087358e-05 0 0.026580798653742327 -0.00033737068294684814 0 0.026412447973500907 7.5081525150454191e-05 0 0.026677515807259723 8.2852869473087358e-05 0 0.026412447973500907 7.5081525150454191e-05 0 0.026428030714078926 0.0001465239463311375 0 0.027938563470797005 -0.00082542850785829981 0 0.027463787959013091 -0.00048184794647844101 0 0.0292825476106915 -0.0016932793810093458 0 0.028463882179016946 -0.0011789712915646589 0 0.029199681867751324 -0.0011564441321073994 0 0.028463882179016946 -0.0011789712915646589 0 0.029124134426107711 -0.00054623786996593001 0 0.029199681867751324 -0.0011564441321073994 0 0.027463787959013091 -0.00048184794647844101 0 0.027164400778085147 -0.00013192337676919599 0 0.026412447973500907 7.5081525150454191e-05 0 0.026428030714078926 0.0001465239463311375 0 0.026434605096133428 0.00015796758170713725 0 0.026428030714078926 0.0001465239463311375 0 0.026434605096133428 0.00015796758170713725 0 0.02718279310252443 -9.8414561219505218e-05 0 0.028463882179016946 -0.0011789712915646589 0 0.02718279310252443 -9.8414561219505218e-05 0 0.02829016891179641 9.0121947597118137e-05 0 0.02718279310252443 -9.8414561219505218e-05 0 0.02829016891179641 9.0121947597118137e-05 0 0.027361951121586514 0.00022402415801669844 0 0.028463882179016946 -0.0011789712915646589 0 0.029124134426107711 -0.00054623786996593001 0 0.02829016891179641 9.0121947597118137e-05 0 0.029124134426107711 -0.00054623786996593001 0 0.030712631746008023 -0.00064903882134472791 0 0.029157970819892021 0.00028894103806412788 0 0.029124134426107711 -0.00054623786996593001 0 0.030712631746008023 -0.00064903882134472791 0 0.030323290206897727 -0.0015167588381862251 0 0.030712631746008023 -0.00064903882134472791 0 0.030323290206897727 -0.0015167588381862251 0 0.031209994088370736 -0.0013280633773711012 0 0.030323290206897727 -0.0015167588381862251 0 0.031209994088370736 -0.0013280633773711012 0 0.031073816131406574 -0.0015903154204056208 0 0.0292825476106915 -0.0016932793810093458 0 0.02987779622267174 -0.0011995810853276212 0 0.029199681867751324 -0.0011564441321073994 0 0.02918953672332111 -0.00059171973652079367 0 0.030083974115731018 -0.0013231744964244862 0 0.029124134426107711 -0.00054623786996593001 0 0.02987779622267174 -0.0011995810853276212 0 0.029199681867751324 -0.0011564441321073994 0 0.03174704814487795 -0.0012738180865024204 0 0.032183794724805939 -0.0010141854463421556 0 0.031890764384943038 -0.0014918152964719397 0 0.03174704814487795 -0.0012738180865024204 0 0.031647399721576971 -0.00097898871060633254 0 0.032183794724805939 -0.0010141854463421556 0 0.03174704814487795 -0.0012738180865024204 0 0.031890764384943038 -0.0014918152964719397 0 0.031465164933641827 -0.0016138361641686999 0 0.031209994088370736 -0.0013280633773711012 0 0.031465164933641827 -0.0016138361641686999 0 0.031073816131406574 -0.0015903154204056208 0 0.03174704814487795 -0.0012738180865024204 0 0.031209994088370736 -0.0013280633773711012 0 0.031465164933641827 -0.0016138361641686999 0 0.03174704814487795 -0.0012738180865024204 0 0.031209994088370736 -0.0013280633773711012 0 0.031647399721576971 -0.00097898871060633254 0 0.030712631746008023 -0.00064903882134472791 0 0.031647399721576971 -0.00097898871060633254 0 0.031995216093689952 -0.00052036549638930743 0 0.030712631746008023 -0.00064903882134472791 0 0.031209994088370736 -0.0013280633773711012 0 0.031647399721576971 -0.00097898871060633254 0 0.031647399721576971 -0.00097898871060633254 0 0.032183794724805939 -0.0010141854463421556 0 0.031995216093689952 -0.00052036549638930743 0 0.032183794724805939 -0.0010141854463421556 0 0.03271010625390991 -0.00074346725932637465 0 0.031995216093689952 -0.00052036549638930743 0 0.032183794724805939 -0.0010141854463421556 0 0.03271010625390991 -0.00074346725932637465 0 0.03239011340831404 -0.0012651059908125163 0 0.03271010625390991 -0.00074346725932637465 0 0.032935293999871232 -0.001156169092857521 0 0.033262779063084641 -0.0006284874302916394 0 0.03239011340831404 -0.0012651059908125163 0 0.032463482263933287 -0.0015843771870530899 0 0.032935293999871232 -0.001156169092857521 0 0.03271010625390991 -0.00074346725932637465 0 0.03239011340831404 -0.0012651059908125163 0 0.032935293999871232 -0.001156169092857521 0 0.032183794724805939 -0.0010141854463421556 0 0.03239011340831404 -0.0012651059908125163 0 0.031890764384943038 -0.0014918152964719397 0 0.03239011340831404 -0.0012651059908125163 0 0.031890764384943038 -0.0014918152964719397 0 0.032071274680592871 -0.0016017352381574263 0 0.031890764384943038 -0.0014918152964719397 0 0.032071274680592871 -0.0016017352381574263 0 0.031713714660417919 -0.0017754943648129215 0 0.03239011340831404 -0.0012651059908125163 0 0.032071274680592871 -0.0016017352381574263 0 0.032463482263933287 -0.0015843771870530899 0 0.032071274680592871 -0.0016017352381574263 0 0.032463482263933287 -0.0015843771870530899 0 0.031936651895866544 -0.0018776813086867706 0 0.031936651895866544 -0.0018776813086867706 0 0.031817748407246473 -0.0023079864218497341 0 0.032597241229132316 -0.0020101064163627089 0 0.032463482263933287 -0.0015843771870530899 0 0.031936651895866544 -0.0018776813086867706 0 0.032597241229132316 -0.0020101064163627089 0 0.031713714660417919 -0.0017754943648129215 0 0.031936651895866544 -0.0018776813086867706 0 0.03135321865481925 -0.0020976938429392959 0 0.032071274680592871 -0.0016017352381574263 0 0.031713714660417919 -0.0017754943648129215 0 0.031936651895866544 -0.0018776813086867706 0 0.031713714660417919 -0.0017754943648129215 0 0.031468333127261973 -0.0022809243186055206 0 0.03153590927061637 -0.0018116138387008931 0 0.031468333127261973 -0.0022809243186055206 0 0.03153590927061637 -0.0018116138387008931 0 0.031178285871095383 -0.0018899459262518446 0 0.031650936744631701 -0.0018521897892503723 0 0.030875377077502032 -0.0023988016329316891 0 0.031713714660417919 -0.0017754943648129215 0 0.031468333127261973 -0.0022809243186055206 0 0.031369137850660485 -0.0026409137735835075 0 0.031713714660417919 -0.0017754943648129215 0 0.030662650685651337 -0.0022683548500879113 0 0.03135321865481925 -0.0020976938429392959 0 0.031468333127261973 -0.0022809243186055206 0 0.03094430732884728 -0.0021940985863233798 0 0.03113012606710306 -0.0024922438912661467 0 0.031890764384943038 -0.0014918152964719397 0 0.031713714660417919 -0.0017754943648129215 0 0.03153590927061637 -0.0018116138387008931 0 0.031890764384943038 -0.0014918152964719397 0 0.03153590927061637 -0.0018116138387008931 0 0.031465164933641827 -0.0016138361641686999 0 0.03153590927061637 -0.0018116138387008931 0 0.031465164933641827 -0.0016138361641686999 0 0.031178285871095383 -0.0018899459262518446 0 0.031465164933641827 -0.0016138361641686999 0 0.031073816131406574 -0.0015903154204056208 0 0.031178285871095383 -0.0018899459262518446 0 0.030189650083084586 -0.0018077920416539317 0 0.030696765919469196 -0.0017922095639777351 0 0.03066622004960674 -0.0019562538035381226 0 0.030696765919469196 -0.0017922095639777351 0 0.03066622004960674 -0.0019562538035381226 0 0.03094430732884728 -0.0021940985863233798 0 0.031468333127261973 -0.0022809243186055206 0 0.030696765919469196 -0.0017922095639777351 0 0.03094430732884728 -0.0021940985863233798 0 0.031448752795756034 -0.002268507726522641 0 0.030931184011482257 -0.0018595405732112402 0 0.03066622004960674 -0.0019562538035381226 0 0.03094430732884728 -0.0021940985863233798 0 0.030617161753783033 -0.0021722837191913698 0 0.03094430732884728 -0.0021940985863233798 0 0.030617161753783033 -0.0021722837191913698 0 0.030670984186524392 -0.0024703055407413153 0 0.028860264920610369 -0.001049029655361427 0 0.029137485356462454 -8.5731865466583311e-05 0 0.029991075911224848 -0.00080900598036366071 0 0.03094430732884728 -0.0021940985863233798 0 0.030670984186524392 -0.0024703055407413153 0 0.03113012606710306 -0.0024922438912661467 0 0.029954444366406506 -0.0012972994782091908 0 0.030512161560844693 -0.0018239956142703079 0 0.030670984186524392 -0.0024703055407413153 0 0.03113012606710306 -0.0024922438912661467 0 0.031239620484816599 -0.0029120393609625918 0 0.030662650685651337 -0.0022683548500879113 0 0.030980460228735022 -0.0023445448444280523 0 0.03135321865481925 -0.0020976938429392959 0 0.031468333127261973 -0.0022809243186055206 0 0.03113012606710306 -0.0024922438912661467 0 0.031369137850660485 -0.0026409137735835075 0 0.03113012606710306 -0.0024922438912661467 0 0.031369137850660485 -0.0026409137735835075 0 0.031239620484816599 -0.0029120393609625918 0 0.030662650685651337 -0.0022683548500879113 0 0.030698131865611589 -0.0025984662789832287 0 0.03040156558999299 -0.0024915475810165294 0 0.030875377077502032 -0.0023988016329316891 0 0.030512161560844693 -0.0018239956142703079 0 0.030662650685651337 -0.0022683548500879113 0 0.030980460228735022 -0.0023445448444280523 0 0.030698131865611589 -0.0025984662789832287 0 0.030698131865611589 -0.0025984662789832287 0 0.030617934183644779 -0.0028606120816600791 0 0.029833829589514374 -0.0029209696181146413 0 0.030698131865611589 -0.0025984662789832287 0 0.03040156558999299 -0.0024915475810165294 0 0.029833829589514374 -0.0029209696181146413 0 0.030698131865611589 -0.0025984662789832287 0 0.030617934183644779 -0.0028606120816600791 0 0.030950090305522607 -0.0026739558689195283 0 0.028529744608472442 -0.0020980192495500616 0 0.028860264920610369 -0.001049029655361427 0 0.029568669169649731 -0.0018091061248719945 0 0.030512161560844693 -0.0018239956142703079 0 0.029660678848275709 -0.0023936137238379359 0 0.028860264920610369 -0.001049029655361427 0 0.029991075911224848 -0.00080900598036366071 0 0.029568669169649731 -0.0018091061248719945 0 0.028529744608472442 -0.0020980192495500616 0 0.029568669169649731 -0.0018091061248719945 0 0.028929615144575302 -0.0033422704645949598 0 0.029660678848275709 -0.0023936137238379359 0 0.028998687948333789 -0.0033372494284492518 0 0.029833829589514374 -0.0029209696181146413 0 0.030291076892435518 -0.003104502759737456 0 0.029841994284566822 -0.003383895862263436 0 0.030617934183644779 -0.0028606120816600791 0 0.029833829589514374 -0.0029209696181146413 0 0.030291076892435518 -0.003104502759737456 0 0.030617934183644779 -0.0028606120816600791 0 0.030291076892435518 -0.003104502759737456 0 0.030749408596940177 -0.0031341192857464342 0 0.030291076892435518 -0.003104502759737456 0 0.030425153755600308 -0.0032910487535561151 0 0.030749408596940177 -0.0031341192857464342 0 0.030291076892435518 -0.003104502759737456 0 0.029841994284566822 -0.003383895862263436 0 0.030425153755600308 -0.0032910487535561151 0 0.029841994284566822 -0.003383895862263436 0 0.030284996143862392 -0.003460891814752553 0 0.030425153755600308 -0.0032910487535561151 0 0.030191086391720499 -0.0036904610049229565 0 0.029841994284566822 -0.003383895862263436 0 0.030284996143862392 -0.003460891814752553 0 0.029833829589514374 -0.0029209696181146413 0 0.029841994284566822 -0.003383895862263436 0 0.028929615144575302 -0.0033422704645949598 0 0.029693285454670506 -0.0040742860235719863 0 0.029841994284566822 -0.003383895862263436 0 0.028929615144575302 -0.0033422704645949598 0 0.030793168857161327 -0.0034530118105405017 0 0.030694054559839805 -0.0035085731097767429 0 0.030731717960885245 -0.0034239396071297028 0 0.030793168857161327 -0.0034530118105405017 0 0.030731717960885245 -0.0034239396071297028 0 0.030849345262418251 -0.0033835784556510654 0 0.030793168857161327 -0.0034530118105405017 0 0.030849345262418251 -0.0033835784556510654 0 0.030844803966304062 -0.0034052000153185248 0 0.030793168857161327 -0.0034530118105405017 0 0.030808767270126894 -0.0035100392094576725 0 0.030844803966304062 -0.0034052000153185248 0 0.030845596440901998 -0.0034179203489337479 0 0.030844803966304062 -0.0034052000153185248 0 0.030848714244333424 -0.0034627971711711086 0 0.030808767270126894 -0.0035100392094576725 0 0.030844803966304062 -0.0034052000153185248 0 0.030848714244333424 -0.0034627971711711086 0 0.030837911773588002 -0.0036268783144579172 0 0.030716319553899151 -0.0036432268784734926 0 0.030808767270126894 -0.0035100392094576725 0 0.030837911773588002 -0.0036268783144579172 0 0.030808767270126894 -0.0035100392094576725 0 0.030848714244333424 -0.0034627971711711086 0 0.030716319553899151 -0.0036432268784734926 0 0.030808767270126894 -0.0035100392094576725 0 0.030740731198754648 -0.0035379561110107727 0 0.030793168857161327 -0.0034530118105405017 0 0.030808767270126894 -0.0035100392094576725 0 0.030740731198754648 -0.0035379561110107727 0 0.030740731198754648 -0.0035379561110107727 0 0.030621720687488051 -0.0035929928378981503 0 0.030694054559839805 -0.0035085731097767429 0 0.030793168857161327 -0.0034530118105405017 0 0.030740731198754648 -0.0035379561110107727 0 0.030694054559839805 -0.0035085731097767429 0 0.030716319553899151 -0.0036432268784734926 0 0.030740731198754648 -0.0035379561110107727 0 0.030621720687488051 -0.0035929928378981503 0 0.030532171008770002 -0.0037149085129583289 0 0.030716319553899151 -0.0036432268784734926 0 0.030621720687488051 -0.0035929928378981503 0 0.030532171008770002 -0.0037149085129583289 0 0.030621720687488051 -0.0035929928378981503 0 0.030504905865491719 -0.0035426926894286176 0 0.030621720687488051 -0.0035929928378981503 0 0.030504905865491719 -0.0035426926894286176 0 0.030694054559839805 -0.0035085731097767429 0 0.030191086391720499 -0.0036904610049229565 0 0.030532171008770002 -0.0037149085129583289 0 0.030504905865491719 -0.0035426926894286176 0 0.030191086391720499 -0.0036904610049229565 0 0.030284996143862392 -0.003460891814752553 0 0.030504905865491719 -0.0035426926894286176 0 0.030284996143862392 -0.003460891814752553 0 0.030504905865491719 -0.0035426926894286176 0 0.030618965958602241 -0.003394278001444095 0 0.030284996143862392 -0.003460891814752553 0 0.030618965958602241 -0.003394278001444095 0 0.030425153755600308 -0.0032910487535561151 0 0.030504905865491719 -0.0035426926894286176 0 0.030618965958602241 -0.003394278001444095 0 0.030731717960885245 -0.0034239396071297028 0 0.030618965958602241 -0.003394278001444095 0 0.030731717960885245 -0.0034239396071297028 0 0.03087062678372765 -0.0033225840595556043 0 0.030504905865491719 -0.0035426926894286176 0 0.030694054559839805 -0.0035085731097767429 0 0.030731717960885245 -0.0034239396071297028 0 0.030731717960885245 -0.0034239396071297028 0 0.03087062678372765 -0.0033225840595556043 0 0.030849345262418251 -0.0033835784556510654 0 0.03087062678372765 -0.0033225840595556043 0 0.030425153755600308 -0.0032910487535561151 0 0.030749408596940177 -0.0031341192857464342 0 0.030618965958602241 -0.003394278001444095 0 0.03087062678372765 -0.0033225840595556043 0 0.030425153755600308 -0.0032910487535561151 0 0.030749408596940177 -0.0031341192857464342 0 0.031098197257415243 -0.0032962306637219331 0 0.031205357164856246 -0.0028122129750953071 0 0.03087062678372765 -0.0033225840595556043 0 0.030749408596940177 -0.0031341192857464342 0 0.031098197257415243 -0.0032962306637219331 0 0.031189489563193278 -0.0033373205678698913 0 0.03126969977177281 -0.0032366814915180402 0 0.031098197257415243 -0.0032962306637219331 0 0.032079488602354662 -0.0035030278919248141 0 0.031675938725764657 -0.0030877719597768188 0 0.031098197257415243 -0.0032962306637219331 0 0.030917846455626521 -0.0033440237635942826 0 0.030851110220025159 -0.0033910160211158393 0 0.03087062678372765 -0.0033225840595556043 0 0.031098197257415243 -0.0032962306637219331 0 0.030917846455626521 -0.0033440237635942826 0 0.030917846455626521 -0.0033440237635942826 0 0.030849345262418251 -0.0033835784556510654 0 0.030844803966304062 -0.0034052000153185248 0 0.03087062678372765 -0.0033225840595556043 0 0.030917846455626521 -0.0033440237635942826 0 0.030849345262418251 -0.0033835784556510654 0 0.030845596440901998 -0.0034179203489337479 0 0.030844803966304062 -0.0034052000153185248 0 0.030851110220025159 -0.0033910160211158393 0 0.030917846455626521 -0.0033440237635942826 0 0.030844803966304062 -0.0034052000153185248 0 0.030851110220025159 -0.0033910160211158393 0 0.030845596440901998 -0.0034179203489337479 0 0.030851110220025159 -0.0033910160211158393 0 0.030845982127210157 -0.0034021288846812687 0 0.031098197257415243 -0.0032962306637219331 0 0.030851110220025159 -0.0033910160211158393 0 0.030787833021780526 -0.0034563090915528589 0 0.032079488602354662 -0.0035030278919248141 0 0.031675938725764657 -0.0030877719597768188 0 0.032223766779494442 -0.002952897048862195 0 0.031119182156131544 -0.0033197948443453714 0 0.03126969977177281 -0.0032366814915180402 0 0.031675938725764657 -0.0030877719597768188 0 0.03188162928945619 -0.0027446230844838954 0 0.032223766779494442 -0.002952897048862195 0 0.03188162928945619 -0.0027446230844838954 0 0.031205357164856246 -0.0028122129750953071 0 0.031817748407246473 -0.0023079864218497341 0 0.031098197257415243 -0.0032962306637219331 0 0.031675938725764657 -0.0030877719597768188 0 0.031205357164856246 -0.0028122129750953071 0 0.031675938725764657 -0.0030877719597768188 0 0.03188162928945619 -0.0027446230844838954 0 0.031205357164856246 -0.0028122129750953071 0 0.03188162928945619 -0.0027446230844838954 0 0.032431418768235375 -0.0025460008862520042 0 0.032223766779494442 -0.002952897048862195 0 0.030617934183644779 -0.0028606120816600791 0 0.031205357164856246 -0.0028122129750953071 0 0.030950090305522607 -0.0026739558689195283 0 0.030617934183644779 -0.0028606120816600791 0 0.030749408596940177 -0.0031341192857464342 0 0.031205357164856246 -0.0028122129750953071 0 0.031205357164856246 -0.0028122129750953071 0 0.030950090305522607 -0.0026739558689195283 0 0.031198387603936725 -0.002431673279678425 0 0.030698131865611589 -0.0025984662789832287 0 0.030950090305522607 -0.0026739558689195283 0 0.031198387603936725 -0.002431673279678425 0 0.031198387603936725 -0.002431673279678425 0 0.03135321865481925 -0.0020976938429392959 0 0.031817748407246473 -0.0023079864218497341 0 0.031936651895866544 -0.0018776813086867706 0 0.03135321865481925 -0.0020976938429392959 0 0.031817748407246473 -0.0023079864218497341 0 0.031205357164856246 -0.0028122129750953071 0 0.031198387603936725 -0.002431673279678425 0 0.031817748407246473 -0.0023079864218497341 0 0.030980460228735022 -0.0023445448444280523 0 0.030698131865611589 -0.0025984662789832287 0 0.031198387603936725 -0.002431673279678425 0 0.030980460228735022 -0.0023445448444280523 0 0.031198387603936725 -0.002431673279678425 0 0.03135321865481925 -0.0020976938429392959 0 0.031817748407246473 -0.0023079864218497341 0 0.032431418768235375 -0.0025460008862520042 0 0.032597241229132316 -0.0020101064163627089 0 0.03188162928945619 -0.0027446230844838954 0 0.031817748407246473 -0.0023079864218497341 0 0.032431418768235375 -0.0025460008862520042 0 0.032431418768235375 -0.0025460008862520042 0 0.033072997490161071 -0.0023771580856818712 0 0.032597241229132316 -0.0020101064163627089 0 0.033072997490161071 -0.0023771580856818712 0 0.033312891856810252 -0.0018922338297595986 0 0.032597241229132316 -0.0020101064163627089 0 0.033072997490161071 -0.0023771580856818712 0 0.033623304316150321 -0.0025056360609726847 0 0.033312891856810252 -0.0018922338297595986 0 0.032080621789557395 -0.0025336291733586767 0 0.033604042894431217 -0.0020475089692642426 0 0.033072997490161071 -0.0023771580856818712 0 0.032950211968099982 -0.0029433671851524907 0 0.033623304316150321 -0.0025056360609726847 0 0.029728657963127469 -0.0034723894397198723 0 0.029068588226651339 -0.0033887843259987147 0 0.028809796534020826 -0.0040579534981342695 0 0.031172579944037399 -0.0033323342910672321 0 0.032080621789557395 -0.0025336291733586767 0 0.029728657963127469 -0.0034723894397198723 0 0.029068588226651339 -0.0033887843259987147 0 0.029611188696621694 -0.0030697821336275917 0 0.032079488602354662 -0.0035030278919248141 0 0.032950211968099982 -0.0029433671851524907 0 0.032223766779494442 -0.002952897048862195 0 0.032431418768235375 -0.0025460008862520042 0 0.032950211968099982 -0.0029433671851524907 0 0.032223766779494442 -0.002952897048862195 0 0.032431418768235375 -0.0025460008862520042 0 0.033072997490161071 -0.0023771580856818712 0 0.032950211968099982 -0.0029433671851524907 0 0.030660468977597242 -0.0028921672136560631 0 0.029728657963127469 -0.0034723894397198723 0 0.030064119052092483 -0.0030157131131183135 0 0.03126969977177281 -0.0032366814915180402 0 0.029041895390390718 -0.0038855656868772856 0 0.03126969977177281 -0.0032366814915180402 0 0.031172579944037399 -0.0033323342910672321 0 0.030660468977597242 -0.0028921672136560631 0 0.029983570337744795 -0.0028169134278039575 0 0.030064119052092483 -0.0030157131131183135 0 0.030845596440901998 -0.0034179203489337479 0 0.030845982127210157 -0.0034021288846812687 0 0.030854532745498528 -0.0034222048869074766 0 0.030845596440901998 -0.0034179203489337479 0 0.030854532745498528 -0.0034222048869074766 0 0.030848714244333424 -0.0034627971711711086 0 0.029728657963127469 -0.0034723894397198723 0 0.030064119052092483 -0.0030157131131183135 0 0.029611188696621694 -0.0030697821336275917 0 0.029981769267804666 -0.0028115640735267506 0 0.030064119052092483 -0.0030157131131183135 0 0.029611188696621694 -0.0030697821336275917 0 0.029041895390390718 -0.0038855656868772856 0 0.029151696385528721 -0.0035605549883383214 0 0.029041895390390718 -0.0038855656868772856 0 0.026580782586055576 -0.0029470594737337945 0 0.029981769267804666 -0.0028115640735267506 0 0.029611188696621694 -0.0030697821336275917 0 0.029071240357776938 -0.0027040556445929397 0 0.025235794624174159 -0.0033615830339332022 0 0.024050652541440912 -0.0032228358239368435 0 0.024441740893630975 -0.0027698749810721028 0 0.029068588226651339 -0.0033887843259987147 0 0.029611188696621694 -0.0030697821336275917 0 0.029071240357776938 -0.0027040556445929397 0 0.024050652541440912 -0.0032228358239368435 0 0.024441740893630975 -0.0027698749810721028 0 0.023818883279017725 -0.0026547579220856359 0 0.025235794624174159 -0.0033615830339332022 0 0.024441740893630975 -0.0027698749810721028 0 0.024739057242615402 -0.0021969750419894335 0 0.020320249723947453 -0.0017629039973778883 0 0.020458238722950193 -0.0023918077590422138 0 0.024441740893630975 -0.0027698749810721028 0 0.024739057242615402 -0.0021969750419894335 0 0.023818883279017725 -0.0026547579220856359 0 0.017742841948403552 -0.0016549855440764457 0 0.01787910324453712 -0.0017210610753897963 0 0.017714452968273831 -0.0017738012174266162 0 0.030837911773588002 -0.0036268783144579172 0 0.030842611779897486 -0.0034848657439642476 0 0.030848714244333424 -0.0034627971711711086 0 0.020345215975875294 -0.0026169744683798447 0 0.020320249723947453 -0.0017629039973778883 0 0.030854532745498528 -0.0034222048869074766 0 0.030842611779897486 -0.0034848657439642476 0 0.030848714244333424 -0.0034627971711711086 0 0.029041895390390718 -0.0038855656868772856 0 0.020320249723947453 -0.0017629039973778883 0 0.017609935503308246 -0.001618765330406042 0 0.017605708871737694 -0.0017402531319007644 0 0.017509739664176776 -0.0016928963841968861 0 0.017605708871737694 -0.0017402531319007644 0 0.017509739664176776 -0.0016928963841968861 0 0.017589070764623155 -0.0018063174369333879 0 0.018967142980357683 -0.0018442507802320604 0 0.023626149084146775 -0.0020499137747945076 0 0.017609935503308246 -0.001618765330406042 0 0.017605708871737694 -0.0017402531319007644 0 0.017714452968273831 -0.0017738012174266162 0 0.017609935503308246 -0.001618765330406042 0 0.017742841948403552 -0.0016549855440764457 0 0.017714452968273831 -0.0017738012174266162 0 0.017605708871737694 -0.0017402531319007644 0 0.017714452968273831 -0.0017738012174266162 0 0.017620816619728773 -0.0018107877162307565 0 0.020458238722950193 -0.0023918077590422138 0 0.02391160956126126 -0.0029013279444761232 0 0.024050652541440912 -0.0032228358239368435 0 0.023818883279017725 -0.0026547579220856359 0 0.022920591422620495 -0.0030855424844896842 0 0.026580782586055576 -0.0029470594737337945 0 0.02391160956126126 -0.0029013279444761232 0 0.029071240357776938 -0.0027040556445929397 0 0.028144676396622777 -0.0025964167369271177 0 0.028396168817061362 -0.0033815541818927762 0 0.029068588226651339 -0.0033887843259987147 0 0.029071240357776938 -0.0027040556445929397 0 0.028396168817061362 -0.0033815541818927762 0 0.027198146728771137 -0.0027473296217671206 0 0.030483754642714148 -0.001887628509058885 0 0.027969753127894827 -0.002680248539584938 0 0.028144676396622777 -0.0025964167369271177 0 0.028396168817061362 -0.0033815541818927762 0 0.033718007305950509 -0.0028032488481543592 0 0.033828102912725831 -0.0024938216462264949 0 0.034170654928473272 -0.0025810022176123095 0 0.025697225665273965 -0.0017184330609754143 0 0.025711414261424714 -0.0017467722725087894 0 0.02592408456137673 -0.0015379699369282363 0 0.033718007305950509 -0.0028032488481543592 0 0.033828102912725831 -0.0024938216462264949 0 0.033573982430384848 -0.0024956688223947152 0 0.027198146728771137 -0.0027473296217671206 0 0.031078069698534806 -0.0032089743982306605 0 0.017605708871737694 -0.0017402531319007644 0 0.017589070764623155 -0.0018063174369333879 0 0.017620816619728773 -0.0018107877162307565 0 0.027198146728771137 -0.0027473296217671206 0 0.02391160956126126 -0.0029013279444761232 0 0.025724610167324479 -0.0028442133056688526 0 0.026007536093554766 -0.0033444448389581666 0 0.024923118165945203 -0.0032327608112267116 0 0.027198146728771137 -0.0027473296217671206 0 0.023626149084146775 -0.0020499137747945076 0 0.023626149084146775 -0.0020499137747945076 0 0.02391160956126126 -0.0029013279444761232 0 0.033828102912725831 -0.0024938216462264949 0 0.033975729656672345 -0.0022393979645871378 0 0.034170654928473272 -0.0025810022176123095 0 0.033828102912725831 -0.0024938216462264949 0 0.033663288520263686 -0.0022523978350660065 0 0.033573982430384848 -0.0024956688223947152 0 0.033828102912725831 -0.0024938216462264949 0 0.033663288520263686 -0.0022523978350660065 0 0.033975729656672345 -0.0022393979645871378 0 0.031078069698534806 -0.0032089743982306605 0 0.032080621789557395 -0.0025336291733586767 0 0.033663288520263686 -0.0022523978350660065 0 0.033573982430384848 -0.0024956688223947152 0 0.033404901696840662 -0.0021882721424239943 0 0.029068588226651339 -0.0033887843259987147 0 0.028396168817061362 -0.0033815541818927762 0 0.028809796534020826 -0.0040579534981342695 0 0.033570724566479339 -0.0022764852679620744 0 0.033662936063777439 -0.0019087001278166353 0 0.033312891856810252 -0.0018922338297595986 0 0.033570724566479339 -0.0022764852679620744 0 0.033868659599061449 -0.0020631686379338483 0 0.033662936063777439 -0.0019087001278166353 0 0.032080621789557395 -0.0025336291733586767 0 0.033970785501535476 -0.0019044185269060578 0 0.033663288520263686 -0.0022523978350660065 0 0.033404901696840662 -0.0021882721424239943 0 0.033729632863549366 -0.0020024608289127307 0 0.033975729656672345 -0.0022393979645871378 0 0.033729632863549366 -0.0020024608289127307 0 0.034096959019239384 -0.0018425711427582016 0 0.033663288520263686 -0.0022523978350660065 0 0.033975729656672345 -0.0022393979645871378 0 0.033729632863549366 -0.0020024608289127307 0 0.033970785501535476 -0.0019044185269060578 0 0.033991748912229676 -0.0019085477120930384 0 0.03388038001828983 -0.0017437903269484931 0 0.034092034146101902 -0.0015212562268438932 0 0.034096959019239384 -0.0018425711427582016 0 0.033868659599061449 -0.0020631686379338483 0 0.03388038001828983 -0.0017437903269484931 0 0.034096959019239384 -0.0018425711427582016 0 0.034092034146101902 -0.0015212562268438932 0 0.03403714353678422 -0.0012033623603384261 0 0.034343173365580099 -0.0012548698842423927 0 0.034092034146101902 -0.0015212562268438932 0 0.033738604396184341 -0.0015230091296494453 0 0.03403714353678422 -0.0012033623603384261 0 0.03388038001828983 -0.0017437903269484931 0 0.034092034146101902 -0.0015212562268438932 0 0.033738604396184341 -0.0015230091296494453 0 0.033738604396184341 -0.0015230091296494453 0 0.03336359623932296 -0.0013595001139845154 0 0.033733076048948887 -0.0011247709986448183 0 0.033738604396184341 -0.0015230091296494453 0 0.033662936063777439 -0.0019087001278166353 0 0.033312891856810252 -0.0018922338297595986 0 0.03388038001828983 -0.0017437903269484931 0 0.033738604396184341 -0.0015230091296494453 0 0.033662936063777439 -0.0019087001278166353 0 0.033868659599061449 -0.0020631686379338483 0 0.03388038001828983 -0.0017437903269484931 0 0.033662936063777439 -0.0019087001278166353 0 0.032463482263933287 -0.0015843771870530899 0 0.032597241229132316 -0.0020101064163627089 0 0.032929621204942507 -0.0015834217917495765 0 0.033312891856810252 -0.0018922338297595986 0 0.032597241229132316 -0.0020101064163627089 0 0.032929621204942507 -0.0015834217917495765 0 0.032463482263933287 -0.0015843771870530899 0 0.032929621204942507 -0.0015834217917495765 0 0.032935293999871232 -0.001156169092857521 0 0.032929621204942507 -0.0015834217917495765 0 0.03336359623932296 -0.0013595001139845154 0 0.032935293999871232 -0.001156169092857521 0 0.033312891856810252 -0.0018922338297595986 0 0.032929621204942507 -0.0015834217917495765 0 0.03336359623932296 -0.0013595001139845154 0 0.033738604396184341 -0.0015230091296494453 0 0.033312891856810252 -0.0018922338297595986 0 0.03336359623932296 -0.0013595001139845154 0 0.03336359623932296 -0.0013595001139845154 0 0.03358021322862461 -0.00085612923391306574 0 0.033733076048948887 -0.0011247709986448183 0 0.03336359623932296 -0.0013595001139845154 0 0.032935293999871232 -0.001156169092857521 0 0.03358021322862461 -0.00085612923391306574 0 0.032935293999871232 -0.001156169092857521 0 0.03358021322862461 -0.00085612923391306574 0 0.033262779063084641 -0.0006284874302916394 0 0.03358021322862461 -0.00085612923391306574 0 0.03398020480952333 -0.00085940670435789531 0 0.033991814906627719 -0.00050325739267892357 0 0.03358021322862461 -0.00085612923391306574 0 0.03398020480952333 -0.00085940670435789531 0 0.033733076048948887 -0.0011247709986448183 0 0.03398020480952333 -0.00085940670435789531 0 0.0342604710520387 -0.00057632641563916506 0 0.034294785290196604 -0.00092506530920766932 0 0.03398020480952333 -0.00085940670435789531 0 0.03403714353678422 -0.0012033623603384261 0 0.034294785290196604 -0.00092506530920766932 0 0.03398020480952333 -0.00085940670435789531 0 0.03403714353678422 -0.0012033623603384261 0 0.033733076048948887 -0.0011247709986448183 0 0.033738604396184341 -0.0015230091296494453 0 0.03403714353678422 -0.0012033623603384261 0 0.033733076048948887 -0.0011247709986448183 0 0.033991814906627719 -0.00050325739267892357 0 0.033706932003591275 -0.00046116002504291724 0 0.034076294450429673 -0.00013898540637737478 0 0.034295529618787249 -0.00024582934763592583 0 0.033991814906627719 -0.00050325739267892357 0 0.034076294450429673 -0.00013898540637737478 0 0.03398020480952333 -0.00085940670435789531 0 0.0342604710520387 -0.00057632641563916506 0 0.033991814906627719 -0.00050325739267892357 0 0.034295529618787249 -0.00024582934763592583 0 0.0342604710520387 -0.00057632641563916506 0 0.033991814906627719 -0.00050325739267892357 0 0.03358021322862461 -0.00085612923391306574 0 0.033991814906627719 -0.00050325739267892357 0 0.033706932003591275 -0.00046116002504291724 0 0.03358021322862461 -0.00085612923391306574 0 0.033706932003591275 -0.00046116002504291724 0 0.033262779063084641 -0.0006284874302916394 0 0.033262779063084641 -0.0006284874302916394 0 0.033622591971795526 -0.00018938013722096967 0 0.033132053600512419 -0.00036660230920804252 0 0.033706932003591275 -0.00046116002504291724 0 0.033262779063084641 -0.0006284874302916394 0 0.033622591971795526 -0.00018938013722096967 0 0.033706932003591275 -0.00046116002504291724 0 0.033622591971795526 -0.00018938013722096967 0 0.034076294450429673 -0.00013898540637737478 0 0.033622591971795526 -0.00018938013722096967 0 0.034036476162608763 4.2549703818094634e-05 0 0.034076294450429673 -0.00013898540637737478 0 0.033622591971795526 -0.00018938013722096967 0 0.034036476162608763 4.2549703818094634e-05 0 0.033768996515954781 0.0001568514891894124 0 0.034036476162608763 4.2549703818094634e-05 0 0.034232788695821949 0.00024730578883637173 0 0.033768996515954781 0.0001568514891894124 0 0.034036476162608763 4.2549703818094634e-05 0 0.034259635905811894 0.0001083953547714184 0 0.034232788695821949 0.00024730578883637173 0 0.034259635905811894 0.0001083953547714184 0 0.034431472572873593 8.1425396825541055e-05 0 0.034450249444597798 0.00020546810460468856 0 0.034036476162608763 4.2549703818094634e-05 0 0.034259635905811894 0.0001083953547714184 0 0.034076294450429673 -0.00013898540637737478 0 0.034259635905811894 0.0001083953547714184 0 0.034076294450429673 -0.00013898540637737478 0 0.034431472572873593 8.1425396825541055e-05 0 0.034295529618787249 -0.00024582934763592583 0 0.034431472572873593 8.1425396825541055e-05 0 0.03452215939126111 -8.4657871262855061e-05 0 0.034295529618787249 -0.00024582934763592583 0 0.034076294450429673 -0.00013898540637737478 0 0.034431472572873593 8.1425396825541055e-05 0 0.034431472572873593 8.1425396825541055e-05 0 0.03457247912888551 0.0002095020972949663 0 0.034590126692376003 0.0002027764949156137 0 0.034431472572873593 8.1425396825541055e-05 0 0.034450249444597798 0.00020546810460468856 0 0.03457247912888551 0.0002095020972949663 0 0.034259635905811894 0.0001083953547714184 0 0.034450249444597798 0.00020546810460468856 0 0.034232788695821949 0.00024730578883637173 0 0.034450249444597798 0.00020546810460468856 0 0.034703619871133393 0.00017355722868373663 0 0.034502749734957747 0.00022843237453851816 0 0.034450249444597798 0.00020546810460468856 0 0.03457247912888551 0.0002095020972949663 0 0.034703619871133393 0.00017355722868373663 0 0.034703619871133393 0.00017355722868373663 0 0.034999316039322319 6.7705547298650353e-08 0 0.034661660064408385 0.00016492962724915032 0 0.03457247912888551 0.0002095020972949663 0 0.034703619871133393 0.00017355722868373663 0 0.034661660064408385 0.00016492962724915032 0 0.034703619871133393 0.00017355722868373663 0 0.034999778987931461 1.1644629187629658e-07 0 0.034999316039322319 6.7705547298650353e-08 0 0.034999895912583519 1.5384692667183705e-08 0 0.034767983518891842 3.3269092762827106e-05 0 0.034999538545842472 1.3580473515103009e-07 0 0.034715069597387765 0.00015814662528834905 0 0.034708540742101952 0.00014897809443553125 0 0.034703619871133393 0.00017355722868373663 0 0.034999778987931461 1.1644629187629658e-07 0 0.034715069597387765 0.00015814662528834905 0 0.034999778987931461 1.1644629187629658e-07 0 0.034999538545842472 1.3580473515103009e-07 0 0.034715069597387765 0.00015814662528834905 0 0.034703619871133393 0.00017355722868373663 0 0.034715069597387765 0.00015814662528834905 0 0.034502749734957747 0.00022843237453851816 0 0.034715069597387765 0.00015814662528834905 0 0.034411394248510786 0.00027681826186570579 0 0.034708540742101952 0.00014897809443553125 0 0.034715069597387765 0.00015814662528834905 0 0.034411394248510786 0.00027681826186570579 0 0.034502749734957747 0.00022843237453851816 0 0.034411394248510786 0.00027681826186570579 0 0.034502749734957747 0.00022843237453851816 0 0.034232788695821949 0.00024730578883637173 0 0.034450249444597798 0.00020546810460468856 0 0.034502749734957747 0.00022843237453851816 0 0.034232788695821949 0.00024730578883637173 0 0.034411394248510786 0.00027681826186570579 0 0.034232788695821949 0.00024730578883637173 0 0.034053231268539166 0.0004293042021384197 0 0.034232788695821949 0.00024730578883637173 0 0.034053231268539166 0.0004293042021384197 0 0.033768996515954781 0.0001568514891894124 0 0.034053231268539166 0.0004293042021384197 0 0.033811290477569117 0.00070252871945178082 0 0.033398919527367683 0.00026959397206284178 0 0.034053231268539166 0.0004293042021384197 0 0.033811290477569117 0.00070252871945178082 0 0.03445035030500157 0.00025039378188418816 0 0.033811290477569117 0.00070252871945178082 0 0.03445035030500157 0.00025039378188418816 0 0.034518793243101226 0.00027288581847217757 0 0.034411394248510786 0.00027681826186570579 0 0.034053231268539166 0.0004293042021384197 0 0.03445035030500157 0.00025039378188418816 0 0.034411394248510786 0.00027681826186570579 0 0.034708540742101952 0.00014897809443553125 0 0.03445035030500157 0.00025039378188418816 0 0.03445035030500157 0.00025039378188418816 0 0.034761595072512523 0.00010631913818008602 0 0.034518793243101226 0.00027288581847217757 0 0.03445035030500157 0.00025039378188418816 0 0.03499954710235726 7.9897465859368602e-08 0 0.034761595072512523 0.00010631913818008602 0 0.034999538545842472 1.3580473515103009e-07 0 0.034708540742101952 0.00014897809443553125 0 0.03499954710235726 7.9897465859368602e-08 0 0.034708540742101952 0.00014897809443553125 0 0.03445035030500157 0.00025039378188418816 0 0.03499954710235726 7.9897465859368602e-08 0 0.034999725202501483 2.3492438179237525e-10 0 0.034761595072512523 0.00010631913818008602 0 0.034900270667159429 0.00016007237029616117 0 0.034999725202501483 2.3492438179237525e-10 0 0.034900270667159429 0.00016007237029616117 0 0.034999961313522572 6.9823662432092942e-08 0 0.03499954710235726 7.9897465859368602e-08 0 0.034999725202501483 2.3492438179237525e-10 0 0.034761595072512523 0.00010631913818008602 0 0.034761595072512523 0.00010631913818008602 0 0.034900270667159429 0.00016007237029616117 0 0.034518793243101226 0.00027288581847217757 0 0.034900270667159429 0.00016007237029616117 0 0.034518793243101226 0.00027288581847217757 0 0.034732136316902536 0.00057857112881775643 0 0.033811290477569117 0.00070252871945178082 0 0.034518793243101226 0.00027288581847217757 0 0.034732136316902536 0.00057857112881775643 0 0.033771428265619657 0.00074466063857293993 0 0.033554217098574229 0.00086472442500289679 0 0.033811290477569117 0.00070252871945178082 0 0.032430514806819688 0.0011939035157991678 0 0.033398919527367683 0.00026959397206284178 0 0.032430514806819688 0.0011939035157991678 0 0.031965027645279448 0.00046898523024198688 0 0.031203116698513004 0.0014654319164726442 0 0.032430514806819688 0.0011939035157991678 0 0.031965027645279448 0.00046898523024198688 0 0.033398919527367683 0.00026959397206284178 0 0.031965027645279448 0.00046898523024198688 0 0.032644930096948896 -2.626914328719618e-05 0 0.033398919527367683 0.00026959397206284178 0 0.031965027645279448 0.00046898523024198688 0 0.032644930096948896 -2.626914328719618e-05 0 0.032021868086671033 -0.00025268290288116101 0 0.034053231268539166 0.0004293042021384197 0 0.033398919527367683 0.00026959397206284178 0 0.033768996515954781 0.0001568514891894124 0 0.033398919527367683 0.00026959397206284178 0 0.033768996515954781 0.0001568514891894124 0 0.033257205802224125 -5.2427142568363763e-05 0 0.033622591971795526 -0.00018938013722096967 0 0.033768996515954781 0.0001568514891894124 0 0.033257205802224125 -5.2427142568363763e-05 0 0.032644930096948896 -2.626914328719618e-05 0 0.033398919527367683 0.00026959397206284178 0 0.033257205802224125 -5.2427142568363763e-05 0 0.033257205802224125 -5.2427142568363763e-05 0 0.032623512921185739 -0.00032225880560262548 0 0.033132053600512419 -0.00036660230920804252 0 0.032644930096948896 -2.626914328719618e-05 0 0.033257205802224125 -5.2427142568363763e-05 0 0.032623512921185739 -0.00032225880560262548 0 0.033622591971795526 -0.00018938013722096967 0 0.033257205802224125 -5.2427142568363763e-05 0 0.033132053600512419 -0.00036660230920804252 0 0.03271010625390991 -0.00074346725932637465 0 0.033262779063084641 -0.0006284874302916394 0 0.033132053600512419 -0.00036660230920804252 0 0.03271010625390991 -0.00074346725932637465 0 0.032623512921185739 -0.00032225880560262548 0 0.031995216093689952 -0.00052036549638930743 0 0.03271010625390991 -0.00074346725932637465 0 0.032623512921185739 -0.00032225880560262548 0 0.033132053600512419 -0.00036660230920804252 0 0.030712631746008023 -0.00064903882134472791 0 0.031995216093689952 -0.00052036549638930743 0 0.030399800200799413 0.00053764179502901522 0 0.031995216093689952 -0.00052036549638930743 0 0.032021868086671033 -0.00025268290288116101 0 0.031551428953797631 -0.00064362652544805953 0 0.031920658550876564 -0.00047964107103975096 0 0.03095893929107103 -7.5045639800856674e-05 0 0.032623512921185739 -0.00032225880560262548 0 0.031995216093689952 -0.00052036549638930743 0 0.032021868086671033 -0.00025268290288116101 0 0.032644930096948896 -2.626914328719618e-05 0 0.032623512921185739 -0.00032225880560262548 0 0.032021868086671033 -0.00025268290288116101 0 0.031551428953797631 -0.00064362652544805953 0 0.030358024422051502 -0.00034773400470941611 0 0.031180769876034083 7.1845616531525594e-05 0 0.030399800200799413 0.00053764179502901522 0 0.029157970819892021 0.00028894103806412788 0 0.028937641136864603 0.00085032361073671245 0 0.03095893929107103 -7.5045639800856674e-05 0 0.029678888310333346 0.00027224043157323975 0 0.032021868086671033 -0.00025268290288116101 0 0.031551428953797631 -0.00064362652544805953 0 0.031180769876034083 7.1845616531525594e-05 0 0.030712631746008023 -0.00064903882134472791 0 0.030399800200799413 0.00053764179502901522 0 0.029157970819892021 0.00028894103806412788 0 0.029157970819892021 0.00028894103806412788 0 0.02829016891179641 9.0121947597118137e-05 0 0.02849593094027195 0.00060439434052291007 0 0.029124134426107711 -0.00054623786996593001 0 0.029157970819892021 0.00028894103806412788 0 0.02829016891179641 9.0121947597118137e-05 0 0.02829016891179641 9.0121947597118137e-05 0 0.02849593094027195 0.00060439434052291007 0 0.027361951121586514 0.00022402415801669844 0 0.02849593094027195 0.00060439434052291007 0 0.028948115175423703 0.00062959463145830907 0 0.028386322376861166 0.00053854014621170811 0 0.02849593094027195 0.00060439434052291007 0 0.028937641136864603 0.00085032361073671245 0 0.028948115175423703 0.00062959463145830907 0 0.02849593094027195 0.00060439434052291007 0 0.028386322376861166 0.00053854014621170811 0 0.027903198162324006 0.00043963773757405955 0 0.029157970819892021 0.00028894103806412788 0 0.02849593094027195 0.00060439434052291007 0 0.028937641136864603 0.00085032361073671245 0 0.030358024422051502 -0.00034773400470941611 0 0.029662479540736045 0.00063735681528559343 0 0.030205444437599302 0.0004936628173424065 0 0.029678888310333346 0.00027224043157323975 0 0.028993912228941477 0.00059108549817223402 0 0.030358024422051502 -0.00034773400470941611 0 0.029662479540736045 0.00063735681528559343 0 0.028948115175423703 0.00062959463145830907 0 0.029662479540736045 0.00063735681528559343 0 0.028948115175423703 0.00062959463145830907 0 0.029295329228884122 0.00096895149687657636 0 0.028948115175423703 0.00062959463145830907 0 0.029295329228884122 0.00096895149687657636 0 0.028523865741904804 0.00062286886233408852 0 0.029295329228884122 0.00096895149687657636 0 0.02975532558439074 0.00075958187129132376 0 0.030968771378646221 0.00034462221118068594 0 0.029662479540736045 0.00063735681528559343 0 0.02975532558439074 0.00075958187129132376 0 0.029772151834738823 0.00071232801750950429 0 0.029662479540736045 0.00063735681528559343 0 0.029295329228884122 0.00096895149687657636 0 0.02975532558439074 0.00075958187129132376 0 0.02975532558439074 0.00075958187129132376 0 0.029984360859074601 0.0004402172159466254 0 0.029772151834738823 0.00071232801750950429 0 0.02975532558439074 0.00075958187129132376 0 0.029984360859074601 0.0004402172159466254 0 0.030968771378646221 0.00034462221118068594 0 0.030205444437599302 0.0004936628173424065 0 0.029772151834738823 0.00071232801750950429 0 0.029815838967092848 0.00071975233509122575 0 0.029662479540736045 0.00063735681528559343 0 0.030205444437599302 0.0004936628173424065 0 0.029772151834738823 0.00071232801750950429 0 0.029984360859074601 0.0004402172159466254 0 0.029772151834738823 0.00071232801750950429 0 0.029815838967092848 0.00071975233509122575 0 0.030205444437599302 0.0004936628173424065 0 0.030733117981583138 0.0007579376883594985 0 0.031180769876034083 7.1845616531525594e-05 0 0.030205444437599302 0.0004936628173424065 0 0.029815838967092848 0.00071975233509122575 0 0.030733117981583138 0.0007579376883594985 0 0.030358024422051502 -0.00034773400470941611 0 0.030205444437599302 0.0004936628173424065 0 0.031180769876034083 7.1845616531525594e-05 0 0.031965027645279448 0.00046898523024198688 0 0.032021868086671033 -0.00025268290288116101 0 0.031180769876034083 7.1845616531525594e-05 0 0.031965027645279448 0.00046898523024198688 0 0.030733117981583138 0.0007579376883594985 0 0.031180769876034083 7.1845616531525594e-05 0 0.031965027645279448 0.00046898523024198688 0 0.030733117981583138 0.0007579376883594985 0 0.031203116698513004 0.0014654319164726442 0 0.033554217098574229 0.00086472442500289679 0 0.033073448418817958 0.0010205826358363286 0 0.033073448418817958 0.0010205826358363286 0 0.032565806100807407 0.00026619427528721894 0 0.030733117981583138 0.0007579376883594985 0 0.031203116698513004 0.0014654319164726442 0 0.029945155650708457 0.0015593796331154527 0 0.035035439183326161 0.00025075410108285374 0 0.035124664918364634 0.00016405586075400697 0 0.035153019324574999 0.00039204566255129832 0 0.034981411778450495 0.00044772106084724612 0 0.035035439183326161 0.00025075410108285374 0 0.035153019324574999 0.00039204566255129832 0 0.034900270667159429 0.00016007237029616117 0 0.034732136316902536 0.00057857112881775643 0 0.034981411778450495 0.00044772106084724612 0 0.034900270667159429 0.00016007237029616117 0 0.034981411778450495 0.00044772106084724612 0 0.035035439183326161 0.00025075410108285374 0 0.034900270667159429 0.00016007237029616117 0 0.035035439183326161 0.00025075410108285374 0 0.035011373293199852 9.8769946107924226e-05 0 0.035035439183326161 0.00025075410108285374 0 0.035011373293199852 9.8769946107924226e-05 0 0.035124664918364634 0.00016405586075400697 0 0.035011373293199852 9.8769946107924226e-05 0 0.034999961313522572 6.9823662432092942e-08 0 0.035000240058456977 2.1736845737920332e-08 0 0.035011373293199852 9.8769946107924226e-05 0 0.035000240058456977 2.1736845737920332e-08 0 0.035124664918364634 0.00016405586075400697 0 0.034900270667159429 0.00016007237029616117 0 0.035011373293199852 9.8769946107924226e-05 0 0.034999961313522572 6.9823662432092942e-08 0 0.035000328668080422 -6.3847148361705234e-08 0 0.034720235761869354 -0.00014209869554257008 0 0.034998925955039867 4.9177863698387319e-08 0 0.034999920318024909 9.2593440957034769e-08 0 0.035336803059536924 -7.9705042969449827e-05 0 0.035000328668080422 -6.3847148361705234e-08 0 0.035024053512266506 -0.00019818647245874009 0 0.034720235761869354 -0.00014209869554257008 0 0.035024053512266506 -0.00019818647245874009 0 0.034877375218725581 -0.00038886294748245211 0 0.034720235761869354 -0.00014209869554257008 0 0.034877375218725581 -0.00038886294748245211 0 0.034645611737490881 -0.0006793699811137743 0 0.034720235761869354 -0.00014209869554257008 0 0.034877375218725581 -0.00038886294748245211 0 0.0350656734224652 -0.00059480128951832939 0 0.034645611737490881 -0.0006793699811137743 0 0.035336803059536924 -7.9705042969449827e-05 0 0.032565806100807407 0.00026619427528721894 0 0.035024053512266506 -0.00019818647245874009 0 0.034877375218725581 -0.00038886294748245211 0 0.0350656734224652 -0.00059480128951832939 0 0.029815838967092848 0.00071975233509122575 0 0.030733117981583138 0.0007579376883594985 0 0.029945155650708457 0.0015593796331154527 0 0.029815838967092848 0.00071975233509122575 0 0.029419956266522482 -0.0001418099633120128 0 0.029902565462285348 0.00014947257591226332 0 0.029984360859074601 0.0004402172159466254 0 0.029815838967092848 0.00071975233509122575 0 0.029902565462285348 0.00014947257591226332 0 0.030041527272692853 0.00074103957945507895 0 0.032565806100807407 0.00026619427528721894 0 0.032565806100807407 0.00026619427528721894 0 0.032626490166037997 -0.00069675170465645342 0 0.029419956266522482 -0.0001418099633120128 0 0.029902565462285348 0.00014947257591226332 0 0.030639226371885923 -0.00069541080248746606 0 0.029984360859074601 0.0004402172159466254 0 0.029902565462285348 0.00014947257591226332 0 0.030639226371885923 -0.00069541080248746606 0 0.029984360859074601 0.0004402172159466254 0 0.030639226371885923 -0.00069541080248746606 0 0.030968771378646221 0.00034462221118068594 0 0.03369399217703168 -0.00063023207433541184 0 0.033041068263675762 0.00060055663832424787 0 0.030968771378646221 0.00034462221118068594 0 0.030639226371885923 -0.00069541080248746606 0 0.03369399217703168 -0.00063023207433541184 0 0.030968771378646221 0.00034462221118068594 0 0.032626490166037997 -0.00069675170465645342 0 0.033616313138393555 -0.00064773942389076021 0 0.03369399217703168 -0.00063023207433541184 0 0.034720235761869354 -0.00014209869554257008 0 0.034352976475016013 -0.00021762520040395601 0 0.029667470683181669 -0.0003789557162198729 0 0.028895191864533629 0.0002799064735263335 0 0.028213855138752769 0.00042424870117479093 0 0.031807025518211358 -0.00038427764739765164 0 0.030637679983407069 0.00042142577615799986 0 0.03369399217703168 -0.00063023207433541184 0 0.034059422966544205 -0.00071017460876591479 0 0.033041068263675762 0.00060055663832424787 0 0.03369399217703168 -0.00063023207433541184 0 0.034352976475016013 -0.00021762520040395601 0 0.034059422966544205 -0.00071017460876591479 0 0.034645611737490881 -0.0006793699811137743 0 0.03369399217703168 -0.00063023207433541184 0 0.034720235761869354 -0.00014209869554257008 0 0.034720235761869354 -0.00014209869554257008 0 0.034998925955039867 4.9177863698387319e-08 0 0.034352976475016013 -0.00021762520040395601 0 0.034997590051008443 4.9823602033277104e-07 0 0.034314443806518838 6.0432407785815274e-05 0 0.032693063613677985 -1.1710831948871926e-06 0 0.034998925955039867 4.9177863698387319e-08 0 0.034997590051008443 4.9823602033277104e-07 0 0.034314443806518838 6.0432407785815274e-05 0 0.034998925955039867 4.9177863698387319e-08 0 0.034314443806518838 6.0432407785815274e-05 0 0.034352976475016013 -0.00021762520040395601 0 0.034314443806518838 6.0432407785815274e-05 0 0.034352976475016013 -0.00021762520040395601 0 0.032693063613677985 -1.1710831948871926e-06 0 0.032687489052890005 -8.9633512773502226e-08 0 0.031807025518211358 -0.00038427764739765164 0 0.034352976475016013 -0.00021762520040395601 0 0.032693063613677985 -1.1710831948871926e-06 0 0.034059422966544205 -0.00071017460876591479 0 0.029667470683181669 -0.0003789557162198729 0 0.029586435208531839 0.0001748272786457086 0 0.028895191864533629 0.0002799064735263335 0 0.03268509577946957 -2.0247101043230817e-06 0 0.029667470683181669 -0.0003789557162198729 0 0.030849596714673903 6.3232384909278015e-07 0 0.029667470683181669 -0.0003789557162198729 0 0.030849596714673903 6.3232384909278015e-07 0 0.029586435208531839 0.0001748272786457086 0 0.030849596714673903 6.3232384909278015e-07 0 0.029010878194696482 5.7191129647188024e-07 0 0.029586435208531839 0.0001748272786457086 0 0.029010878194696482 5.7191129647188024e-07 0 0.028632885239216272 0.00039000512915467065 0 0.029586435208531839 0.0001748272786457086 0 0.029010878194696482 5.7191129647188024e-07 0 0.028102564346775778 0.00030974406131147752 0 0.028632885239216272 0.00039000512915467065 0 0.028102564346775778 0.00030974406131147752 0 0.028161123986178448 0.00047494425003767528 0 0.027737072652210565 0.00039727139113946878 0 0.028102564346775778 0.00030974406131147752 0 0.028632885239216272 0.00039000512915467065 0 0.028161123986178448 0.00047494425003767528 0 0.028632885239216272 0.00039000512915467065 0 0.028895191864533629 0.0002799064735263335 0 0.028422993426274894 0.00048608678384628741 0 0.028632885239216272 0.00039000512915467065 0 0.029586435208531839 0.0001748272786457086 0 0.028895191864533629 0.0002799064735263335 0 0.028895191864533629 0.0002799064735263335 0 0.028213855138752769 0.00042424870117479093 0 0.028422993426274894 0.00048608678384628741 0 0.028213855138752769 0.00042424870117479093 0 0.028422993426274894 0.00048608678384628741 0 0.028298644167917057 0.00055631311036714903 0 0.029295329228884122 0.00096895149687657636 0 0.028213855138752769 0.00042424870117479093 0 0.028523865741904804 0.00062286886233408852 0 0.028213855138752769 0.00042424870117479093 0 0.028523865741904804 0.00062286886233408852 0 0.028298644167917057 0.00055631311036714903 0 0.029532013593334006 0.00090395013947250022 0 0.030637679983407069 0.00042142577615799986 0 0.029295329228884122 0.00096895149687657636 0 0.033041068263675762 0.00060055663832424787 0 0.030968771378646221 0.00034462221118068594 0 0.028523865741904804 0.00062286886233408852 0 0.028298644167917057 0.00055631311036714903 0 0.028026771521663767 0.00049121602557693179 0 0.028523865741904804 0.00062286886233408852 0 0.028386322376861166 0.00053854014621170811 0 0.028026771521663767 0.00049121602557693179 0 0.028948115175423703 0.00062959463145830907 0 0.028523865741904804 0.00062286886233408852 0 0.028386322376861166 0.00053854014621170811 0 0.028632885239216272 0.00039000512915467065 0 0.028422993426274894 0.00048608678384628741 0 0.028161123986178448 0.00047494425003767528 0 0.028422993426274894 0.00048608678384628741 0 0.028298644167917057 0.00055631311036714903 0 0.028161123986178448 0.00047494425003767528 0 0.028298644167917057 0.00055631311036714903 0 0.028161123986178448 0.00047494425003767528 0 0.028026771521663767 0.00049121602557693179 0 0.027737072652210565 0.00039727139113946878 0 0.027455109798710103 0.00035924640785869215 0 0.027185345655928738 0.00027801194841485803 0 0.028161123986178448 0.00047494425003767528 0 0.027737072652210565 0.00039727139113946878 0 0.028026771521663767 0.00049121602557693179 0 0.027737072652210565 0.00039727139113946878 0 0.028026771521663767 0.00049121602557693179 0 0.027455109798710103 0.00035924640785869215 0 0.028386322376861166 0.00053854014621170811 0 0.028026771521663767 0.00049121602557693179 0 0.027903198162324006 0.00043963773757405955 0 0.028026771521663767 0.00049121602557693179 0 0.027903198162324006 0.00043963773757405955 0 0.027455109798710103 0.00035924640785869215 0 0.02849593094027195 0.00060439434052291007 0 0.027903198162324006 0.00043963773757405955 0 0.027361951121586514 0.00022402415801669844 0 0.027903198162324006 0.00043963773757405955 0 0.027361951121586514 0.00022402415801669844 0 0.027455109798710103 0.00035924640785869215 0 0.026732549608838727 0.00025767677804156182 0 0.027455109798710103 0.00035924640785869215 0 0.027185345655928738 0.00027801194841485803 0 0.026732549608838727 0.00025767677804156182 0 0.027361951121586514 0.00022402415801669844 0 0.027455109798710103 0.00035924640785869215 0 0.026241855543042931 0.00020810288179289651 0 0.026732549608838727 0.00025767677804156182 0 0.027185345655928738 0.00027801194841485803 0 0.026241855543042931 0.00020810288179289651 0 0.027185345655928738 0.00027801194841485803 0 0.02717308248830054 4.9630185714733045e-07 0 0.028102564346775778 0.00030974406131147752 0 0.027185345655928738 0.00027801194841485803 0 0.02717308248830054 4.9630185714733045e-07 0 0.029010878194696482 5.7191129647188024e-07 0 0.028102564346775778 0.00030974406131147752 0 0.02717308248830054 4.9630185714733045e-07 0 0.028102564346775778 0.00030974406131147752 0 0.027737072652210565 0.00039727139113946878 0 0.027185345655928738 0.00027801194841485803 0 0.031010785942572058 -0.00050206468073590003 0 0.031271129073555608 -0.00050821424138868974 0 0.031080845332665599 -0.00068910769109606503 0 0.031010785942572058 -0.00050206468073590003 0 0.030751352548883112 -0.00042272095299676626 0 0.030993630556676876 -0.00029402233503834018 0 0.031010785942572058 -0.00050206468073590003 0 0.030993630556676876 -0.00029402233503834018 0 0.031140110769079753 -0.00039455620308647999 0 0.031010785942572058 -0.00050206468073590003 0 0.031080845332665599 -0.00068910769109606503 0 0.030869525870600951 -0.00062375393567725681 0 0.031010785942572058 -0.00050206468073590003 0 0.030751352548883112 -0.00042272095299676626 0 0.030869525870600951 -0.00062375393567725681 0 0.030751352548883112 -0.00042272095299676626 0 0.030694537583990204 -0.00064211950713890012 0 0.030869525870600951 -0.00062375393567725681 0 0.030751352548883112 -0.00042272095299676626 0 0.030694537583990204 -0.00064211950713890012 0 0.030559876026900114 -0.00055740312915708134 0 0.030751352548883112 -0.00042272095299676626 0 0.030731171266151765 -0.00014678630047281898 0 0.030511156698523327 -0.00040424741491739736 0 0.030751352548883112 -0.00042272095299676626 0 0.030731171266151765 -0.00014678630047281898 0 0.030993630556676876 -0.00029402233503834018 0 0.030731171266151765 -0.00014678630047281898 0 0.030993630556676876 -0.00029402233503834018 0 0.031054043427127656 -8.8232746485701247e-05 0 0.030993630556676876 -0.00029402233503834018 0 0.031233013746403412 -0.00023989217642065829 0 0.031054043427127656 -8.8232746485701247e-05 0 0.031233013746403412 -0.00023989217642065829 0 0.031054043427127656 -8.8232746485701247e-05 0 0.031250097271341454 -2.1361969810125525e-05 0 0.030993630556676876 -0.00029402233503834018 0 0.031233013746403412 -0.00023989217642065829 0 0.031140110769079753 -0.00039455620308647999 0 0.031233013746403412 -0.00023989217642065829 0 0.031421928471831673 -0.00012551110804303882 0 0.031250097271341454 -2.1361969810125525e-05 0 0.031421928471831673 -0.00012551110804303882 0 0.0314242579474606 -0.00033607960235909368 0 0.031724910342107719 -0.00031802313762363782 0 0.031233013746403412 -0.00023989217642065829 0 0.031421928471831673 -0.00012551110804303882 0 0.0314242579474606 -0.00033607960235909368 0 0.03160169790607309 -0.00051272347778433269 0 0.0314242579474606 -0.00033607960235909368 0 0.031271129073555608 -0.00050821424138868974 0 0.03160169790607309 -0.00051272347778433269 0 0.0314242579474606 -0.00033607960235909368 0 0.031724910342107719 -0.00031802313762363782 0 0.03160169790607309 -0.00051272347778433269 0 0.031271129073555608 -0.00050821424138868974 0 0.031426128580953144 -0.00067410017162792592 0 0.031010785942572058 -0.00050206468073590003 0 0.031140110769079753 -0.00039455620308647999 0 0.031271129073555608 -0.00050821424138868974 0 0.031233013746403412 -0.00023989217642065829 0 0.0314242579474606 -0.00033607960235909368 0 0.031271129073555608 -0.00050821424138868974 0 0.031233013746403412 -0.00023989217642065829 0 0.031140110769079753 -0.00039455620308647999 0 0.031271129073555608 -0.00050821424138868974 0 0.031271129073555608 -0.00050821424138868974 0 0.031272774583526279 -0.00078767637950810849 0 0.031080845332665599 -0.00068910769109606503 0 0.031271129073555608 -0.00050821424138868974 0 0.031272774583526279 -0.00078767637950810849 0 0.031426128580953144 -0.00067410017162792592 0 0.031272774583526279 -0.00078767637950810849 0 0.031426128580953144 -0.00067410017162792592 0 0.031565856193717504 -0.00089752890081396842 0 0.03160169790607309 -0.00051272347778433269 0 0.031426128580953144 -0.00067410017162792592 0 0.031565856193717504 -0.00089752890081396842 0 0.03160169790607309 -0.00051272347778433269 0 0.031565856193717504 -0.00089752890081396842 0 0.031925991309182576 -0.00071576631291457343 0 0.031565856193717504 -0.00089752890081396842 0 0.031407039454391793 -0.0011748512003789226 0 0.031756515436698961 -0.0013435478340330675 0 0.031565856193717504 -0.00089752890081396842 0 0.031934873693196551 -0.00099658025368362158 0 0.031756515436698961 -0.0013435478340330675 0 0.031292555223997036 -0.0009915586737546246 0 0.031156509378010771 -0.0011667262024257382 0 0.031093552247081987 -0.00092150264432545046 0 0.031272774583526279 -0.00078767637950810849 0 0.031292555223997036 -0.0009915586737546246 0 0.031093552247081987 -0.00092150264432545046 0 0.031272774583526279 -0.00078767637950810849 0 0.031565856193717504 -0.00089752890081396842 0 0.031292555223997036 -0.0009915586737546246 0 0.031565856193717504 -0.00089752890081396842 0 0.031292555223997036 -0.0009915586737546246 0 0.031407039454391793 -0.0011748512003789226 0 0.031292555223997036 -0.0009915586737546246 0 0.031407039454391793 -0.0011748512003789226 0 0.031156509378010771 -0.0011667262024257382 0 0.031156509378010771 -0.0011667262024257382 0 0.030905372951603061 -0.0010250186093471586 0 0.031009738164779057 -0.00132597673561316 0 0.030905372951603061 -0.0010250186093471586 0 0.031093552247081987 -0.00092150264432545046 0 0.030940813804117315 -0.00080643287538491272 0 0.031156509378010771 -0.0011667262024257382 0 0.030905372951603061 -0.0010250186093471586 0 0.031093552247081987 -0.00092150264432545046 0 0.031272774583526279 -0.00078767637950810849 0 0.031093552247081987 -0.00092150264432545046 0 0.031080845332665599 -0.00068910769109606503 0 0.031093552247081987 -0.00092150264432545046 0 0.030940813804117315 -0.00080643287538491272 0 0.031080845332665599 -0.00068910769109606503 0 0.030940813804117315 -0.00080643287538491272 0 0.031080845332665599 -0.00068910769109606503 0 0.030869525870600951 -0.00062375393567725681 0 0.030694537583990204 -0.00064211950713890012 0 0.03065968587191429 -0.00089516084697085173 0 0.03056220317850351 -0.0005528686432446112 0 0.030694537583990204 -0.00064211950713890012 0 0.030869525870600951 -0.00062375393567725681 0 0.030791501172034153 -0.00075639241589600312 0 0.030940813804117315 -0.00080643287538491272 0 0.030869525870600951 -0.00062375393567725681 0 0.030791501172034153 -0.00075639241589600312 0 0.030905372951603061 -0.0010250186093471586 0 0.030940813804117315 -0.00080643287538491272 0 0.030791501172034153 -0.00075639241589600312 0 0.030694537583990204 -0.00064211950713890012 0 0.030791501172034153 -0.00075639241589600312 0 0.03065968587191429 -0.00089516084697085173 0 0.032801387068267407 -0.00036687409697527286 0 0.032779952454724301 -0.00064245123742300784 0 0.030905372951603061 -0.0010250186093471586 0 0.03065968587191429 -0.00089516084697085173 0 0.030779118748059629 -0.0012561492723636182 0 0.030905372951603061 -0.0010250186093471586 0 0.030791501172034153 -0.00075639241589600312 0 0.03065968587191429 -0.00089516084697085173 0 0.034812558207008584 6.7395371092314525e-05 0 0.034788699680686153 7.4472610668260481e-05 0 0.034783599553663488 8.0019629979979852e-05 0 0.034805490576703207 7.3679278001963718e-05 0 0.034812558207008584 6.7395371092314525e-05 0 0.03484240368258705 5.9450468479642376e-05 0 0.034805490576703207 7.3679278001963718e-05 0 0.034812558207008584 6.7395371092314525e-05 0 0.034783599553663488 8.0019629979979852e-05 0 0.034812558207008584 6.7395371092314525e-05 0 0.034802387030760135 6.7995391356541251e-05 0 0.03482545009611239 6.1031435158126932e-05 0 0.034802387030760135 6.7995391356541251e-05 0 0.034788699680686153 7.4472610668260481e-05 0 0.034773632867483542 7.868879754604127e-05 0 0.034812558207008584 6.7395371092314525e-05 0 0.034802387030760135 6.7995391356541251e-05 0 0.034788699680686153 7.4472610668260481e-05 0 0.034763013452279223 8.4381856362748879e-05 0 0.034773632867483542 7.868879754604127e-05 0 0.034749754217449899 8.6494187069713848e-05 0 0.034788699680686153 7.4472610668260481e-05 0 0.034763013452279223 8.4381856362748879e-05 0 0.034783599553663488 8.0019629979979852e-05 0 0.034788699680686153 7.4472610668260481e-05 0 0.034763013452279223 8.4381856362748879e-05 0 0.034773632867483542 7.868879754604127e-05 0 0.032801387068267407 -0.00036687409697527286 0 0.031388306833951982 -0.00072695194542932357 0 0.034763013452279223 8.4381856362748879e-05 0 0.034783599553663488 8.0019629979979852e-05 0 0.034760750655604605 9.4892572356366619e-05 0 0.034805490576703207 7.3679278001963718e-05 0 0.034783599553663488 8.0019629979979852e-05 0 0.034771152645933667 9.0606579447195649e-05 0 0.03478098735171261 7.3334132338978846e-05 0 0.03478994319637136 6.7836896405780068e-05 0 0.034758463806990963 7.8371773858478124e-05 0 0.03478098735171261 7.3334132338978846e-05 0 0.034809689874202181 6.2823694195194294e-05 0 0.03478994319637136 6.7836896405780068e-05 0 0.034802387030760135 6.7995391356541251e-05 0 0.03478098735171261 7.3334132338978846e-05 0 0.034809689874202181 6.2823694195194294e-05 0 0.034802387030760135 6.7995391356541251e-05 0 0.03478098735171261 7.3334132338978846e-05 0 0.034773632867483542 7.868879754604127e-05 0 0.03478098735171261 7.3334132338978846e-05 0 0.034773632867483542 7.868879754604127e-05 0 0.034755448408462897 8.2000805298076e-05 0 0.034773632867483542 7.868879754604127e-05 0 0.034755448408462897 8.2000805298076e-05 0 0.034749754217449899 8.6494187069713848e-05 0 0.034755448408462897 8.2000805298076e-05 0 0.034722947343307727 9.0404935570296334e-05 0 0.034758463806990963 7.8371773858478124e-05 0 0.03478098735171261 7.3334132338978846e-05 0 0.034755448408462897 8.2000805298076e-05 0 0.034758463806990963 7.8371773858478124e-05 0 0.034755448408462897 8.2000805298076e-05 0 0.034722947343307727 9.0404935570296334e-05 0 0.034749754217449899 8.6494187069713848e-05 0 0.034722947343307727 9.0404935570296334e-05 0 0.034749754217449899 8.6494187069713848e-05 0 0.034724609910145136 9.4066484783789518e-05 0 0.030963181013181074 -0.0010311431454752206 0 0.03074410882802614 -0.00081000661870266673 0 0.034722947343307727 9.0404935570296334e-05 0 0.034724609910145136 9.4066484783789518e-05 0 0.034691832436940261 0.00010670816312389209 0 0.034722947343307727 9.0404935570296334e-05 0 0.034691832436940261 0.00010670816312389209 0 0.034683953149298792 0.00010177330999123634 0 0.034783599553663488 8.0019629979979852e-05 0 0.034760750655604605 9.4892572356366619e-05 0 0.034771152645933667 9.0606579447195649e-05 0 0.031734189629121827 -0.00063349281305662695 0 0.029355114954661875 -0.0013951465909896909 0 0.030563616062847212 -0.00088156030169491545 0 0.030635178383048349 -0.00079005339061392346 0 0.030694015381237713 -0.00096399971289965955 0 0.030751352548883112 -0.00042272095299676626 0 0.030511156698523327 -0.00040424741491739736 0 0.030559876026900114 -0.00055740312915708134 0 0.029355114954661875 -0.0013951465909896909 0 0.031388306833951982 -0.00072695194542932357 0 0.030678156196765394 -0.00047906243681811433 0 0.031388306833951982 -0.00072695194542932357 0 0.031734189629121827 -0.00063349281305662695 0 0.031388306833951982 -0.00072695194542932357 0 0.027306722589926852 -0.002068489536060621 0 0.027857346229558339 -0.0023941353659359373 0 0.027954936052197957 -0.0022653669240721651 0 0.035107338421433779 0.00074534988405509223 0 0.031734189629121827 -0.00063349281305662695 0 0.034749754217449899 8.6494187069713848e-05 0 0.034724609910145136 9.4066484783789518e-05 0 0.034736477329076462 8.3636022143091014e-05 0 0.030963181013181074 -0.0010311431454752206 0 0.031734189629121827 -0.00063349281305662695 0 0.034763013452279223 8.4381856362748879e-05 0 0.034749754217449899 8.6494187069713848e-05 0 0.034736477329076462 8.3636022143091014e-05 0 0.027306722589926852 -0.002068489536060621 0 0.027954936052197957 -0.0022653669240721651 0 0.027755976353158008 -0.0017551491463399143 0 0.02773578987329579 -0.0013271261479951943 0 0.027298103575837233 -0.0018770932954332697 0 0.027059145676291935 -0.0011877649762511552 0 0.029355114954661875 -0.0013951465909896909 0 0.027288793284927532 -0.0015188932155143946 0 0.029205878485313558 -0.00072802559839680496 0 0.029355114954661875 -0.0013951465909896909 0 0.027467928286927245 -0.00088233809218494401 0 0.027059145676291935 -0.0011877649762511552 0 0.026813328258165899 -0.00048212397799704803 0 0.02773578987329579 -0.0013271261479951943 0 0.027467928286927245 -0.00088233809218494401 0 0.027059145676291935 -0.0011877649762511552 0 0.027755976353158008 -0.0017551491463399143 0 0.02755783352455218 -0.0012540019132911836 0 0.0272414555385769 -0.0015165735506499178 0 0.027306722589926852 -0.002068489536060621 0 0.027755976353158008 -0.0017551491463399143 0 0.0272414555385769 -0.0015165735506499178 0 0.027288793284927532 -0.0015188932155143946 0 0.027382932247945416 -0.00089900837093551827 0 0.02755783352455218 -0.0012540019132911836 0 0.027262201382779388 -0.001074012005951202 0 0.0272414555385769 -0.0015165735506499178 0 0.027467928286927245 -0.00088233809218494401 0 0.026813328258165899 -0.00048212397799704803 0 0.027566650211688505 -0.00037184029437865065 0 0.026813328258165899 -0.00048212397799704803 0 0.027615242700906168 0.00023822951246621393 0 0.027566650211688505 -0.00037184029437865065 0 0.03074410882802614 -0.00081000661870266673 0 0.030457858749382363 -0.00062175849855510674 0 0.026773135767810902 -0.0017314419100252403 0 0.026812492468617308 -0.0012206798166589671 0 0.026277296597409225 -0.001368542099762968 0 0.026773135767810902 -0.0017314419100252403 0 0.0272414555385769 -0.0015165735506499178 0 0.026812492468617308 -0.0012206798166589671 0 0.027306722589926852 -0.002068489536060621 0 0.026773135767810902 -0.0017314419100252403 0 0.0272414555385769 -0.0015165735506499178 0 0.027262201382779388 -0.001074012005951202 0 0.026812492468617308 -0.0012206798166589671 0 0.026981209539084634 -0.00098784191479371164 0 0.027262201382779388 -0.001074012005951202 0 0.0272414555385769 -0.0015165735506499178 0 0.026812492468617308 -0.0012206798166589671 0 0.026812492468617308 -0.0012206798166589671 0 0.026474185622222292 -0.0010832774091818235 0 0.026277296597409225 -0.001368542099762968 0 0.026812492468617308 -0.0012206798166589671 0 0.026679626073437785 -0.00079749040336346555 0 0.026981209539084634 -0.00098784191479371164 0 0.026812492468617308 -0.0012206798166589671 0 0.026474185622222292 -0.0010832774091818235 0 0.026679626073437785 -0.00079749040336346555 0 0.026474185622222292 -0.0010832774091818235 0 0.026679626073437785 -0.00079749040336346555 0 0.02616573107134388 -0.00090272920035785954 0 0.026435885601261266 -0.00083431932760926863 0 0.025739866131355784 -0.00062175826366086065 0 0.026679626073437785 -0.00079749040336346555 0 0.026981209539084634 -0.00098784191479371164 0 0.027150830331782876 -0.00076865240772886704 0 0.027262201382779388 -0.001074012005951202 0 0.026981209539084634 -0.00098784191479371164 0 0.027150830331782876 -0.00076865240772886704 0 0.027052931180299465 -0.0012099496515274885 0 0.025739866131355784 -0.00062175826366086065 0 0.02220799123889371 -0.00019384234161005836 0 0.022218914298583643 -0.0013645742058717202 0 0.02260943507127431 -0.0013594332254152771 0 0.021808631612486234 -0.00015288158521327465 0 0.02220799123889371 -0.00019384234161005836 0 0.022218914298583643 -0.0013645742058717202 0 0.020815039983169702 -0.0014696803447180893 0 0.025739866131355784 -0.00062175826366086065 0 0.025804224953494759 -0.0010648293942810184 0 0.025922645957582646 -0.00084211499435067464 0 0.025741613433656874 -0.00083770733228318906 0 0.025804224953494759 -0.0010648293942810184 0 0.025922645957582646 -0.00084211499435067464 0 0.026012213835664981 -0.00096655112214364455 0 0.024232845200573404 -0.0006091692217132747 0 0.02560872492009553 -0.00025063963350507965 0 0.026813328258165899 -0.00048212397799704803 0 0.02657002605334513 0.00022206458651362175 0 0.027615242700906168 0.00023822951246621393 0 0.02755783352455218 -0.0012540019132911836 0 0.027262201382779388 -0.001074012005951202 0 0.02736640587869504 -0.00072486099221263261 0 0.027382932247945416 -0.00089900837093551827 0 0.024232845200573404 -0.0006091692217132747 0 0.027262201382779388 -0.001074012005951202 0 0.02713466680324399 -0.00072506571659037363 0 0.02736640587869504 -0.00072486099221263261 0 0.025739866131355784 -0.00062175826366086065 0 0.024232845200573404 -0.0006091692217132747 0 0.01815839378300154 -0.00054895201979691434 0 0.024232845200573404 -0.0006091692217132747 0 0.02054047246933453 0.0012759201596494864 0 0.020587009042005489 -0.0013562863314887325 0 0.022175142419411091 0.00025172524733430696 0 0.02054047246933453 0.0012759201596494864 0 0.019701970032085483 0.0013631671285334191 0 0.020587009042005489 -0.0013562863314887325 0 0.020587009042005489 -0.0013562863314887325 0 0.022175142419411091 0.00025172524733430696 0 0.023746766899144199 -0.001315794573080054 0 0.019966104725508797 0.00037708391057172811 0 0.017500668617581341 -0.00052923562795105766 0 0.019729302209046583 -0.0019302993273355021 0 0.022175142419411091 0.00025172524733430696 0 0.02380449320858874 -0.00077099960356758455 0 0.023746766899144199 -0.001315794573080054 0 0.019898364266784915 -0.00016942662670894348 0 0.023852219981291837 -0.00025991833437773946 0 0.018678973398313699 0.00028308700277098245 0 0.023852219981291837 -0.00025991833437773946 0 0.027572801888759192 0.0024080863054450016 0 0.028270289633471661 0.0016116569371014244 0 0.027452434617441894 0.001138904196429388 0 0.028270289633471661 0.0016116569371014244 0 0.027452434617441894 0.001138904196429388 0 0.028110697933859626 0.00074891233393757032 0 0.027572801888759192 0.0024080863054450016 0 0.028270289633471661 0.0016116569371014244 0 0.02928507843270646 0.0021696949629346584 0 0.02928507843270646 0.0021696949629346584 0 0.028983401927886194 0.0014009989946542161 0 0.029803386564913402 0.0014799482227067986 0 0.028270289633471661 0.0016116569371014244 0 0.02928507843270646 0.0021696949629346584 0 0.028983401927886194 0.0014009989946542161 0 0.028270289633471661 0.0016116569371014244 0 0.028983401927886194 0.0014009989946542161 0 0.028110697933859626 0.00074891233393757032 0 0.028983401927886194 0.0014009989946542161 0 0.029679512280867199 0.00092674509544566611 0 0.029803386564913402 0.0014799482227067986 0 0.027683094161613006 0.00016296855602186003 0 0.029797727816739204 0.00095232410753443421 0 0.028983401927886194 0.0014009989946542161 0 0.028110697933859626 0.00074891233393757032 0 0.029679512280867199 0.00092674509544566611 0 0.028619485003903225 0.00090922322088628845 0 0.02973129015203688 0.00023806285120205615 0 0.029679512280867199 0.00092674509544566611 0 0.02794755245061634 0.0002845975124550789 0 0.028034375710561329 -0.00017788005417166807 0 0.02869192147327046 -0.00017848697072500095 0 0.027683094161613006 0.00016296855602186003 0 0.029976195069809929 0.00022811395792452164 0 0.027631135961006803 0.00027932331742470343 0 0.027566650211688505 -0.00037184029437865065 0 0.028034375710561329 -0.00017788005417166807 0 0.02560872492009553 -0.00025063963350507965 0 0.02762797715032337 -6.1459238599352104e-05 0 0.025239024441522914 0.00035266877356076708 0 0.025147001487922094 -0.00048339250387169277 0 0.026533102953902692 -0.00046855350732576416 0 0.023852219981291837 -0.00025991833437773946 0 0.02560872492009553 -0.00025063963350507965 0 0.023852219981291837 -0.00025991833437773946 0 0.027683094161613006 0.00016296855602186003 0 0.02560872492009553 -0.00025063963350507965 0 0.027683094161613006 0.00016296855602186003 0 0.027631135961006803 0.00027932331742470343 0 0.02794755245061634 0.0002845975124550789 0 0.028034375710561329 -0.00017788005417166807 0 0.027467928286927245 -0.00088233809218494401 0 0.027566650211688505 -0.00037184029437865065 0 0.028202257974414086 -0.00076713011287421484 0 0.027566650211688505 -0.00037184029437865065 0 0.028034375710561329 -0.00017788005417166807 0 0.028202257974414086 -0.00076713011287421484 0 0.030938371569188827 6.64482553759117e-05 0 0.031127102688316539 6.8155757637445972e-05 0 0.031101827870805631 0.00023364366982343509 0 0.028034375710561329 -0.00017788005417166807 0 0.028202257974414086 -0.00076713011287421484 0 0.02869192147327046 -0.00017848697072500095 0 0.029549709586743623 -0.00038359712063603876 0 0.029976195069809929 0.00022811395792452164 0 0.030731171266151765 -0.00014678630047281898 0 0.030938371569188827 6.64482553759117e-05 0 0.031054043427127656 -8.8232746485701247e-05 0 0.030938371569188827 6.64482553759117e-05 0 0.031054043427127656 -8.8232746485701247e-05 0 0.031127102688316539 6.8155757637445972e-05 0 0.02773578987329579 -0.0013271261479951943 0 0.027467928286927245 -0.00088233809218494401 0 0.028202257974414086 -0.00076713011287421484 0 0.029205878485313558 -0.00072802559839680496 0 0.029549709586743623 -0.00038359712063603876 0 0.03130204186882006 4.8393136905282767e-05 0 0.031250097271341454 -2.1361969810125525e-05 0 0.031241899301420396 0.00012579149972195762 0 0.031421928471831673 -0.00012551110804303882 0 0.03130204186882006 4.8393136905282767e-05 0 0.031250097271341454 -2.1361969810125525e-05 0 0.031421928471831673 -0.00012551110804303882 0 0.03130204186882006 4.8393136905282767e-05 0 0.03162372727132666 -4.7168273167780089e-05 0 0.031250097271341454 -2.1361969810125525e-05 0 0.031127102688316539 6.8155757637445972e-05 0 0.031241899301420396 0.00012579149972195762 0 0.031054043427127656 -8.8232746485701247e-05 0 0.031250097271341454 -2.1361969810125525e-05 0 0.031127102688316539 6.8155757637445972e-05 0 0.031127102688316539 6.8155757637445972e-05 0 0.031241899301420396 0.00012579149972195762 0 0.031101827870805631 0.00023364366982343509 0 0.030948305033461576 9.9607660097097829e-05 0 0.029976195069809929 0.00022811395792452164 0 0.030589106788164726 0.00012091811430896904 0 0.029902272599122752 0.00037584555502328826 0 0.030509243956136755 0.00053535017771838523 0 0.030589106788164726 0.00012091811430896904 0 0.031171953837832438 0.00036421944734204876 0 0.030509243956136755 0.00053535017771838523 0 0.031187524452411384 5.4355932801056507e-05 0 0.030948305033461576 9.9607660097097829e-05 0 0.03130204186882006 4.8393136905282767e-05 0 0.030589106788164726 0.00012091811430896904 0 0.031171953837832438 0.00036421944734204876 0 0.031171953837832438 0.00036421944734204876 0 0.030950662614105513 0.00084693565012657621 0 0.03130437835345172 0.00063469977293973399 0 0.031171953837832438 0.00036421944734204876 0 0.030950662614105513 0.00084693565012657621 0 0.030509243956136755 0.00053535017771838523 0 0.030950662614105513 0.00084693565012657621 0 0.030509243956136755 0.00053535017771838523 0 0.0302923115527058 0.0010661619830029424 0 0.029902272599122752 0.00037584555502328826 0 0.03008445198954985 0.00063225606689488046 0 0.030509243956136755 0.00053535017771838523 0 0.02973129015203688 0.00023806285120205615 0 0.03008445198954985 0.00063225606689488046 0 0.029679512280867199 0.00092674509544566611 0 0.029976195069809929 0.00022811395792452164 0 0.030065443630383486 0.0004680380236569618 0 0.03008445198954985 0.00063225606689488046 0 0.030509243956136755 0.00053535017771838523 0 0.0302923115527058 0.0010661619830029424 0 0.03008445198954985 0.00063225606689488046 0 0.0302923115527058 0.0010661619830029424 0 0.029679512280867199 0.00092674509544566611 0 0.025290256745607122 0.00062447102778152223 0 0.024458229110382524 0.00035478239936369635 0 0.02928507843270646 0.0021696949629346584 0 0.029803386564913402 0.0014799482227067986 0 0.030617436606257122 0.0018246468793094797 0 0.0302923115527058 0.0010661619830029424 0 0.029679512280867199 0.00092674509544566611 0 0.029803386564913402 0.0014799482227067986 0 0.0302923115527058 0.0010661619830029424 0 0.029803386564913402 0.0014799482227067986 0 0.030617436606257122 0.0018246468793094797 0 0.016625029628376121 -0.0008549105771074435 0 0.016309415028749288 -0.0010045339890997467 0 0.0171552949909776 -0.0011115484810433425 0 0.030950662614105513 0.00084693565012657621 0 0.0302923115527058 0.0010661619830029424 0 0.030617436606257122 0.0018246468793094797 0 0.024458229110382524 0.00035478239936369635 0 0.031786235852872241 0.00090603014392799783 0 0.024458229110382524 0.00035478239936369635 0 0.024648202623189439 0.00056385615220356535 0 0.030950662614105513 0.00084693565012657621 0 0.030617436606257122 0.0018246468793094797 0 0.031514384218029115 0.00092189864552478953 0 0.02864190450052484 0.0019003801469191853 0 0.030686574294244436 0.0016484470551263071 0 0.030251785224371941 0.00093972313386868735 0 0.016625029628376121 -0.0008549105771074435 0 0.0171552949909776 -0.0011115484810433425 0 0.017263979489112301 -0.0010400967325624481 0 0.01065561918944668 -0.0019666484268773894 0 0.011397645378544487 -0.0021766335819749971 0 0.030686574294244436 0.0016484470551263071 0 0.030251785224371941 0.00093972313386868735 0 0.031356452943120332 0.0010313056246114773 0 0.031514384218029115 0.00092189864552478953 0 0.031684606766265715 0.00042171385319890751 0 0.031525288712010949 0.00045233617309818722 0 0.031514384218029115 0.00092189864552478953 0 0.03130437835345172 0.00063469977293973399 0 0.031525288712010949 0.00045233617309818722 0 0.030950662614105513 0.00084693565012657621 0 0.031514384218029115 0.00092189864552478953 0 0.03130437835345172 0.00063469977293973399 0 0.030251785224371941 0.00093972313386868735 0 0.031684606766265715 0.00042171385319890751 0 0.031356452943120332 0.0010313056246114773 0 0.031786235852872241 0.00090603014392799783 0 0.031274208245408705 0.00056230381674570124 0 0.031684606766265715 0.00042171385319890751 0 0.031356452943120332 0.0010313056246114773 0 0.0319194948949581 0.00067761440176443671 0 0.0171552949909776 -0.0011115484810433425 0 0.017263979489112301 -0.0010400967325624481 0 0.017750481502466192 -0.0012142406692187391 0 0.024648202623189439 0.00056385615220356535 0 0.019358443742177614 -0.0023634680617809082 0 0.011397645378544487 -0.0021766335819749971 0 0.013398841639432411 -0.0016113226291595646 0 0.030686574294244436 0.0016484470551263071 0 0.031356452943120332 0.0010313056246114773 0 0.03204184042772952 0.0013168902456403351 0 0.017263979489112301 -0.0010400967325624481 0 0.017735689162212857 -0.0011799638003747307 0 0.017750481502466192 -0.0012142406692187391 0 0.016639974012065885 -0.0034473068222514291 0 0.016444321192677355 -0.0029160889139160768 0 0.011662554323150998 -0.0024327617826556754 0 0.013398841639432411 -0.0016113226291595646 0 0.019358443742177614 -0.0023634680617809082 0 0.0044835953442925128 -0.0020171572006524156 0 0.0048481658554001862 -0.0035791262011878352 0 0.006401376893071983 -0.0025404269919016716 0 0.0044835953442925128 -0.0020171572006524156 0 0.0031739091833554449 -0.0030000884891942785 0 0.0048481658554001862 -0.0035791262011878352 0 0.019358443742177614 -0.0023634680617809082 0 0.011673279540407689 -0.0023643168427416078 0 0.013398841639432411 -0.0016113226291595646 0 0.011673279540407689 -0.0023643168427416078 0 0.019764826268906258 -0.0018484568815761073 0 0.02032673256005299 -0.000548033177357588 0 0.018503962730588533 -0.0015883216512407817 0 0.02080712704283301 -0.0019578997533573001 0 0.019764826268906258 -0.0018484568815761073 0 0.02032673256005299 -0.000548033177357588 0 0.026749329216166809 -0.00024392671047798628 0 0.019477708543094437 -0.0019950213899539203 0 0.026749329216166809 -0.00024392671047798628 0 0.027550837982146636 0.00010652697316839862 0 0.019358443742177614 -0.0023634680617809082 0 0.026749329216166809 -0.00024392671047798628 0 0.03204184042772952 0.0013168902456403351 0 0.032215407516392229 0.00054626738424145118 0 0.0319194948949581 0.00067761440176443671 0 0.031356452943120332 0.0010313056246114773 0 0.03204184042772952 0.0013168902456403351 0 0.0319194948949581 0.00067761440176443671 0 0.032215407516392229 0.00054626738424145118 0 0.032147514162556526 0.00051267066669017833 0 0.0319194948949581 0.00067761440176443671 0 0.032147514162556526 0.00051267066669017833 0 0.0319194948949581 0.00067761440176443671 0 0.031959707334981345 0.00040813959874306659 0 0.031684606766265715 0.00042171385319890751 0 0.0319194948949581 0.00067761440176443671 0 0.031959707334981345 0.00040813959874306659 0 0.031684606766265715 0.00042171385319890751 0 0.031959707334981345 0.00040813959874306659 0 0.031902884464400115 0.00024392719999898031 0 0.031959707334981345 0.00040813959874306659 0 0.032107059319440058 0.00032482124693132536 0 0.031902884464400115 0.00024392719999898031 0 0.032147514162556526 0.00051267066669017833 0 0.031959707334981345 0.00040813959874306659 0 0.032107059319440058 0.00032482124693132536 0 0.032107059319440058 0.00032482124693132536 0 0.031902884464400115 0.00024392719999898031 0 0.032054435998038172 0.00010273703795772913 0 0.027543899589211249 -0.001446507088155346 0 0.027182522482469586 -0.00041468058289092548 0 0.02630898306871721 -0.0013058443040203053 0 0.032176333390018103 0.00053116666468510461 0 0.032107059319440058 0.00032482124693132536 0 0.032210636030931321 0.00023510556651904844 0 0.026749329216166809 -0.00024392671047798628 0 0.029683741914811167 -0.00019258211144382084 0 0.032176333390018103 0.00053116666468510461 0 0.032147514162556526 0.00051267066669017833 0 0.032107059319440058 0.00032482124693132536 0 0.032107059319440058 0.00032482124693132536 0 0.032210636030931321 0.00023510556651904844 0 0.032054435998038172 0.00010273703795772913 0 0.027182522482469586 -0.00041468058289092548 0 0.026827656426503664 0.00061657730102374054 0 0.026284051080905778 -0.00049277720399211434 0 0.032261235097135695 2.2415366333765973e-05 0 0.032054435998038172 0.00010273703795772913 0 0.032008436949750585 -9.4013078246819759e-05 0 0.032210636030931321 0.00023510556651904844 0 0.032261235097135695 2.2415366333765973e-05 0 0.032054435998038172 0.00010273703795772913 0 0.029683741914811167 -0.00019258211144382084 0 0.030791807922726584 0.00012696511316594039 0 0.032054435998038172 0.00010273703795772913 0 0.031811034005479279 5.3203400596060154e-05 0 0.032008436949750585 -9.4013078246819759e-05 0 0.031902884464400115 0.00024392719999898031 0 0.032054435998038172 0.00010273703795772913 0 0.031811034005479279 5.3203400596060154e-05 0 0.031811034005479279 5.3203400596060154e-05 0 0.031544665642144934 0.00016359224562849373 0 0.031692914768429482 0.00026769239766136389 0 0.03130204186882006 4.8393136905282767e-05 0 0.03162372727132666 -4.7168273167780089e-05 0 0.031544665642144934 0.00016359224562849373 0 0.031811034005479279 5.3203400596060154e-05 0 0.03162372727132666 -4.7168273167780089e-05 0 0.031544665642144934 0.00016359224562849373 0 0.031544665642144934 0.00016359224562849373 0 0.031525288712010949 0.00045233617309818722 0 0.031692914768429482 0.00026769239766136389 0 0.03130204186882006 4.8393136905282767e-05 0 0.031171953837832438 0.00036421944734204876 0 0.031544665642144934 0.00016359224562849373 0 0.031171953837832438 0.00036421944734204876 0 0.031544665642144934 0.00016359224562849373 0 0.031525288712010949 0.00045233617309818722 0 0.031171953837832438 0.00036421944734204876 0 0.03130437835345172 0.00063469977293973399 0 0.031525288712010949 0.00045233617309818722 0 0.031684606766265715 0.00042171385319890751 0 0.031525288712010949 0.00045233617309818722 0 0.031692914768429482 0.00026769239766136389 0 0.031684606766265715 0.00042171385319890751 0 0.031902884464400115 0.00024392719999898031 0 0.031692914768429482 0.00026769239766136389 0 0.031902884464400115 0.00024392719999898031 0 0.031811034005479279 5.3203400596060154e-05 0 0.031692914768429482 0.00026769239766136389 0 0.025711414261424714 -0.0017467722725087894 0 0.02592408456137673 -0.0015379699369282363 0 0.026000874927562208 -0.0017166875930030114 0 0.023626149084146775 -0.0020499137747945076 0 0.022556646933198549 -0.0024166722139733706 0 0.025711414261424714 -0.0017467722725087894 0 0.025979992077914623 -0.0017025141720799267 0 0.026000874927562208 -0.0017166875930030114 0 0.020534219554387015 -0.0021761341276882811 0 0.019425424997242674 -0.0030717840904057828 0 0.019570172015057282 -0.0020776231093430956 0 0.020534219554387015 -0.0021761341276882811 0 0.021172745821926672 -0.003253091721838451 0 0.019425424997242674 -0.0030717840904057828 0 0.022556646933198549 -0.0024166722139733706 0 0.022127506811913122 -0.0024095739634134379 0 0.019425424997242674 -0.0030717840904057828 0 0.018427747878427402 -0.0019586744676433876 0 0.017723134865992109 -0.0027164146068544676 0 0.019425424997242674 -0.0030717840904057828 0 0.017723134865992109 -0.0027164146068544676 0 0.017689639516164025 -0.0028848441070804518 0 0.019425424997242674 -0.0030717840904057828 0 0.019570172015057282 -0.0020776231093430956 0 0.018427747878427402 -0.0019586744676433876 0 0.025979992077914623 -0.0017025141720799267 0 0.026000874927562208 -0.0017166875930030114 0 0.025575763354962124 -0.0017441452435340221 0 0.026000874927562208 -0.0017166875930030114 0 0.026452047561867829 -0.0015442076829006379 0 0.02689169012841186 -0.0019478769288142261 0 0.02592408456137673 -0.0015379699369282363 0 0.026000874927562208 -0.0017166875930030114 0 0.026452047561867829 -0.0015442076829006379 0 0.026816914875079822 -0.0017197937403121537 0 0.024275860872113603 -0.0021675236694914946 0 0.024990197843052946 -0.0022417436691485318 0 0.025545582837956257 -0.0017694247212447062 0 0.02526960902383792 -0.0011117563787629927 0 0.026452047561867829 -0.0015442076829006379 0 0.02689169012841186 -0.0019478769288142261 0 0.027037257226746412 -0.001399513610355038 0 0.024275860872113603 -0.0021675236694914946 0 0.026188165628561758 -0.0012249558312204909 0 0.024990197843052946 -0.0022417436691485318 0 0.025835130297046129 -0.002421000664511167 0 0.025545582837956257 -0.0017694247212447062 0 0.018427747878427402 -0.0019586744676433876 0 0.017723134865992109 -0.0027164146068544676 0 0.016947092612545248 -0.0028021868240102436 0 0.025979992077914623 -0.0017025141720799267 0 0.025575763354962124 -0.0017441452435340221 0 0.025582198225717875 -0.001696022685771963 0 0.0084892123129661975 -0.0018124028465860533 0 0.010968663277537632 -0.0022547495997581727 0 0.0077948584889321023 -0.0040348452251574522 0 0.014476339964844704 -0.0021113757663467274 0 0.014366413170667763 -0.0032104577010484826 0 0.021835448340851649 -0.0026182425111596838 0 0.022127506811913122 -0.0024095739634134379 0 0.017723134865992109 -0.0027164146068544676 0 0.017687572213073582 -0.0028830099933565556 0 0.016947092612545248 -0.0028021868240102436 0 0.022348932838471829 -0.0033198139309326045 0 0.022635738688654209 -0.002023886891699191 0 0.01810207814384502 -0.0015250913970281579 0 0.024275860872113603 -0.0021675236694914946 0 0.019477708543094437 -0.0019950213899539203 0 0.022127506811913122 -0.0024095739634134379 0 0.014366413170667763 -0.0032104577010484826 0 0.024275860872113603 -0.0021675236694914946 0 0.022127506811913122 -0.0024095739634134379 0 0.011673279540407689 -0.0023643168427416078 0 0.014366413170667763 -0.0032104577010484826 0 0.011893781645231334 -0.0020526001582881143 0 0.017355375846757226 -0.0026907967190148638 0 0.016639255349692426 -0.0030964627485856092 0 0.0048481658554001862 -0.0035791262011878352 0 0.0077948584889321023 -0.0040348452251574522 0 0.006401376893071983 -0.0025404269919016716 0 0.022348932838471829 -0.0033198139309326045 0 0.01810207814384502 -0.0015250913970281579 0 0.016967290309521581 -0.0021735104618559073 0 0.011673279540407689 -0.0023643168427416078 0 0.019477708543094437 -0.0019950213899539203 0 0.014366413170667763 -0.0032104577010484826 0 0.019477708543094437 -0.0019950213899539203 0 0.0084892123129661975 -0.0018124028465860533 0 0.0077948584889321023 -0.0040348452251574522 0 0.006401376893071983 -0.0025404269919016716 0 0.025835130297046129 -0.002421000664511167 0 0.025545582837956257 -0.0017694247212447062 0 0.02630898306871721 -0.0013058443040203053 0 0.027543899589211249 -0.001446507088155346 0 0.025835130297046129 -0.002421000664511167 0 0.02630898306871721 -0.0013058443040203053 0 0.025545582837956257 -0.0017694247212447062 0 0.02630898306871721 -0.0013058443040203053 0 0.02526960902383792 -0.0011117563787629927 0 0.026284051080905778 -0.00049277720399211434 0 0.025552716996367682 1.2140037414273591e-05 0 0.02526960902383792 -0.0011117563787629927 0 0.027182522482469586 -0.00041468058289092548 0 0.02630898306871721 -0.0013058443040203053 0 0.026284051080905778 -0.00049277720399211434 0 0.02630898306871721 -0.0013058443040203053 0 0.026284051080905778 -0.00049277720399211434 0 0.02526960902383792 -0.0011117563787629927 0 0.026827656426503664 0.00061657730102374054 0 0.026284051080905778 -0.00049277720399211434 0 0.025552716996367682 1.2140037414273591e-05 0 0.031723759046441896 -0.00071959202318491711 0 0.031672802975784578 -0.00074600234850550132 0 0.031702184223715818 -0.00070187232012710167 0 0.030791807922726584 0.00012696511316594039 0 0.029651163090295623 -0.00094361305380261389 0 0.029651163090295623 -0.00094361305380261389 0 0.033402382442558942 -0.0012923739953359201 0 0.034875146563683873 -0.0021617455267983121 0 0.034785430842465159 -0.0019231036059328733 0 0.034960874517591535 -0.0018336662565006379 0 0.034875146563683873 -0.0021617455267983121 0 0.034659212668445405 -0.0020982837302181618 0 0.034560497018851499 -0.0023550319990912972 0 0.034875146563683873 -0.0021617455267983121 0 0.034785430842465159 -0.0019231036059328733 0 0.034659212668445405 -0.0020982837302181618 0 0.029651163090295623 -0.00094361305380261389 0 0.030660029639044555 -0.0017846386843011061 0 0.029651163090295623 -0.00094361305380261389 0 0.026188165628561758 -0.0012249558312204909 0 0.02718850406890649 -0.00084016922383915336 0 0.027037257226746412 -0.001399513610355038 0 0.026510880941904222 -0.0011731782867275332 0 0.026452047561867829 -0.0015442076829006379 0 0.027037257226746412 -0.001399513610355038 0 0.026510880941904222 -0.0011731782867275332 0 0.034170654928473272 -0.0025810022176123095 0 0.034560497018851499 -0.0023550319990912972 0 0.034320768126591288 -0.0021090413384410173 0 0.030483754642714148 -0.001887628509058885 0 0.030660029639044555 -0.0017846386843011061 0 0.02592408456137673 -0.0015379699369282363 0 0.026452047561867829 -0.0015442076829006379 0 0.026510880941904222 -0.0011731782867275332 0 0.034659212668445405 -0.0020982837302181618 0 0.034560497018851499 -0.0023550319990912972 0 0.034320768126591288 -0.0021090413384410173 0 0.034659212668445405 -0.0020982837302181618 0 0.034320768126591288 -0.0021090413384410173 0 0.034495939178159123 -0.001853737705573811 0 0.034320768126591288 -0.0021090413384410173 0 0.034322929988640172 -0.0018619576439363875 0 0.034495939178159123 -0.001853737705573811 0 0.033975729656672345 -0.0022393979645871378 0 0.034320768126591288 -0.0021090413384410173 0 0.034096959019239384 -0.0018425711427582016 0 0.034320768126591288 -0.0021090413384410173 0 0.034096959019239384 -0.0018425711427582016 0 0.034322929988640172 -0.0018619576439363875 0 0.033975729656672345 -0.0022393979645871378 0 0.034170654928473272 -0.0025810022176123095 0 0.034320768126591288 -0.0021090413384410173 0 0.034401632970240556 -0.0016026549498401261 0 0.034600119830867346 -0.0012789790294264918 0 0.034343173365580099 -0.0012548698842423927 0 0.034092034146101902 -0.0015212562268438932 0 0.034401632970240556 -0.0016026549498401261 0 0.034343173365580099 -0.0012548698842423927 0 0.034092034146101902 -0.0015212562268438932 0 0.034401632970240556 -0.0016026549498401261 0 0.034096959019239384 -0.0018425711427582016 0 0.034401632970240556 -0.0016026549498401261 0 0.034096959019239384 -0.0018425711427582016 0 0.034322929988640172 -0.0018619576439363875 0 0.034659212668445405 -0.0020982837302181618 0 0.034495939178159123 -0.001853737705573811 0 0.034794748304947463 -0.0015585476988766466 0 0.034401632970240556 -0.0016026549498401261 0 0.034495939178159123 -0.001853737705573811 0 0.034794748304947463 -0.0015585476988766466 0 0.034401632970240556 -0.0016026549498401261 0 0.034322929988640172 -0.0018619576439363875 0 0.034495939178159123 -0.001853737705573811 0 0.034401632970240556 -0.0016026549498401261 0 0.034794748304947463 -0.0015585476988766466 0 0.034600119830867346 -0.0012789790294264918 0 0.034629069423968185 -0.0015739740847461709 0 0.035040154715234195 -0.0014699191370069282 0 0.034807694450691581 -0.0012619795732399935 0 0.034666786808625658 -0.0020631997372768636 0 0.034706454856424963 -0.0015634695974546247 0 0.034785430842465159 -0.0019231036059328733 0 0.034629069423968185 -0.0015739740847461709 0 0.034960874517591535 -0.0018336662565006379 0 0.034629069423968185 -0.0015739740847461709 0 0.034960874517591535 -0.0018336662565006379 0 0.035040154715234195 -0.0014699191370069282 0 0.034785430842465159 -0.0019231036059328733 0 0.034659212668445405 -0.0020982837302181618 0 0.034629069423968185 -0.0015739740847461709 0 0.031723759046441896 -0.00071959202318491711 0 0.031702184223715818 -0.00070187232012710167 0 0.031729550508198992 -0.00066342901146458622 0 0.033402382442558942 -0.0012923739953359201 0 0.033619584735012968 -0.00077556818850746888 0 0.030791807922726584 0.00012696511316594039 0 0.033619584735012968 -0.00077556818850746888 0 0.033619584735012968 -0.00077556818850746888 0 0.033864658543152217 -0.00019667164802361929 0 0.035040154715234195 -0.0014699191370069282 0 0.03485885883477944 -0.000958061791995355 0 0.034807694450691581 -0.0012619795732399935 0 0.033619584735012968 -0.00077556818850746888 0 0.034543699194684266 -0.00071876361861977431 0 0.033735795183466269 -0.00022057772594185438 0 0.033872314890256564 -0.0003592869245625757 0 0.03381299860412159 -0.00039408232050261514 0 0.033877237762339113 -0.00026765629873297641 0 0.033872314890256564 -0.0003592869245625757 0 0.034021775271867838 -0.00039133245151552905 0 0.033872314890256564 -0.0003592869245625757 0 0.033977662751891083 -0.00039315591163343884 0 0.034021775271867838 -0.00039133245151552905 0 0.033872314890256564 -0.0003592869245625757 0 0.033977662751891083 -0.00039315591163343884 0 0.03381299860412159 -0.00039408232050261514 0 0.033977662751891083 -0.00039315591163343884 0 0.034083013065338619 -0.00038228355463560217 0 0.03408563740566619 -0.00038275443084707082 0 0.033977662751891083 -0.00039315591163343884 0 0.03381299860412159 -0.00039408232050261514 0 0.03408563740566619 -0.00038275443084707082 0 0.033977662751891083 -0.00039315591163343884 0 0.034083013065338619 -0.00038228355463560217 0 0.034021775271867838 -0.00039133245151552905 0 0.03485885883477944 -0.000958061791995355 0 0.034640515538665644 -0.0010085832835224121 0 0.034664348944962224 -0.00043316303364998788 0 0.034786848950309986 -0.0010198546399367257 0 0.034518166659239853 -0.00040991321921568746 0 0.034543699194684266 -0.00071876361861977431 0 0.034518166659239853 -0.00040991321921568746 0 0.034083013065338619 -0.00038228355463560217 0 0.034021775271867838 -0.00039133245151552905 0 0.03418642487338143 -0.00036064803227899467 0 0.034706454856424963 -0.0015634695974546247 0 0.034786848950309986 -0.0010198546399367257 0 0.034629069423968185 -0.0015739740847461709 0 0.034640515538665644 -0.0010085832835224121 0 0.034807694450691581 -0.0012619795732399935 0 0.03485885883477944 -0.000958061791995355 0 0.034640515538665644 -0.0010085832835224121 0 0.034807694450691581 -0.0012619795732399935 0 0.034794748304947463 -0.0015585476988766466 0 0.034870019465499703 -0.001009415580063993 0 0.034600119830867346 -0.0012789790294264918 0 0.034870019465499703 -0.001009415580063993 0 0.034600119830867346 -0.0012789790294264918 0 0.034595102484596088 -0.0009372679868001907 0 0.034600119830867346 -0.0012789790294264918 0 0.034595102484596088 -0.0009372679868001907 0 0.034343173365580099 -0.0012548698842423927 0 0.034870019465499703 -0.001009415580063993 0 0.034595102484596088 -0.0009372679868001907 0 0.034896605476507532 -0.00051137426422139768 0 0.034595102484596088 -0.0009372679868001907 0 0.0345122621255574 -0.00066599009189124048 0 0.034896605476507532 -0.00051137426422139768 0 0.0342604710520387 -0.00057632641563916506 0 0.034294785290196604 -0.00092506530920766932 0 0.0345122621255574 -0.00066599009189124048 0 0.034595102484596088 -0.0009372679868001907 0 0.034294785290196604 -0.00092506530920766932 0 0.0345122621255574 -0.00066599009189124048 0 0.03403714353678422 -0.0012033623603384261 0 0.034294785290196604 -0.00092506530920766932 0 0.034343173365580099 -0.0012548698842423927 0 0.034595102484596088 -0.0009372679868001907 0 0.034294785290196604 -0.00092506530920766932 0 0.034343173365580099 -0.0012548698842423927 0 0.031976209966039275 -0.00021100269542794782 0 0.032608218361928842 -0.0005175380115647883 0 0.0322462070119586 -0.00061865939748133032 0 0.03160169790607309 -0.00051272347778433269 0 0.031724910342107719 -0.00031802313762363782 0 0.031925991309182576 -0.00071576631291457343 0 0.031724910342107719 -0.00031802313762363782 0 0.0322462070119586 -0.00061865939748133032 0 0.031925991309182576 -0.00071576631291457343 0 0.031724910342107719 -0.00031802313762363782 0 0.031976209966039275 -0.00021100269542794782 0 0.0322462070119586 -0.00061865939748133032 0 0.03162372727132666 -4.7168273167780089e-05 0 0.031724910342107719 -0.00031802313762363782 0 0.031976209966039275 -0.00021100269542794782 0 0.031421928471831673 -0.00012551110804303882 0 0.03162372727132666 -4.7168273167780089e-05 0 0.031724910342107719 -0.00031802313762363782 0 0.031811034005479279 5.3203400596060154e-05 0 0.031976209966039275 -0.00021100269542794782 0 0.032008436949750585 -9.4013078246819759e-05 0 0.031811034005479279 5.3203400596060154e-05 0 0.03162372727132666 -4.7168273167780089e-05 0 0.031976209966039275 -0.00021100269542794782 0 0.031844493034102139 -0.00024091260098821761 0 0.032740253700306407 0.00015799497368754293 0 0.032684192683973212 0.00020230920031205792 0 0.033297654645039435 -3.4069154735803945e-05 0 0.032757753307767555 -0.0001990848733230467 0 0.031976209966039275 -0.00021100269542794782 0 0.032684192683973212 0.00020230920031205792 0 0.032757753307767555 -0.0001990848733230467 0 0.033367406359971902 0.00047718479231116326 0 0.032684192683973212 0.00020230920031205792 0 0.033297654645039435 -3.4069154735803945e-05 0 0.030791807922726584 0.00012696511316594039 0 0.032740253700306407 0.00015799497368754293 0 0.033367406359971902 0.00047718479231116326 0 0.033735795183466269 -0.00022057772594185438 0 0.033297654645039435 -3.4069154735803945e-05 0 0.033735795183466269 -0.00022057772594185438 0 0.033297654645039435 -3.4069154735803945e-05 0 0.03381299860412159 -0.00039408232050261514 0 0.033308308791670835 -2.8803070695507704e-05 0 0.033379416588714947 -0.00054121306440022281 0 0.033297654645039435 -3.4069154735803945e-05 0 0.032888889475093136 -0.00048093388104094908 0 0.03297706881627805 -0.00080363289667226018 0 0.033297654645039435 -3.4069154735803945e-05 0 0.032888889475093136 -0.00048093388104094908 0 0.032757753307767555 -0.0001990848733230467 0 0.031976209966039275 -0.00021100269542794782 0 0.032757753307767555 -0.0001990848733230467 0 0.032608218361928842 -0.0005175380115647883 0 0.032888889475093136 -0.00048093388104094908 0 0.032757753307767555 -0.0001990848733230467 0 0.032608218361928842 -0.0005175380115647883 0 0.032888889475093136 -0.00048093388104094908 0 0.032608218361928842 -0.0005175380115647883 0 0.032796308928528833 -0.00073813796071866113 0 0.032608218361928842 -0.0005175380115647883 0 0.032796308928528833 -0.00073813796071866113 0 0.032584677530546169 -0.00078653013786233821 0 0.032796308928528833 -0.00073813796071866113 0 0.032584677530546169 -0.00078653013786233821 0 0.032692458213198924 -0.00089053427284637994 0 0.032796308928528833 -0.00073813796071866113 0 0.03276896266721669 -0.00088889934838461962 0 0.032692458213198924 -0.00089053427284637994 0 0.032888889475093136 -0.00048093388104094908 0 0.032796308928528833 -0.00073813796071866113 0 0.03297706881627805 -0.00080363289667226018 0 0.032796308928528833 -0.00073813796071866113 0 0.03297706881627805 -0.00080363289667226018 0 0.03276896266721669 -0.00088889934838461962 0 0.03276896266721669 -0.00088889934838461962 0 0.032708609306145366 -0.0009234798937547184 0 0.03262466315804214 -0.00089466886544073659 0 0.033379416588714947 -0.00054121306440022281 0 0.033365211007908888 -0.00062196088245136747 0 0.03297706881627805 -0.00080363289667226018 0 0.03276896266721669 -0.00088889934838461962 0 0.03262466315804214 -0.00089466886544073659 0 0.032584677530546169 -0.00078653013786233821 0 0.032692458213198924 -0.00089053427284637994 0 0.032593032282352601 -0.0010758280754807694 0 0.032692458213198924 -0.00089053427284637994 0 0.032708609306145366 -0.0009234798937547184 0 0.032593032282352601 -0.0010758280754807694 0 0.03276896266721669 -0.00088889934838461962 0 0.032692458213198924 -0.00089053427284637994 0 0.032708609306145366 -0.0009234798937547184 0 0.032584677530546169 -0.00078653013786233821 0 0.032593032282352601 -0.0010758280754807694 0 0.0322462070119586 -0.00061865939748133032 0 0.032608218361928842 -0.0005175380115647883 0 0.032584677530546169 -0.00078653013786233821 0 0.0322462070119586 -0.00061865939748133032 0 0.032593032282352601 -0.0010758280754807694 0 0.0322462070119586 -0.00061865939748133032 0 0.031925991309182576 -0.00071576631291457343 0 0.031565856193717504 -0.00089752890081396842 0 0.031925991309182576 -0.00071576631291457343 0 0.031934873693196551 -0.00099658025368362158 0 0.032593032282352601 -0.0010758280754807694 0 0.031934873693196551 -0.00099658025368362158 0 0.031756515436698961 -0.0013435478340330675 0 0.032593032282352601 -0.0010758280754807694 0 0.031925991309182576 -0.00071576631291457343 0 0.031934873693196551 -0.00099658025368362158 0 0.032613983535640587 -0.0011047337959732735 0 0.032709019955473519 -0.0011711166089678944 0 0.032593032282352601 -0.0010758280754807694 0 0.033101747726605499 -0.00085598379053326563 0 0.033557140601253074 -0.0010998525939312331 0 0.033101747726605499 -0.00085598379053326563 0 0.033500804425533603 -0.00067585269962005699 0 0.033557140601253074 -0.0010998525939312331 0 0.033500804425533603 -0.00067585269962005699 0 0.033204860124389383 -0.00057302287903618061 0 0.033614000422806385 -0.00016757746249244096 0 0.033101747726605499 -0.00085598379053326563 0 0.033500804425533603 -0.00067585269962005699 0 0.033204860124389383 -0.00057302287903618061 0 0.033204860124389383 -0.00057302287903618061 0 0.032917325500920323 -0.00046959129710463901 0 0.033166509168166117 -0.00027364887836904691 0 0.033204860124389383 -0.00057302287903618061 0 0.032917325500920323 -0.00046959129710463901 0 0.032823815723198008 -0.00080180939317159587 0 0.032708609306145366 -0.0009234798937547184 0 0.032593032282352601 -0.0010758280754807694 0 0.032823815723198008 -0.00080180939317159587 0 0.032593032282352601 -0.0010758280754807694 0 0.033101747726605499 -0.00085598379053326563 0 0.032823815723198008 -0.00080180939317159587 0 0.033101747726605499 -0.00085598379053326563 0 0.033204860124389383 -0.00057302287903618061 0 0.032823815723198008 -0.00080180939317159587 0 0.032708609306145366 -0.0009234798937547184 0 0.032823815723198008 -0.00080180939317159587 0 0.032694544474879322 -0.00067858249974633823 0 0.032708609306145366 -0.0009234798937547184 0 0.03262466315804214 -0.00089466886544073659 0 0.032694544474879322 -0.00067858249974633823 0 0.03262466315804214 -0.00089466886544073659 0 0.032587254141471893 -0.00064813843536940126 0 0.032694544474879322 -0.00067858249974633823 0 0.03262466315804214 -0.00089466886544073659 0 0.032587254141471893 -0.00064813843536940126 0 0.032418290632551548 -0.00050545853841191192 0 0.033365211007908888 -0.00062196088245136747 0 0.033215967901573815 -0.00040907160796955643 0 0.032587254141471893 -0.00064813843536940126 0 0.032694544474879322 -0.00067858249974633823 0 0.032615814156751813 -0.00047812503616277485 0 0.032587254141471893 -0.00064813843536940126 0 0.032615814156751813 -0.00047812503616277485 0 0.032418290632551548 -0.00050545853841191192 0 0.032917325500920323 -0.00046959129710463901 0 0.032823815723198008 -0.00080180939317159587 0 0.032694544474879322 -0.00067858249974633823 0 0.032694544474879322 -0.00067858249974633823 0 0.032752330124059717 -0.00040412794663742497 0 0.032615814156751813 -0.00047812503616277485 0 0.032917325500920323 -0.00046959129710463901 0 0.032694544474879322 -0.00067858249974633823 0 0.032752330124059717 -0.00040412794663742497 0 0.032917325500920323 -0.00046959129710463901 0 0.032752330124059717 -0.00040412794663742497 0 0.032883497708384397 -0.00014309159330382477 0 0.032752330124059717 -0.00040412794663742497 0 0.032615814156751813 -0.00047812503616277485 0 0.032653924229170322 -0.0002409442099003459 0 0.032752330124059717 -0.00040412794663742497 0 0.032653924229170322 -0.0002409442099003459 0 0.032883497708384397 -0.00014309159330382477 0 0.032532988079973645 -0.00035537231640368332 0 0.032489843068734141 -0.00020299205007296841 0 0.032418290632551548 -0.00050545853841191192 0 0.032489843068734141 -0.00020299205007296841 0 0.032418290632551548 -0.00050545853841191192 0 0.032357641843576028 -3.2601281571714866e-05 0 0.032532988079973645 -0.00035537231640368332 0 0.032615814156751813 -0.00047812503616277485 0 0.032418290632551548 -0.00050545853841191192 0 0.032532988079973645 -0.00035537231640368332 0 0.032615814156751813 -0.00047812503616277485 0 0.032653924229170322 -0.0002409442099003459 0 0.032532988079973645 -0.00035537231640368332 0 0.032653924229170322 -0.0002409442099003459 0 0.032489843068734141 -0.00020299205007296841 0 0.032489843068734141 -0.00020299205007296841 0 0.032357641843576028 -3.2601281571714866e-05 0 0.032711111388260779 9.1508903955561153e-05 0 0.032653924229170322 -0.0002409442099003459 0 0.032489843068734141 -0.00020299205007296841 0 0.032711111388260779 9.1508903955561153e-05 0 0.033953592996423844 -0.00025742893196070748 0 0.033663096228098127 -3.8066882949613729e-07 0 0.032883497708384397 -0.00014309159330382477 0 0.033083134122475231 0.00023985517599140249 0 0.032711111388260779 9.1508903955561153e-05 0 0.032653924229170322 -0.0002409442099003459 0 0.032883497708384397 -0.00014309159330382477 0 0.032711111388260779 9.1508903955561153e-05 0 0.032883497708384397 -0.00014309159330382477 0 0.033257072656970615 -2.5657984607459016e-05 0 0.033083134122475231 0.00023985517599140249 0 0.032883497708384397 -0.00014309159330382477 0 0.033257072656970615 -2.5657984607459016e-05 0 0.033166509168166117 -0.00027364887836904691 0 0.033257072656970615 -2.5657984607459016e-05 0 0.033501764290935328 0.00023688896636794732 0 0.033614000422806385 -0.00016757746249244096 0 0.033204860124389383 -0.00057302287903618061 0 0.033166509168166117 -0.00027364887836904691 0 0.033614000422806385 -0.00016757746249244096 0 0.033257072656970615 -2.5657984607459016e-05 0 0.033166509168166117 -0.00027364887836904691 0 0.033614000422806385 -0.00016757746249244096 0 0.032917325500920323 -0.00046959129710463901 0 0.032883497708384397 -0.00014309159330382477 0 0.033166509168166117 -0.00027364887836904691 0 0.034295529618787249 -0.00024582934763592583 0 0.034530746249979052 -0.00035391152365120605 0 0.03452215939126111 -8.4657871262855061e-05 0 0.034295529618787249 -0.00024582934763592583 0 0.0342604710520387 -0.00057632641563916506 0 0.034530746249979052 -0.00035391152365120605 0 0.0342604710520387 -0.00057632641563916506 0 0.034530746249979052 -0.00035391152365120605 0 0.0345122621255574 -0.00066599009189124048 0 0.034530746249979052 -0.00035391152365120605 0 0.0345122621255574 -0.00066599009189124048 0 0.034896605476507532 -0.00051137426422139768 0 0.034530746249979052 -0.00035391152365120605 0 0.034896605476507532 -0.00051137426422139768 0 0.034752542720525234 -0.0001602797532374143 0 0.034530746249979052 -0.00035391152365120605 0 0.034752542720525234 -0.0001602797532374143 0 0.03452215939126111 -8.4657871262855061e-05 0 0.03431961650693869 -0.00033946481997331287 0 0.034300079660262134 -0.00025535912731088057 0 0.034426542827580515 -0.00036312484169070833 0 0.034518166659239853 -0.00040991321921568746 0 0.034603450898913486 -0.00026610959356414455 0 0.03431961650693869 -0.00033946481997331287 0 0.034367464995201505 -0.00036025075323353902 0 0.034426542827580515 -0.00036312484169070833 0 0.03431961650693869 -0.00033946481997331287 0 0.034301471499003644 -0.00035980633760612806 0 0.034367464995201505 -0.00036025075323353902 0 0.034301471499003644 -0.00035980633760612806 0 0.034219650880776845 -0.00037222783611365036 0 0.034370600762897469 -0.00036434940464261946 0 0.03431961650693869 -0.00033946481997331287 0 0.034301471499003644 -0.00035980633760612806 0 0.034240130953194788 -0.00035256813041120808 0 0.03431961650693869 -0.00033946481997331287 0 0.034240130953194788 -0.00035256813041120808 0 0.03418642487338143 -0.00036064803227899467 0 0.034318379885905345 -0.00032203691715449752 0 0.034518166659239853 -0.00040991321921568746 0 0.034240130953194788 -0.00035256813041120808 0 0.03418642487338143 -0.00036064803227899467 0 0.034155295833304671 -0.00036425240354604025 0 0.034083013065338619 -0.00038228355463560217 0 0.03418642487338143 -0.00036064803227899467 0 0.034155295833304671 -0.00036425240354604025 0 0.03408563740566619 -0.00038275443084707082 0 0.034155295833304671 -0.00036425240354604025 0 0.034170578606017736 -0.00037269006764126792 0 0.034083013065338619 -0.00038228355463560217 0 0.03408563740566619 -0.00038275443084707082 0 0.034155295833304671 -0.00036425240354604025 0 0.03408563740566619 -0.00038275443084707082 0 0.034170578606017736 -0.00037269006764126792 0 0.034180759208878926 -0.000369612609243451 0 0.034155295833304671 -0.00036425240354604025 0 0.034219650880776845 -0.00037222783611365036 0 0.034170578606017736 -0.00037269006764126792 0 0.034240130953194788 -0.00035256813041120808 0 0.034155295833304671 -0.00036425240354604025 0 0.034219650880776845 -0.00037222783611365036 0 0.034301471499003644 -0.00035980633760612806 0 0.034240130953194788 -0.00035256813041120808 0 0.034219650880776845 -0.00037222783611365036 0 0.034219650880776845 -0.00037222783611365036 0 0.034170578606017736 -0.00037269006764126792 0 0.034206956876374053 -0.0004566169781755948 0 0.033215967901573815 -0.00040907160796955643 0 0.033953592996423844 -0.00025742893196070748 0 0.034219650880776845 -0.00037222783611365036 0 0.034206956876374053 -0.0004566169781755948 0 0.034273553126417243 -0.00053153374541053467 0 0.034224499195131527 -0.0003724316889524694 0 0.034434517036365117 -0.00039746286867741972 0 0.034180759208878926 -0.000369612609243451 0 0.034171616058862611 -0.00035762829884374226 0 0.034175351523031854 -0.00033466865375330701 0 0.034174928248741292 -0.00037411798276597682 0 0.034199922336907614 -0.00041119250437906873 0 0.034170578606017736 -0.00037269006764126792 0 0.034180759208878926 -0.000369612609243451 0 0.034171616058862611 -0.00035762829884374226 0 0.034171616058862611 -0.00035762829884374226 0 0.034175351523031854 -0.00033466865375330701 0 0.034164931163823353 -0.00033811997583767809 0 0.033953592996423844 -0.00025742893196070748 0 0.034428961777859382 -0.00031322363670514673 0 0.034428961777859382 -0.00031322363670514673 0 0.034434517036365117 -0.00039746286867741972 0 0.034206956876374053 -0.0004566169781755948 0 0.034235710515717055 -0.00054193155827444279 0 0.034273553126417243 -0.00053153374541053467 0 0.034199922336907614 -0.00041119250437906873 0 0.034428961777859382 -0.00031322363670514673 0 0.034495670734666209 -0.00035829469265474307 0 0.034579811358229913 -0.0003328460333993082 0 0.034637147953796327 -0.00032303112738647701 0 0.034633426274999907 -0.00028589917756092429 0 0.034608933299088415 -0.00029301956489712332 0 0.034585898617491603 -0.00021183376047998907 0 0.034474670974832484 -0.00035885259164325647 0 0.034495670734666209 -0.00035829469265474307 0 0.034442455547547567 -0.00036111453773153069 0 0.034474670974832484 -0.00035885259164325647 0 0.034500048418184083 -0.00035515590899087911 0 0.034495670734666209 -0.00035829469265474307 0 0.034500048418184083 -0.00035515590899087911 0 0.034495670734666209 -0.00035829469265474307 0 0.034531345647147806 -0.00034749800896749326 0 0.034495670734666209 -0.00035829469265474307 0 0.034579811358229913 -0.0003328460333993082 0 0.034531345647147806 -0.00034749800896749326 0 0.034579811358229913 -0.0003328460333993082 0 0.034531345647147806 -0.00034749800896749326 0 0.03454061648972076 -0.00034750361253235219 0 0.03449749668900786 -0.00035519478066140415 0 0.034470069191348637 -0.00035825547947972793 0 0.03454061648972076 -0.00034750361253235219 0 0.034531345647147806 -0.00034749800896749326 0 0.03449749668900786 -0.00035519478066140415 0 0.03454061648972076 -0.00034750361253235219 0 0.034500048418184083 -0.00035515590899087911 0 0.034531345647147806 -0.00034749800896749326 0 0.03449749668900786 -0.00035519478066140415 0 0.034474670974832484 -0.00035885259164325647 0 0.03449749668900786 -0.00035519478066140415 0 0.034460759785204777 -0.00035958123525856446 0 0.034474670974832484 -0.00035885259164325647 0 0.034500048418184083 -0.00035515590899087911 0 0.03449749668900786 -0.00035519478066140415 0 0.034219650880776845 -0.00037222783611365036 0 0.034495670734666209 -0.00035829469265474307 0 0.034370600762897469 -0.00036434940464261946 0 0.034470069191348637 -0.00035825547947972793 0 0.03441959705405713 -0.00036228771044134099 0 0.034460759785204777 -0.00035958123525856446 0 0.03441959705405713 -0.00036228771044134099 0 0.034460759785204777 -0.00035958123525856446 0 0.034442455547547567 -0.00036111453773153069 0 0.03449749668900786 -0.00035519478066140415 0 0.034470069191348637 -0.00035825547947972793 0 0.034460759785204777 -0.00035958123525856446 0 0.034474670974832484 -0.00035885259164325647 0 0.034460759785204777 -0.00035958123525856446 0 0.034442455547547567 -0.00036111453773153069 0 0.034495670734666209 -0.00035829469265474307 0 0.034442455547547567 -0.00036111453773153069 0 0.034370600762897469 -0.00036434940464261946 0 0.03441959705405713 -0.00036228771044134099 0 0.034442455547547567 -0.00036111453773153069 0 0.034370600762897469 -0.00036434940464261946 0 0.03441959705405713 -0.00036228771044134099 0 0.034370600762897469 -0.00036434940464261946 0 0.034367464995201505 -0.00036025075323353902 0 0.034301471499003644 -0.00035980633760612806 0 0.034370600762897469 -0.00036434940464261946 0 0.034367464995201505 -0.00036025075323353902 0 0.034470069191348637 -0.00035825547947972793 0 0.03441959705405713 -0.00036228771044134099 0 0.034426542827580515 -0.00036312484169070833 0 0.03441959705405713 -0.00036228771044134099 0 0.034367464995201505 -0.00036025075323353902 0 0.034426542827580515 -0.00036312484169070833 0 0.034752542720525234 -0.0001602797532374143 0 0.034628429261921258 8.3876701776913973e-05 0 0.03452215939126111 -8.4657871262855061e-05 0 0.034603450898913486 -0.00026610959356414455 0 0.034612247406853501 -0.00013657365310466022 0 0.034470069191348637 -0.00035825547947972793 0 0.034426542827580515 -0.00036312484169070833 0 0.03454061648972076 -0.00034750361253235219 0 0.034426542827580515 -0.00036312484169070833 0 0.03454061648972076 -0.00034750361253235219 0 0.034589290345220874 -0.00033928894689429332 0 0.03454061648972076 -0.00034750361253235219 0 0.034589290345220874 -0.00033928894689429332 0 0.034629553147444786 -0.00032062161464426852 0 0.034579811358229913 -0.0003328460333993082 0 0.03454061648972076 -0.00034750361253235219 0 0.034629553147444786 -0.00032062161464426852 0 0.034431472572873593 8.1425396825541055e-05 0 0.034628429261921258 8.3876701776913973e-05 0 0.03452215939126111 -8.4657871262855061e-05 0 0.034659515437227999 -2.6788889985663753e-05 0 0.034767983518891842 3.3269092762827106e-05 0 0.03457247912888551 0.0002095020972949663 0 0.034590126692376003 0.0002027764949156137 0 0.034661660064408385 0.00016492962724915032 0 0.034717630077755759 -0.00024050661607321919 0 0.034863151029860144 -0.00013139590741123754 0 0.034854077473015374 -9.9527611072626728e-05 0 0.034431472572873593 8.1425396825541055e-05 0 0.034628429261921258 8.3876701776913973e-05 0 0.034590126692376003 0.0002027764949156137 0 0.034717630077755759 -0.00024050661607321919 0 0.034629553147444786 -0.00032062161464426852 0 0.034672615488541253 -0.0003076983727147277 0 0.034612247406853501 -0.00013657365310466022 0 0.034659515437227999 -2.6788889985663753e-05 0 0.034589290345220874 -0.00033928894689429332 0 0.034717630077755759 -0.00024050661607321919 0 0.034629553147444786 -0.00032062161464426852 0 0.034579811358229913 -0.0003328460333993082 0 0.034629553147444786 -0.00032062161464426852 0 0.034672615488541253 -0.0003076983727147277 0 0.034717630077755759 -0.00024050661607321919 0 0.034672615488541253 -0.0003076983727147277 0 0.034863151029860144 -0.00013139590741123754 0 0.034820698960901883 -6.7670494147102585e-05 0 0.035017780259493272 -9.5208257359629484e-07 0 0.03474655327338514 -0.00020944108896947162 0 0.034939065580735514 -5.6618396404112117e-05 0 0.035000425315975955 -3.5146772221410872e-05 0 0.034998812817129077 -1.3766358635419083e-05 0 0.034994005755172572 -1.474040910370132e-05 0 0.034994802944562441 -3.8330065276849797e-05 0 0.035000425315975955 -3.5146772221410872e-05 0 0.034994005755172572 -1.474040910370132e-05 0 0.034997263287670825 9.3000402594888207e-07 0 0.034999086609717893 2.3831303309058334e-06 0 0.034999362321035177 1.7838402442961982e-06 0 0.034672615488541253 -0.0003076983727147277 0 0.034729098976154379 -0.00028692833701054094 0 0.034863151029860144 -0.00013139590741123754 0 0.034434517036365117 -0.00039746286867741972 0 0.03474655327338514 -0.00020944108896947162 0 0.034428961777859382 -0.00031322363670514673 0 0.034820698960901883 -6.7670494147102585e-05 0 0.034633426274999907 -0.00028589917756092429 0 0.034585898617491603 -0.00021183376047998907 0 0.034609987538814897 -0.0001987154640771188 0 0.034674806318861676 -0.0002710001771367293 0 0.03474655327338514 -0.00020944108896947162 0 0.034579811358229913 -0.0003328460333993082 0 0.034672615488541253 -0.0003076983727147277 0 0.034637147953796327 -0.00032303112738647701 0 0.03474655327338514 -0.00020944108896947162 0 0.034820698960901883 -6.7670494147102585e-05 0 0.033953592996423844 -0.00025742893196070748 0 0.034750537701434048 -3.2052544589836765e-05 0 0.034678642719386497 -0.00015439894456417759 0 0.034633491358771022 -0.00016749758789174832 0 0.034674390462115845 -5.0475348104219455e-05 0 0.034676869833025953 -0.00013366717273335726 0 0.034674390462115845 -5.0475348104219455e-05 0 0.034722392101016498 -7.4401775813903715e-05 0 0.034633491358771022 -0.00016749758789174832 0 0.034605267690617482 -5.2116083734976405e-05 0 0.034674390462115845 -5.0475348104219455e-05 0 0.034820698960901883 -6.7670494147102585e-05 0 0.034855681625887848 6.0343547614746628e-06 0 0.034605267690617482 -5.2116083734976405e-05 0 0.034674390462115845 -5.0475348104219455e-05 0 0.034717483642073665 6.0554329393098502e-07 0 0.034997263287670825 9.3000402594888207e-07 0 0.034999086609717893 2.3831303309058334e-06 0 0.034999074720477003 2.2448202455971868e-06 0 0.034999086609717893 2.3831303309058334e-06 0 0.034999997668887395 4.8819483706925545e-09 0 0.034999362321035177 1.7838402442961982e-06 0 0.034999086609717893 2.3831303309058334e-06 0 0.034999997668887395 4.8819483706925545e-09 0 0.035000151461184834 3.6521010551788225e-06 0 0.035017780259493272 -9.5208257359629484e-07 0 0.034999990680285503 -1.7085752306945583e-09 0 0.034999997668887395 4.8819483706925545e-09 0 0.034999362321035177 1.7838402442961982e-06 0 0.035000001716211877 -1.2782302511493186e-09 0 0.034863151029860144 -0.00013139590741123754 0 0.034999873965923897 -9.6791660646879732e-08 0 0.034854077473015374 -9.9527611072626728e-05 0 0.034998812817129077 -1.3766358635419083e-05 0 0.034994005755172572 -1.474040910370132e-05 0 0.035000014828844829 -4.2110264069087338e-09 0 0.034939065580735514 -5.6618396404112117e-05 0 0.034999957131070375 -2.1544339515942686e-09 0 0.034994005755172572 -1.474040910370132e-05 0 0.035000014828844829 -4.2110264069087338e-09 0 0.034999981579247018 1.9746967300031205e-09 0 0.03499982149165913 -7.8752902037719544e-09 0 0.034999873965923897 -9.6791660646879732e-08 0 0.034854077473015374 -9.9527611072626728e-05 0 0.034866077937651285 -1.3732707775195794e-05 0 0.034842992394143256 -5.9112896384285862e-05 0 0.034797870295533405 -2.8661079304073286e-05 0 0.034866077937651285 -1.3732707775195794e-05 0 0.034797870295533405 -2.8661079304073286e-05 0 0.034887356018714503 7.531810544896867e-06 0 0.034866077937651285 -1.3732707775195794e-05 0 0.034858984926591861 1.4704665056181868e-05 0 0.034884826683950911 -2.4003241120875274e-05 0 0.034866077937651285 -1.3732707775195794e-05 0 0.034887356018714503 7.531810544896867e-06 0 0.034858984926591861 1.4704665056181868e-05 0 0.034878807993393247 -9.192727164944418e-05 0 0.034242012191221707 0.00017237097888149074 0 0.033965684755298431 8.850434059010769e-05 0 0.034242012191221707 0.00017237097888149074 0 0.034866077937651285 -1.3732707775195794e-05 0 0.034842992394143256 -5.9112896384285862e-05 0 0.034884826683950911 -2.4003241120875274e-05 0 0.033083134122475231 0.00023985517599140249 0 0.033481613884531199 0.00036507972690193836 0 0.033501764290935328 0.00023688896636794732 0 0.033257072656970615 -2.5657984607459016e-05 0 0.033083134122475231 0.00023985517599140249 0 0.033501764290935328 0.00023688896636794732 0 0.033965684755298431 8.850434059010769e-05 0 0.033663096228098127 -3.8066882949613729e-07 0 0.034768862298383219 -0.00010060317562017284 0 0.034722392101016498 -7.4401775813903715e-05 0 0.034797870295533405 -2.8661079304073286e-05 0 0.034842992394143256 -5.9112896384285862e-05 0 0.034768862298383219 -0.00010060317562017284 0 0.034797870295533405 -2.8661079304073286e-05 0 0.034676869833025953 -0.00013366717273335726 0 0.034768862298383219 -0.00010060317562017284 0 0.034722392101016498 -7.4401775813903715e-05 0 0.034722392101016498 -7.4401775813903715e-05 0 0.034717483642073665 6.0554329393098502e-07 0 0.034797870295533405 -2.8661079304073286e-05 0 0.034674390462115845 -5.0475348104219455e-05 0 0.034722392101016498 -7.4401775813903715e-05 0 0.034717483642073665 6.0554329393098502e-07 0 0.034717483642073665 6.0554329393098502e-07 0 0.034797870295533405 -2.8661079304073286e-05 0 0.034819162410063907 3.0776010642094253e-05 0 0.034999086609717893 2.3831303309058334e-06 0 0.034999074720477003 2.2448202455971868e-06 0 0.035000151461184834 3.6521010551788225e-06 0 0.034999074720477003 2.2448202455971868e-06 0 0.035000182915827897 9.1614249560210432e-06 0 0.035000151461184834 3.6521010551788225e-06 0 0.034855681625887848 6.0343547614746628e-06 0 0.034908252200738198 1.5684679790286234e-05 0 0.034999997668887395 4.8819483706925545e-09 0 0.035000151461184834 3.6521010551788225e-06 0 0.035000008298788077 -3.9421218504613896e-09 0 0.035000182915827897 9.1614249560210432e-06 0 0.035000151461184834 3.6521010551788225e-06 0 0.035000008298788077 -3.9421218504613896e-09 0 0.035000182915827897 9.1614249560210432e-06 0 0.035000008298788077 -3.9421218504613896e-09 0 0.034990784707744416 1.8962282964588099e-06 0 0.034990784707744416 1.8962282964588099e-06 0 0.034955746670554122 1.2610801980755386e-05 0 0.034999911987927818 1.4085177417071733e-08 0 0.035000008298788077 -3.9421218504613896e-09 0 0.034990784707744416 1.8962282964588099e-06 0 0.034999911987927818 1.4085177417071733e-08 0 0.035000182915827897 9.1614249560210432e-06 0 0.034990784707744416 1.8962282964588099e-06 0 0.034955746670554122 1.2610801980755386e-05 0 0.034797870295533405 -2.8661079304073286e-05 0 0.034819162410063907 3.0776010642094253e-05 0 0.034887356018714503 7.531810544896867e-06 0 0.034908252200738198 1.5684679790286234e-05 0 0.034946276801316019 1.4078962792351488e-05 0 0.034819162410063907 3.0776010642094253e-05 0 0.034887356018714503 7.531810544896867e-06 0 0.034955746670554122 1.2610801980755386e-05 0 0.034858984926591861 1.4704665056181868e-05 0 0.034906913076197928 8.6331385225946571e-06 0 0.034925281548548653 8.1267437077099888e-07 0 0.034887356018714503 7.531810544896867e-06 0 0.034858984926591861 1.4704665056181868e-05 0 0.034906913076197928 8.6331385225946571e-06 0 0.034887356018714503 7.531810544896867e-06 0 0.034906913076197928 8.6331385225946571e-06 0 0.034955746670554122 1.2610801980755386e-05 0 0.034906913076197928 8.6331385225946571e-06 0 0.034955746670554122 1.2610801980755386e-05 0 0.034925281548548653 8.1267437077099888e-07 0 0.034955746670554122 1.2610801980755386e-05 0 0.034999911987927818 1.4085177417071733e-08 0 0.034925281548548653 8.1267437077099888e-07 0 0.034999911987927818 1.4085177417071733e-08 0 0.034925281548548653 8.1267437077099888e-07 0 0.034999677576737338 -5.1251938863444947e-08 0 0.034925281548548653 8.1267437077099888e-07 0 0.034999677576737338 -5.1251938863444947e-08 0 0.034775926922288175 1.7955532220305421e-05 0 0.035000001643333223 2.880697734622496e-09 0 0.034987375131308056 4.0347226944781078e-06 0 0.034999976001479728 -1.3873017665126733e-09 0 0.034999943070585224 3.1487823398847417e-08 0 0.034885791442391192 1.9747742146873147e-05 0 0.034858984926591861 1.4704665056181868e-05 0 0.034925281548548653 8.1267437077099888e-07 0 0.034775926922288175 1.7955532220305421e-05 0 0.034982035328994743 2.9001904321573468e-06 0 0.034961994764536881 7.4109275812102154e-06 0 0.034999970211031489 -6.3008768483739011e-10 0 0.034999976001479728 -1.3873017665126733e-09 0 0.034982035328994743 2.9001904321573468e-06 0 0.034999970211031489 -6.3008768483739011e-10 0 0.034987375131308056 4.0347226944781078e-06 0 0.034999976001479728 -1.3873017665126733e-09 0 0.034982035328994743 2.9001904321573468e-06 0 0.034987375131308056 4.0347226944781078e-06 0 0.034982035328994743 2.9001904321573468e-06 0 0.03496313966579094 1.5739197157781288e-05 0 0.034982035328994743 2.9001904321573468e-06 0 0.034961994764536881 7.4109275812102154e-06 0 0.03496313966579094 1.5739197157781288e-05 0 0.03496313966579094 1.5739197157781288e-05 0 0.03493159270118365 2.1821784452586022e-05 0 0.034929250855521073 3.1913559871212885e-05 0 0.034961994764536881 7.4109275812102154e-06 0 0.03496313966579094 1.5739197157781288e-05 0 0.03493159270118365 2.1821784452586022e-05 0 0.034858984926591861 1.4704665056181868e-05 0 0.03471306867600208 4.4571698276519686e-05 0 0.034661288618230084 3.9492308896137734e-05 0 0.034858984926591861 1.4704665056181868e-05 0 0.034775926922288175 1.7955532220305421e-05 0 0.03471306867600208 4.4571698276519686e-05 0 0.034885791442391192 1.9747742146873147e-05 0 0.034797571869212382 3.8895995292239311e-05 0 0.034775926922288175 1.7955532220305421e-05 0 0.034667278937381966 5.3949479273116367e-05 0 0.03471306867600208 4.4571698276519686e-05 0 0.034667278937381966 5.3949479273116367e-05 0 0.034617894971101792 2.6558898199083417e-05 0 0.034546737051867761 -3.2723320814810805e-05 0 0.034667278937381966 5.3949479273116367e-05 0 0.03471306867600208 4.4571698276519686e-05 0 0.034617894971101792 2.6558898199083417e-05 0 0.034617894971101792 2.6558898199083417e-05 0 0.034575024920943956 3.4121183177841108e-05 0 0.034546737051867761 -3.2723320814810805e-05 0 0.03471306867600208 4.4571698276519686e-05 0 0.034617894971101792 2.6558898199083417e-05 0 0.034575024920943956 3.4121183177841108e-05 0 0.03471306867600208 4.4571698276519686e-05 0 0.034661288618230084 3.9492308896137734e-05 0 0.034575024920943956 3.4121183177841108e-05 0 0.034242012191221707 0.00017237097888149074 0 0.034086287033068811 0.00012858990683933154 0 0.034086287033068811 0.00012858990683933154 0 0.033950536859381208 -0.00021429504799453555 0 0.034575024920943956 3.4121183177841108e-05 0 0.034283591624128348 -0.0001878616990778478 0 0.034546737051867761 -3.2723320814810805e-05 0 0.034415456456038086 -0.00035148960827365727 0 0.034546737051867761 -3.2723320814810805e-05 0 0.034716168307705776 -0.00011451009979806288 0 0.034283591624128348 -0.0001878616990778478 0 0.034415456456038086 -0.00035148960827365727 0 0.034546737051867761 -3.2723320814810805e-05 0 0.034667278937381966 5.3949479273116367e-05 0 0.034546737051867761 -3.2723320814810805e-05 0 0.034716168307705776 -0.00011451009979806288 0 0.034797571869212382 3.8895995292239311e-05 0 0.034990845368825095 -4.8419066353237885e-05 0 0.03493159270118365 2.1821784452586022e-05 0 0.034929250855521073 3.1913559871212885e-05 0 0.034900442120666932 3.6520691120890344e-05 0 0.034929250855521073 3.1913559871212885e-05 0 0.034900442120666932 3.6520691120890344e-05 0 0.034878988114730912 4.8159937099769477e-05 0 0.034900442120666932 3.6520691120890344e-05 0 0.03488074658826406 4.4502569364644186e-05 0 0.034878988114730912 4.8159937099769477e-05 0 0.034990845368825095 -4.8419066353237885e-05 0 0.033526993264186122 -0.00041680902729306448 0 0.034415456456038086 -0.00035148960827365727 0 0.034716168307705776 -0.00011451009979806288 0 0.034862838423128276 -0.00053070770739493836 0 0.034929250855521073 3.1913559871212885e-05 0 0.034878988114730912 4.8159937099769477e-05 0 0.034881528270558071 4.9385856580948434e-05 0 0.034415456456038086 -0.00035148960827365727 0 0.034862838423128276 -0.00053070770739493836 0 0.034400771133804214 -0.00079072435715182648 0 0.033526993264186122 -0.00041680902729306448 0 0.03268477525401671 -0.0012276741352622326 0 0.034876984394128278 4.764931429471523e-05 0 0.034862059655511111 5.1901746918671589e-05 0 0.03484240368258705 5.9450468479642376e-05 0 0.03488074658826406 4.4502569364644186e-05 0 0.034869275712503776 4.9273409344730612e-05 0 0.034863158105113819 4.9903655573750491e-05 0 0.03488074658826406 4.4502569364644186e-05 0 0.034869275712503776 4.9273409344730612e-05 0 0.034878988114730912 4.8159937099769477e-05 0 0.033978733527786485 -0.00022763838172313024 0 0.033526993264186122 -0.00041680902729306448 0 0.034878988114730912 4.8159937099769477e-05 0 0.034876984394128278 4.764931429471523e-05 0 0.034862059655511111 5.1901746918671589e-05 0 0.034869275712503776 4.9273409344730612e-05 0 0.034878988114730912 4.8159937099769477e-05 0 0.034862059655511111 5.1901746918671589e-05 0 0.034869275712503776 4.9273409344730612e-05 0 0.034862059655511111 5.1901746918671589e-05 0 0.034863158105113819 4.9903655573750491e-05 0 0.030905372951603061 -0.0010250186093471586 0 0.030779118748059629 -0.0012561492723636182 0 0.031009738164779057 -0.00132597673561316 0 0.030905975998840457 -0.0015868677571742988 0 0.030779118748059629 -0.0012561492723636182 0 0.031009738164779057 -0.00132597673561316 0 0.033526993264186122 -0.00041680902729306448 0 0.032779952454724301 -0.00064245123742300784 0 0.034862059655511111 5.1901746918671589e-05 0 0.03484240368258705 5.9450468479642376e-05 0 0.034840059471243634 5.7798127650513598e-05 0 0.031156509378010771 -0.0011667262024257382 0 0.031009738164779057 -0.00132597673561316 0 0.031287444492892565 -0.0014395583491804205 0 0.030905975998840457 -0.0015868677571742988 0 0.031009738164779057 -0.00132597673561316 0 0.031287444492892565 -0.0014395583491804205 0 0.031407039454391793 -0.0011748512003789226 0 0.031156509378010771 -0.0011667262024257382 0 0.031287444492892565 -0.0014395583491804205 0 0.034400771133804214 -0.00079072435715182648 0 0.033557140601253074 -0.0010998525939312331 0 0.03393148240981142 -0.00069961460215811448 0 0.031407039454391793 -0.0011748512003789226 0 0.031287444492892565 -0.0014395583491804205 0 0.031756515436698961 -0.0013435478340330675 0 0.03268477525401671 -0.0012276741352622326 0 0.032709019955473519 -0.0011711166089678944 0 0.033500804425533603 -0.00067585269962005699 0 0.033557140601253074 -0.0010998525939312331 0 0.03393148240981142 -0.00069961460215811448 0 0.034283591624128348 -0.0001878616990778478 0 0.034415456456038086 -0.00035148960827365727 0 0.03393148240981142 -0.00069961460215811448 0 0.033950536859381208 -0.00021429504799453555 0 0.033951686276419146 -0.00069886255044312887 0 0.033500804425533603 -0.00067585269962005699 0 0.033614000422806385 -0.00016757746249244096 0 0.03393148240981142 -0.00069961460215811448 0 0.034415456456038086 -0.00035148960827365727 0 0.034400771133804214 -0.00079072435715182648 0 0.03393148240981142 -0.00069961460215811448 0 0.03483935639189284 5.1646619383666006e-05 0 0.03482738190685454 5.8166797979676652e-05 0 0.034849299445150139 5.0365590878574859e-05 0 0.03483935639189284 5.1646619383666006e-05 0 0.034849299445150139 5.0365590878574859e-05 0 0.034863074617353974 4.3866681945954726e-05 0 0.03483935639189284 5.1646619383666006e-05 0 0.034818567911189348 5.7529170409317656e-05 0 0.034842798457215121 4.7288123426820934e-05 0 0.03483935639189284 5.1646619383666006e-05 0 0.034818567911189348 5.7529170409317656e-05 0 0.034809689874202181 6.2823694195194294e-05 0 0.034818567911189348 5.7529170409317656e-05 0 0.034809689874202181 6.2823694195194294e-05 0 0.03478994319637136 6.7836896405780068e-05 0 0.03483935639189284 5.1646619383666006e-05 0 0.034809689874202181 6.2823694195194294e-05 0 0.03482738190685454 5.8166797979676652e-05 0 0.034802387030760135 6.7995391356541251e-05 0 0.034809689874202181 6.2823694195194294e-05 0 0.03482738190685454 5.8166797979676652e-05 0 0.034802387030760135 6.7995391356541251e-05 0 0.03482738190685454 5.8166797979676652e-05 0 0.03482545009611239 6.1031435158126932e-05 0 0.03482738190685454 5.8166797979676652e-05 0 0.03482545009611239 6.1031435158126932e-05 0 0.034845291289532537 5.3883784193016932e-05 0 0.034812558207008584 6.7395371092314525e-05 0 0.03484240368258705 5.9450468479642376e-05 0 0.034840059471243634 5.7798127650513598e-05 0 0.034812558207008584 6.7395371092314525e-05 0 0.03482545009611239 6.1031435158126932e-05 0 0.034840059471243634 5.7798127650513598e-05 0 0.03482545009611239 6.1031435158126932e-05 0 0.034840059471243634 5.7798127650513598e-05 0 0.034845291289532537 5.3883784193016932e-05 0 0.034862059655511111 5.1901746918671589e-05 0 0.034840059471243634 5.7798127650513598e-05 0 0.034863158105113819 4.9903655573750491e-05 0 0.034863158105113819 4.9903655573750491e-05 0 0.034864587729479132 4.7333372921763337e-05 0 0.034845291289532537 5.3883784193016932e-05 0 0.034840059471243634 5.7798127650513598e-05 0 0.034863158105113819 4.9903655573750491e-05 0 0.034845291289532537 5.3883784193016932e-05 0 0.03488074658826406 4.4502569364644186e-05 0 0.034863158105113819 4.9903655573750491e-05 0 0.034882502402732586 4.1452804531779585e-05 0 0.034863158105113819 4.9903655573750491e-05 0 0.034864587729479132 4.7333372921763337e-05 0 0.034882502402732586 4.1452804531779585e-05 0 0.03482738190685454 5.8166797979676652e-05 0 0.034845291289532537 5.3883784193016932e-05 0 0.034849299445150139 5.0365590878574859e-05 0 0.034864587729479132 4.7333372921763337e-05 0 0.034849299445150139 5.0365590878574859e-05 0 0.034874428811662729 4.1389868460166309e-05 0 0.034864587729479132 4.7333372921763337e-05 0 0.034845291289532537 5.3883784193016932e-05 0 0.034849299445150139 5.0365590878574859e-05 0 0.034849299445150139 5.0365590878574859e-05 0 0.034874428811662729 4.1389868460166309e-05 0 0.034863074617353974 4.3866681945954726e-05 0 0.034874428811662729 4.1389868460166309e-05 0 0.034884906206773113 3.4557850707394104e-05 0 0.034863074617353974 4.3866681945954726e-05 0 0.034874428811662729 4.1389868460166309e-05 0 0.034882502402732586 4.1452804531779585e-05 0 0.034902486981602948 3.0316972646773868e-05 0 0.034900442120666932 3.6520691120890344e-05 0 0.034882502402732586 4.1452804531779585e-05 0 0.034902486981602948 3.0316972646773868e-05 0 0.034900442120666932 3.6520691120890344e-05 0 0.03488074658826406 4.4502569364644186e-05 0 0.034882502402732586 4.1452804531779585e-05 0 0.034864587729479132 4.7333372921763337e-05 0 0.034874428811662729 4.1389868460166309e-05 0 0.034882502402732586 4.1452804531779585e-05 0 0.03493159270118365 2.1821784452586022e-05 0 0.034900442120666932 3.6520691120890344e-05 0 0.034902486981602948 3.0316972646773868e-05 0 0.034902486981602948 3.0316972646773868e-05 0 0.034884906206773113 3.4557850707394104e-05 0 0.034911723894566635 2.3084865859757446e-05 0 0.034874428811662729 4.1389868460166309e-05 0 0.034902486981602948 3.0316972646773868e-05 0 0.034884906206773113 3.4557850707394104e-05 0 0.034884906206773113 3.4557850707394104e-05 0 0.03488635632301873 3.1327784359013449e-05 0 0.034911723894566635 2.3084865859757446e-05 0 0.034884906206773113 3.4557850707394104e-05 0 0.034864369048634644 4.1232301608356882e-05 0 0.03488635632301873 3.1327784359013449e-05 0 0.03483935639189284 5.1646619383666006e-05 0 0.034864369048634644 4.1232301608356882e-05 0 0.034863074617353974 4.3866681945954726e-05 0 0.034884906206773113 3.4557850707394104e-05 0 0.034864369048634644 4.1232301608356882e-05 0 0.034863074617353974 4.3866681945954726e-05 0 0.03483935639189284 5.1646619383666006e-05 0 0.034864369048634644 4.1232301608356882e-05 0 0.034842798457215121 4.7288123426820934e-05 0 0.034864369048634644 4.1232301608356882e-05 0 0.03488635632301873 3.1327784359013449e-05 0 0.034842798457215121 4.7288123426820934e-05 0 0.03488635632301873 3.1327784359013449e-05 0 0.034930321271185637 1.4068779548633051e-05 0 0.034901124058047572 2.2010372591974547e-05 0 0.03488635632301873 3.1327784359013449e-05 0 0.034911723894566635 2.3084865859757446e-05 0 0.034930321271185637 1.4068779548633051e-05 0 0.034911723894566635 2.3084865859757446e-05 0 0.034944008808896129 1.141499404891873e-05 0 0.034930321271185637 1.4068779548633051e-05 0 0.034944008808896129 1.141499404891873e-05 0 0.034930321271185637 1.4068779548633051e-05 0 0.034967593641286682 3.977912058510278e-06 0 0.03493159270118365 2.1821784452586022e-05 0 0.034902486981602948 3.0316972646773868e-05 0 0.034937027703738854 1.4987066781228978e-05 0 0.034902486981602948 3.0316972646773868e-05 0 0.034911723894566635 2.3084865859757446e-05 0 0.034937027703738854 1.4987066781228978e-05 0 0.034911723894566635 2.3084865859757446e-05 0 0.034944008808896129 1.141499404891873e-05 0 0.034937027703738854 1.4987066781228978e-05 0 0.034944008808896129 1.141499404891873e-05 0 0.034937027703738854 1.4987066781228978e-05 0 0.034972097436679117 4.1118186772046381e-06 0 0.034961994764536881 7.4109275812102154e-06 0 0.034937027703738854 1.4987066781228978e-05 0 0.034972097436679117 4.1118186772046381e-06 0 0.034961994764536881 7.4109275812102154e-06 0 0.03493159270118365 2.1821784452586022e-05 0 0.034937027703738854 1.4987066781228978e-05 0 0.034961994764536881 7.4109275812102154e-06 0 0.034972097436679117 4.1118186772046381e-06 0 0.034999970211031489 -6.3008768483739011e-10 0 0.034972097436679117 4.1118186772046381e-06 0 0.034999961293765959 1.3958434319232718e-09 0 0.034967593641286682 3.977912058510278e-06 0 0.034972097436679117 4.1118186772046381e-06 0 0.034999961293765959 1.3958434319232718e-09 0 0.034999970211031489 -6.3008768483739011e-10 0 0.034930321271185637 1.4068779548633051e-05 0 0.034967593641286682 3.977912058510278e-06 0 0.034966551768250219 2.4551722901442187e-06 0 0.034944008808896129 1.141499404891873e-05 0 0.034972097436679117 4.1118186772046381e-06 0 0.034967593641286682 3.977912058510278e-06 0 0.034999961293765959 1.3958434319232718e-09 0 0.034967593641286682 3.977912058510278e-06 0 0.034999961777797441 1.8598716681113472e-09 0 0.034967593641286682 3.977912058510278e-06 0 0.034999961777797441 1.8598716681113472e-09 0 0.034966551768250219 2.4551722901442187e-06 0 0.034966551768250219 2.4551722901442187e-06 0 0.034935460904920758 5.9528516412579813e-06 0 0.034999917796484065 -5.2528954007575607e-09 0 0.034999961777797441 1.8598716681113472e-09 0 0.034966551768250219 2.4551722901442187e-06 0 0.034999917796484065 -5.2528954007575607e-09 0 0.034930321271185637 1.4068779548633051e-05 0 0.034966551768250219 2.4551722901442187e-06 0 0.034935460904920758 5.9528516412579813e-06 0 0.034962476769311419 -1.6215168095099604e-07 0 0.034999975765296149 -7.5722025998030946e-09 0 0.034975157096961744 -2.7964498092748293e-06 0 0.034999975765296149 -7.5722025998030946e-09 0 0.034999975307610148 3.6870364201045391e-10 0 0.034975157096961744 -2.7964498092748293e-06 0 0.034949078196990828 4.4239711854852003e-06 0 0.034999979879989034 2.8751437209423557e-09 0 0.034999975307610148 3.6870364201045391e-10 0 0.034999894426848067 -1.9517575263932138e-08 0 0.034966502127754331 -3.6481392819951616e-06 0 0.034999975307610148 3.6870364201045391e-10 0 0.034975157096961744 -2.7964498092748293e-06 0 0.034966502127754331 -3.6481392819951616e-06 0 0.034999894426848067 -1.9517575263932138e-08 0 0.034966502127754331 -3.6481392819951616e-06 0 0.034946104188197012 -1.136581806833931e-06 0 0.034999995553157755 -8.7680579694207085e-10 0 0.035000003247548032 3.9494387176008551e-10 0 0.034998343389375845 1.6961711867369841e-07 0 0.034999979740847925 4.8306331680071934e-09 0 0.034974018336149729 6.5763950357684003e-07 0 0.034966502127754331 -3.6481392819951616e-06 0 0.03492582241590772 -7.0263714607916103e-06 0 0.034946104188197012 -1.136581806833931e-06 0 0.034966502127754331 -3.6481392819951616e-06 0 0.03492582241590772 -7.0263714607916103e-06 0 0.034939212312670435 -9.652974898453052e-07 0 0.03492582241590772 -7.0263714607916103e-06 0 0.034939212312670435 -9.652974898453052e-07 0 0.034901514235849807 9.9733333760150745e-06 0 0.034962476769311419 -1.6215168095099604e-07 0 0.034975157096961744 -2.7964498092748293e-06 0 0.034939212312670435 -9.652974898453052e-07 0 0.034962476769311419 -1.6215168095099604e-07 0 0.034939212312670435 -9.652974898453052e-07 0 0.034917387618609158 1.0710046595561359e-05 0 0.034975157096961744 -2.7964498092748293e-06 0 0.034966502127754331 -3.6481392819951616e-06 0 0.034939212312670435 -9.652974898453052e-07 0 0.034939212312670435 -9.652974898453052e-07 0 0.034917387618609158 1.0710046595561359e-05 0 0.034901514235849807 9.9733333760150745e-06 0 0.034917387618609158 1.0710046595561359e-05 0 0.034901514235849807 9.9733333760150745e-06 0 0.034877933540210702 2.3125767771314112e-05 0 0.03492582241590772 -7.0263714607916103e-06 0 0.034901514235849807 9.9733333760150745e-06 0 0.034881198594549238 1.125343669382939e-05 0 0.034901514235849807 9.9733333760150745e-06 0 0.034863888667215515 2.0973810088579138e-05 0 0.034881198594549238 1.125343669382939e-05 0 0.034901514235849807 9.9733333760150745e-06 0 0.034863888667215515 2.0973810088579138e-05 0 0.034877933540210702 2.3125767771314112e-05 0 0.034877933540210702 2.3125767771314112e-05 0 0.034851429788403179 3.7640152755273449e-05 0 0.034845884953600449 3.0758140372757708e-05 0 0.034863888667215515 2.0973810088579138e-05 0 0.034877933540210702 2.3125767771314112e-05 0 0.034845884953600449 3.0758140372757708e-05 0 0.034863888667215515 2.0973810088579138e-05 0 0.034839271496995818 2.6081408242840398e-05 0 0.034845884953600449 3.0758140372757708e-05 0 0.034917387618609158 1.0710046595561359e-05 0 0.034877933540210702 2.3125767771314112e-05 0 0.034912511895508556 2.1628417871646232e-05 0 0.034877933540210702 2.3125767771314112e-05 0 0.034912511895508556 2.1628417871646232e-05 0 0.034851429788403179 3.7640152755273449e-05 0 0.034883732785674408 2.3408604231707945e-05 0 0.034901124058047572 2.2010372591974547e-05 0 0.03486824230773608 3.6615410605977788e-05 0 0.03488635632301873 3.1327784359013449e-05 0 0.034901124058047572 2.2010372591974547e-05 0 0.03486824230773608 3.6615410605977788e-05 0 0.034930321271185637 1.4068779548633051e-05 0 0.034935460904920758 5.9528516412579813e-06 0 0.034901124058047572 2.2010372591974547e-05 0 0.034962476769311419 -1.6215168095099604e-07 0 0.034917387618609158 1.0710046595561359e-05 0 0.034912511895508556 2.1628417871646232e-05 0 0.034949078196990828 4.4239711854852003e-06 0 0.034897322533639939 2.1875438174763095e-05 0 0.034935460904920758 5.9528516412579813e-06 0 0.034883732785674408 2.3408604231707945e-05 0 0.034901124058047572 2.2010372591974547e-05 0 0.034991858211386458 -1.4673445777496888e-07 0 0.034992516667233159 3.4267518746070017e-07 0 0.034987381355152107 -1.541143463461368e-06 0 0.03501733431142412 2.9470415162501959e-05 0 0.034630961234128378 -9.3592125594107821e-05 0 0.034991858211386458 -1.4673445777496888e-07 0 0.034992516667233159 3.4267518746070017e-07 0 0.034996037851808243 2.6160378797557595e-07 0 0.034992516667233159 3.4267518746070017e-07 0 0.034999986987720201 2.5758877341491899e-10 0 0.034996037851808243 2.6160378797557595e-07 0 0.03501733431142412 2.9470415162501959e-05 0 0.034999985374692344 -3.5337221979399066e-08 0 0.03499881536538238 -8.0566722805754656e-07 0 0.035000000260326423 -2.4075515032953977e-10 0 0.034999997694127274 -3.8626274679639976e-10 0 0.03499881536538238 -8.0566722805754656e-07 0 0.034999997694127274 -3.8626274679639976e-10 0 0.034998581280090202 -7.5918316636568021e-07 0 0.03499881536538238 -8.0566722805754656e-07 0 0.034997597806238054 -1.4090557084496238e-06 0 0.034998581280090202 -7.5918316636568021e-07 0 0.034997597806238054 -1.4090557084496238e-06 0 0.034998581280090202 -7.5918316636568021e-07 0 0.034996995188128197 -1.6532630225553443e-06 0 0.03499881536538238 -8.0566722805754656e-07 0 0.034997597806238054 -1.4090557084496238e-06 0 0.034996217981621038 -2.2060259565156388e-06 0 0.034969616075175063 -1.5814452722835594e-05 0 0.034806485649264425 -0.00011787105305543777 0 0.034882861022039011 -7.7756089557913784e-05 0 0.034881091849784121 -6.1727525561227283e-05 0 0.034860362509061216 -5.7314223253179453e-05 0 0.034998581280090202 -7.5918316636568021e-07 0 0.034998719465672339 -6.5273093888226296e-07 0 0.034996995188128197 -1.6532630225553443e-06 0 0.034998581280090202 -7.5918316636568021e-07 0 0.034998719465672339 -6.5273093888226296e-07 0 0.034999997625763078 -7.0862172290219274e-10 0 0.034999997694127274 -3.8626274679639976e-10 0 0.034998581280090202 -7.5918316636568021e-07 0 0.034999997625763078 -7.0862172290219274e-10 0 0.034999999822109232 7.8747633488968545e-11 0 0.034999812497430172 -1.8496214564575159e-07 0 0.034999999869947951 -2.2792367841631027e-10 0 0.034969616075175063 -1.5814452722835594e-05 0 0.034999995929276044 1.1281625952399997e-08 0 0.035000013190069297 -1.9711983485854337e-09 0 0.034969616075175063 -1.5814452722835594e-05 0 0.034999995553157755 -8.7680579694207085e-10 0 0.034996885735132308 -5.7019805736942657e-08 0 0.034998343389375845 1.6961711867369841e-07 0 0.034929561664655946 -1.3880393657901691e-05 0 0.034867280701168575 -6.7350540504951923e-05 0 0.034974018336149729 6.5763950357684003e-07 0 0.034885809240297709 -5.8295836924119556e-05 0 0.03492582241590772 -7.0263714607916103e-06 0 0.034946104188197012 -1.136581806833931e-06 0 0.034948739502991981 -1.2300828016802592e-05 0 0.03492582241590772 -7.0263714607916103e-06 0 0.034948739502991981 -1.2300828016802592e-05 0 0.034948586984958174 -1.5037295342234777e-05 0 0.034996885735132308 -5.7019805736942657e-08 0 0.034998343389375845 1.6961711867369841e-07 0 0.034996233651046559 6.7884421751798855e-07 0 0.034969616075175063 -1.5814452722835594e-05 0 0.034885809240297709 -5.8295836924119556e-05 0 0.034882861022039011 -7.7756089557913784e-05 0 0.034883014783247436 -6.426573997276108e-05 0 0.034881091849784121 -6.1727525561227283e-05 0 0.034861803382855605 -7.3998861955938718e-05 0 0.034869335343281467 -8.4706601311378171e-05 0 0.034861428825042146 -8.2776675845120897e-05 0 0.034885809240297709 -5.8295836924119556e-05 0 0.034839832905484515 -8.8948774563818035e-05 0 0.034839832905484515 -8.8948774563818035e-05 0 0.034867280701168575 -6.7350540504951923e-05 0 0.034885809240297709 -5.8295836924119556e-05 0 0.034867280701168575 -6.7350540504951923e-05 0 0.034792963225408195 -0.00013070242099622246 0 0.03479956912325137 -0.00013224770018244324 0 0.034802508913498759 -5.2707731802675263e-05 0 0.034867280701168575 -6.7350540504951923e-05 0 0.034824682106502809 -1.4363118101352255e-05 0 0.034868175768006722 -7.9996364928470527e-06 0 0.034881198594549238 1.125343669382939e-05 0 0.034854804955986508 2.0396190448836402e-05 0 0.03492582241590772 -7.0263714607916103e-06 0 0.034868175768006722 -7.9996364928470527e-06 0 0.034881198594549238 1.125343669382939e-05 0 0.034863888667215515 2.0973810088579138e-05 0 0.034839271496995818 2.6081408242840398e-05 0 0.034854804955986508 2.0396190448836402e-05 0 0.034824682106502809 -1.4363118101352255e-05 0 0.03481371746974217 2.9324405311791659e-05 0 0.034802508913498759 -5.2707731802675263e-05 0 0.03475798063248154 -6.1760175936612028e-06 0 0.034806977591830102 2.9824392825582265e-05 0 0.034839271496995818 2.6081408242840398e-05 0 0.034854804955986508 2.0396190448836402e-05 0 0.034806977591830102 2.9824392825582265e-05 0 0.034863888667215515 2.0973810088579138e-05 0 0.034881198594549238 1.125343669382939e-05 0 0.034854804955986508 2.0396190448836402e-05 0 0.034802508913498759 -5.2707731802675263e-05 0 0.03475798063248154 -6.1760175936612028e-06 0 0.034742194891121979 -6.139745204640005e-05 0 0.03475798063248154 -6.1760175936612028e-06 0 0.034742194891121979 -6.139745204640005e-05 0 0.034690814887783812 8.8291571979960038e-06 0 0.034792963225408195 -0.00013070242099622246 0 0.034802508913498759 -5.2707731802675263e-05 0 0.034742194891121979 -6.139745204640005e-05 0 0.034761840150507331 -0.00021979237796727134 0 0.034665992810433116 -8.8533785406175278e-05 0 0.034629986459554805 -0.00018915325223178484 0 0.034839832905484515 -8.8948774563818035e-05 0 0.034806485649264425 -0.00011787105305543777 0 0.034839832905484515 -8.8948774563818035e-05 0 0.034720812486469688 -8.9767308509134698e-05 0 0.034665992810433116 -8.8533785406175278e-05 0 0.034629986459554805 -0.00018915325223178484 0 0.03452952899227052 -9.2353878840750107e-05 0 0.034806485649264425 -0.00011787105305543777 0 0.034630961234128378 -9.3592125594107821e-05 0 0.034679850746751117 -0.00019738497539418834 0 0.034488595359349443 -0.00015168627095020238 0 0.034521012658689225 -4.262211001024542e-05 0 0.034997597806238054 -1.4090557084496238e-06 0 0.034996995188128197 -1.6532630225553443e-06 0 0.034996217981621038 -2.2060259565156388e-06 0 0.034630961234128378 -9.3592125594107821e-05 0 0.034271198746455706 -0.00015460579975734828 0 0.034806485649264425 -0.00011787105305543777 0 0.034271198746455706 -0.00015460579975734828 0 0.034271198746455706 -0.00015460579975734828 0 0.034440409642295979 -1.3462241635020917e-05 0 0.034665992810433116 -8.8533785406175278e-05 0 0.03452952899227052 -9.2353878840750107e-05 0 0.034569975268692738 4.2962324282917061e-05 0 0.03394986621890541 -0.00022417950734572828 0 0.033924433581384923 -4.5995751452429859e-05 0 0.034000813263327656 -4.8371830168827794e-05 0 0.034720812486469688 -8.9767308509134698e-05 0 0.034440409642295979 -1.3462241635020917e-05 0 0.03394986621890541 -0.00022417950734572828 0 0.033782450283163699 -6.2696533346364548e-05 0 0.033924433581384923 -4.5995751452429859e-05 0 0.034081473824411894 -0.00019656077029731343 0 0.034021857778079076 -0.00019243851604135018 0 0.03399497419264684 -0.00012345013968710457 0 0.034271198746455706 -0.00015460579975734828 0 0.033861653181567572 -9.7046954964609972e-05 0 0.034021857778079076 -0.00019243851604135018 0 0.03399497419264684 -0.00012345013968710457 0 0.033974490186584584 -0.00018367580554695681 0 0.034021857778079076 -0.00019243851604135018 0 0.03399092716403386 -0.00022034809357485306 0 0.033974490186584584 -0.00018367580554695681 0 0.034069566253210788 -0.00024019642387092417 0 0.034021857778079076 -0.00019243851604135018 0 0.03399092716403386 -0.00022034809357485306 0 0.034630961234128378 -9.3592125594107821e-05 0 0.034511942709445347 -0.00011595720770872887 0 0.034991858211386458 -1.4673445777496888e-07 0 0.034987381355152107 -1.541143463461368e-06 0 0.034988833840737796 -7.7223106225889807e-07 0 0.034069566253210788 -0.00024019642387092417 0 0.034081473824411894 -0.00019656077029731343 0 0.034021857778079076 -0.00019243851604135018 0 0.033901925199514751 0.00023513695721981735 0 0.033780368697117681 0.00016288201549957956 0 0.033743704939158271 0.00030741031487773878 0 0.033901925199514751 0.00023513695721981735 0 0.033780368697117681 0.00016288201549957956 0 0.033874205808848777 7.3271558654720246e-05 0 0.033780368697117681 0.00016288201549957956 0 0.033782450283163699 -6.2696533346364548e-05 0 0.033874205808848777 7.3271558654720246e-05 0 0.033782450283163699 -6.2696533346364548e-05 0 0.033874205808848777 7.3271558654720246e-05 0 0.033924433581384923 -4.5995751452429859e-05 0 0.034440409642295979 -1.3462241635020917e-05 0 0.034115382796346808 8.8172920561663704e-05 0 0.033963627858228637 5.5477508824765427e-05 0 0.034000813263327656 -4.8371830168827794e-05 0 0.034062024300670408 0.00016157495338193378 0 0.033874205808848777 7.3271558654720246e-05 0 0.033963627858228637 5.5477508824765427e-05 0 0.033924433581384923 -4.5995751452429859e-05 0 0.033963627858228637 5.5477508824765427e-05 0 0.033924433581384923 -4.5995751452429859e-05 0 0.034000813263327656 -4.8371830168827794e-05 0 0.033901925199514751 0.00023513695721981735 0 0.033874205808848777 7.3271558654720246e-05 0 0.033950440408428109 0.00013134012867728308 0 0.033901925199514751 0.00023513695721981735 0 0.034062024300670408 0.00016157495338193378 0 0.033950440408428109 0.00013134012867728308 0 0.033963627858228637 5.5477508824765427e-05 0 0.034062024300670408 0.00016157495338193378 0 0.033950440408428109 0.00013134012867728308 0 0.033387966808254628 0.00028269971105999449 0 0.034115382796346808 8.8172920561663704e-05 0 0.033874205808848777 7.3271558654720246e-05 0 0.033963627858228637 5.5477508824765427e-05 0 0.033950440408428109 0.00013134012867728308 0 0.034751462229258269 4.9827180541365335e-05 0 0.034786458397089152 5.2400976207133494e-05 0 0.034777023615420961 6.4379150614884579e-05 0 0.034115382796346808 8.8172920561663704e-05 0 0.035052124638615081 -3.1301566087032845e-06 0 0.034751462229258269 4.9827180541365335e-05 0 0.034810470539412337 4.2426733484533321e-05 0 0.034786458397089152 5.2400976207133494e-05 0 0.034717208126274081 9.2336979690362816e-05 0 0.034758117897150359 3.4816307266745068e-05 0 0.034810470539412337 4.2426733484533321e-05 0 0.034690814887783812 8.8291571979960038e-06 0 0.034717208126274081 9.2336979690362816e-05 0 0.034758117897150359 3.4816307266745068e-05 0 0.03475798063248154 -6.1760175936612028e-06 0 0.034690814887783812 8.8291571979960038e-06 0 0.034758117897150359 3.4816307266745068e-05 0 0.03475798063248154 -6.1760175936612028e-06 0 0.034758117897150359 3.4816307266745068e-05 0 0.034806977591830102 2.9824392825582265e-05 0 0.034758117897150359 3.4816307266745068e-05 0 0.034806977591830102 2.9824392825582265e-05 0 0.034810470539412337 4.2426733484533321e-05 0 0.034839271496995818 2.6081408242840398e-05 0 0.034806977591830102 2.9824392825582265e-05 0 0.034826577949434667 3.357797982597385e-05 0 0.034839271496995818 2.6081408242840398e-05 0 0.034826577949434667 3.357797982597385e-05 0 0.034845884953600449 3.0758140372757708e-05 0 0.034826577949434667 3.357797982597385e-05 0 0.034810470539412337 4.2426733484533321e-05 0 0.034826821143018098 4.2163243488084915e-05 0 0.034806977591830102 2.9824392825582265e-05 0 0.034826577949434667 3.357797982597385e-05 0 0.034810470539412337 4.2426733484533321e-05 0 0.034810470539412337 4.2426733484533321e-05 0 0.034786458397089152 5.2400976207133494e-05 0 0.034803460454480933 5.2867724307297313e-05 0 0.034810470539412337 4.2426733484533321e-05 0 0.034826821143018098 4.2163243488084915e-05 0 0.034803460454480933 5.2867724307297313e-05 0 0.034786458397089152 5.2400976207133494e-05 0 0.034777023615420961 6.4379150614884579e-05 0 0.034803460454480933 5.2867724307297313e-05 0 0.034777023615420961 6.4379150614884579e-05 0 0.034752508203681511 7.4044437906564144e-05 0 0.034754946637490867 7.5608647792396464e-05 0 0.034115382796346808 8.8172920561663704e-05 0 0.033778733613790003 9.7733325878558467e-05 0 0.034751462229258269 4.9827180541365335e-05 0 0.034777023615420961 6.4379150614884579e-05 0 0.034752508203681511 7.4044437906564144e-05 0 0.033059864855889985 0.00024520119091249947 0 0.03295921436271608 0.00029398335772133838 0 0.033012620783611488 0.0001468335052787601 0 0.03295921436271608 0.00029398335772133838 0 0.032886830167458039 0.0001027415337994678 0 0.033012620783611488 0.0001468335052787601 0 0.033012620783611488 0.0001468335052787601 0 0.033069361033779165 4.6505301053090229e-05 0 0.032962657149519743 3.1164581887611519e-06 0 0.032886830167458039 0.0001027415337994678 0 0.033012620783611488 0.0001468335052787601 0 0.032962657149519743 3.1164581887611519e-06 0 0.033012620783611488 0.0001468335052787601 0 0.033069361033779165 4.6505301053090229e-05 0 0.033168090100343398 0.00019606926605168719 0 0.033110000157081994 4.2418589546652124e-05 0 0.03328423318124217 0.00023908837582997078 0 0.033315506650114443 1.1548578623377682e-05 0 0.033054969109379509 3.1484566274478432e-05 0 0.033433698908908849 0.00021723135179719835 0 0.033059864855889985 0.00024520119091249947 0 0.033012620783611488 0.0001468335052787601 0 0.033168090100343398 0.00019606926605168719 0 0.033387966808254628 0.00028269971105999449 0 0.033433698908908849 0.00021723135179719835 0 0.034842798457215121 4.7288123426820934e-05 0 0.03486824230773608 3.6615410605977788e-05 0 0.034848347405834423 4.2885726481485897e-05 0 0.034842798457215121 4.7288123426820934e-05 0 0.034848347405834423 4.2885726481485897e-05 0 0.03481295942252223 5.6404616657892512e-05 0 0.03488635632301873 3.1327784359013449e-05 0 0.034842798457215121 4.7288123426820934e-05 0 0.03486824230773608 3.6615410605977788e-05 0 0.034883732785674408 2.3408604231707945e-05 0 0.03486824230773608 3.6615410605977788e-05 0 0.034848347405834423 4.2885726481485897e-05 0 0.034897322533639939 2.1875438174763095e-05 0 0.034857199085962319 4.1199698467971547e-05 0 0.034912511895508556 2.1628417871646232e-05 0 0.034848347405834423 4.2885726481485897e-05 0 0.034851429788403179 3.7640152755273449e-05 0 0.034848347405834423 4.2885726481485897e-05 0 0.034851429788403179 3.7640152755273449e-05 0 0.034822535095551374 4.9878260260061277e-05 0 0.034826577949434667 3.357797982597385e-05 0 0.034845884953600449 3.0758140372757708e-05 0 0.034826821143018098 4.2163243488084915e-05 0 0.034851429788403179 3.7640152755273449e-05 0 0.034845884953600449 3.0758140372757708e-05 0 0.034826821143018098 4.2163243488084915e-05 0 0.034851429788403179 3.7640152755273449e-05 0 0.034826821143018098 4.2163243488084915e-05 0 0.034822535095551374 4.9878260260061277e-05 0 0.034822535095551374 4.9878260260061277e-05 0 0.034803460454480933 5.2867724307297313e-05 0 0.034792534200564926 6.2116823589216478e-05 0 0.034826821143018098 4.2163243488084915e-05 0 0.034822535095551374 4.9878260260061277e-05 0 0.034803460454480933 5.2867724307297313e-05 0 0.034848347405834423 4.2885726481485897e-05 0 0.034822535095551374 4.9878260260061277e-05 0 0.03481295942252223 5.6404616657892512e-05 0 0.034822535095551374 4.9878260260061277e-05 0 0.03481295942252223 5.6404616657892512e-05 0 0.034792534200564926 6.2116823589216478e-05 0 0.03481295942252223 5.6404616657892512e-05 0 0.034792534200564926 6.2116823589216478e-05 0 0.034780208759561414 6.834665500771663e-05 0 0.034777023615420961 6.4379150614884579e-05 0 0.034803460454480933 5.2867724307297313e-05 0 0.034792534200564926 6.2116823589216478e-05 0 0.034777023615420961 6.4379150614884579e-05 0 0.034792534200564926 6.2116823589216478e-05 0 0.034754946637490867 7.5608647792396464e-05 0 0.034792534200564926 6.2116823589216478e-05 0 0.034754946637490867 7.5608647792396464e-05 0 0.034780208759561414 6.834665500771663e-05 0 0.034780208759561414 6.834665500771663e-05 0 0.034802927067548568 6.1633340530006778e-05 0 0.034768870444478808 7.3044316452357537e-05 0 0.03481295942252223 5.6404616657892512e-05 0 0.034780208759561414 6.834665500771663e-05 0 0.034802927067548568 6.1633340530006778e-05 0 0.034842798457215121 4.7288123426820934e-05 0 0.03481295942252223 5.6404616657892512e-05 0 0.034802927067548568 6.1633340530006778e-05 0 0.034818567911189348 5.7529170409317656e-05 0 0.034842798457215121 4.7288123426820934e-05 0 0.034802927067548568 6.1633340530006778e-05 0 0.034818567911189348 5.7529170409317656e-05 0 0.03478994319637136 6.7836896405780068e-05 0 0.034802927067548568 6.1633340530006778e-05 0 0.03478994319637136 6.7836896405780068e-05 0 0.034802927067548568 6.1633340530006778e-05 0 0.034768870444478808 7.3044316452357537e-05 0 0.03478994319637136 6.7836896405780068e-05 0 0.034768870444478808 7.3044316452357537e-05 0 0.034758463806990963 7.8371773858478124e-05 0 0.034780208759561414 6.834665500771663e-05 0 0.034768870444478808 7.3044316452357537e-05 0 0.034748446158536797 7.79505416209596e-05 0 0.034768870444478808 7.3044316452357537e-05 0 0.034733416563846528 8.3146178436183899e-05 0 0.034748446158536797 7.79505416209596e-05 0 0.034768870444478808 7.3044316452357537e-05 0 0.034733416563846528 8.3146178436183899e-05 0 0.034758463806990963 7.8371773858478124e-05 0 0.034722947343307727 9.0404935570296334e-05 0 0.034733416563846528 8.3146178436183899e-05 0 0.034758463806990963 7.8371773858478124e-05 0 0.034722947343307727 9.0404935570296334e-05 0 0.034733416563846528 8.3146178436183899e-05 0 0.034693617945798505 9.3441895469629683e-05 0 0.034722947343307727 9.0404935570296334e-05 0 0.034693617945798505 9.3441895469629683e-05 0 0.034683953149298792 0.00010177330999123634 0 0.034693617945798505 9.3441895469629683e-05 0 0.034683953149298792 0.00010177330999123634 0 0.034658018762960589 0.00010476688070239169 0 0.034671494812725911 9.5777877195184723e-05 0 0.034687764093906059 8.8788426771642688e-05 0 0.034637315716059415 0.00010169888242166394 0 0.034693617945798505 9.3441895469629683e-05 0 0.034671494812725911 9.5777877195184723e-05 0 0.034658018762960589 0.00010476688070239169 0 0.034733416563846528 8.3146178436183899e-05 0 0.034693617945798505 9.3441895469629683e-05 0 0.034713282628677067 8.5795285005821407e-05 0 0.034693617945798505 9.3441895469629683e-05 0 0.034671494812725911 9.5777877195184723e-05 0 0.034713282628677067 8.5795285005821407e-05 0 0.034671494812725911 9.5777877195184723e-05 0 0.034713282628677067 8.5795285005821407e-05 0 0.034687764093906059 8.8788426771642688e-05 0 0.034754946637490867 7.5608647792396464e-05 0 0.034713282628677067 8.5795285005821407e-05 0 0.034726547356324314 8.0877629867248628e-05 0 0.034754946637490867 7.5608647792396464e-05 0 0.034713282628677067 8.5795285005821407e-05 0 0.034748446158536797 7.79505416209596e-05 0 0.034733416563846528 8.3146178436183899e-05 0 0.034713282628677067 8.5795285005821407e-05 0 0.034748446158536797 7.79505416209596e-05 0 0.034754946637490867 7.5608647792396464e-05 0 0.034780208759561414 6.834665500771663e-05 0 0.034748446158536797 7.79505416209596e-05 0 0.034752508203681511 7.4044437906564144e-05 0 0.034754946637490867 7.5608647792396464e-05 0 0.034726547356324314 8.0877629867248628e-05 0 0.033778733613790003 9.7733325878558467e-05 0 0.033794086056846896 1.1772395085589343e-05 0 0.032886830167458039 0.0001027415337994678 0 0.032896979934601792 -3.435148387543089e-05 0 0.03282044617265624 -8.3584307742570215e-05 0 0.032886830167458039 0.0001027415337994678 0 0.032896979934601792 -3.435148387543089e-05 0 0.032962657149519743 3.1164581887611519e-06 0 0.032896979934601792 -3.435148387543089e-05 0 0.032962657149519743 3.1164581887611519e-06 0 0.032922943910423115 -9.9202736256684719e-05 0 0.032896979934601792 -3.435148387543089e-05 0 0.032869409711931641 -9.973524589858324e-05 0 0.03282044617265624 -8.3584307742570215e-05 0 0.032869409711931641 -9.973524589858324e-05 0 0.032850015261226086 -0.00014702192590657854 0 0.03282044617265624 -8.3584307742570215e-05 0 0.032850015261226086 -0.00014702192590657854 0 0.032922943910423115 -9.9202736256684719e-05 0 0.032843702715970327 -0.00021967507333894805 0 0.032922943910423115 -9.9202736256684719e-05 0 0.03292121070387314 -0.0001557764467009663 0 0.032800399028876492 -0.00025252461694161732 0 0.032896979934601792 -3.435148387543089e-05 0 0.032869409711931641 -9.973524589858324e-05 0 0.032922943910423115 -9.9202736256684719e-05 0 0.032869409711931641 -9.973524589858324e-05 0 0.032850015261226086 -0.00014702192590657854 0 0.032922943910423115 -9.9202736256684719e-05 0 0.033110000157081994 4.2418589546652124e-05 0 0.033100426923470046 -9.1680619954254901e-05 0 0.033315506650114443 1.1548578623377682e-05 0 0.033054969109379509 3.1484566274478432e-05 0 0.032974975058084117 -9.4560323476035796e-05 0 0.032962657149519743 3.1164581887611519e-06 0 0.03295437215899337 -0.00010556552835101035 0 0.032922943910423115 -9.9202736256684719e-05 0 0.033069361033779165 4.6505301053090229e-05 0 0.032962657149519743 3.1164581887611519e-06 0 0.03295437215899337 -0.00010556552835101035 0 0.033110000157081994 4.2418589546652124e-05 0 0.03295437215899337 -0.00010556552835101035 0 0.033100426923470046 -9.1680619954254901e-05 0 0.03295437215899337 -0.00010556552835101035 0 0.033019393935055034 -0.00013594683096127504 0 0.033100426923470046 -9.1680619954254901e-05 0 0.03295437215899337 -0.00010556552835101035 0 0.032941444783478137 -0.00012560527521728726 0 0.032968201694881231 -0.00014250966461827751 0 0.03295437215899337 -0.00010556552835101035 0 0.032922943910423115 -9.9202736256684719e-05 0 0.032941444783478137 -0.00012560527521728726 0 0.03292121070387314 -0.0001557764467009663 0 0.032968201694881231 -0.00014250966461827751 0 0.032984092552133859 -0.00017365844803975754 0 0.032922943910423115 -9.9202736256684719e-05 0 0.032941444783478137 -0.00012560527521728726 0 0.03292121070387314 -0.0001557764467009663 0 0.032941444783478137 -0.00012560527521728726 0 0.03292121070387314 -0.0001557764467009663 0 0.032968201694881231 -0.00014250966461827751 0 0.032984092552133859 -0.00017365844803975754 0 0.033019393935055034 -0.00013594683096127504 0 0.033068322741201639 -0.00019554798968002062 0 0.032968201694881231 -0.00014250966461827751 0 0.032984092552133859 -0.00017365844803975754 0 0.033019393935055034 -0.00013594683096127504 0 0.03295437215899337 -0.00010556552835101035 0 0.032968201694881231 -0.00014250966461827751 0 0.033019393935055034 -0.00013594683096127504 0 0.033100426923470046 -9.1680619954254901e-05 0 0.033068322741201639 -0.00019554798968002062 0 0.033227583066434946 -0.00015358636343311256 0 0.033019393935055034 -0.00013594683096127504 0 0.033100426923470046 -9.1680619954254901e-05 0 0.033068322741201639 -0.00019554798968002062 0 0.033068322741201639 -0.00019554798968002062 0 0.032995040386502528 -0.00028464843937048382 0 0.033116850404596991 -0.00025059516018864479 0 0.033068322741201639 -0.00019554798968002062 0 0.032969088730459582 -0.00022906143658325766 0 0.032995040386502528 -0.00028464843937048382 0 0.033068322741201639 -0.00019554798968002062 0 0.033116850404596991 -0.00025059516018864479 0 0.033227583066434946 -0.00015358636343311256 0 0.032969088730459582 -0.00022906143658325766 0 0.03288750633835625 -0.00027359423756168836 0 0.032995040386502528 -0.00028464843937048382 0 0.032984092552133859 -0.00017365844803975754 0 0.032969088730459582 -0.00022906143658325766 0 0.032911136059384082 -0.0002141161685854642 0 0.032984092552133859 -0.00017365844803975754 0 0.033068322741201639 -0.00019554798968002062 0 0.032969088730459582 -0.00022906143658325766 0 0.03292121070387314 -0.0001557764467009663 0 0.032984092552133859 -0.00017365844803975754 0 0.032911136059384082 -0.0002141161685854642 0 0.032969088730459582 -0.00022906143658325766 0 0.032911136059384082 -0.0002141161685854642 0 0.03288750633835625 -0.00027359423756168836 0 0.032890431318836684 -0.00035167991607359348 0 0.032995040386502528 -0.00028464843937048382 0 0.032982087587596458 -0.00037177730825490668 0 0.03288750633835625 -0.00027359423756168836 0 0.032890431318836684 -0.00035167991607359348 0 0.032816467050821786 -0.00033772098025106859 0 0.03288750633835625 -0.00027359423756168836 0 0.032890431318836684 -0.00035167991607359348 0 0.032995040386502528 -0.00028464843937048382 0 0.032995040386502528 -0.00028464843937048382 0 0.033061111101175045 -0.00031827736650214201 0 0.032982087587596458 -0.00037177730825490668 0 0.032995040386502528 -0.00028464843937048382 0 0.033061111101175045 -0.00031827736650214201 0 0.033116850404596991 -0.00025059516018864479 0 0.032850015261226086 -0.00014702192590657854 0 0.032843702715970327 -0.00021967507333894805 0 0.032745343494742424 -0.0002341139567376754 0 0.033794086056846896 1.1772395085589343e-05 0 0.033620584640195537 -0.00012309849881476671 0 0.032850015261226086 -0.00014702192590657854 0 0.03282044617265624 -8.3584307742570215e-05 0 0.032745343494742424 -0.0002341139567376754 0 0.034713282628677067 8.5795285005821407e-05 0 0.034726547356324314 8.0877629867248628e-05 0 0.034687764093906059 8.8788426771642688e-05 0 0.03292121070387314 -0.0001557764467009663 0 0.032911136059384082 -0.0002141161685854642 0 0.032800399028876492 -0.00025252461694161732 0 0.032912563749265482 -0.00010628726579917058 0 0.032823478448174237 -0.00023545344250951687 0 0.032911136059384082 -0.0002141161685854642 0 0.03288750633835625 -0.00027359423756168836 0 0.032800399028876492 -0.00025252461694161732 0 0.032800399028876492 -0.00025252461694161732 0 0.032816467050821786 -0.00033772098025106859 0 0.032693967348309219 -0.00038910098552540193 0 0.03288750633835625 -0.00027359423756168836 0 0.032800399028876492 -0.00025252461694161732 0 0.032816467050821786 -0.00033772098025106859 0 0.032823478448174237 -0.00023545344250951687 0 0.032719296395416625 -0.00037807705223886725 0 0.033620584640195537 -0.00012309849881476671 0 0.034225573077905837 8.8745638916116799e-06 0 0.032843702715970327 -0.00021967507333894805 0 0.032745343494742424 -0.0002341139567376754 0 0.032747963473296629 -0.00036515480480358263 0 0.032745343494742424 -0.0002341139567376754 0 0.032747963473296629 -0.00036515480480358263 0 0.032637263486935492 -0.00041154826027430208 0 0.032693967348309219 -0.00038910098552540193 0 0.032806701487880174 -0.00041070975101948417 0 0.032731592138293741 -0.00045503946942008382 0 0.032816467050821786 -0.00033772098025106859 0 0.032693967348309219 -0.00038910098552540193 0 0.032806701487880174 -0.00041070975101948417 0 0.032890431318836684 -0.00035167991607359348 0 0.032816467050821786 -0.00033772098025106859 0 0.032806701487880174 -0.00041070975101948417 0 0.032806701487880174 -0.00041070975101948417 0 0.032731592138293741 -0.00045503946942008382 0 0.032792351890860501 -0.00048028649557545336 0 0.032792351890860501 -0.00048028649557545336 0 0.032765001656023383 -0.00054208607523240516 0 0.032696872001393797 -0.00053068343275724855 0 0.032731592138293741 -0.00045503946942008382 0 0.032680632710180978 -0.00049017872351649571 0 0.032696872001393797 -0.00053068343275724855 0 0.032731592138293741 -0.00045503946942008382 0 0.032792351890860501 -0.00048028649557545336 0 0.032696872001393797 -0.00053068343275724855 0 0.032719296395416625 -0.00037807705223886725 0 0.032632582256951745 -0.00050037443783045087 0 0.032747963473296629 -0.00036515480480358263 0 0.032637263486935492 -0.00041154826027430208 0 0.03262171921652314 -0.00050806447626014755 0 0.032693967348309219 -0.00038910098552540193 0 0.032680632710180978 -0.00049017872351649571 0 0.03262171921652314 -0.00050806447626014755 0 0.032693967348309219 -0.00038910098552540193 0 0.032731592138293741 -0.00045503946942008382 0 0.032680632710180978 -0.00049017872351649571 0 0.032982087587596458 -0.00037177730825490668 0 0.032960855239807213 -0.00046309527564403598 0 0.033057689125819287 -0.00039119504823008664 0 0.032982087587596458 -0.00037177730825490668 0 0.032892955936102482 -0.00042681722178214329 0 0.032960855239807213 -0.00046309527564403598 0 0.033061111101175045 -0.00031827736650214201 0 0.032982087587596458 -0.00037177730825490668 0 0.033057689125819287 -0.00039119504823008664 0 0.032890431318836684 -0.00035167991607359348 0 0.032982087587596458 -0.00037177730825490668 0 0.032892955936102482 -0.00042681722178214329 0 0.032890431318836684 -0.00035167991607359348 0 0.032806701487880174 -0.00041070975101948417 0 0.032892955936102482 -0.00042681722178214329 0 0.032806701487880174 -0.00041070975101948417 0 0.032792351890860501 -0.00048028649557545336 0 0.032892955936102482 -0.00042681722178214329 0 0.032792351890860501 -0.00048028649557545336 0 0.032864224589520465 -0.00049288322270745301 0 0.032765001656023383 -0.00054208607523240516 0 0.032792351890860501 -0.00048028649557545336 0 0.032892955936102482 -0.00042681722178214329 0 0.032864224589520465 -0.00049288322270745301 0 0.032892955936102482 -0.00042681722178214329 0 0.032864224589520465 -0.00049288322270745301 0 0.032960855239807213 -0.00046309527564403598 0 0.032864224589520465 -0.00049288322270745301 0 0.032960855239807213 -0.00046309527564403598 0 0.032898785216899984 -0.00053591310521690079 0 0.032883341578606479 -0.00060620358222703734 0 0.032986270445016112 -0.00063333110546889729 0 0.032960375322317943 -0.00054717848635177314 0 0.032960855239807213 -0.00046309527564403598 0 0.032898785216899984 -0.00053591310521690079 0 0.032960375322317943 -0.00054717848635177314 0 0.032898785216899984 -0.00053591310521690079 0 0.032883341578606479 -0.00060620358222703734 0 0.032960375322317943 -0.00054717848635177314 0 0.032898785216899984 -0.00053591310521690079 0 0.032823067765052234 -0.00057090321176810586 0 0.032883341578606479 -0.00060620358222703734 0 0.032864224589520465 -0.00049288322270745301 0 0.032898785216899984 -0.00053591310521690079 0 0.032823067765052234 -0.00057090321176810586 0 0.032864224589520465 -0.00049288322270745301 0 0.032823067765052234 -0.00057090321176810586 0 0.032765001656023383 -0.00054208607523240516 0 0.032823067765052234 -0.00057090321176810586 0 0.032765001656023383 -0.00054208607523240516 0 0.032741356349923395 -0.00060301753327590701 0 0.032823067765052234 -0.00057090321176810586 0 0.032741356349923395 -0.00060301753327590701 0 0.032790891120275993 -0.0006410277179462108 0 0.032741356349923395 -0.00060301753327590701 0 0.032749921698204433 -0.00066502315205992243 0 0.032790891120275993 -0.0006410277179462108 0 0.03273082259045542 -0.0015020994220345401 0 0.0289554861098014 -5.9503237953466529e-06 0 0.032749921698204433 -0.00066502315205992243 0 0.032790891120275993 -0.0006410277179462108 0 0.032804780715912044 -0.00070319846521985129 0 0.032823067765052234 -0.00057090321176810586 0 0.032790891120275993 -0.0006410277179462108 0 0.032883341578606479 -0.00060620358222703734 0 0.029103837718378281 0.0002494792084199428 0 0.0289554861098014 -5.9503237953466529e-06 0 0.032790891120275993 -0.0006410277179462108 0 0.032883341578606479 -0.00060620358222703734 0 0.032830980878102961 -0.00071174562754301545 0 0.032883341578606479 -0.00060620358222703734 0 0.032986270445016112 -0.00063333110546889729 0 0.032830980878102961 -0.00071174562754301545 0 0.032656204560284632 -0.00056242326179157414 0 0.032655442915789486 -0.00061166612465703304 0 0.032543853835381685 -0.0005728264113481254 0 0.032680632710180978 -0.00049017872351649571 0 0.032656204560284632 -0.00056242326179157414 0 0.03262171921652314 -0.00050806447626014755 0 0.032680632710180978 -0.00049017872351649571 0 0.032656204560284632 -0.00056242326179157414 0 0.032696872001393797 -0.00053068343275724855 0 0.032656204560284632 -0.00056242326179157414 0 0.032696872001393797 -0.00053068343275724855 0 0.032693627387787902 -0.00057056251980966714 0 0.032765001656023383 -0.00054208607523240516 0 0.032696872001393797 -0.00053068343275724855 0 0.032693627387787902 -0.00057056251980966714 0 0.032765001656023383 -0.00054208607523240516 0 0.032741356349923395 -0.00060301753327590701 0 0.032693627387787902 -0.00057056251980966714 0 0.032656204560284632 -0.00056242326179157414 0 0.032693627387787902 -0.00057056251980966714 0 0.032644535325321022 -0.00062092246694318062 0 0.033535889714602751 -0.00080619976279516065 0 0.029028708976814182 -0.0012882488953397657 0 0.032644535325321022 -0.00062092246694318062 0 0.032655442915789486 -0.00061166612465703304 0 0.032483893341980929 -0.00051226053215164345 0 0.032749921698204433 -0.00066502315205992243 0 0.032644535325321022 -0.00062092246694318062 0 0.032732395362940987 -0.00074940731586558911 0 0.032741356349923395 -0.00060301753327590701 0 0.032693627387787902 -0.00057056251980966714 0 0.032644535325321022 -0.00062092246694318062 0 0.032741356349923395 -0.00060301753327590701 0 0.032749921698204433 -0.00066502315205992243 0 0.032644535325321022 -0.00062092246694318062 0 0.032656204560284632 -0.00056242326179157414 0 0.032644535325321022 -0.00062092246694318062 0 0.032655442915789486 -0.00061166612465703304 0 0.025081804939817442 -0.0013669067027163961 0 0.024944409820288522 -0.0016959604176315019 0 0.025211822501123356 -0.0017883332196310412 0 0.029285530853266597 -0.0011537975514411319 0 0.029775775436502623 -0.00055175818800195251 0 0.025490046954948536 -0.0016572624487907284 0 0.025081804939817442 -0.0013669067027163961 0 0.025211822501123356 -0.0017883332196310412 0 0.029775775436502623 -0.00055175818800195251 0 0.025459386137578643 -0.0014142391140228279 0 0.032656204560284632 -0.00056242326179157414 0 0.032543853835381685 -0.0005728264113481254 0 0.03262171921652314 -0.00050806447626014755 0 0.029775775436502623 -0.00055175818800195251 0 0.03042438717977523 -0.00050576390397737592 0 0.02601407457209904 -0.0010029485806075968 0 0.026052883786550546 -0.00096968747110228425 0 0.026038595222755548 -0.0010863621265659617 0 0.026024493311844751 -0.0009703576830832598 0 0.026052883786550546 -0.00096968747110228425 0 0.026046144240747457 -0.00097029172390701135 0 0.02601407457209904 -0.0010029485806075968 0 0.026024493311844751 -0.0009703576830832598 0 0.026052883786550546 -0.00096968747110228425 0 0.026079947594749603 -0.00095930742258853519 0 0.026052883786550546 -0.00096968747110228425 0 0.02616573107134388 -0.00090272920035785954 0 0.026079947594749603 -0.00095930742258853519 0 0.026052883786550546 -0.00096968747110228425 0 0.026046144240747457 -0.00097029172390701135 0 0.025922645957582646 -0.00084211499435067464 0 0.026012213835664981 -0.00096655112214364455 0 0.02616573107134388 -0.00090272920035785954 0 0.026079947594749603 -0.00095930742258853519 0 0.026012213835664981 -0.00096655112214364455 0 0.026029721382351989 -0.0010198557089205688 0 0.026079947594749603 -0.00095930742258853519 0 0.026012213835664981 -0.00096655112214364455 0 0.02616573107134388 -0.00090272920035785954 0 0.026435885601261266 -0.00083431932760926863 0 0.026133559328568205 -0.00087806931107172359 0 0.026052883786550546 -0.00096968747110228425 0 0.02616573107134388 -0.00090272920035785954 0 0.026038595222755548 -0.0010863621265659617 0 0.034619712271064043 0.00011773270042900066 0 0.034656079580374637 0.00011531728458165809 0 0.034658018762960589 0.00010476688070239169 0 0.02616573107134388 -0.00090272920035785954 0 0.026038595222755548 -0.0010863621265659617 0 0.026277296597409225 -0.001368542099762968 0 0.03042438717977523 -0.00050576390397737592 0 0.030457858749382363 -0.00062175849855510674 0 0.026474185622222292 -0.0010832774091818235 0 0.02616573107134388 -0.00090272920035785954 0 0.026277296597409225 -0.001368542099762968 0 0.034691832436940261 0.00010670816312389209 0 0.034683953149298792 0.00010177330999123634 0 0.034656079580374637 0.00011531728458165809 0 0.034683953149298792 0.00010177330999123634 0 0.034656079580374637 0.00011531728458165809 0 0.034658018762960589 0.00010476688070239169 0 0.034671494812725911 9.5777877195184723e-05 0 0.034658018762960589 0.00010476688070239169 0 0.034637315716059415 0.00010169888242166394 0 0.032543853835381685 -0.0005728264113481254 0 0.032637263486935492 -0.00041154826027430208 0 0.03262171921652314 -0.00050806447626014755 0 0.029775775436502623 -0.00055175818800195251 0 0.034225573077905837 8.8745638916116799e-06 0 0.034581747281761888 0.00011838383364169087 0 0.034619712271064043 0.00011773270042900066 0 0.034637315716059415 0.00010169888242166394 0 0.034619712271064043 0.00011773270042900066 0 0.034658018762960589 0.00010476688070239169 0 0.034637315716059415 0.00010169888242166394 0 0.03096007007588731 0.0014040229387903295 0 0.034431897604026776 0.0022867881848382785 0 0.03096007007588731 0.0014040229387903295 0 0.028993361132763434 0.0020098052550955722 0 0.033778392665946233 0.0023992109658808511 0 0.034178315483226231 0.0022775628336979929 0 0.033829779006985375 0.0020894852075400965 0 0.033778392665946233 0.0023992109658808511 0 0.034178315483226231 0.0022775628336979929 0 0.033866707172817499 0.002725627476671981 0 0.033255617776045771 -0.00041005670285054117 0 0.033252885138651087 -0.00037961656078532892 0 0.033202538729347669 -0.00046738213891172399 0 0.03096007007588731 0.0014040229387903295 0 0.034042983962318626 0.00042915109061358972 0 0.034341754984883052 0.0021606883314420665 0 0.03458112614175099 0.0018497143832343535 0 0.034242620798147813 0.0017279708380135649 0 0.03458112614175099 0.0018497143832343535 0 0.034242620798147813 0.0017279708380135649 0 0.034477848110491378 0.0015806705083544423 0 0.034341754984883052 0.0021606883314420665 0 0.034242620798147813 0.0017279708380135649 0 0.033959065273358735 0.0019925288664643524 0 0.034242620798147813 0.0017279708380135649 0 0.033959065273358735 0.0019925288664643524 0 0.033946299879447507 0.0015163177220768528 0 0.034431897604026776 0.0022867881848382785 0 0.033360779485416027 0.0017684635808950429 0 0.033959065273358735 0.0019925288664643524 0 0.033518489530784325 0.0018360425403888517 0 0.033946299879447507 0.0015163177220768528 0 0.033829779006985375 0.0020894852075400965 0 0.033518489530784325 0.0018360425403888517 0 0.033500387427181241 0.0022951346009671479 0 0.033518489530784325 0.0018360425403888517 0 0.033214413859042433 0.0022053936725048716 0 0.032884681711556653 0.0019382193221683947 0 0.033518489530784325 0.0018360425403888517 0 0.033166635155912214 0.0012040156500357161 0 0.032884681711556653 0.0019382193221683947 0 0.033214413859042433 0.0022053936725048716 0 0.032947580538160569 0.0025351112774270276 0 0.032884681711556653 0.0019382193221683947 0 0.033214413859042433 0.0022053936725048716 0 0.033255263186928299 0.0025306191941369366 0 0.033500387427181241 0.0022951346009671479 0 0.033214413859042433 0.0022053936725048716 0 0.033255263186928299 0.0025306191941369366 0 0.032947580538160569 0.0025351112774270276 0 0.033518489530784325 0.0018360425403888517 0 0.033214413859042433 0.0022053936725048716 0 0.033500387427181241 0.0022951346009671479 0 0.033778392665946233 0.0023992109658808511 0 0.033829779006985375 0.0020894852075400965 0 0.033500387427181241 0.0022951346009671479 0 0.033255263186928299 0.0025306191941369366 0 0.033500387427181241 0.0022951346009671479 0 0.033492758358062147 0.0026321861325036174 0 0.033778392665946233 0.0023992109658808511 0 0.033500387427181241 0.0022951346009671479 0 0.033492758358062147 0.0026321861325036174 0 0.033255263186928299 0.0025306191941369366 0 0.033492758358062147 0.0026321861325036174 0 0.033151539249158674 0.002874260991691472 0 0.033492758358062147 0.0026321861325036174 0 0.033452979787908871 0.0028858094300882021 0 0.033151539249158674 0.002874260991691472 0 0.033452979787908871 0.0028858094300882021 0 0.033497822661060599 0.0031196734416510602 0 0.033866707172817499 0.002725627476671981 0 0.033492758358062147 0.0026321861325036174 0 0.033452979787908871 0.0028858094300882021 0 0.033866707172817499 0.002725627476671981 0 0.032947580538160569 0.0025351112774270276 0 0.033151539249158674 0.002874260991691472 0 0.03280926444993925 0.0028693141404162645 0 0.033255263186928299 0.0025306191941369366 0 0.032947580538160569 0.0025351112774270276 0 0.033151539249158674 0.002874260991691472 0 0.033151539249158674 0.002874260991691472 0 0.032928178318639721 0.0032258117577095846 0 0.03280926444993925 0.0028693141404162645 0 0.033151539249158674 0.002874260991691472 0 0.032928178318639721 0.0032258117577095846 0 0.033232176503431361 0.0031128617402618802 0 0.032928178318639721 0.0032258117577095846 0 0.033078273269190328 0.0033475993611269926 0 0.033056404225218584 0.0034317914805496769 0 0.032928178318639721 0.0032258117577095846 0 0.033232176503431361 0.0031128617402618802 0 0.033078273269190328 0.0033475993611269926 0 0.033497822661060599 0.0031196734416510602 0 0.033493679408696943 0.0032166964387724838 0 0.033866707172817499 0.002725627476671981 0 0.033452979787908871 0.0028858094300882021 0 0.033497822661060599 0.0031196734416510602 0 0.033232176503431361 0.0031128617402618802 0 0.033452979787908871 0.0028858094300882021 0 0.033151539249158674 0.002874260991691472 0 0.033232176503431361 0.0031128617402618802 0 0.033497822661060599 0.0031196734416510602 0 0.033232176503431361 0.0031128617402618802 0 0.033512737763178931 0.0032075281235063834 0 0.033232176503431361 0.0031128617402618802 0 0.033078273269190328 0.0033475993611269926 0 0.033512737763178931 0.0032075281235063834 0 0.030930558461345459 0.0030468579826336772 0 0.030606435544756967 0.0029890708051514277 0 0.024744403877612665 0.001115915392030482 0 0.024755008033183448 0.0011020546206385548 0 0.024706028002053612 0.0011081461108347313 0 0.030606435544756967 0.0029890708051514277 0 0.028993361132763434 0.0020098052550955722 0 0.024755008033183448 0.0011020546206385548 0 0.024711720052174951 0.0011100239671214889 0 0.024706028002053612 0.0011081461108347313 0 0.033778392665946233 0.0023992109658808511 0 0.033492758358062147 0.0026321861325036174 0 0.033866707172817499 0.002725627476671981 0 0.024790682356709996 0.0010836278966130165 0 0.024747753395771732 0.0010932925205677957 0 0.024774709605119478 0.001059556729859196 0 0.024790682356709996 0.0010836278966130165 0 0.024755008033183448 0.0011020546206385548 0 0.024747753395771732 0.0010932925205677957 0 0.024747753395771732 0.0010932925205677957 0 0.024711720052174951 0.0011100239671214889 0 0.024727211914052433 0.0011050541925563034 0 0.024755008033183448 0.0011020546206385548 0 0.024747753395771732 0.0010932925205677957 0 0.024711720052174951 0.0011100239671214889 0 0.024711720052174951 0.0011100239671214889 0 0.024727211914052433 0.0011050541925563034 0 0.024694893126924466 0.0011743940293683993 0 0.024922062091001312 0.0011605259933993211 0 0.024875981429635475 0.001021060259215876 0 0.024694893126924466 0.0011743940293683993 0 0.024727211914052433 0.0011050541925563034 0 0.024875981429635475 0.001021060259215876 0 0.024694893126924466 0.0011743940293683993 0 0.033202538729347669 -0.00046738213891172399 0 0.033112870447776326 -0.00055104050336280015 0 0.033141541944018603 -0.00045665017553373307 0 0.024727211914052433 0.0011050541925563034 0 0.024774709605119478 0.001059556729859196 0 0.024875981429635475 0.001021060259215876 0 0.02857317971460438 7.9412116439733552e-05 0 0.029078147471759169 0.00027597240350960928 0 0.024747753395771732 0.0010932925205677957 0 0.024727211914052433 0.0011050541925563034 0 0.024774709605119478 0.001059556729859196 0 0.02515760841155203 0.0010661502843216041 0 0.024922062091001312 0.0011605259933993211 0 0.025157179688270307 0.0012807598110040018 0 0.02515760841155203 0.0010661502843216041 0 0.025478515969520065 0.0011857044917460795 0 0.025157179688270307 0.0012807598110040018 0 0.029103837718378281 0.0002494792084199428 0 0.029078147471759169 0.00027597240350960928 0 0.02515760841155203 0.0010661502843216041 0 0.024922062091001312 0.0011605259933993211 0 0.024875981429635475 0.001021060259215876 0 0.032986270445016112 -0.00063333110546889729 0 0.033112870447776326 -0.00055104050336280015 0 0.033052408726880769 -0.00048800672258148133 0 0.033112870447776326 -0.00055104050336280015 0 0.033052408726880769 -0.00048800672258148133 0 0.033141541944018603 -0.00045665017553373307 0 0.032986270445016112 -0.00063333110546889729 0 0.032960375322317943 -0.00054717848635177314 0 0.033052408726880769 -0.00048800672258148133 0 0.033052408726880769 -0.00048800672258148133 0 0.033130862838003858 -0.00039686965498715061 0 0.033057689125819287 -0.00039119504823008664 0 0.032960855239807213 -0.00046309527564403598 0 0.032960375322317943 -0.00054717848635177314 0 0.033052408726880769 -0.00048800672258148133 0 0.032960855239807213 -0.00046309527564403598 0 0.033052408726880769 -0.00048800672258148133 0 0.033057689125819287 -0.00039119504823008664 0 0.033052408726880769 -0.00048800672258148133 0 0.033141541944018603 -0.00045665017553373307 0 0.033130862838003858 -0.00039686965498715061 0 0.033141541944018603 -0.00045665017553373307 0 0.033130862838003858 -0.00039686965498715061 0 0.033177940334813909 -0.0003913724255094325 0 0.033130862838003858 -0.00039686965498715061 0 0.033177940334813909 -0.0003913724255094325 0 0.033204605680443255 -0.00033077972575048967 0 0.033130862838003858 -0.00039686965498715061 0 0.033057689125819287 -0.00039119504823008664 0 0.033148627443897544 -0.0003137014734331198 0 0.033202538729347669 -0.00046738213891172399 0 0.033192962556183869 -0.00041251565112541592 0 0.033225146398475888 -0.00039116433077852235 0 0.033252885138651087 -0.00037961656078532892 0 0.033202538729347669 -0.00046738213891172399 0 0.033225146398475888 -0.00039116433077852235 0 0.03096007007588731 0.0014040229387903295 0 0.02857317971460438 7.9412116439733552e-05 0 0.033202538729347669 -0.00046738213891172399 0 0.033141541944018603 -0.00045665017553373307 0 0.033192962556183869 -0.00041251565112541592 0 0.033141541944018603 -0.00045665017553373307 0 0.033192962556183869 -0.00041251565112541592 0 0.033177940334813909 -0.0003913724255094325 0 0.033192962556183869 -0.00041251565112541592 0 0.033215274001743365 -0.00036365552978504429 0 0.033225146398475888 -0.00039116433077852235 0 0.033192962556183869 -0.00041251565112541592 0 0.033177940334813909 -0.0003913724255094325 0 0.033215274001743365 -0.00036365552978504429 0 0.033177940334813909 -0.0003913724255094325 0 0.033215274001743365 -0.00036365552978504429 0 0.033204605680443255 -0.00033077972575048967 0 0.033215274001743365 -0.00036365552978504429 0 0.033225146398475888 -0.00039116433077852235 0 0.033245442377630878 -0.00034661006336091647 0 0.033252885138651087 -0.00037961656078532892 0 0.033250772143838536 -0.00034294713708658863 0 0.033245442377630878 -0.00034661006336091647 0 0.034042983962318626 0.00042915109061358972 0 0.03383257284598104 0.00049917355890284707 0 0.033252885138651087 -0.00037961656078532892 0 0.033225146398475888 -0.00039116433077852235 0 0.033245442377630878 -0.00034661006336091647 0 0.03458112614175099 0.0018497143832343535 0 0.03480545822261525 0.001546694024417144 0 0.034477848110491378 0.0015806705083544423 0 0.033255984206160903 -0.0003394606615046491 0 0.033237010044562851 -0.00033092053199981487 0 0.033261283483948793 -0.00027396242512265999 0 0.033700576473640657 4.4811308426713384e-05 0 0.033686104861828672 2.0378044451979438e-05 0 0.033703103428856428 5.4996936600573099e-05 0 0.03383257284598104 0.00049917355890284707 0 0.033477996703382334 -0.00018948890001624268 0 0.033255984206160903 -0.0003394606615046491 0 0.033245442377630878 -0.00034661006336091647 0 0.033237010044562851 -0.00033092053199981487 0 0.03383257284598104 0.00049917355890284707 0 0.03354441666389129 0.00025855242388939548 0 0.033215274001743365 -0.00036365552978504429 0 0.033245442377630878 -0.00034661006336091647 0 0.033237010044562851 -0.00033092053199981487 0 0.033215274001743365 -0.00036365552978504429 0 0.033237010044562851 -0.00033092053199981487 0 0.033204605680443255 -0.00033077972575048967 0 0.033204605680443255 -0.00033077972575048967 0 0.033261283483948793 -0.00027396242512265999 0 0.033229906412563556 -0.00027001640344497419 0 0.033237010044562851 -0.00033092053199981487 0 0.033204605680443255 -0.00033077972575048967 0 0.033261283483948793 -0.00027396242512265999 0 0.033686104861828672 2.0378044451979438e-05 0 0.033628557810109663 -5.0472771432217924e-05 0 0.033702386494798411 1.9322276998057574e-05 0 0.033477996703382334 -0.00018948890001624268 0 0.033447910385889235 -9.5815779800507942e-05 0 0.033261283483948793 -0.00027396242512265999 0 0.033229906412563556 -0.00027001640344497419 0 0.033307907122665646 -0.00019276730715796981 0 0.033686104861828672 2.0378044451979438e-05 0 0.033703103428856428 5.4996936600573099e-05 0 0.033702386494798411 1.9322276998057574e-05 0 0.033061111101175045 -0.00031827736650214201 0 0.033057689125819287 -0.00039119504823008664 0 0.033148627443897544 -0.0003137014734331198 0 0.033061111101175045 -0.00031827736650214201 0 0.033148627443897544 -0.0003137014734331198 0 0.033116850404596991 -0.00025059516018864479 0 0.033204605680443255 -0.00033077972575048967 0 0.033148627443897544 -0.0003137014734331198 0 0.033229906412563556 -0.00027001640344497419 0 0.033130862838003858 -0.00039686965498715061 0 0.033204605680443255 -0.00033077972575048967 0 0.033148627443897544 -0.0003137014734331198 0 0.033148627443897544 -0.0003137014734331198 0 0.033229906412563556 -0.00027001640344497419 0 0.033205295281633886 -0.00023782702813785644 0 0.033229906412563556 -0.00027001640344497419 0 0.033205295281633886 -0.00023782702813785644 0 0.033307907122665646 -0.00019276730715796981 0 0.033148627443897544 -0.0003137014734331198 0 0.033205295281633886 -0.00023782702813785644 0 0.033116850404596991 -0.00025059516018864479 0 0.033205295281633886 -0.00023782702813785644 0 0.033116850404596991 -0.00025059516018864479 0 0.033227583066434946 -0.00015358636343311256 0 0.033227583066434946 -0.00015358636343311256 0 0.033307907122665646 -0.00019276730715796981 0 0.033407255668431481 -6.8774874949263326e-05 0 0.033447910385889235 -9.5815779800507942e-05 0 0.033404766060680449 -5.8052847774128804e-05 0 0.033205295281633886 -0.00023782702813785644 0 0.033227583066434946 -0.00015358636343311256 0 0.033307907122665646 -0.00019276730715796981 0 0.033628557810109663 -5.0472771432217924e-05 0 0.033407255668431481 -6.8774874949263326e-05 0 0.033656385368406941 -1.2645201439350421e-05 0 0.033407255668431481 -6.8774874949263326e-05 0 0.033315506650114443 1.1548578623377682e-05 0 0.033529555282969678 2.3393788568732097e-05 0 0.033407255668431481 -6.8774874949263326e-05 0 0.033656385368406941 -1.2645201439350421e-05 0 0.033529555282969678 2.3393788568732097e-05 0 0.033227583066434946 -0.00015358636343311256 0 0.033407255668431481 -6.8774874949263326e-05 0 0.033315506650114443 1.1548578623377682e-05 0 0.033100426923470046 -9.1680619954254901e-05 0 0.033227583066434946 -0.00015358636343311256 0 0.033315506650114443 1.1548578623377682e-05 0 0.033702386494798411 1.9322276998057574e-05 0 0.033744093278510134 2.5465523864133274e-05 0 0.033724646276152147 9.0516169840786846e-05 0 0.033703103428856428 5.4996936600573099e-05 0 0.033702386494798411 1.9322276998057574e-05 0 0.033724646276152147 9.0516169840786846e-05 0 0.033628557810109663 -5.0472771432217924e-05 0 0.033702386494798411 1.9322276998057574e-05 0 0.033656385368406941 -1.2645201439350421e-05 0 0.033656385368406941 -1.2645201439350421e-05 0 0.033744093278510134 2.5465523864133274e-05 0 0.033685553284842948 3.0051158594769252e-05 0 0.033656385368406941 -1.2645201439350421e-05 0 0.033529555282969678 2.3393788568732097e-05 0 0.033685553284842948 3.0051158594769252e-05 0 0.033702386494798411 1.9322276998057574e-05 0 0.033656385368406941 -1.2645201439350421e-05 0 0.033744093278510134 2.5465523864133274e-05 0 0.033744093278510134 2.5465523864133274e-05 0 0.033747213980199454 3.6966518258857519e-05 0 0.033724646276152147 9.0516169840786846e-05 0 0.033747213980199454 3.6966518258857519e-05 0 0.033689138399000146 0.00010243321446790367 0 0.033724646276152147 9.0516169840786846e-05 0 0.033689138399000146 0.00010243321446790367 0 0.033724646276152147 9.0516169840786846e-05 0 0.033650640333215562 0.00023831865456047852 0 0.033703103428856428 5.4996936600573099e-05 0 0.033724646276152147 9.0516169840786846e-05 0 0.033708862603586832 0.00010036854256701122 0 0.034084488808953317 0.00071170134949993552 0 0.033663881002771227 0.00049723446969800297 0 0.033724646276152147 9.0516169840786846e-05 0 0.033708862603586832 0.00010036854256701122 0 0.033650640333215562 0.00023831865456047852 0 0.034279180107970597 0.0011955418796591893 0 0.033946299879447507 0.0015163177220768528 0 0.03376486364674873 0.00080351573561093358 0 0.034242620798147813 0.0017279708380135649 0 0.034279180107970597 0.0011955418796591893 0 0.033946299879447507 0.0015163177220768528 0 0.03383257284598104 0.00049917355890284707 0 0.034084488808953317 0.00071170134949993552 0 0.03480545822261525 0.001546694024417144 0 0.034279180107970597 0.0011955418796591893 0 0.034477848110491378 0.0015806705083544423 0 0.033700576473640657 4.4811308426713384e-05 0 0.033703103428856428 5.4996936600573099e-05 0 0.033708862603586832 0.00010036854256701122 0 0.034242620798147813 0.0017279708380135649 0 0.034279180107970597 0.0011955418796591893 0 0.034477848110491378 0.0015806705083544423 0 0.033518489530784325 0.0018360425403888517 0 0.033166635155912214 0.0012040156500357161 0 0.033564602336565524 0.001343259390802433 0 0.033946299879447507 0.0015163177220768528 0 0.033564602336565524 0.001343259390802433 0 0.03376486364674873 0.00080351573561093358 0 0.033518489530784325 0.0018360425403888517 0 0.033946299879447507 0.0015163177220768528 0 0.033564602336565524 0.001343259390802433 0 0.033166635155912214 0.0012040156500357161 0 0.033564602336565524 0.001343259390802433 0 0.03376486364674873 0.00080351573561093358 0 0.033166635155912214 0.0012040156500357161 0 0.03376486364674873 0.00080351573561093358 0 0.033320779672983886 0.00036357458133534843 0 0.033663881002771227 0.00049723446969800297 0 0.033339961675991139 0.00035935544171616988 0 0.033650640333215562 0.00023831865456047852 0 0.033320779672983886 0.00036357458133534843 0 0.033555006577063305 0.00011256627146740009 0 0.033689138399000146 0.00010243321446790367 0 0.033650640333215562 0.00023831865456047852 0 0.033555006577063305 0.00011256627146740009 0 0.033320779672983886 0.00036357458133534843 0 0.033555006577063305 0.00011256627146740009 0 0.033306589985643627 5.0504184527743057e-05 0 0.033555006577063305 0.00011256627146740009 0 0.033582122702734508 -8.3166912638969628e-05 0 0.033306589985643627 5.0504184527743057e-05 0 0.033582122702734508 -8.3166912638969628e-05 0 0.033306589985643627 5.0504184527743057e-05 0 0.033390087520343482 -0.0001528233215086882 0 0.033582122702734508 -8.3166912638969628e-05 0 0.033670652341289867 -0.00022292236866578314 0 0.033390087520343482 -0.0001528233215086882 0 0.033582122702734508 -8.3166912638969628e-05 0 0.033759533677149851 -0.00016140007301264714 0 0.033670652341289867 -0.00022292236866578314 0 0.033582122702734508 -8.3166912638969628e-05 0 0.033759533677149851 -0.00016140007301264714 0 0.033729993653633321 -1.946099333044845e-05 0 0.033689138399000146 0.00010243321446790367 0 0.033555006577063305 0.00011256627146740009 0 0.033729993653633321 -1.946099333044845e-05 0 0.033555006577063305 0.00011256627146740009 0 0.033582122702734508 -8.3166912638969628e-05 0 0.033729993653633321 -1.946099333044845e-05 0 0.033747213980199454 3.6966518258857519e-05 0 0.033689138399000146 0.00010243321446790367 0 0.033729993653633321 -1.946099333044845e-05 0 0.033747213980199454 3.6966518258857519e-05 0 0.033729993653633321 -1.946099333044845e-05 0 0.033785015773984982 -2.6488873415313918e-05 0 0.033744093278510134 2.5465523864133274e-05 0 0.033747213980199454 3.6966518258857519e-05 0 0.033785015773984982 -2.6488873415313918e-05 0 0.033785015773984982 -2.6488873415313918e-05 0 0.033823198896907346 -0.00011885090974451452 0 0.033793766171242502 -5.1375406513120863e-05 0 0.033785015773984982 -2.6488873415313918e-05 0 0.033792087769983929 -9.7018844585868418e-05 0 0.033823198896907346 -0.00011885090974451452 0 0.033759533677149851 -0.00016140007301264714 0 0.033729993653633321 -1.946099333044845e-05 0 0.033792087769983929 -9.7018844585868418e-05 0 0.033729993653633321 -1.946099333044845e-05 0 0.033785015773984982 -2.6488873415313918e-05 0 0.033792087769983929 -9.7018844585868418e-05 0 0.033853882807033296 -0.00019067429259960912 0 0.033823198896907346 -0.00011885090974451452 0 0.033876737923130472 -0.00019109460043814514 0 0.033759533677149851 -0.00016140007301264714 0 0.033792087769983929 -9.7018844585868418e-05 0 0.033853882807033296 -0.00019067429259960912 0 0.033792087769983929 -9.7018844585868418e-05 0 0.033853882807033296 -0.00019067429259960912 0 0.033823198896907346 -0.00011885090974451452 0 0.033823198896907346 -0.00011885090974451452 0 0.033876737923130472 -0.00019109460043814514 0 0.033821242653512974 -0.00012141840776921903 0 0.033823198896907346 -0.00011885090974451452 0 0.033793766171242502 -5.1375406513120863e-05 0 0.033821242653512974 -0.00012141840776921903 0 0.033876737923130472 -0.00019109460043814514 0 0.033821242653512974 -0.00012141840776921903 0 0.033840484355301674 -0.00015371951452275068 0 0.033853882807033296 -0.00019067429259960912 0 0.033876737923130472 -0.00019109460043814514 0 0.033964551203654506 -0.00025494130874832916 0 0.033876737923130472 -0.00019109460043814514 0 0.033964551203654506 -0.00025494130874832916 0 0.033919365755000826 -0.00020138959560613983 0 0.033853882807033296 -0.00019067429259960912 0 0.033964551203654506 -0.00025494130874832916 0 0.033864636197760076 -0.0002561578739041742 0 0.033964551203654506 -0.00025494130874832916 0 0.033864636197760076 -0.0002561578739041742 0 0.034024275416914503 -0.00031135405652093346 0 0.033864636197760076 -0.0002561578739041742 0 0.033825143876639138 -0.0003244626263333982 0 0.034024275416914503 -0.00031135405652093346 0 0.033864636197760076 -0.0002561578739041742 0 0.033825143876639138 -0.0003244626263333982 0 0.033670652341289867 -0.00022292236866578314 0 0.033825143876639138 -0.0003244626263333982 0 0.033670652341289867 -0.00022292236866578314 0 0.033519781285544219 -0.0002926047063387019 0 0.033759533677149851 -0.00016140007301264714 0 0.033864636197760076 -0.0002561578739041742 0 0.033670652341289867 -0.00022292236866578314 0 0.033759533677149851 -0.00016140007301264714 0 0.033853882807033296 -0.00019067429259960912 0 0.033864636197760076 -0.0002561578739041742 0 0.033433698908908849 0.00021723135179719835 0 0.033487508386909261 0.00011363941703343582 0 0.033414918038039337 0.00012332886933278999 0 0.033530455063159798 0.00010240448671813573 0 0.033536151631250045 0.00014829580834937361 0 0.03328423318124217 0.00023908837582997078 0 0.033315506650114443 1.1548578623377682e-05 0 0.033530455063159798 0.00010240448671813573 0 0.033315506650114443 1.1548578623377682e-05 0 0.033529555282969678 2.3393788568732097e-05 0 0.033530455063159798 0.00010240448671813573 0 0.033529555282969678 2.3393788568732097e-05 0 0.033530455063159798 0.00010240448671813573 0 0.033685553284842948 3.0051158594769252e-05 0 0.033530455063159798 0.00010240448671813573 0 0.033536151631250045 0.00014829580834937361 0 0.033732655156361528 7.3049500953897476e-05 0 0.033530455063159798 0.00010240448671813573 0 0.033732655156361528 7.3049500953897476e-05 0 0.033685553284842948 3.0051158594769252e-05 0 0.033732655156361528 7.3049500953897476e-05 0 0.033685553284842948 3.0051158594769252e-05 0 0.033759608579094671 1.157766775766404e-05 0 0.033732655156361528 7.3049500953897476e-05 0 0.033759608579094671 1.157766775766404e-05 0 0.033776173563032523 -2.7004875838118201e-05 0 0.033744093278510134 2.5465523864133274e-05 0 0.033785015773984982 -2.6488873415313918e-05 0 0.033759608579094671 1.157766775766404e-05 0 0.033744093278510134 2.5465523864133274e-05 0 0.033685553284842948 3.0051158594769252e-05 0 0.033759608579094671 1.157766775766404e-05 0 0.033793766171242502 -5.1375406513120863e-05 0 0.033759608579094671 1.157766775766404e-05 0 0.033776173563032523 -2.7004875838118201e-05 0 0.033785015773984982 -2.6488873415313918e-05 0 0.033793766171242502 -5.1375406513120863e-05 0 0.033759608579094671 1.157766775766404e-05 0 0.033821242653512974 -0.00012141840776921903 0 0.033776173563032523 -2.7004875838118201e-05 0 0.033807890060571527 -9.3339973388717321e-05 0 0.033793766171242502 -5.1375406513120863e-05 0 0.033821242653512974 -0.00012141840776921903 0 0.033776173563032523 -2.7004875838118201e-05 0 0.033821242653512974 -0.00012141840776921903 0 0.033807890060571527 -9.3339973388717321e-05 0 0.033840484355301674 -0.00015371951452275068 0 0.033807890060571527 -9.3339973388717321e-05 0 0.033832375919155583 -0.0001323855171531364 0 0.033840484355301674 -0.00015371951452275068 0 0.033807890060571527 -9.3339973388717321e-05 0 0.033844224097898487 -0.0001071703505788048 0 0.033832375919155583 -0.0001323855171531364 0 0.033844224097898487 -0.0001071703505788048 0 0.033856115444511288 -0.00013646454526610862 0 0.033832375919155583 -0.0001323855171531364 0 0.033807890060571527 -9.3339973388717321e-05 0 0.033817845826337629 -4.9465381440127085e-05 0 0.033844224097898487 -0.0001071703505788048 0 0.033732655156361528 7.3049500953897476e-05 0 0.033776173563032523 -2.7004875838118201e-05 0 0.033817845826337629 -4.9465381440127085e-05 0 0.033776173563032523 -2.7004875838118201e-05 0 0.033807890060571527 -9.3339973388717321e-05 0 0.033817845826337629 -4.9465381440127085e-05 0 0.033536151631250045 0.00014829580834937361 0 0.033732655156361528 7.3049500953897476e-05 0 0.033504259362430622 0.00032590052385635739 0 0.033732655156361528 7.3049500953897476e-05 0 0.033817845826337629 -4.9465381440127085e-05 0 0.033936276973310052 -5.8091181279166425e-05 0 0.033723051314556426 9.9603768838314467e-05 0 0.03374352031675365 7.539641426415081e-05 0 0.033817845826337629 -4.9465381440127085e-05 0 0.033844224097898487 -0.0001071703505788048 0 0.033899470190694503 -9.6853105163195591e-05 0 0.033817845826337629 -4.9465381440127085e-05 0 0.033899470190694503 -9.6853105163195591e-05 0 0.033936276973310052 -5.8091181279166425e-05 0 0.033844224097898487 -0.0001071703505788048 0 0.033890462529222266 -0.00012564448045181153 0 0.033856115444511288 -0.00013646454526610862 0 0.033890462529222266 -0.00012564448045181153 0 0.033899470190694503 -9.6853105163195591e-05 0 0.033929499434810974 -0.00011602107398729054 0 0.033844224097898487 -0.0001071703505788048 0 0.033890462529222266 -0.00012564448045181153 0 0.033899470190694503 -9.6853105163195591e-05 0 0.03382022325304157 -2.9639570552235579e-05 0 0.03374352031675365 7.539641426415081e-05 0 0.033861653181567572 -9.7046954964609972e-05 0 0.03374352031675365 7.539641426415081e-05 0 0.033899470190694503 -9.6853105163195591e-05 0 0.033929499434810974 -0.00011602107398729054 0 0.033917792782975333 -6.1857545415371708e-05 0 0.033780368697117681 0.00016288201549957956 0 0.033782450283163699 -6.2696533346364548e-05 0 0.033617461091287368 9.8769179415117273e-05 0 0.03399497419264684 -0.00012345013968710457 0 0.033929499434810974 -0.00011602107398729054 0 0.033917792782975333 -6.1857545415371708e-05 0 0.033890462529222266 -0.00012564448045181153 0 0.033929499434810974 -0.00011602107398729054 0 0.033923017897566556 -0.00014257753976330788 0 0.033414918038039337 0.00012332886933278999 0 0.033536151631250045 0.00014829580834937361 0 0.033504259362430622 0.00032590052385635739 0 0.033780368697117681 0.00016288201549957956 0 0.033743704939158271 0.00030741031487773878 0 0.033617461091287368 9.8769179415117273e-05 0 0.033433698908908849 0.00021723135179719835 0 0.03374352031675365 7.539641426415081e-05 0 0.03399092716403386 -0.00022034809357485306 0 0.033926666943220114 -0.00020055653151772082 0 0.033974490186584584 -0.00018367580554695681 0 0.034988833840737796 -7.7223106225889807e-07 0 0.034990554689256582 1.9851141161564986e-07 0 0.034987163399759012 6.6478708346614141e-07 0 0.034511942709445347 -0.00011595720770872887 0 0.034213513115060774 -0.00011600204506532389 0 0.034991858211386458 -1.4673445777496888e-07 0 0.034988833840737796 -7.7223106225889807e-07 0 0.034990554689256582 1.9851141161564986e-07 0 0.033974490186584584 -0.00018367580554695681 0 0.033955011968711042 -0.00014506271419932615 0 0.033933513649279823 -0.00016572521101105491 0 0.03399497419264684 -0.00012345013968710457 0 0.033929499434810974 -0.00011602107398729054 0 0.033955011968711042 -0.00014506271419932615 0 0.03399497419264684 -0.00012345013968710457 0 0.033974490186584584 -0.00018367580554695681 0 0.033955011968711042 -0.00014506271419932615 0 0.033923017897566556 -0.00014257753976330788 0 0.033933513649279823 -0.00016572521101105491 0 0.033891526806996829 -0.00015580028706295074 0 0.033929499434810974 -0.00011602107398729054 0 0.033955011968711042 -0.00014506271419932615 0 0.033923017897566556 -0.00014257753976330788 0 0.033955011968711042 -0.00014506271419932615 0 0.033923017897566556 -0.00014257753976330788 0 0.033933513649279823 -0.00016572521101105491 0 0.034213513115060774 -0.00011600204506532389 0 0.033896541361492651 -0.00021295176941216152 0 0.033912655256448064 -0.00019784761328631699 0 0.033974490186584584 -0.00018367580554695681 0 0.033933513649279823 -0.00016572521101105491 0 0.033912655256448064 -0.00019784761328631699 0 0.033891526806996829 -0.00015580028706295074 0 0.033837164167899531 -0.00015848864427225694 0 0.033912655256448064 -0.00019784761328631699 0 0.033933513649279823 -0.00016572521101105491 0 0.033891526806996829 -0.00015580028706295074 0 0.034213513115060774 -0.00011600204506532389 0 0.033759113294381984 -0.00014043785322644949 0 0.033890462529222266 -0.00012564448045181153 0 0.033923017897566556 -0.00014257753976330788 0 0.033891526806996829 -0.00015580028706295074 0 0.033890462529222266 -0.00012564448045181153 0 0.033891526806996829 -0.00015580028706295074 0 0.033856115444511288 -0.00013646454526610862 0 0.033891526806996829 -0.00015580028706295074 0 0.033856115444511288 -0.00013646454526610862 0 0.033837164167899531 -0.00015848864427225694 0 0.034213513115060774 -0.00011600204506532389 0 0.034430426925562196 -3.9102482975299185e-05 0 0.033799209936992244 -0.00012969205810115704 0 0.033821001449249884 -0.00011179407481063195 0 0.033813252642041033 -0.0001344510746839114 0 0.034987163399759012 6.6478708346614141e-07 0 0.034985408688239093 4.250069360461915e-06 0 0.034990459922500161 1.0733905335892607e-06 0 0.034990554689256582 1.9851141161564986e-07 0 0.034987163399759012 6.6478708346614141e-07 0 0.034990459922500161 1.0733905335892607e-06 0 0.033821001449249884 -0.00011179407481063195 0 0.033813252642041033 -0.0001344510746839114 0 0.033853133126008121 -0.00011414467357265983 0 0.033759113294381984 -0.00014043785322644949 0 0.033865571716215619 -0.00015767443023557409 0 0.033837164167899531 -0.00015848864427225694 0 0.033832375919155583 -0.0001323855171531364 0 0.033840484355301674 -0.00015371951452275068 0 0.033856115444511288 -0.00013646454526610862 0 0.033837164167899531 -0.00015848864427225694 0 0.033832375919155583 -0.0001323855171531364 0 0.033813252642041033 -0.0001344510746839114 0 0.033840484355301674 -0.00015371951452275068 0 0.033853133126008121 -0.00011414467357265983 0 0.033840484355301674 -0.00015371951452275068 0 0.033853133126008121 -0.00011414467357265983 0 0.033886487043512957 -0.00013143877959486243 0 0.034430426925562196 -3.9102482975299185e-05 0 0.034490466920372796 -5.8735488027475249e-05 0 0.033821001449249884 -0.00011179407481063195 0 0.033853133126008121 -0.00011414467357265983 0 0.033886036875057986 -6.6764789385109945e-05 0 0.034985408688239093 4.250069360461915e-06 0 0.034984360413543518 -2.1943990683744408e-06 0 0.034970935006352614 2.9107966185929535e-06 0 0.03504803953860855 -2.0978318668015456e-05 0 0.034490466920372796 -5.8735488027475249e-05 0 0.03500493384741666 4.9100171625534731e-06 0 0.034999982142572703 7.9491905772210409e-09 0 0.035000059078315833 -8.2298333914873401e-09 0 0.034984360413543518 -2.1943990683744408e-06 0 0.034999972329428294 -1.1376374552340704e-08 0 0.03499378369918598 -1.3177503999708792e-08 0 0.03504803953860855 -2.0978318668015456e-05 0 0.034999948638478211 4.029372325126487e-08 0 0.034985408688239093 4.250069360461915e-06 0 0.034984360413543518 -2.1943990683744408e-06 0 0.03499378369918598 -1.3177503999708792e-08 0 0.034985408688239093 4.250069360461915e-06 0 0.03499378369918598 -1.3177503999708792e-08 0 0.034990459922500161 1.0733905335892607e-06 0 0.03499378369918598 -1.3177503999708792e-08 0 0.034990459922500161 1.0733905335892607e-06 0 0.034993815606095983 2.2623845548161751e-07 0 0.03499378369918598 -1.3177503999708792e-08 0 0.034999999904448839 2.5860071167715226e-09 0 0.034993815606095983 2.2623845548161751e-07 0 0.034999972329428294 -1.1376374552340704e-08 0 0.03499378369918598 -1.3177503999708792e-08 0 0.034999999904448839 2.5860071167715226e-09 0 0.034999999904448839 2.5860071167715226e-09 0 0.034996037851808243 2.6160378797557595e-07 0 0.034993815606095983 2.2623845548161751e-07 0 0.034999986987720201 2.5758877341491899e-10 0 0.034999999904448839 2.5860071167715226e-09 0 0.034996037851808243 2.6160378797557595e-07 0 0.034991858211386458 -1.4673445777496888e-07 0 0.034996037851808243 2.6160378797557595e-07 0 0.034993815606095983 2.2623845548161751e-07 0 0.034990554689256582 1.9851141161564986e-07 0 0.034990459922500161 1.0733905335892607e-06 0 0.034993815606095983 2.2623845548161751e-07 0 0.034991858211386458 -1.4673445777496888e-07 0 0.034990554689256582 1.9851141161564986e-07 0 0.034993815606095983 2.2623845548161751e-07 0 0.034417512425129929 -0.00025086979939214197 0 0.034205574936046743 -0.00031494693171083953 0 0.034118099427115252 -0.00024730961987252069 0 0.034417512425129929 -0.00025086979939214197 0 0.034118099427115252 -0.00024730961987252069 0 0.034352663342173191 -0.00024260027632852036 0 0.034375509883506829 -0.00033984568144637743 0 0.034205574936046743 -0.00031494693171083953 0 0.034055680772042629 -0.00038818590076027901 0 0.034417512425129929 -0.00025086979939214197 0 0.034375509883506829 -0.00033984568144637743 0 0.034205574936046743 -0.00031494693171083953 0 0.034205574936046743 -0.00031494693171083953 0 0.034055680772042629 -0.00038818590076027901 0 0.034024275416914503 -0.00031135405652093346 0 0.033825143876639138 -0.0003244626263333982 0 0.034055680772042629 -0.00038818590076027901 0 0.034024275416914503 -0.00031135405652093346 0 0.033964551203654506 -0.00025494130874832916 0 0.034024275416914503 -0.00031135405652093346 0 0.034118099427115252 -0.00024730961987252069 0 0.034205574936046743 -0.00031494693171083953 0 0.034024275416914503 -0.00031135405652093346 0 0.034118099427115252 -0.00024730961987252069 0 0.034118099427115252 -0.00024730961987252069 0 0.033919365755000826 -0.00020138959560613983 0 0.033955029567700933 -0.00010001194258908753 0 0.033964551203654506 -0.00025494130874832916 0 0.034118099427115252 -0.00024730961987252069 0 0.033919365755000826 -0.00020138959560613983 0 0.033840484355301674 -0.00015371951452275068 0 0.033919365755000826 -0.00020138959560613983 0 0.033886487043512957 -0.00013143877959486243 0 0.033876737923130472 -0.00019109460043814514 0 0.033840484355301674 -0.00015371951452275068 0 0.033919365755000826 -0.00020138959560613983 0 0.033919365755000826 -0.00020138959560613983 0 0.033886487043512957 -0.00013143877959486243 0 0.033955029567700933 -0.00010001194258908753 0 0.033853133126008121 -0.00011414467357265983 0 0.033886487043512957 -0.00013143877959486243 0 0.033886036875057986 -6.6764789385109945e-05 0 0.033886487043512957 -0.00013143877959486243 0 0.033955029567700933 -0.00010001194258908753 0 0.033886036875057986 -6.6764789385109945e-05 0 0.034074532117889675 -0.00015355401225161433 0 0.034490466920372796 -5.8735488027475249e-05 0 0.034118099427115252 -0.00024730961987252069 0 0.034281671466291484 -0.00026134754691781864 0 0.034352663342173191 -0.00024260027632852036 0 0.034145135162189949 -0.00024931178641522173 0 0.034074532117889675 -0.00015355401225161433 0 0.034281671466291484 -0.00026134754691781864 0 0.034352663342173191 -0.00024260027632852036 0 0.034291904026285243 -0.00012745363454600979 0 0.034352663342173191 -0.00024260027632852036 0 0.034291904026285243 -0.00012745363454600979 0 0.034685727762820306 -6.1568490721722904e-05 0 0.034629947266286154 -4.1696963420999189e-05 0 0.034664402257489853 -5.0885144395308649e-05 0 0.034934879443164507 5.34552579156685e-05 0 0.034946458108919526 -2.9779377608639019e-05 0 0.034685727762820306 -6.1568490721722904e-05 0 0.034281671466291484 -0.00026134754691781864 0 0.034291904026285243 -0.00012745363454600979 0 0.034180538118819902 -0.00016890384801147973 0 0.03500493384741666 4.9100171625534731e-06 0 0.034990264411817844 4.4445703198289954e-05 0 0.034986146381344237 6.4318167450456899e-06 0 0.034629947266286154 -4.1696963420999189e-05 0 0.034490466920372796 -5.8735488027475249e-05 0 0.034934879443164507 5.34552579156685e-05 0 0.034990264411817844 4.4445703198289954e-05 0 0.034986146381344237 6.4318167450456899e-06 0 0.03500493384741666 4.9100171625534731e-06 0 0.035000059078315833 -8.2298333914873401e-09 0 0.034986146381344237 6.4318167450456899e-06 0 0.035000059078315833 -8.2298333914873401e-09 0 0.034986146381344237 6.4318167450456899e-06 0 0.034946458108919526 -2.9779377608639019e-05 0 0.035000059078315833 -8.2298333914873401e-09 0 0.034946458108919526 -2.9779377608639019e-05 0 0.034999490399731673 -1.0538538602990264e-07 0 0.034946458108919526 -2.9779377608639019e-05 0 0.034999490399731673 -1.0538538602990264e-07 0 0.034685727762820306 -6.1568490721722904e-05 0 0.034934879443164507 5.34552579156685e-05 0 0.034986146381344237 6.4318167450456899e-06 0 0.034946458108919526 -2.9779377608639019e-05 0 0.034999490399731673 -1.0538538602990264e-07 0 0.034685727762820306 -6.1568490721722904e-05 0 0.034701455498766409 -0.00011940217212396865 0 0.034417512425129929 -0.00025086979939214197 0 0.034685727762820306 -6.1568490721722904e-05 0 0.034701455498766409 -0.00011940217212396865 0 0.034417512425129929 -0.00025086979939214197 0 0.034352663342173191 -0.00024260027632852036 0 0.034685727762820306 -6.1568490721722904e-05 0 0.034375509883506829 -0.00033984568144637743 0 0.034701455498766409 -0.00011940217212396865 0 0.034660229056860205 -0.0001889021911791967 0 0.034417512425129929 -0.00025086979939214197 0 0.034375509883506829 -0.00033984568144637743 0 0.034701455498766409 -0.00011940217212396865 0 0.034999490399731673 -1.0538538602990264e-07 0 0.034999329038250163 -1.7327914589444593e-07 0 0.034701455498766409 -0.00011940217212396865 0 0.034999329038250163 -1.7327914589444593e-07 0 0.034701455498766409 -0.00011940217212396865 0 0.034660229056860205 -0.0001889021911791967 0 0.034999329038250163 -1.7327914589444593e-07 0 0.034999601319669775 -6.946511295719112e-08 0 0.034660229056860205 -0.0001889021911791967 0 0.034999601319669775 -6.946511295719112e-08 0 0.034660229056860205 -0.0001889021911791967 0 0.034885092766764908 -0.00017757676234356681 0 0.034660229056860205 -0.0001889021911791967 0 0.034355012639524826 -0.00050816685344969991 0 0.034885092766764908 -0.00017757676234356681 0 0.034355012639524826 -0.00050816685344969991 0 0.034885757274271269 -0.00049181516789042633 0 0.034885092766764908 -0.00017757676234356681 0 0.034375509883506829 -0.00033984568144637743 0 0.034660229056860205 -0.0001889021911791967 0 0.034355012639524826 -0.00050816685344969991 0 0.034375509883506829 -0.00033984568144637743 0 0.034355012639524826 -0.00050816685344969991 0 0.034023126677551682 -0.00047740157503990466 0 0.034375509883506829 -0.00033984568144637743 0 0.034055680772042629 -0.00038818590076027901 0 0.034023126677551682 -0.00047740157503990466 0 0.034355012639524826 -0.00050816685344969991 0 0.033548745207260443 -0.0005501083107006514 0 0.034023126677551682 -0.00047740157503990466 0 0.034355012639524826 -0.00050816685344969991 0 0.033548745207260443 -0.0005501083107006514 0 0.033294038014757783 -0.00088305267690205465 0 0.034269305825244199 -0.00054642920958866464 0 0.034077500467663349 -0.00065565332132629063 0 0.033548745207260443 -0.0005501083107006514 0 0.03365857769923894 -0.0004216286314906199 0 0.033118478326281252 -0.00045673073602829081 0 0.033548745207260443 -0.0005501083107006514 0 0.034023126677551682 -0.00047740157503990466 0 0.03365857769923894 -0.0004216286314906199 0 0.034055680772042629 -0.00038818590076027901 0 0.034023126677551682 -0.00047740157503990466 0 0.03365857769923894 -0.0004216286314906199 0 0.032950790240106789 -0.00061598208156557737 0 0.032661773532229245 -0.00086831176742275802 0 0.032541792582820424 -0.00060469322411163269 0 0.033548745207260443 -0.0005501083107006514 0 0.032950790240106789 -0.00061598208156557737 0 0.033294038014757783 -0.00088305267690205465 0 0.033548745207260443 -0.0005501083107006514 0 0.032950790240106789 -0.00061598208156557737 0 0.033118478326281252 -0.00045673073602829081 0 0.034885757274271269 -0.00049181516789042633 0 0.035080768513666712 -0.00049638493622347049 0 0.035041499824547122 -0.00025616085375615303 0 0.034077500467663349 -0.00065565332132629063 0 0.033839402753980147 -0.00067517545094743963 0 0.032950790240106789 -0.00061598208156557737 0 0.033294038014757783 -0.00088305267690205465 0 0.032661773532229245 -0.00086831176742275802 0 0.034885757274271269 -0.00049181516789042633 0 0.035041499824547122 -0.00025616085375615303 0 0.034885092766764908 -0.00017757676234356681 0 0.034999601319669775 -6.946511295719112e-08 0 0.034885092766764908 -0.00017757676234356681 0 0.03500042161509722 -7.9799089283591862e-08 0 0.035041499824547122 -0.00025616085375615303 0 0.034885092766764908 -0.00017757676234356681 0 0.03500042161509722 -7.9799089283591862e-08 0 0.035000017579504619 -9.1703294971869171e-09 0 0.035121942083753965 -7.0584367156990372e-05 0 0.035041499824547122 -0.00025616085375615303 0 0.03500042161509722 -7.9799089283591862e-08 0 0.035219464713812459 -0.00012877497054905392 0 0.034999999927710732 2.4633059764121151e-10 0 0.035000193070826191 -8.547028010771477e-07 0 0.035000000241773771 -1.1294331066474362e-09 0 0.035000000241773771 -1.1294331066474362e-09 0 0.035000487433507275 -8.3668461506149561e-07 0 0.035000002854717042 -5.5355898965307388e-10 0 0.035000193070826191 -8.547028010771477e-07 0 0.035000487433507275 -8.3668461506149561e-07 0 0.035001498848605747 -2.4335421887186937e-06 0 0.035000487433507275 -8.3668461506149561e-07 0 0.035001498848605747 -2.4335421887186937e-06 0 0.035000002854717042 -5.5355898965307388e-10 0 0.035000193070826191 -8.547028010771477e-07 0 0.035000000241773771 -1.1294331066474362e-09 0 0.035000487433507275 -8.3668461506149561e-07 0 0.035219464713812459 -0.00012877497054905392 0 0.035395147641773664 -0.00024325380055225353 0 0.035193887963334232 -0.00030978464271562357 0 0.035395147641773664 -0.00024325380055225353 0 0.035193887963334232 -0.00030978464271562357 0 0.035344583903233029 -0.00039892439374630172 0 0.035121942083753965 -7.0584367156990372e-05 0 0.035108661212092981 -0.00012447460341363743 0 0.035108661212092981 -0.00012447460341363743 0 0.035156087688708752 -0.00012922768716827683 0 0.0349610966498205 -1.1464038362246653e-05 0 0.03495592633199085 -2.034386687269275e-05 0 0.034940363054482899 -2.6166375781457302e-05 0 0.035041499824547122 -0.00025616085375615303 0 0.035219464713812459 -0.00012877497054905392 0 0.035193887963334232 -0.00030978464271562357 0 0.034999989727783121 -5.3410288997674917e-09 0 0.034982548056575365 -7.612120855620435e-06 0 0.034989720802234899 -7.7650207827894207e-06 0 0.034999989727783121 -5.3410288997674917e-09 0 0.034999945090309577 1.7934981224669754e-09 0 0.034982548056575365 -7.612120855620435e-06 0 0.0349610966498205 -1.1464038362246653e-05 0 0.034999945090309577 1.7934981224669754e-09 0 0.034982548056575365 -7.612120855620435e-06 0 0.035108661212092981 -0.00012447460341363743 0 0.034999972837900954 9.3662449790114526e-08 0 0.0349610966498205 -1.1464038362246653e-05 0 0.034982548056575365 -7.612120855620435e-06 0 0.034969050015801119 -1.6840991698812707e-05 0 0.0349610966498205 -1.1464038362246653e-05 0 0.03495592633199085 -2.034386687269275e-05 0 0.034969050015801119 -1.6840991698812707e-05 0 0.034982548056575365 -7.612120855620435e-06 0 0.034969050015801119 -1.6840991698812707e-05 0 0.034976434610440373 -1.8471101555051633e-05 0 0.034982548056575365 -7.612120855620435e-06 0 0.034976434610440373 -1.8471101555051633e-05 0 0.034989720802234899 -7.7650207827894207e-06 0 0.034969050015801119 -1.6840991698812707e-05 0 0.034976434610440373 -1.8471101555051633e-05 0 0.034962670970802474 -2.5495702924043918e-05 0 0.034976434610440373 -1.8471101555051633e-05 0 0.034958421680619814 -3.9981040621972531e-05 0 0.03497228946320783 -2.9248047310010756e-05 0 0.034976434610440373 -1.8471101555051633e-05 0 0.034962670970802474 -2.5495702924043918e-05 0 0.034958421680619814 -3.9981040621972531e-05 0 0.034962670970802474 -2.5495702924043918e-05 0 0.034948806227323825 -3.3198605367975254e-05 0 0.034958421680619814 -3.9981040621972531e-05 0 0.03495592633199085 -2.034386687269275e-05 0 0.034969050015801119 -1.6840991698812707e-05 0 0.034962670970802474 -2.5495702924043918e-05 0 0.03495592633199085 -2.034386687269275e-05 0 0.034962670970802474 -2.5495702924043918e-05 0 0.034948806227323825 -3.3198605367975254e-05 0 0.033817453954469612 -0.00039329710851598106 0 0.033253479533423211 -0.00044647230707320156 0 0.034948806227323825 -3.3198605367975254e-05 0 0.034958421680619814 -3.9981040621972531e-05 0 0.034935647072444384 -4.5888127444359487e-05 0 0.032312406543143664 -0.00066490051083417895 0 0.032263720187224433 -0.00066349860850177414 0 0.032357628648673149 -0.0006778457072980417 0 0.032312406543143664 -0.00066490051083417895 0 0.032336828429753911 -0.00068223434682265056 0 0.032342271040590682 -0.0006424798482846444 0 0.032160910458805397 -0.00052803837811084026 0 0.033253479533423211 -0.00044647230707320156 0 0.032312406543143664 -0.00066490051083417895 0 0.032263720187224433 -0.00066349860850177414 0 0.032285708429854898 -0.00063723690209731548 0 0.035080768513666712 -0.00049638493622347049 0 0.035193887963334232 -0.00030978464271562357 0 0.035226895008841887 -0.0004394745826997156 0 0.035080768513666712 -0.00049638493622347049 0 0.035226895008841887 -0.0004394745826997156 0 0.035283214230850686 -0.00056059726667264699 0 0.035080768513666712 -0.00049638493622347049 0 0.035041499824547122 -0.00025616085375615303 0 0.035193887963334232 -0.00030978464271562357 0 0.035193887963334232 -0.00030978464271562357 0 0.035226895008841887 -0.0004394745826997156 0 0.035344583903233029 -0.00039892439374630172 0 0.035226895008841887 -0.0004394745826997156 0 0.035344583903233029 -0.00039892439374630172 0 0.035283214230850686 -0.00056059726667264699 0 0.034948806227323825 -3.3198605367975254e-05 0 0.034940363054482899 -2.6166375781457302e-05 0 0.034923027972528831 -4.6475370785355718e-05 0 0.035156087688708752 -0.00012922768716827683 0 0.034006532100509738 -0.00046339152193510186 0 0.03495592633199085 -2.034386687269275e-05 0 0.034948806227323825 -3.3198605367975254e-05 0 0.034940363054482899 -2.6166375781457302e-05 0 0.032357924916839642 -0.00070428978246237374 0 0.032336828429753911 -0.00068223434682265056 0 0.032358279815510468 -0.00070239225305392269 0 0.034006532100509738 -0.00046339152193510186 0 0.033832969272281931 -0.00061887144971551841 0 0.034006532100509738 -0.00046339152193510186 0 0.033253479533423211 -0.00044647230707320156 0 0.034948806227323825 -3.3198605367975254e-05 0 0.034923027972528831 -4.6475370785355718e-05 0 0.034935647072444384 -4.5888127444359487e-05 0 0.032336828429753911 -0.00068223434682265056 0 0.032358279815510468 -0.00070239225305392269 0 0.032342271040590682 -0.0006424798482846444 0 0.032344256990789744 -0.00074170197726665941 0 0.032358279815510468 -0.00070239225305392269 0 0.032434158726001555 -0.00068219753070332683 0 0.032358279815510468 -0.00070239225305392269 0 0.032367121206527502 -0.00065048477332245956 0 0.032342271040590682 -0.0006424798482846444 0 0.032358279815510468 -0.00070239225305392269 0 0.032367121206527502 -0.00065048477332245956 0 0.032434158726001555 -0.00068219753070332683 0 0.032661773532229245 -0.00086831176742275802 0 0.032344256990789744 -0.00074170197726665941 0 0.032434158726001555 -0.00068219753070332683 0 0.032661773532229245 -0.00086831176742275802 0 0.032434158726001555 -0.00068219753070332683 0 0.032541792582820424 -0.00060469322411163269 0 0.033839402753980147 -0.00067517545094743963 0 0.034006532100509738 -0.00046339152193510186 0 0.032541792582820424 -0.00060469322411163269 0 0.032363693938803249 -0.00060467793248660104 0 0.032308063917688361 -0.0005887797688487479 0 0.032367121206527502 -0.00065048477332245956 0 0.032434158726001555 -0.00068219753070332683 0 0.032363693938803249 -0.00060467793248660104 0 0.032434158726001555 -0.00068219753070332683 0 0.032541792582820424 -0.00060469322411163269 0 0.032363693938803249 -0.00060467793248660104 0 0.032363693938803249 -0.00060467793248660104 0 0.032338490183052432 -0.00060507049933033802 0 0.032308063917688361 -0.0005887797688487479 0 0.032367121206527502 -0.00065048477332245956 0 0.032363693938803249 -0.00060467793248660104 0 0.032342271040590682 -0.0006424798482846444 0 0.032363693938803249 -0.00060467793248660104 0 0.032342271040590682 -0.0006424798482846444 0 0.032338490183052432 -0.00060507049933033802 0 0.031801128472664947 -0.00074344474947901 0 0.032267167040275074 -0.00062318604857693563 0 0.031778034456681127 -0.00039791546287875338 0 0.0312904254450403 -0.000914956240887698 0 0.030826458038616323 -0.00029717324571062174 0 0.031778034456681127 -0.00039791546287875338 0 0.0312904254450403 -0.000914956240887698 0 0.032308063917688361 -0.0005887797688487479 0 0.031778034456681127 -0.00039791546287875338 0 0.032308063917688361 -0.0005887797688487479 0 0.032376716330085223 -0.0003953955391859364 0 0.032263720187224433 -0.00066349860850177414 0 0.032285708429854898 -0.00063723690209731548 0 0.032230076248058806 -0.00062962203121049028 0 0.032263932452374321 -0.00060555547533258116 0 0.032285708429854898 -0.00063723690209731548 0 0.032230076248058806 -0.00062962203121049028 0 0.032312406543143664 -0.00066490051083417895 0 0.032342271040590682 -0.0006424798482846444 0 0.032338490183052432 -0.00060507049933033802 0 0.032338490183052432 -0.00060507049933033802 0 0.032263932452374321 -0.00060555547533258116 0 0.032285708429854898 -0.00063723690209731548 0 0.031801128472664947 -0.00074344474947901 0 0.031311139057305259 -0.00082630852185327304 0 0.032312406543143664 -0.00066490051083417895 0 0.032338490183052432 -0.00060507049933033802 0 0.032285708429854898 -0.00063723690209731548 0 0.0312904254450403 -0.000914956240887698 0 0.030261740505904116 -0.0010177048338899973 0 0.030826458038616323 -0.00029717324571062174 0 0.030261740505904116 -0.0010177048338899973 0 0.030826458038616323 -0.00029717324571062174 0 0.029705899233958548 -0.00013625476177846329 0 0.030826458038616323 -0.00029717324571062174 0 0.030372478583843142 0.00054240747375224182 0 0.029705899233958548 -0.00013625476177846329 0 0.030826458038616323 -0.00029717324571062174 0 0.030372478583843142 0.00054240747375224182 0 0.031605703175454927 0.0001365841176774965 0 0.030116353734479722 0.00031762627886635692 0 0.031283911477057225 -0.0001145008924601482 0 0.029817867654434626 0.00010674526878843954 0 0.030964828715386684 -0.00039917332473672125 0 0.030496742421381329 0.0003026690152786594 0 0.030116353734479722 0.00031762627886635692 0 0.02943950948829813 0.00060684822207066156 0 0.031778034456681127 -0.00039791546287875338 0 0.031605703175454927 0.0001365841176774965 0 0.032376716330085223 -0.0003953955391859364 0 0.031283911477057225 -0.0001145008924601482 0 0.032279441923109727 -0.00039069348185707774 0 0.0318218646354139 -0.00015068971827250733 0 0.030964828715386684 -0.00039917332473672125 0 0.032376716330085223 -0.0003953955391859364 0 0.031778034456681127 -0.00039791546287875338 0 0.030826458038616323 -0.00029717324571062174 0 0.031605703175454927 0.0001365841176774965 0 0.030964828715386684 -0.00039917332473672125 0 0.030496742421381329 0.0003026690152786594 0 0.03150677786293981 0.00043789159768367576 0 0.0318218646354139 -0.00015068971827250733 0 0.032274820689728499 -0.00016546463281836923 0 0.03150677786293981 0.00043789159768367576 0 0.0318218646354139 -0.00015068971827250733 0 0.030964828715386684 -0.00039917332473672125 0 0.03150677786293981 0.00043789159768367576 0 0.032168184454850625 -0.00015622615202497874 0 0.031358966254314911 0.00015863518456060236 0 0.032274820689728499 -0.00016546463281836923 0 0.032482570502612218 6.8293252665893069e-05 0 0.031911208532330253 0.00013399511375414375 0 0.032274820689728499 -0.00016546463281836923 0 0.031911208532330253 0.00013399511375414375 0 0.031222280347352246 -0.00013746413977421023 0 0.0318218646354139 -0.00015068971827250733 0 0.032274820689728499 -0.00016546463281836923 0 0.032376716330085223 -0.0003953955391859364 0 0.032274820689728499 -0.00016546463281836923 0 0.032589439577032663 -0.00031324168063888094 0 0.032376716330085223 -0.0003953955391859364 0 0.032274820689728499 -0.00016546463281836923 0 0.032705376758572553 -0.00015285933516714383 0 0.032589439577032663 -0.00031324168063888094 0 0.032705376758572553 -0.00015285933516714383 0 0.032589439577032663 -0.00031324168063888094 0 0.032913675109900994 -0.00033057639327045696 0 0.032274820689728499 -0.00016546463281836923 0 0.032705376758572553 -0.00015285933516714383 0 0.032482570502612218 6.8293252665893069e-05 0 0.032705376758572553 -0.00015285933516714383 0 0.032482570502612218 6.8293252665893069e-05 0 0.032985109387525809 -3.6675146225203336e-05 0 0.032985109387525809 -3.6675146225203336e-05 0 0.033306589985643627 5.0504184527743057e-05 0 0.032845939307153016 0.00028000187027703619 0 0.032985109387525809 -3.6675146225203336e-05 0 0.033306589985643627 5.0504184527743057e-05 0 0.033390087520343482 -0.0001528233215086882 0 0.032985109387525809 -3.6675146225203336e-05 0 0.033390087520343482 -0.0001528233215086882 0 0.033138583409544856 -0.00022846041894965642 0 0.033390087520343482 -0.0001528233215086882 0 0.033138583409544856 -0.00022846041894965642 0 0.033519781285544219 -0.0002926047063387019 0 0.032705376758572553 -0.00015285933516714383 0 0.032985109387525809 -3.6675146225203336e-05 0 0.033138583409544856 -0.00022846041894965642 0 0.032705376758572553 -0.00015285933516714383 0 0.033138583409544856 -0.00022846041894965642 0 0.032913675109900994 -0.00033057639327045696 0 0.033138583409544856 -0.00022846041894965642 0 0.033259410872224976 -0.00034483062742250942 0 0.032913675109900994 -0.00033057639327045696 0 0.033138583409544856 -0.00022846041894965642 0 0.033259410872224976 -0.00034483062742250942 0 0.033519781285544219 -0.0002926047063387019 0 0.033670652341289867 -0.00022292236866578314 0 0.033390087520343482 -0.0001528233215086882 0 0.033519781285544219 -0.0002926047063387019 0 0.033825143876639138 -0.0003244626263333982 0 0.034055680772042629 -0.00038818590076027901 0 0.03365857769923894 -0.0004216286314906199 0 0.033825143876639138 -0.0003244626263333982 0 0.033519781285544219 -0.0002926047063387019 0 0.03365857769923894 -0.0004216286314906199 0 0.033259410872224976 -0.00034483062742250942 0 0.033519781285544219 -0.0002926047063387019 0 0.03365857769923894 -0.0004216286314906199 0 0.033259410872224976 -0.00034483062742250942 0 0.03365857769923894 -0.0004216286314906199 0 0.033118478326281252 -0.00045673073602829081 0 0.032950790240106789 -0.00061598208156557737 0 0.033118478326281252 -0.00045673073602829081 0 0.03267337979534507 -0.00046974320797464408 0 0.032950790240106789 -0.00061598208156557737 0 0.032541792582820424 -0.00060469322411163269 0 0.03267337979534507 -0.00046974320797464408 0 0.032541792582820424 -0.00060469322411163269 0 0.032308063917688361 -0.0005887797688487479 0 0.03267337979534507 -0.00046974320797464408 0 0.032589439577032663 -0.00031324168063888094 0 0.03267337979534507 -0.00046974320797464408 0 0.032376716330085223 -0.0003953955391859364 0 0.032308063917688361 -0.0005887797688487479 0 0.03267337979534507 -0.00046974320797464408 0 0.032376716330085223 -0.0003953955391859364 0 0.033259410872224976 -0.00034483062742250942 0 0.033118478326281252 -0.00045673073602829081 0 0.032913675109900994 -0.00033057639327045696 0 0.032589439577032663 -0.00031324168063888094 0 0.03267337979534507 -0.00046974320797464408 0 0.032913675109900994 -0.00033057639327045696 0 0.033118478326281252 -0.00045673073602829081 0 0.03267337979534507 -0.00046974320797464408 0 0.032913675109900994 -0.00033057639327045696 0 0.032206551944648665 -1.4297118378131225e-06 0 0.032889789389959699 -0.00025355601252187476 0 0.032397604153840354 -0.00022105698970527007 0 0.032206551944648665 -1.4297118378131225e-06 0 0.032397604153840354 -0.00022105698970527007 0 0.030840303255086118 7.3357652985948606e-05 0 0.032206551944648665 -1.4297118378131225e-06 0 0.032889789389959699 -0.00025355601252187476 0 0.033875032621018861 -0.00015427082064140934 0 0.032206551944648665 -1.4297118378131225e-06 0 0.034998762120711083 1.4603393823583084e-07 0 0.033875032621018861 -0.00015427082064140934 0 0.034998762120711083 1.4603393823583084e-07 0 0.033875032621018861 -0.00015427082064140934 0 0.034994733172016193 1.9324585781474531e-07 0 0.032889789389959699 -0.00025355601252187476 0 0.033875032621018861 -0.00015427082064140934 0 0.032100430946202595 -0.00062522705941722722 0 0.034999396102697193 -3.4448608439254812e-07 0 0.033689349105484774 -0.00035662132963994804 0 0.033875032621018861 -0.00015427082064140934 0 0.034994733172016193 1.9324585781474531e-07 0 0.032340169491550108 -0.00040650594746917163 0 0.035000048879980192 -5.541510629040621e-09 0 0.03498411087871052 -3.3721854957458912e-05 0 0.034984271426362082 -1.4714997409464428e-05 0 0.033875032621018861 -0.00015427082064140934 0 0.032340169491550108 -0.00040650594746917163 0 0.032100430946202595 -0.00062522705941722722 0 0.032100430946202595 -0.00062522705941722722 0 0.030679252485762577 -0.00065439269759042971 0 0.030862090512801029 -0.0006847455825092785 0 0.032340169491550108 -0.00040650594746917163 0 0.032100430946202595 -0.00062522705941722722 0 0.030862090512801029 -0.0006847455825092785 0 0.033689349105484774 -0.00035662132963994804 0 0.032738524380873893 -0.00029023322269393711 0 0.032889789389959699 -0.00025355601252187476 0 0.032100430946202595 -0.00062522705941722722 0 0.032397604153840354 -0.00022105698970527007 0 0.031831537877773798 -0.00057123313211908942 0 0.030791253469011799 -0.00040201390899299004 0 0.032100430946202595 -0.00062522705941722722 0 0.02921233407306131 -0.00073019564968108876 0 0.030679252485762577 -0.00065439269759042971 0 0.02921233407306131 -0.00073019564968108876 0 0.030679252485762577 -0.00065439269759042971 0 0.028864027771342803 -0.00016139109353513874 0 0.032738524380873893 -0.00029023322269393711 0 0.029878115432795907 -1.6814843281024486e-05 0 0.030679252485762577 -0.00065439269759042971 0 0.030862090512801029 -0.0006847455825092785 0 0.029880647477448754 -0.00023407410162463844 0 0.031966368678183567 -0.00019945176191666641 0 0.032145396437732142 -0.000171626553476066 0 0.0321800491133966 -0.0003085360292445453 0 0.032738524380873893 -0.00029023322269393711 0 0.032149473593007828 -2.6405428180152412e-05 0 0.031966368678183567 -0.00019945176191666641 0 0.032069916033335588 -6.3025457358623739e-05 0 0.032022139239379833 3.9519450346734182e-06 0 0.031966368678183567 -0.00019945176191666641 0 0.032069916033335588 -6.3025457358623739e-05 0 0.032145396437732142 -0.000171626553476066 0 0.032069916033335588 -6.3025457358623739e-05 0 0.032145396437732142 -0.000171626553476066 0 0.032167946116536152 -8.3788462628492066e-05 0 0.032167946116536152 -8.3788462628492066e-05 0 0.032288799911847473 -0.00018290297984789497 0 0.032328526521650344 -7.674463550077385e-06 0 0.032427909766211162 -0.00015379916894851881 0 0.032288799911847473 -0.00018290297984789497 0 0.032435949254893438 -0.00042084412032761227 0 0.032145396437732142 -0.000171626553476066 0 0.032167946116536152 -8.3788462628492066e-05 0 0.032288799911847473 -0.00018290297984789497 0 0.032427909766211162 -0.00015379916894851881 0 0.032288799911847473 -0.00018290297984789497 0 0.032328526521650344 -7.674463550077385e-06 0 0.032288799911847473 -0.00018290297984789497 0 0.032435949254893438 -0.00042084412032761227 0 0.0321800491133966 -0.0003085360292445453 0 0.032145396437732142 -0.000171626553476066 0 0.032288799911847473 -0.00018290297984789497 0 0.0321800491133966 -0.0003085360292445453 0 0.032435949254893438 -0.00042084412032761227 0 0.032130878588473771 -0.00048841354953757564 0 0.0321800491133966 -0.0003085360292445453 0 0.032738524380873893 -0.00029023322269393711 0 0.033559038567617702 -0.00028755045648567757 0 0.031966368678183567 -0.00019945176191666641 0 0.032130878588473771 -0.00048841354953757564 0 0.0321800491133966 -0.0003085360292445453 0 0.03498411087871052 -3.3721854957458912e-05 0 0.034941922052389336 -8.1597574787468908e-05 0 0.034950568943542273 -4.7672521287650538e-05 0 0.034950568943542273 -4.7672521287650538e-05 0 0.034984271426362082 -1.4714997409464428e-05 0 0.03495881899980019 -1.9732522514694652e-05 0 0.03498411087871052 -3.3721854957458912e-05 0 0.034950568943542273 -4.7672521287650538e-05 0 0.034984271426362082 -1.4714997409464428e-05 0 0.033559038567617702 -0.00028755045648567757 0 0.034138245088715685 -0.00018806173483177927 0 0.034984271426362082 -1.4714997409464428e-05 0 0.034999888098006769 -1.0799857279890776e-08 0 0.03495881899980019 -1.9732522514694652e-05 0 0.035000048879980192 -5.541510629040621e-09 0 0.034984271426362082 -1.4714997409464428e-05 0 0.034999888098006769 -1.0799857279890776e-08 0 0.03499999940085434 -1.8878346807246961e-09 0 0.034999991740535218 -2.8583492110733012e-10 0 0.034994031463746827 -3.1459143579091066e-06 0 0.035000151811930655 -1.5724925692375789e-07 0 0.034138245088715685 -0.00018806173483177927 0 0.035000240554636054 4.1786217674200808e-07 0 0.034138245088715685 -0.00018806173483177927 0 0.034999997401036001 -8.089211514869096e-09 0 0.034995713040161198 -1.2013123431527254e-05 0 0.034988694755104043 -1.2777124307524396e-05 0 0.032435949254893438 -0.00042084412032761227 0 0.032130878588473771 -0.00048841354953757564 0 0.032288497468847009 -0.00076412401045419841 0 0.033736340183594719 -0.00025217307309466521 0 0.034138245088715685 -0.00018806173483177927 0 0.034982084737139943 -2.7471545147091055e-05 0 0.034995713040161198 -1.2013123431527254e-05 0 0.034988694755104043 -1.2777124307524396e-05 0 0.034999997401036001 -8.089211514869096e-09 0 0.034988694755104043 -1.2777124307524396e-05 0 0.034999983699834918 -4.372690196846126e-09 0 0.034999989727783121 -5.3410288997674917e-09 0 0.034989720802234899 -7.7650207827894207e-06 0 0.034999983699834918 -4.372690196846126e-09 0 0.034988694755104043 -1.2777124307524396e-05 0 0.034989720802234899 -7.7650207827894207e-06 0 0.034999983699834918 -4.372690196846126e-09 0 0.034976434610440373 -1.8471101555051633e-05 0 0.034988694755104043 -1.2777124307524396e-05 0 0.03497228946320783 -2.9248047310010756e-05 0 0.034976434610440373 -1.8471101555051633e-05 0 0.034988694755104043 -1.2777124307524396e-05 0 0.034989720802234899 -7.7650207827894207e-06 0 0.034982084737139943 -2.7471545147091055e-05 0 0.034988694755104043 -1.2777124307524396e-05 0 0.03497228946320783 -2.9248047310010756e-05 0 0.032427909766211162 -0.00015379916894851881 0 0.032609868035244703 -5.3936531302864449e-05 0 0.032328526521650344 -7.674463550077385e-06 0 0.032427909766211162 -0.00015379916894851881 0 0.032435949254893438 -0.00042084412032761227 0 0.032609868035244703 -5.3936531302864449e-05 0 0.034982084737139943 -2.7471545147091055e-05 0 0.03497228946320783 -2.9248047310010756e-05 0 0.034962693562569265 -3.9761124809506264e-05 0 0.033736340183594719 -0.00025217307309466521 0 0.03300902916151445 -3.8097275831888192e-05 0 0.034958421680619814 -3.9981040621972531e-05 0 0.03497228946320783 -2.9248047310010756e-05 0 0.034962693562569265 -3.9761124809506264e-05 0 0.033817453954469612 -0.00039329710851598106 0 0.03300902916151445 -3.8097275831888192e-05 0 0.032175374488565472 -0.00064494186951307038 0 0.032230076248058806 -0.00062962203121049028 0 0.032186494837449675 -0.0006078521776850007 0 0.031311139057305259 -0.00082630852185327304 0 0.030507196175659782 -0.00066867888390414803 0 0.032263932452374321 -0.00060555547533258116 0 0.032230076248058806 -0.00062962203121049028 0 0.032186494837449675 -0.0006078521776850007 0 0.032263720187224433 -0.00066349860850177414 0 0.032175374488565472 -0.00064494186951307038 0 0.032230076248058806 -0.00062962203121049028 0 0.03300902916151445 -3.8097275831888192e-05 0 0.031882662800826515 3.9702922880322002e-05 0 0.03300902916151445 -3.8097275831888192e-05 0 0.030507196175659782 -0.00066867888390414803 0 0.030507196175659782 -0.00066867888390414803 0 0.030147096273138094 -0.00040588412620246148 0 0.03149175377065886 8.2221999437816101e-05 0 0.031386335828765009 -0.00013590095389919054 0 0.031765992877734739 4.3357817618426188e-05 0 0.029314465546693442 -0.00078648431201671287 0 0.028971645150339186 -0.00020968800032712049 0 0.028424013291399399 -0.00073721780572508059 0 0.029314465546693442 -0.00078648431201671287 0 0.029705899233958548 -0.00013625476177846329 0 0.028971645150339186 -0.00020968800032712049 0 0.030261740505904116 -0.0010177048338899973 0 0.029294476994035323 -0.0010820655219896296 0 0.029705899233958548 -0.00013625476177846329 0 0.030507196175659782 -0.00066867888390414803 0 0.029352279350462408 -0.00036275522297484516 0 0.029705899233958548 -0.00013625476177846329 0 0.029316821966667524 0.0002681551354182593 0 0.028971645150339186 -0.00020968800032712049 0 0.030372478583843142 0.00054240747375224182 0 0.029705899233958548 -0.00013625476177846329 0 0.029316821966667524 0.0002681551354182593 0 0.030372478583843142 0.00054240747375224182 0 0.029316821966667524 0.0002681551354182593 0 0.029381887375277169 0.00063123751673048749 0 0.029020208502861657 0.00059720470621580377 0 0.029316821966667524 0.0002681551354182593 0 0.029381887375277169 0.00063123751673048749 0 0.029020208502861657 0.00059720470621580377 0 0.029316821966667524 0.0002681551354182593 0 0.028941963881127346 0.000223799652410293 0 0.029316821966667524 0.0002681551354182593 0 0.028941963881127346 0.000223799652410293 0 0.028971645150339186 -0.00020968800032712049 0 0.028941963881127346 0.000223799652410293 0 0.028971645150339186 -0.00020968800032712049 0 0.028445436891677459 0.00021476189999855374 0 0.028971645150339186 -0.00020968800032712049 0 0.028445436891677459 0.00021476189999855374 0 0.028431335783350369 -0.00025625620735832334 0 0.029020208502861657 0.00059720470621580377 0 0.028941963881127346 0.000223799652410293 0 0.028445436891677459 0.00021476189999855374 0 0.028103779688448516 -0.00042084675816526809 0 0.027629833893115081 -0.00047180659065574005 0 0.027676288810892558 -0.00036900201463275492 0 0.028566341496297477 9.3600632607809491e-05 0 0.028061098327754025 -0.00013584557607384452 0 0.027676288810892558 -0.00036900201463275492 0 0.027514466723201819 -0.00042127077038440168 0 0.027374422142616015 -0.000207372694896346 0 0.027629833893115081 -0.00047180659065574005 0 0.027676288810892558 -0.00036900201463275492 0 0.027514466723201819 -0.00042127077038440168 0 0.028445436891677459 0.00021476189999855374 0 0.027872155422917946 -0.00026073438181670021 0 0.028431335783350369 -0.00025625620735832334 0 0.027629833893115081 -0.00047180659065574005 0 0.027514466723201819 -0.00042127077038440168 0 0.027872155422917946 -0.00026073438181670021 0 0.028061098327754025 -0.00013584557607384452 0 0.027875241868733708 -0.00026022864795494056 0 0.027872155422917946 -0.00026073438181670021 0 0.028431335783350369 -0.00025625620735832334 0 0.028424013291399399 -0.00073721780572508059 0 0.027872155422917946 -0.00026073438181670021 0 0.028424013291399399 -0.00073721780572508059 0 0.027918900283115777 -0.0004524734187845647 0 0.028971645150339186 -0.00020968800032712049 0 0.028431335783350369 -0.00025625620735832334 0 0.028424013291399399 -0.00073721780572508059 0 0.031882662800826515 3.9702922880322002e-05 0 0.032071470868686995 -1.484680015196457e-06 0 0.031830572514439055 -8.7870050768168963e-05 0 0.031765992877734739 4.3357817618426188e-05 0 0.032009170204263339 1.9245102684316145e-07 0 0.032167946116536152 -8.3788462628492066e-05 0 0.032328526521650344 -7.674463550077385e-06 0 0.032009170204263339 1.9245102684316145e-07 0 0.031386335828765009 -0.00013590095389919054 0 0.031830572514439055 -8.7870050768168963e-05 0 0.031765992877734739 4.3357817618426188e-05 0 0.031830572514439055 -8.7870050768168963e-05 0 0.032009170204263339 1.9245102684316145e-07 0 0.03218366310950764 -5.0141052693586012e-05 0 0.032072948653550697 0.00016210705580095556 0 0.032022139239379833 3.9519450346734182e-06 0 0.03218366310950764 -5.0141052693586012e-05 0 0.030147096273138094 -0.00040588412620246148 0 0.029878115432795907 -1.6814843281024486e-05 0 0.032069916033335588 -6.3025457358623739e-05 0 0.032009170204263339 1.9245102684316145e-07 0 0.032022139239379833 3.9519450346734182e-06 0 0.032069916033335588 -6.3025457358623739e-05 0 0.032167946116536152 -8.3788462628492066e-05 0 0.032009170204263339 1.9245102684316145e-07 0 0.032009170204263339 1.9245102684316145e-07 0 0.032022139239379833 3.9519450346734182e-06 0 0.03218366310950764 -5.0141052693586012e-05 0 0.030679252485762577 -0.00065439269759042971 0 0.029880647477448754 -0.00023407410162463844 0 0.028864027771342803 -0.00016139109353513874 0 0.029880647477448754 -0.00023407410162463844 0 0.028864027771342803 -0.00016139109353513874 0 0.028115885459054094 -0.00014634080938693691 0 0.028864027771342803 -0.00016139109353513874 0 0.028115885459054094 -0.00014634080938693691 0 0.02784674271466216 -5.4937192147315595e-05 0 0.027872155422917946 -0.00026073438181670021 0 0.027918900283115777 -0.0004524734187845647 0 0.028115885459054094 -0.00014634080938693691 0 0.029878115432795907 -1.6814843281024486e-05 0 0.028238845694508369 -0.00025515006566255568 0 0.027872155422917946 -0.00026073438181670021 0 0.028115885459054094 -0.00014634080938693691 0 0.027488845789325773 -0.00035707916539510712 0 0.027514466723201819 -0.00042127077038440168 0 0.027872155422917946 -0.00026073438181670021 0 0.027488845789325773 -0.00035707916539510712 0 0.027514466723201819 -0.00042127077038440168 0 0.027488845789325773 -0.00035707916539510712 0 0.026819825441826036 -0.0003260978227913385 0 0.027488845789325773 -0.00035707916539510712 0 0.027504437047320845 -0.00025657302334368989 0 0.026819825441826036 -0.0003260978227913385 0 0.027504437047320845 -0.00025657302334368989 0 0.027126945846953462 -0.00025961728268490209 0 0.026819825441826036 -0.0003260978227913385 0 0.028115885459054094 -0.00014634080938693691 0 0.027488845789325773 -0.00035707916539510712 0 0.027504437047320845 -0.00025657302334368989 0 0.028115885459054094 -0.00014634080938693691 0 0.027504437047320845 -0.00025657302334368989 0 0.02784674271466216 -5.4937192147315595e-05 0 0.027504437047320845 -0.00025657302334368989 0 0.027126945846953462 -0.00025961728268490209 0 0.02784674271466216 -5.4937192147315595e-05 0 0.027126945846953462 -0.00025961728268490209 0 0.028305840034057138 -1.6165990940086728e-07 0 0.02784674271466216 -5.4937192147315595e-05 0 0.027126945846953462 -0.00025961728268490209 0 0.026204593865515866 -0.00019517992632595233 0 0.026819825441826036 -0.0003260978227913385 0 0.027126945846953462 -0.00025961728268490209 0 0.026341196910292759 -4.9957531759064972e-07 0 0.026204593865515866 -0.00019517992632595233 0 0.027126945846953462 -0.00025961728268490209 0 0.026341196910292759 -4.9957531759064972e-07 0 0.028305840034057138 -1.6165990940086728e-07 0 0.032206551944648665 -1.4297118378131225e-06 0 0.028312597329459375 1.79566280655681e-06 0 0.030840303255086118 7.3357652985948606e-05 0 0.028305840034057138 -1.6165990940086728e-07 0 0.02784674271466216 -5.4937192147315595e-05 0 0.028050004109042962 -6.142966453392421e-05 0 0.028310038390142747 -1.7102190832937897e-07 0 0.029510095303300905 -9.894992692988821e-05 0 0.028864027771342803 -0.00016139109353513874 0 0.02784674271466216 -5.4937192147315595e-05 0 0.028050004109042962 -6.142966453392421e-05 0 0.02921233407306131 -0.00073019564968108876 0 0.028864027771342803 -0.00016139109353513874 0 0.028050004109042962 -6.142966453392421e-05 0 0.030791253469011799 -0.00040201390899299004 0 0.029510095303300905 -9.894992692988821e-05 0 0.022402196270097957 3.6063050529281294e-07 0 0.024192241870448005 0.0003028235178404254 0 0.022166021844500224 0.00030512621566373261 0 0.022402196270097957 3.6063050529281294e-07 0 0.024192241870448005 0.0003028235178404254 0 0.024108108521150421 3.3742139355415509e-05 0 0.024192241870448005 0.0003028235178404254 0 0.02387576315217459 0.00061839921234711022 0 0.022166021844500224 0.00030512621566373261 0 0.024192241870448005 0.0003028235178404254 0 0.024108108521150421 3.3742139355415509e-05 0 0.025522089231541967 -0.00011804839251386424 0 0.024192241870448005 0.0003028235178404254 0 0.025522089231541967 -0.00011804839251386424 0 0.025981644035480901 4.8057009795030866e-05 0 0.022402196270097957 3.6063050529281294e-07 0 0.024108108521150421 3.3742139355415509e-05 0 0.024371052362198817 -2.0575366705037822e-07 0 0.024108108521150421 3.3742139355415509e-05 0 0.024371052362198817 -2.0575366705037822e-07 0 0.025522089231541967 -0.00011804839251386424 0 0.024371052362198817 -2.0575366705037822e-07 0 0.026204593865515866 -0.00019517992632595233 0 0.025522089231541967 -0.00011804839251386424 0 0.026341196910292759 -4.9957531759064972e-07 0 0.024371052362198817 -2.0575366705037822e-07 0 0.026204593865515866 -0.00019517992632595233 0 0.026204593865515866 -0.00019517992632595233 0 0.025522089231541967 -0.00011804839251386424 0 0.026819825441826036 -0.0003260978227913385 0 0.025522089231541967 -0.00011804839251386424 0 0.025981644035480901 4.8057009795030866e-05 0 0.026819825441826036 -0.0003260978227913385 0 0.026819825441826036 -0.0003260978227913385 0 0.026814270906456449 5.5492520753086252e-05 0 0.027374422142616015 -0.000207372694896346 0 0.027514466723201819 -0.00042127077038440168 0 0.026819825441826036 -0.0003260978227913385 0 0.027374422142616015 -0.000207372694896346 0 0.025981644035480901 4.8057009795030866e-05 0 0.026819825441826036 -0.0003260978227913385 0 0.026814270906456449 5.5492520753086252e-05 0 0.025981644035480901 4.8057009795030866e-05 0 0.026814270906456449 5.5492520753086252e-05 0 0.026684156412822558 0.00091140587970313359 0 0.026814270906456449 5.5492520753086252e-05 0 0.026684156412822558 0.00091140587970313359 0 0.027461588248989151 0.00023520269310239132 0 0.024318514376977879 0.00035935846083187716 0 0.025826308862395734 0.0005235203851224054 0 0.024192241870448005 0.0003028235178404254 0 0.025981644035480901 4.8057009795030866e-05 0 0.026684156412822558 0.00091140587970313359 0 0.024192241870448005 0.0003028235178404254 0 0.024991998995956177 0.00020219954365208092 0 0.024503291278861944 0.00064834622870276794 0 0.024192241870448005 0.0003028235178404254 0 0.024503291278861944 0.00064834622870276794 0 0.02387576315217459 0.00061839921234711022 0 0.024991998995956177 0.00020219954365208092 0 0.024503291278861944 0.00064834622870276794 0 0.025275741843869149 0.0011452690540496061 0 0.024991998995956177 0.00020219954365208092 0 0.026352128737119236 0.00014058061956670936 0 0.02608832208216862 0.0010714192524697774 0 0.024991998995956177 0.00020219954365208092 0 0.02608832208216862 0.0010714192524697774 0 0.025275741843869149 0.0011452690540496061 0 0.026352128737119236 0.00014058061956670936 0 0.027015182774075372 0.00075888113207574063 0 0.02608832208216862 0.0010714192524697774 0 0.027015182774075372 0.00075888113207574063 0 0.02697469665205034 0.0013955797055335999 0 0.02608832208216862 0.0010714192524697774 0 0.025826308862395734 0.0005235203851224054 0 0.027089488163776942 0.00052295835306133041 0 0.026684156412822558 0.00091140587970313359 0 0.02781358781265917 0.00089402006285194504 0 0.027461588248989151 0.00023520269310239132 0 0.026814270906456449 5.5492520753086252e-05 0 0.027461588248989151 0.00023520269310239132 0 0.027374422142616015 -0.000207372694896346 0 0.027461588248989151 0.00023520269310239132 0 0.027374422142616015 -0.000207372694896346 0 0.027800998239112851 -0.00010665745397539637 0 0.028103779688448516 -0.00042084675816526809 0 0.027676288810892558 -0.00036900201463275492 0 0.027800998239112851 -0.00010665745397539637 0 0.027676288810892558 -0.00036900201463275492 0 0.027374422142616015 -0.000207372694896346 0 0.027800998239112851 -0.00010665745397539637 0 0.028103779688448516 -0.00042084675816526809 0 0.027800998239112851 -0.00010665745397539637 0 0.028251489076573218 -2.7434919764133696e-06 0 0.02781358781265917 0.00089402006285194504 0 0.027461588248989151 0.00023520269310239132 0 0.028003516142438348 0.00023063240330331174 0 0.027461588248989151 0.00023520269310239132 0 0.027800998239112851 -0.00010665745397539637 0 0.028003516142438348 0.00023063240330331174 0 0.027800998239112851 -0.00010665745397539637 0 0.028003516142438348 0.00023063240330331174 0 0.028251489076573218 -2.7434919764133696e-06 0 0.02781358781265917 0.00089402006285194504 0 0.028003516142438348 0.00023063240330331174 0 0.02848098895171354 0.00039908634238469812 0 0.02848098895171354 0.00039908634238469812 0 0.028251489076573218 -2.7434919764133696e-06 0 0.028827261364946843 1.6660647541405157e-05 0 0.028003516142438348 0.00023063240330331174 0 0.02848098895171354 0.00039908634238469812 0 0.028251489076573218 -2.7434919764133696e-06 0 0.029020208502861657 0.00059720470621580377 0 0.029381887375277169 0.00063123751673048749 0 0.029446206741496381 0.00071625104762531797 0 0.028103779688448516 -0.00042084675816526809 0 0.028251489076573218 -2.7434919764133696e-06 0 0.028827261364946843 1.6660647541405157e-05 0 0.028566341496297477 9.3600632607809491e-05 0 0.029117396113425755 0.00038012665680426012 0 0.029817867654434626 0.00010674526878843954 0 0.029381887375277169 0.00063123751673048749 0 0.029531135152901847 0.00059454288619478941 0 0.029381887375277169 0.00063123751673048749 0 0.029531135152901847 0.00059454288619478941 0 0.029446206741496381 0.00071625104762531797 0 0.029531135152901847 0.00059454288619478941 0 0.029446206741496381 0.00071625104762531797 0 0.029523821193664139 0.00066688972895076568 0 0.029117396113425755 0.00038012665680426012 0 0.029417357128259141 0.00063773861307500786 0 0.029446206741496381 0.00071625104762531797 0 0.029523821193664139 0.00066688972895076568 0 0.029437388366483505 0.00066178282105313583 0 0.028827261364946843 1.6660647541405157e-05 0 0.028949012853051004 0.00048578525765419298 0 0.029437388366483505 0.00066178282105313583 0 0.02848098895171354 0.00039908634238469812 0 0.028827261364946843 1.6660647541405157e-05 0 0.028949012853051004 0.00048578525765419298 0 0.028949012853051004 0.00048578525765419298 0 0.028990424274488124 0.00089095470157229625 0 0.029437388366483505 0.00066178282105313583 0 0.02848098895171354 0.00039908634238469812 0 0.028949012853051004 0.00048578525765419298 0 0.028990424274488124 0.00089095470157229625 0 0.02781358781265917 0.00089402006285194504 0 0.02848098895171354 0.00039908634238469812 0 0.028990424274488124 0.00089095470157229625 0 0.026352128737119236 0.00014058061956670936 0 0.027924414057970255 0.00013108495507845982 0 0.027015182774075372 0.00075888113207574063 0 0.027089488163776942 0.00052295835306133041 0 0.02844984319119459 0.00052494187169930628 0 0.027924414057970255 0.00013108495507845982 0 0.027015182774075372 0.00075888113207574063 0 0.027826568769337621 0.00099710615321664119 0 0.027015182774075372 0.00075888113207574063 0 0.027826568769337621 0.00099710615321664119 0 0.02697469665205034 0.0013955797055335999 0 0.027924414057970255 0.00013108495507845982 0 0.027826568769337621 0.00099710615321664119 0 0.02840815291313422 0.00072761237108920135 0 0.027826568769337621 0.00099710615321664119 0 0.02840815291313422 0.00072761237108920135 0 0.028422446916296546 0.0013414024219933639 0 0.027801172194233111 0.0016964082896644454 0 0.028422446916296546 0.0013414024219933639 0 0.028654554632932993 0.0019424644286700913 0 0.027826568769337621 0.00099710615321664119 0 0.027801172194233111 0.0016964082896644454 0 0.028422446916296546 0.0013414024219933639 0 0.027826568769337621 0.00099710615321664119 0 0.027801172194233111 0.0016964082896644454 0 0.02697469665205034 0.0013955797055335999 0 0.027801172194233111 0.0016964082896644454 0 0.02697469665205034 0.0013955797055335999 0 0.027098833128329412 0.0020861257397877617 0 0.027098833128329412 0.0020861257397877617 0 0.026367346571209233 0.0025261226228324601 0 0.026388574159224357 0.0018443564696282208 0 0.02697469665205034 0.0013955797055335999 0 0.027098833128329412 0.0020861257397877617 0 0.026388574159224357 0.0018443564696282208 0 0.027801172194233111 0.0016964082896644454 0 0.027098833128329412 0.0020861257397877617 0 0.028012044231944665 0.0024003053875014334 0 0.027098833128329412 0.0020861257397877617 0 0.028012044231944665 0.0024003053875014334 0 0.027251475711409286 0.0028476560451315765 0 0.027801172194233111 0.0016964082896644454 0 0.028012044231944665 0.0024003053875014334 0 0.028654554632932993 0.0019424644286700913 0 0.028297181575355126 0.0031348289140743116 0 0.027571677883031814 0.0036439969997837302 0 0.027251475711409286 0.0028476560451315765 0 0.028012044231944665 0.0024003053875014334 0 0.028297181575355126 0.0031348289140743116 0 0.027251475711409286 0.0028476560451315765 0 0.028297181575355126 0.0031348289140743116 0 0.027571677883031814 0.0036439969997837302 0 0.028769811530002326 0.003863075807406809 0 0.026805928591795761 0.0034563717363351194 0 0.027906162350282024 0.0037065226642594047 0 0.026076245683022987 0.0033543329985919836 0 0.027031564960673497 0.0035511446891064616 0 0.026168803345668082 0.0041892661775487158 0 0.026805928591795761 0.0034563717363351194 0 0.025781556750467501 0.0030347151800594161 0 0.026076245683022987 0.0033543329985919836 0 0.025566549526160588 0.0036540944198523756 0 0.026168803345668082 0.0041892661775487158 0 0.026076245683022987 0.0033543329985919836 0 0.025566549526160588 0.0036540944198523756 0 0.025721057014378497 0.0029775895653281008 0 0.027571677883031814 0.0036439969997837302 0 0.027251475711409286 0.0028476560451315765 0 0.025721057014378497 0.0029775895653281008 0 0.027251475711409286 0.0028476560451315765 0 0.026367346571209233 0.0025261226228324601 0 0.025721057014378497 0.0029775895653281008 0 0.027098833128329412 0.0020861257397877617 0 0.027251475711409286 0.0028476560451315765 0 0.026367346571209233 0.0025261226228324601 0 0.026297755507678749 0.0024459895302676774 0 0.02480964478019379 0.0016423882834320164 0 0.026367346571209233 0.0025261226228324601 0 0.024705880992233045 0.0024805533124120688 0 0.024019198483901202 0.001153865217480305 0 0.026367346571209233 0.0025261226228324601 0 0.025721057014378497 0.0029775895653281008 0 0.024705880992233045 0.0024805533124120688 0 0.025721057014378497 0.0029775895653281008 0 0.02490082102097432 0.0033796743515190296 0 0.024705880992233045 0.0024805533124120688 0 0.025566549526160588 0.0036540944198523756 0 0.025721057014378497 0.0029775895653281008 0 0.02490082102097432 0.0033796743515190296 0 0.025566549526160588 0.0036540944198523756 0 0.02490082102097432 0.0033796743515190296 0 0.025025711785516096 0.0038558898871198619 0 0.02490082102097432 0.0033796743515190296 0 0.024432934101520823 0.0040020795949855777 0 0.025025711785516096 0.0038558898871198619 0 0.023996130912377237 0.0032393583186054458 0 0.024432934101520823 0.0040020795949855777 0 0.023702202155250571 0.0039503957009418165 0 0.02490082102097432 0.0033796743515190296 0 0.023996130912377237 0.0032393583186054458 0 0.024432934101520823 0.0040020795949855777 0 0.02490082102097432 0.0033796743515190296 0 0.023996130912377237 0.0032393583186054458 0 0.024705880992233045 0.0024805533124120688 0 0.023996130912377237 0.0032393583186054458 0 0.024705880992233045 0.0024805533124120688 0 0.023370420293723319 0.002184855633083771 0 0.024705880992233045 0.0024805533124120688 0 0.024019198483901202 0.001153865217480305 0 0.023370420293723319 0.002184855633083771 0 0.026367346571209233 0.0025261226228324601 0 0.025605123167316338 0.0020782565142635225 0 0.026388574159224357 0.0018443564696282208 0 0.02697469665205034 0.0013955797055335999 0 0.026388574159224357 0.0018443564696282208 0 0.02608832208216862 0.0010714192524697774 0 0.025605123167316338 0.0020782565142635225 0 0.026388574159224357 0.0018443564696282208 0 0.02608832208216862 0.0010714192524697774 0 0.025605123167316338 0.0020782565142635225 0 0.02608832208216862 0.0010714192524697774 0 0.025275741843869149 0.0011452690540496061 0 0.024503291278861944 0.00064834622870276794 0 0.025275741843869149 0.0011452690540496061 0 0.024482029606798919 0.0016314967704221701 0 0.025605123167316338 0.0020782565142635225 0 0.025275741843869149 0.0011452690540496061 0 0.024482029606798919 0.0016314967704221701 0 0.024503291278861944 0.00064834622870276794 0 0.024482029606798919 0.0016314967704221701 0 0.02387576315217459 0.00061839921234711022 0 0.022441138622551995 0.00076990406586942598 0 0.02221016398184578 0.0017738387003764726 0 0.021879586058511799 0.00019138592993754447 0 0.021890968370925846 0.00063195164836931284 0 0.022442413527098134 0.00069960266532499379 0 0.021890968370925846 0.00063195164836931284 0 0.022442413527098134 0.00069960266532499379 0 0.022287976290392992 0.0011891866863069887 0 0.021879586058511799 0.00019138592993754447 0 0.021890968370925846 0.00063195164836931284 0 0.02178906316918619 0.00021218118776174472 0 0.024019198483901202 0.001153865217480305 0 0.022442413527098134 0.00069960266532499379 0 0.023370420293723319 0.002184855633083771 0 0.024019198483901202 0.001153865217480305 0 0.021879586058511799 0.00019138592993754447 0 0.022442413527098134 0.00069960266532499379 0 0.02480964478019379 0.0016423882834320164 0 0.023191271731597209 0.0008963631217352541 0 0.023370420293723319 0.002184855633083771 0 0.023044518225544625 0.0033113957139774457 0 0.02214249079514714 0.0022086316857010358 0 0.022442413527098134 0.00069960266532499379 0 0.023370420293723319 0.002184855633083771 0 0.02214249079514714 0.0022086316857010358 0 0.023996130912377237 0.0032393583186054458 0 0.023370420293723319 0.002184855633083771 0 0.023044518225544625 0.0033113957139774457 0 0.023044518225544625 0.0033113957139774457 0 0.021889763883400828 0.0034526222269597191 0 0.023011187293370886 0.004238773714621614 0 0.023996130912377237 0.0032393583186054458 0 0.023044518225544625 0.0033113957139774457 0 0.023702202155250571 0.0039503957009418165 0 0.020740150194349861 0.0017640633595895042 0 0.02221016398184578 0.0017738387003764726 0 0.023044518225544625 0.0033113957139774457 0 0.021889763883400828 0.0034526222269597191 0 0.02214249079514714 0.0022086316857010358 0 0.021890968370925846 0.00063195164836931284 0 0.022287976290392992 0.0011891866863069887 0 0.021400635079653684 0.0014316375450346415 0 0.022065887073298027 0.0019541793563245878 0 0.022287976290392992 0.0011891866863069887 0 0.021400635079653684 0.0014316375450346415 0 0.021890968370925846 0.00063195164836931284 0 0.021400635079653684 0.0014316375450346415 0 0.021164268778339962 0.00045754402869972342 0 0.016931378301231651 -4.264342618332577e-05 0 0.017643842371442724 0.00018686959030334032 0 0.017077170320487226 -0.0001875224121512776 0 0.020740150194349861 0.0017640633595895042 0 0.01928673013546775 0.00053312452233334633 0 0.017643842371442724 0.00018686959030334032 0 0.018462652457176952 1.4467818061182035e-07 0 0.017077170320487226 -0.0001875224121512776 0 0.017643842371442724 0.00018686959030334032 0 0.018462652457176952 1.4467818061182035e-07 0 0.019835620383958627 0.00029845417747489857 0 0.021400635079653684 0.0014316375450346415 0 0.019835620383958627 0.00029845417747489857 0 0.021164268778339962 0.00045754402869972342 0 0.018462652457176952 1.4467818061182035e-07 0 0.019835620383958627 0.00029845417747489857 0 0.020432820213534708 1.1909972788790277e-06 0 0.01928673013546775 0.00053312452233334633 0 0.019748264457611277 0.00043359306232602511 0 0.019835620383958627 0.00029845417747489857 0 0.020432820213534708 1.1909972788790277e-06 0 0.020978636374423699 0.00013365324577719988 0 0.019835620383958627 0.00029845417747489857 0 0.020978636374423699 0.00013365324577719988 0 0.021164268778339962 0.00045754402869972342 0 0.021890968370925846 0.00063195164836931284 0 0.021164268778339962 0.00045754402869972342 0 0.021522429307454082 0.00021714630931596744 0 0.021890968370925846 0.00063195164836931284 0 0.02178906316918619 0.00021218118776174472 0 0.021522429307454082 0.00021714630931596744 0 0.020978636374423699 0.00013365324577719988 0 0.021164268778339962 0.00045754402869972342 0 0.021522429307454082 0.00021714630931596744 0 0.024482029606798919 0.0016314967704221701 0 0.02387576315217459 0.00061839921234711022 0 0.022166021844500224 0.00030512621566373261 0 0.021879586058511799 0.00019138592993754447 0 0.02178906316918619 0.00021218118776174472 0 0.022166021844500224 0.00030512621566373261 0 0.02178906316918619 0.00021218118776174472 0 0.021522429307454082 0.00021714630931596744 0 0.022166021844500224 0.00030512621566373261 0 0.023191271731597209 0.0008963631217352541 0 0.022219717200976992 0.00036276092999751308 0 0.020432820213534708 1.1909972788790277e-06 0 0.020978636374423699 0.00013365324577719988 0 0.022166021844500224 0.00030512621566373261 0 0.022402196270097957 3.6063050529281294e-07 0 0.020432820213534708 1.1909972788790277e-06 0 0.022166021844500224 0.00030512621566373261 0 0.020978636374423699 0.00013365324577719988 0 0.021522429307454082 0.00021714630931596744 0 0.022166021844500224 0.00030512621566373261 0 0.032265150480060185 0.00097193815924691079 0 0.031785303955565947 0.0011387750941401146 0 0.03218503349902211 0.00053295670544239245 0 0.031785303955565947 0.0011387750941401146 0 0.030860951713944332 0.0010615527955337347 0 0.03158455980880015 0.0017825331944948666 0 0.031785303955565947 0.0011387750941401146 0 0.032398542072359364 0.0014478745357127687 0 0.03158455980880015 0.0017825331944948666 0 0.032265150480060185 0.00097193815924691079 0 0.031785303955565947 0.0011387750941401146 0 0.032398542072359364 0.0014478745357127687 0 0.033166635155912214 0.0012040156500357161 0 0.032398542072359364 0.0014478745357127687 0 0.032884681711556653 0.0019382193221683947 0 0.033166635155912214 0.0012040156500357161 0 0.033320779672983886 0.00036357458133534843 0 0.032695374343742152 0.00080608936920544851 0 0.033166635155912214 0.0012040156500357161 0 0.032398542072359364 0.0014478745357127687 0 0.032695374343742152 0.00080608936920544851 0 0.032265150480060185 0.00097193815924691079 0 0.032398542072359364 0.0014478745357127687 0 0.032695374343742152 0.00080608936920544851 0 0.032265150480060185 0.00097193815924691079 0 0.032695374343742152 0.00080608936920544851 0 0.03218503349902211 0.00053295670544239245 0 0.032695374343742152 0.00080608936920544851 0 0.032845939307153016 0.00028000187027703619 0 0.03218503349902211 0.00053295670544239245 0 0.033320779672983886 0.00036357458133534843 0 0.032695374343742152 0.00080608936920544851 0 0.032845939307153016 0.00028000187027703619 0 0.033320779672983886 0.00036357458133534843 0 0.033306589985643627 5.0504184527743057e-05 0 0.032845939307153016 0.00028000187027703619 0 0.032482570502612218 6.8293252665893069e-05 0 0.032985109387525809 -3.6675146225203336e-05 0 0.032845939307153016 0.00028000187027703619 0 0.032482570502612218 6.8293252665893069e-05 0 0.03218503349902211 0.00053295670544239245 0 0.031911208532330253 0.00013399511375414375 0 0.032482570502612218 6.8293252665893069e-05 0 0.032845939307153016 0.00028000187027703619 0 0.03218503349902211 0.00053295670544239245 0 0.031785303955565947 0.0011387750941401146 0 0.03218503349902211 0.00053295670544239245 0 0.031262401849408948 0.00050190783983616372 0 0.03218503349902211 0.00053295670544239245 0 0.031911208532330253 0.00013399511375414375 0 0.031262401849408948 0.00050190783983616372 0 0.031222280347352246 -0.00013746413977421023 0 0.030265094067702402 0.0001769799881724163 0 0.031262401849408948 0.00050190783983616372 0 0.031911208532330253 0.00013399511375414375 0 0.031222280347352246 -0.00013746413977421023 0 0.031262401849408948 0.00050190783983616372 0 0.030496742421381329 0.0003026690152786594 0 0.03150677786293981 0.00043789159768367576 0 0.030412516184093269 0.00083253285019271037 0 0.031358966254314911 0.00015863518456060236 0 0.03034870428514725 0.00048719017242186214 0 0.030265094067702402 0.0001769799881724163 0 0.031262401849408948 0.00050190783983616372 0 0.030414789945417096 0.00065651484209659165 0 0.029817867654434626 0.00010674526878843954 0 0.029531135152901847 0.00059454288619478941 0 0.02964323028399754 0.00062052300300018451 0 0.029817867654434626 0.00010674526878843954 0 0.02964323028399754 0.00062052300300018451 0 0.029932908033323803 0.00068347155436489812 0 0.029531135152901847 0.00059454288619478941 0 0.02964323028399754 0.00062052300300018451 0 0.029523821193664139 0.00066688972895076568 0 0.030496742421381329 0.0003026690152786594 0 0.030412516184093269 0.00083253285019271037 0 0.029932908033323803 0.00068347155436489812 0 0.029817867654434626 0.00010674526878843954 0 0.030496742421381329 0.0003026690152786594 0 0.029932908033323803 0.00068347155436489812 0 0.030265094067702402 0.0001769799881724163 0 0.029727200599177998 0.00063451931318017326 0 0.030414789945417096 0.00065651484209659165 0 0.030412516184093269 0.00083253285019271037 0 0.029932908033323803 0.00068347155436489812 0 0.029588525646776567 0.00064425747206301863 0 0.03034870428514725 0.00048719017242186214 0 0.029686489264817869 0.00065330857357930212 0 0.030265094067702402 0.0001769799881724163 0 0.029588525646776567 0.00064425747206301863 0 0.029727200599177998 0.00063451931318017326 0 0.029932908033323803 0.00068347155436489812 0 0.029593314839783048 0.00066474913738496968 0 0.029588525646776567 0.00064425747206301863 0 0.02964323028399754 0.00062052300300018451 0 0.029932908033323803 0.00068347155436489812 0 0.029593314839783048 0.00066474913738496968 0 0.029593314839783048 0.00066474913738496968 0 0.029437388366483505 0.00066178282105313583 0 0.029588525646776567 0.00064425747206301863 0 0.029593314839783048 0.00066474913738496968 0 0.029523821193664139 0.00066688972895076568 0 0.029437388366483505 0.00066178282105313583 0 0.02964323028399754 0.00062052300300018451 0 0.029593314839783048 0.00066474913738496968 0 0.029523821193664139 0.00066688972895076568 0 0.02840815291313422 0.00072761237108920135 0 0.029727200599177998 0.00063451931318017326 0 0.02899245073663621 0.00099570453726270354 0 0.027924414057970255 0.00013108495507845982 0 0.02840815291313422 0.00072761237108920135 0 0.029727200599177998 0.00063451931318017326 0 0.02844984319119459 0.00052494187169930628 0 0.029626357948929122 0.00060538891284726306 0 0.028990424274488124 0.00089095470157229625 0 0.029437388366483505 0.00066178282105313583 0 0.029727200599177998 0.00063451931318017326 0 0.029437388366483505 0.00066178282105313583 0 0.029588525646776567 0.00064425747206301863 0 0.029727200599177998 0.00063451931318017326 0 0.029727200599177998 0.00063451931318017326 0 0.029620125124533648 0.0010277469053602813 0 0.02899245073663621 0.00099570453726270354 0 0.029727200599177998 0.00063451931318017326 0 0.030040617042032678 0.00089727880458624924 0 0.030414789945417096 0.00065651484209659165 0 0.029727200599177998 0.00063451931318017326 0 0.030040617042032678 0.00089727880458624924 0 0.029620125124533648 0.0010277469053602813 0 0.029980032777460416 0.0013304965313436865 0 0.029620125124533648 0.0010277469053602813 0 0.029220497005920727 0.0014359113329718586 0 0.030040617042032678 0.00089727880458624924 0 0.029980032777460416 0.0013304965313436865 0 0.029620125124533648 0.0010277469053602813 0 0.029620125124533648 0.0010277469053602813 0 0.02899245073663621 0.00099570453726270354 0 0.029220497005920727 0.0014359113329718586 0 0.028422446916296546 0.0013414024219933639 0 0.02899245073663621 0.00099570453726270354 0 0.029220497005920727 0.0014359113329718586 0 0.02840815291313422 0.00072761237108920135 0 0.028422446916296546 0.0013414024219933639 0 0.02899245073663621 0.00099570453726270354 0 0.031785303955565947 0.0011387750941401146 0 0.031262401849408948 0.00050190783983616372 0 0.030860951713944332 0.0010615527955337347 0 0.031262401849408948 0.00050190783983616372 0 0.030860951713944332 0.0010615527955337347 0 0.030414789945417096 0.00065651484209659165 0 0.030040617042032678 0.00089727880458624924 0 0.030860951713944332 0.0010615527955337347 0 0.030414789945417096 0.00065651484209659165 0 0.030040617042032678 0.00089727880458624924 0 0.029980032777460416 0.0013304965313436865 0 0.030860951713944332 0.0010615527955337347 0 0.029980032777460416 0.0013304965313436865 0 0.030860951713944332 0.0010615527955337347 0 0.030422414637817651 0.0018198706353176474 0 0.030821819914270156 0.001089909174530324 0 0.030481179442117402 0.0018640705100234115 0 0.030860951713944332 0.0010615527955337347 0 0.030518075163693772 0.0019227809588311887 0 0.03158455980880015 0.0017825331944948666 0 0.029980032777460416 0.0013304965313436865 0 0.030422414637817651 0.0018198706353176474 0 0.029588636503264442 0.0019738606228295514 0 0.030481179442117402 0.0018640705100234115 0 0.030086351037562017 0.00287721245207173 0 0.030422414637817651 0.0018198706353176474 0 0.029588636503264442 0.0019738606228295514 0 0.030067127875220125 0.0028944691390928473 0 0.030518075163693772 0.0019227809588311887 0 0.031005368373929924 0.002900336671312404 0 0.030119138192493167 0.0028197144587010885 0 0.030518075163693772 0.0019227809588311887 0 0.031005368373929924 0.002900336671312404 0 0.03145343089537999 0.0023703781173417867 0 0.029220497005920727 0.0014359113329718586 0 0.029588636503264442 0.0019738606228295514 0 0.028654554632932993 0.0019424644286700913 0 0.028422446916296546 0.0013414024219933639 0 0.029220497005920727 0.0014359113329718586 0 0.028654554632932993 0.0019424644286700913 0 0.029980032777460416 0.0013304965313436865 0 0.029220497005920727 0.0014359113329718586 0 0.029588636503264442 0.0019738606228295514 0 0.029588636503264442 0.0019738606228295514 0 0.029001265774708095 0.0027984168569580299 0 0.030067127875220125 0.0028944691390928473 0 0.029588636503264442 0.0019738606228295514 0 0.028654554632932993 0.0019424644286700913 0 0.029001265774708095 0.0027984168569580299 0 0.028012044231944665 0.0024003053875014334 0 0.028654554632932993 0.0019424644286700913 0 0.029001265774708095 0.0027984168569580299 0 0.028297181575355126 0.0031348289140743116 0 0.029001265774708095 0.0027984168569580299 0 0.028769811530002326 0.003863075807406809 0 0.028012044231944665 0.0024003053875014334 0 0.028297181575355126 0.0031348289140743116 0 0.029001265774708095 0.0027984168569580299 0 0.029001265774708095 0.0027984168569580299 0 0.029398879917974928 0.0033798996229211049 0 0.030067127875220125 0.0028944691390928473 0 0.029398879917974928 0.0033798996229211049 0 0.030067127875220125 0.0028944691390928473 0 0.029710848050688698 0.0039463353626722113 0 0.029398879917974928 0.0033798996229211049 0 0.028769811530002326 0.003863075807406809 0 0.029710848050688698 0.0039463353626722113 0 0.029001265774708095 0.0027984168569580299 0 0.029398879917974928 0.0033798996229211049 0 0.028769811530002326 0.003863075807406809 0 0.031005368373929924 0.002900336671312404 0 0.030119138192493167 0.0028197144587010885 0 0.030551928565868136 0.0032421533788361003 0 0.030086351037562017 0.00287721245207173 0 0.029741674760228737 0.0038922482514281071 0 0.030119138192493167 0.0028197144587010885 0 0.0302193355256931 0.0038396259812547304 0 0.030551928565868136 0.0032421533788361003 0 0.030119138192493167 0.0028197144587010885 0 0.0302193355256931 0.0038396259812547304 0 0.029710848050688698 0.0039463353626722113 0 0.0302193355256931 0.0038396259812547304 0 0.030551928565868136 0.0032421533788361003 0 0.030854113669262884 0.0036776572417044321 0 0.031005368373929924 0.002900336671312404 0 0.030551928565868136 0.0032421533788361003 0 0.030854113669262884 0.0036776572417044321 0 0.031005368373929924 0.002900336671312404 0 0.030854113669262884 0.0036776572417044321 0 0.031481510160078607 0.0033797892531982365 0 0.031481510160078607 0.0033797892531982365 0 0.03199508341855007 0.0033853701802931632 0 0.03159416531869956 0.0039613374494288931 0 0.031481510160078607 0.0033797892531982365 0 0.03199508341855007 0.0033853701802931632 0 0.031899275271285506 0.0028250412759630722 0 0.031005368373929924 0.002900336671312404 0 0.031481510160078607 0.0033797892531982365 0 0.031899275271285506 0.0028250412759630722 0 0.031005368373929924 0.002900336671312404 0 0.031899275271285506 0.0028250412759630722 0 0.03145343089537999 0.0023703781173417867 0 0.031899275271285506 0.0028250412759630722 0 0.03145343089537999 0.0023703781173417867 0 0.032115231138805496 0.0021843124115878826 0 0.03145343089537999 0.0023703781173417867 0 0.032115231138805496 0.0021843124115878826 0 0.03158455980880015 0.0017825331944948666 0 0.032398542072359364 0.0014478745357127687 0 0.032115231138805496 0.0021843124115878826 0 0.03158455980880015 0.0017825331944948666 0 0.030518075163693772 0.0019227809588311887 0 0.03145343089537999 0.0023703781173417867 0 0.03158455980880015 0.0017825331944948666 0 0.032398542072359364 0.0014478745357127687 0 0.032115231138805496 0.0021843124115878826 0 0.032884681711556653 0.0019382193221683947 0 0.032115231138805496 0.0021843124115878826 0 0.032884681711556653 0.0019382193221683947 0 0.032486602056206577 0.0026073492278342139 0 0.031899275271285506 0.0028250412759630722 0 0.032115231138805496 0.0021843124115878826 0 0.032486602056206577 0.0026073492278342139 0 0.032947580538160569 0.0025351112774270276 0 0.032884681711556653 0.0019382193221683947 0 0.032486602056206577 0.0026073492278342139 0 0.032947580538160569 0.0025351112774270276 0 0.03280926444993925 0.0028693141404162645 0 0.032486602056206577 0.0026073492278342139 0 0.03280926444993925 0.0028693141404162645 0 0.032486602056206577 0.0026073492278342139 0 0.032503694937138956 0.00307637420191404 0 0.031899275271285506 0.0028250412759630722 0 0.032486602056206577 0.0026073492278342139 0 0.032503694937138956 0.00307637420191404 0 0.03199508341855007 0.0033853701802931632 0 0.032503694937138956 0.00307637420191404 0 0.032442729688423835 0.0036829827414827081 0 0.03199508341855007 0.0033853701802931632 0 0.031899275271285506 0.0028250412759630722 0 0.032503694937138956 0.00307637420191404 0 0.032928178318639721 0.0032258117577095846 0 0.032503694937138956 0.00307637420191404 0 0.032442729688423835 0.0036829827414827081 0 0.032928178318639721 0.0032258117577095846 0 0.03280926444993925 0.0028693141404162645 0 0.032503694937138956 0.00307637420191404 0 0.028940531062012501 0.0030130369286000564 0 0.030197844479820175 0.0037838903321496388 0 0.031251516076764824 0.0026583365097724624 0 0.03086815045682291 0.0032363267952526162 0 0.032064354646406036 0.0031520185220964836 0 0.032928178318639721 0.0032258117577095846 0 0.032442729688423835 0.0036829827414827081 0 0.033056404225218584 0.0034317914805496769 0 0.028940531062012501 0.0030130369286000564 0 0.027915952031977009 0.0041227790268487706 0 0.026702477970851603 0.003375640640794974 0 0.03086815045682291 0.0032363267952526162 0 0.028415034370975638 0.0043191154392410837 0 0.021339107345924074 0.0055437263415205945 0 0.020037042310837434 0.0047206659228664219 0 0.020499749149409961 0.004196226694411706 0 0.024102597976206282 0.0045909151116334378 0 0.02550469551850279 0.0042363650020520553 0 0.028940531062012501 0.0030130369286000564 0 0.027915952031977009 0.0041227790268487706 0 0.029145389533302282 0.004895064979634575 0 0.028940531062012501 0.0030130369286000564 0 0.030197844479820175 0.0037838903321496388 0 0.029145389533302282 0.004895064979634575 0 0.031342315554685751 0.0046547181896189459 0 0.031125738621528037 0.0045910325898845354 0 0.031564990030126604 0.0045044066877566501 0 0.031467041998383148 0.004210030133326147 0 0.031125738621528037 0.0045910325898845354 0 0.031564990030126604 0.0045044066877566501 0 0.03126594037868391 0.003723025275872181 0 0.02550469551850279 0.0042363650020520553 0 0.010206340652628229 0.0021669314871083857 0 0.016753264796807964 0.0044063935831461717 0 0.014682425590842567 0.0044958447078117369 0 0.014001008788590782 0.0025300795359219173 0 0.019304338705985441 0.0041955920150093156 0 0.0072264359865494851 0.0020315903267860719 0 0.0069794552807855639 0.0019460562273393722 0 0.0069660565544404762 0.0022279888339918497 0 0.022606942391779301 0.0038490911510808564 0 0.016753264796807964 0.0044063935831461717 0 0.022606942391779301 0.0038490911510808564 0 0.02550469551850279 0.0042363650020520553 0 0.023277758234852799 0.0041515218666290741 0 0.021468080484821246 0.0030371817758835292 0 0.020235667310686743 0.0043764326886617591 0 0.016753264796807964 0.0044063935831461717 0 0.010083551450079997 0.0034790775762549506 0 0.016753264796807964 0.0044063935831461717 0 0.018374820784098043 0.0038360276978601556 0 0.02550469551850279 0.0042363650020520553 0 0.016753264796807964 0.0044063935831461717 0 0.015409324223305822 0.0039413370522405058 0 0.01473394002804615 0.0046435513545845302 0 0.014667233767678371 0.0040462983835947916 0 0.0069660565544404762 0.0022279888339918497 0 0.0066254501911145805 0.0022450902156930207 0 0.0066043111277972952 0.0025089318117201753 0 0.0069794552807855639 0.0019460562273393722 0 0.0069660565544404762 0.0022279888339918497 0 0.0066254501911145805 0.0022450902156930207 0 0.0072264359865494851 0.0020315903267860719 0 0.0069660565544404762 0.0022279888339918497 0 0.0071943325163674977 0.002366447269944204 0 0.014034940625825864 0.0047159605279607298 0 0.014353769600033527 0.0043837908334280256 0 0.013985820296142039 0.0041345568442252819 0 0.012724997386092216 0.0056816034509910608 0 0.018943082707501658 0.0048494896581112558 0 0.011034709464674598 0.0062210617829487206 0 0.011250122941222367 0.0073642369333787238 0 0.011985965051118559 0.0066065625504625903 0 0.014034940625825864 0.0047159605279607298 0 0.01473394002804615 0.0046435513545845302 0 0.014353769600033527 0.0043837908334280256 0 0.014034940625825864 0.0047159605279607298 0 0.01473394002804615 0.0046435513545845302 0 0.014086153120795263 0.0052976288012570039 0 0.01473394002804615 0.0046435513545845302 0 0.014353769600033527 0.0043837908334280256 0 0.014667233767678371 0.0040462983835947916 0 0.016753264796807964 0.0044063935831461717 0 0.024012600236075494 0.0049009396961199507 0 0.014353769600033527 0.0043837908334280256 0 0.014667233767678371 0.0040462983835947916 0 0.013985820296142039 0.0041345568442252819 0 0.021773989315555527 0.0036816910449211514 0 0.023677260270605748 0.003579555268088641 0 0.022776914953210745 0.004854483771956155 0 0.019626293608147643 0.0040013344699726628 0 0.021773989315555527 0.0036816910449211514 0 0.022776914953210745 0.004854483771956155 0 0.018374820784098043 0.0038360276978601556 0 0.018943082707501658 0.0048494896581112558 0 0.023677260270605748 0.003579555268088641 0 0.022776914953210745 0.004854483771956155 0 0.024090781300884382 0.006291980487677558 0 0.026161320350872742 0.0051780193891235718 0 0.02628029246375992 0.0055609253362560269 0 0.026417265068200704 0.0053482693561301628 0 0.018943082707501658 0.0048494896581112558 0 0.028105167882116356 0.0054749756024378305 0 0.022776914953210745 0.004854483771956155 0 0.022718613469050318 0.0064499747444146773 0 0.024090781300884382 0.006291980487677558 0 0.021339107345924074 0.0055437263415205945 0 0.020499749149409961 0.004196226694411706 0 0.022776914953210745 0.004854483771956155 0 0.024102597976206282 0.0045909151116334378 0 0.028415034370975638 0.0043191154392410837 0 0.021339107345924074 0.0055437263415205945 0 0.022776914953210745 0.004854483771956155 0 0.022718613469050318 0.0064499747444146773 0 0.03199508341855007 0.0033853701802931632 0 0.032442729688423835 0.0036829827414827081 0 0.03159416531869956 0.0039613374494288931 0 0.030854113669262884 0.0036776572417044321 0 0.032141897004234525 0.0044283033668459258 0 0.031280171885416069 0.004343139981421826 0 0.032150324894974415 0.0039663655636427222 0 0.028415034370975638 0.0043191154392410837 0 0.030854113669262884 0.0036776572417044321 0 0.031481510160078607 0.0033797892531982365 0 0.03159416531869956 0.0039613374494288931 0 0.032141897004234525 0.0044283033668459258 0 0.031280171885416069 0.004343139981421826 0 0.031306838969666087 0.0045593548034038086 0 0.028508020882604644 0.0051829812270438522 0 0.028105167882116356 0.0054749756024378305 0 0.028415034370975638 0.0043191154392410837 0 0.028105167882116356 0.0054749756024378305 0 0.030854113669262884 0.0036776572417044321 0 0.031280171885416069 0.004343139981421826 0 0.030751899551378623 0.0040990907521354916 0 0.031379537745383775 0.0046084966196015447 0 0.030365673456762089 0.0043844810185772621 0 0.029002397695808351 0.0049668690473257506 0 0.030854113669262884 0.0036776572417044321 0 0.030751899551378623 0.0040990907521354916 0 0.030544872474366845 0.0039948279953504499 0 0.031280171885416069 0.004343139981421826 0 0.031379537745383775 0.0046084966196015447 0 0.030365673456762089 0.0043844810185772621 0 0.031280171885416069 0.004343139981421826 0 0.030751899551378623 0.0040990907521354916 0 0.030365673456762089 0.0043844810185772621 0 0.0302193355256931 0.0038396259812547304 0 0.030365673456762089 0.0043844810185772621 0 0.030544872474366845 0.0039948279953504499 0 0.0302193355256931 0.0038396259812547304 0 0.030854113669262884 0.0036776572417044321 0 0.030544872474366845 0.0039948279953504499 0 0.030751899551378623 0.0040990907521354916 0 0.030365673456762089 0.0043844810185772621 0 0.030544872474366845 0.0039948279953504499 0 0.030365673456762089 0.0043844810185772621 0 0.029002397695808351 0.0049668690473257506 0 0.028509027551824894 0.0038179495052035445 0 0.0302193355256931 0.0038396259812547304 0 0.030365673456762089 0.0043844810185772621 0 0.029684956134021483 0.004032697150202439 0 0.030284805195853255 0.0043488582842420905 0 0.02911973519162064 0.0039579527343548823 0 0.0302193355256931 0.0038396259812547304 0 0.029684956134021483 0.004032697150202439 0 0.029710848050688698 0.0039463353626722113 0 0.026674568106184262 0.005427178114142053 0 0.026733425686349791 0.0052969197425470904 0 0.026593942082941635 0.0053195875323207211 0 0.026674568106184262 0.005427178114142053 0 0.026417265068200704 0.0053482693561301628 0 0.026593942082941635 0.0053195875323207211 0 0.028105167882116356 0.0054749756024378305 0 0.02799850447525791 0.0051043835018209898 0 0.02628029246375992 0.0055609253362560269 0 0.026674568106184262 0.005427178114142053 0 0.026417265068200704 0.0053482693561301628 0 0.027446212282971887 0.0042935376139177214 0 0.026751929193694384 0.0050511397336660269 0 0.026168803345668082 0.0041892661775487158 0 0.027031564960673497 0.0035511446891064616 0 0.027446212282971887 0.0042935376139177214 0 0.026168803345668082 0.0041892661775487158 0 0.027906162350282024 0.0037065226642594047 0 0.02911973519162064 0.0039579527343548823 0 0.029002397695808351 0.0049668690473257506 0 0.027446212282971887 0.0042935376139177214 0 0.028509027551824894 0.0038179495052035445 0 0.027031564960673497 0.0035511446891064616 0 0.027446212282971887 0.0042935376139177214 0 0.028509027551824894 0.0038179495052035445 0 0.028769811530002326 0.003863075807406809 0 0.029684956134021483 0.004032697150202439 0 0.029710848050688698 0.0039463353626722113 0 0.029002397695808351 0.0049668690473257506 0 0.027446212282971887 0.0042935376139177214 0 0.026751929193694384 0.0050511397336660269 0 0.02799850447525791 0.0051043835018209898 0 0.026722565157295528 0.0051198079854007476 0 0.026674568106184262 0.005427178114142053 0 0.026751929193694384 0.0050511397336660269 0 0.026733425686349791 0.0052969197425470904 0 0.026751929193694384 0.0050511397336660269 0 0.026708606287476528 0.0055123811447232527 0 0.02602692415489254 0.005890702895305272 0 0.026751929193694384 0.0050511397336660269 0 0.026733425686349791 0.0052969197425470904 0 0.026708606287476528 0.0055123811447232527 0 0.021171117251019136 0.006248365629284605 0 0.019879098580372467 0.0064070497553145138 0 0.026733425686349791 0.0052969197425470904 0 0.026708606287476528 0.0055123811447232527 0 0.026577898767654599 0.0052262560714571738 0 0.01430393451022542 0.0058792336765497565 0 0.015640219509205411 0.0070304280806378055 0 0.016109116559146628 0.0050732096420040415 0 0.01430393451022542 0.0058792336765497565 0 0.015640219509205411 0.0070304280806378055 0 0.013323949037440296 0.0072062681278671674 0 0.021171117251019136 0.006248365629284605 0 0.022000669059005603 0.0063560895639331056 0 0.015640219509205411 0.0070304280806378055 0 0.016109116559146628 0.0050732096420040415 0 0.018017691940188419 0.0068183905645959964 0 0.026161320350872742 0.0051780193891235718 0 0.026417265068200704 0.0053482693561301628 0 0.026446735344923013 0.0052754838045845397 0 0.026161320350872742 0.0051780193891235718 0 0.026446735344923013 0.0052754838045845397 0 0.026577898767654599 0.0052262560714571738 0 0.018943082707501658 0.0048494896581112558 0 0.019879098580372467 0.0064070497553145138 0 0.011250122941222367 0.0073642369333787238 0 0.013323949037440296 0.0072062681278671674 0 0.011985965051118559 0.0066065625504625903 0 0.026417265068200704 0.0053482693561301628 0 0.026446735344923013 0.0052754838045845397 0 0.026593942082941635 0.0053195875323207211 0 0.026446735344923013 0.0052754838045845397 0 0.026593942082941635 0.0053195875323207211 0 0.026577898767654599 0.0052262560714571738 0 0.026733425686349791 0.0052969197425470904 0 0.026593942082941635 0.0053195875323207211 0 0.026577898767654599 0.0052262560714571738 0 0.01430393451022542 0.0058792336765497565 0 0.013323949037440296 0.0072062681278671674 0 0.012754084246169221 0.0064890313638911196 0 0.01430393451022542 0.0058792336765497565 0 0.012754084246169221 0.0064890313638911196 0 0.013212726560345752 0.0054768856746318165 0 0.012754084246169221 0.0064890313638911196 0 0.011985965051118559 0.0066065625504625903 0 0.012207555367205395 0.0053486990729496092 0 0.012558852387899964 0.006142204307738903 0 0.012302628348723156 0.005979827306637325 0 0.013323949037440296 0.0072062681278671674 0 0.012754084246169221 0.0064890313638911196 0 0.011985965051118559 0.0066065625504625903 0 0.011034709464674598 0.0062210617829487206 0 0.011985965051118559 0.0066065625504625903 0 0.012207555367205395 0.0053486990729496092 0 0.012302628348723156 0.005979827306637325 0 0.004623464821211779 0.0028001057529100418 0 0.012207555367205395 0.0053486990729496092 0 0.011554841401826582 0.0049615006200225201 0 0.01162392650541923 0.0041976585529242454 0 0.012754084246169221 0.0064890313638911196 0 0.012036051131468111 0.0052424819034750155 0 0.013212726560345752 0.0054768856746318165 0 0.012036051131468111 0.0052424819034750155 0 0.013212726560345752 0.0054768856746318165 0 0.013695806536388839 0.0036062523175034839 0 0.01430393451022542 0.0058792336765497565 0 0.013212726560345752 0.0054768856746318165 0 0.013695806536388839 0.0036062523175034839 0 -0.00058345414668966884 0.0032573459281894381 0 -0.0015818261785655869 0.0026961262237867609 0 -0.002203508094480527 0.0032681325180492558 0 0.006581182790121363 0.0035328221989860175 0 0.004623464821211779 0.0028001057529100418 0 -0.0015818261785655869 0.0026961262237867609 0 -0.0021073420021347523 0.0022278700038467145 0 -0.002203508094480527 0.0032681325180492558 0 0.012036051131468111 0.0052424819034750155 0 0.013695806536388839 0.0036062523175034839 0 0.01135640802767177 0.003950706649548213 0 0.01430393451022542 0.0058792336765497565 0 0.013695806536388839 0.0036062523175034839 0 0.016109116559146628 0.0050732096420040415 0 0.013695806536388839 0.0036062523175034839 0 0.016109116559146628 0.0050732096420040415 0 0.015990269812670106 0.0032506660638196307 0 -0.00058345414668966884 0.0032573459281894381 0 0.0016282632477531403 0.0033341278061547411 0 -2.2442985748932184e-05 0.0022135261557686653 0 0.006581182790121363 0.0035328221989860175 0 0.0087224473567358157 0.0032887447815592437 0 0.016109116559146628 0.0050732096420040415 0 0.015990269812670106 0.0032506660638196307 0 0.017419866670780864 0.0041005963186642553 0 0.0016282632477531403 0.0033341278061547411 0 0.0023748847691979439 0.0022101164304166418 0 0.0011846378924471484 0.0018344411674276742 0 0.0023748847691979439 0.0022101164304166418 0 0.0011846378924471484 0.0018344411674276742 0 0.0026740622528599956 0.00098224902053524574 0 0.0016282632477531403 0.0033341278061547411 0 0.0011846378924471484 0.0018344411674276742 0 -2.2442985748932184e-05 0.0022135261557686653 0 0.0011846378924471484 0.0018344411674276742 0 -2.2442985748932184e-05 0.0022135261557686653 0 0.00022839082161971657 0.0015064574244811238 0 -2.2442985748932184e-05 0.0022135261557686653 0 0.00022839082161971657 0.0015064574244811238 0 -0.00069908739494224485 0.0013758236784271176 0 0.00022839082161971657 0.0015064574244811238 0 0.00049662426119616938 0.00058697398078489044 0 -0.00069908739494224485 0.0013758236784271176 0 0.0011846378924471484 0.0018344411674276742 0 0.00022839082161971657 0.0015064574244811238 0 0.00049662426119616938 0.00058697398078489044 0 -0.00085630648691719508 0.00086634884684588613 0 -0.00012289813006859931 0.0014362099118000737 0 0.001083900165283021 -0.0011364519971457472 0 -0.0015504194559073762 0.00073920120373200011 0 -0.00085630648691719508 0.00086634884684588613 0 -0.00012289813006859931 0.0014362099118000737 0 -0.00052633959802728602 0.00068401450245367192 0 0.0015274847433339811 0.0012841485752955414 0 0.0011846378924471484 0.0018344411674276742 0 0.00049662426119616938 0.00058697398078489044 0 0.0026740622528599956 0.00098224902053524574 0 -0.001377984273442808 0.0020729982541080436 0 -0.0021073420021347523 0.0022278700038467145 0 -0.0021300251389781287 0.0014659653783688068 0 -0.0015818261785655869 0.0026961262237867609 0 -0.001377984273442808 0.0020729982541080436 0 -0.0021073420021347523 0.0022278700038467145 0 -0.00058345414668966884 0.0032573459281894381 0 -0.0015818261785655869 0.0026961262237867609 0 -0.001377984273442808 0.0020729982541080436 0 -0.00058345414668966884 0.0032573459281894381 0 -2.2442985748932184e-05 0.0022135261557686653 0 -0.001377984273442808 0.0020729982541080436 0 -2.2442985748932184e-05 0.0022135261557686653 0 -0.001377984273442808 0.0020729982541080436 0 -0.00069908739494224485 0.0013758236784271176 0 -0.00069908739494224485 0.0013758236784271176 0 -0.0016408502552973422 0.0011916878061884399 0 -0.001490381859159311 0.00054862950571578058 0 -0.001377984273442808 0.0020729982541080436 0 -0.00069908739494224485 0.0013758236784271176 0 -0.0016408502552973422 0.0011916878061884399 0 0.00049662426119616938 0.00058697398078489044 0 -0.00069908739494224485 0.0013758236784271176 0 -0.001490381859159311 0.00054862950571578058 0 -0.0016408502552973422 0.0011916878061884399 0 -0.0021300251389781287 0.0014659653783688068 0 -0.0022256433656646932 0.00075414593482666292 0 -0.001377984273442808 0.0020729982541080436 0 -0.0016408502552973422 0.0011916878061884399 0 -0.0021300251389781287 0.0014659653783688068 0 -0.0021300251389781287 0.0014659653783688068 0 -0.0024763123961287804 0.0011197867091093756 0 -0.0022256433656646932 0.00075414593482666292 0 -0.0024763123961287804 0.0011197867091093756 0 -0.0027328381773807872 0.001758650801094106 0 -0.0027569862631299327 0.00057858385966490017 0 -0.0021300251389781287 0.0014659653783688068 0 -0.0024763123961287804 0.0011197867091093756 0 -0.0027328381773807872 0.001758650801094106 0 -0.0021073420021347523 0.0022278700038467145 0 -0.0021300251389781287 0.0014659653783688068 0 -0.0027328381773807872 0.001758650801094106 0 -0.0025447720161667349 0.00069198442964825857 0 -0.0021948794772302374 0.0012330332673661764 0 -0.0024290141600526944 0.0010390214772814819 0 -0.0035456947590317305 0.00083917554705913145 0 0.004623464821211779 0.0028001057529100418 0 -0.0025447720161667349 0.00069198442964825857 0 -0.002573793268217558 0.00088437402597460544 0 -0.002648700724392372 0.00063953608890415141 0 -0.0021073420021347523 0.0022278700038467145 0 -0.0027328381773807872 0.001758650801094106 0 -0.002203508094480527 0.0032681325180492558 0 -0.0025447720161667349 0.00069198442964825857 0 -0.002573793268217558 0.00088437402597460544 0 -0.0024290141600526944 0.0010390214772814819 0 -0.002626999203169039 0.00041622800803227888 0 -0.0026387269892115886 0.0007262390275015742 0 -0.0027320919926965997 0.00052182534238832858 0 -0.0026767346050075927 0.00057643373193421192 0 -0.002648700724392372 0.00063953608890415141 0 -0.0026820684523534322 0.00049205295676543097 0 -0.0026767346050075927 0.00057643373193421192 0 -0.0026648138214152976 0.00056295476538161307 0 -0.0027320919926965997 0.00052182534238832858 0 -0.0026820684523534322 0.00049205295676543097 0 -0.0026767346050075927 0.00057643373193421192 0 -0.0026767346050075927 0.00057643373193421192 0 -0.0026911827961907035 0.00059873315680922853 0 -0.0026648138214152976 0.00056295476538161307 0 -0.0026767346050075927 0.00057643373193421192 0 -0.0026911827961907035 0.00059873315680922853 0 -0.002648700724392372 0.00063953608890415141 0 -0.0035456947590317305 0.00083917554705913145 0 -0.0024869105534186956 0.00087967381055684319 0 -0.0025447720161667349 0.00069198442964825857 0 -0.002648700724392372 0.00063953608890415141 0 -0.0027569862631299327 0.00057858385966490017 0 -0.0026911827961907035 0.00059873315680922853 0 -0.002648700724392372 0.00063953608890415141 0 -0.0027569862631299327 0.00057858385966490017 0 -0.0026911827961907035 0.00059873315680922853 0 -0.0027150541216939151 0.00056654052422070984 0 -0.0027529327393363552 0.00048888584463032759 0 -0.0026911827961907035 0.00059873315680922853 0 -0.0027150541216939151 0.00056654052422070984 0 -0.0026369953381685878 0.00059527126372063645 0 -0.0027150541216939151 0.00056654052422070984 0 -0.0026247096717246232 0.00065366830597559148 0 -0.0026369953381685878 0.00059527126372063645 0 -0.0027150541216939151 0.00056654052422070984 0 -0.0027588036953493985 0.00054232134645029132 0 -0.0026247096717246232 0.00065366830597559148 0 -0.0027588036953493985 0.00054232134645029132 0 -0.0026247096717246232 0.00065366830597559148 0 -0.0028482663950331675 0.0005662150187442309 0 -0.0026247096717246232 0.00065366830597559148 0 -0.0024209624777716734 0.00054425938627025272 0 -0.0026369953381685878 0.00059527126372063645 0 -0.0024209624777716734 0.00054425938627025272 0 -0.0026369953381685878 0.00059527126372063645 0 -0.0025390497623716305 0.00047192237115174958 0 -0.0026911827961907035 0.00059873315680922853 0 -0.0026648138214152976 0.00056295476538161307 0 -0.0026369953381685878 0.00059527126372063645 0 -0.0026369953381685878 0.00059527126372063645 0 -0.0026337576309539727 0.00048693977476450671 0 -0.0025390497623716305 0.00047192237115174958 0 -0.0026820684523534322 0.00049205295676543097 0 -0.0026648138214152976 0.00056295476538161307 0 -0.0026337576309539727 0.00048693977476450671 0 -0.0026648138214152976 0.00056295476538161307 0 -0.0026369953381685878 0.00059527126372063645 0 -0.0026337576309539727 0.00048693977476450671 0 -0.0026337576309539727 0.00048693977476450671 0 -0.0025846145862510168 0.00037823287574910013 0 -0.0026424325409834313 0.00039992068106118033 0 -0.0026820684523534322 0.00049205295676543097 0 -0.0026337576309539727 0.00048693977476450671 0 -0.0026424325409834313 0.00039992068106118033 0 -0.0026337576309539727 0.00048693977476450671 0 -0.0025846145862510168 0.00037823287574910013 0 -0.0025390497623716305 0.00047192237115174958 0 -0.0025846145862510168 0.00037823287574910013 0 -0.0026424325409834313 0.00039992068106118033 0 -0.002590850636587459 0.00021598495779618883 0 -0.0025846145862510168 0.00037823287574910013 0 -0.002455002682367308 0.00028276568613914104 0 -0.002590850636587459 0.00021598495779618883 0 -0.0026072915403522788 0.0010856333245133497 0 0.00062646374239567581 0.00047724723535362025 0 -0.0024209624777716734 0.00054425938627025272 0 -0.0025390497623716305 0.00047192237115174958 0 -0.002192033686341837 0.0003825091454930183 0 -0.0025390497623716305 0.00047192237115174958 0 -0.002455002682367308 0.00028276568613914104 0 -0.002192033686341837 0.0003825091454930183 0 -0.0025846145862510168 0.00037823287574910013 0 -0.0025390497623716305 0.00047192237115174958 0 -0.002455002682367308 0.00028276568613914104 0 -0.002455002682367308 0.00028276568613914104 0 -0.0023084199838642803 5.9098702285034795e-05 0 -0.002192033686341837 0.0003825091454930183 0 0.0026130883756092967 0.0012622246218294169 0 0.00062646374239567581 0.00047724723535362025 0 -0.0015592638626979623 -1.8630983215470825e-05 0 -0.0015392226978992673 -0.00013902748421244966 0 -0.0013097153104796437 -0.000156636436577833 0 0.0069660565544404762 0.0022279888339918497 0 0.0071943325163674977 0.002366447269944204 0 0.0068684699641201417 0.0026317607208251668 0 -0.002455002682367308 0.00028276568613914104 0 -0.0023084199838642803 5.9098702285034795e-05 0 -0.002590850636587459 0.00021598495779618883 0 -0.0022843990267138953 6.1182451762431444e-05 0 0.00062646374239567581 0.00047724723535362025 0 0.0069660565544404762 0.0022279888339918497 0 0.0068684699641201417 0.0026317607208251668 0 0.0066043111277972952 0.0025089318117201753 0 0.010083551450079997 0.0034790775762549506 0 0.0092528607759210929 0.0039273125484946747 0 0.0068684699641201417 0.0026317607208251668 0 0.0066043111277972952 0.0025089318117201753 0 0.0062998280292678593 0.0027295257485609259 0 0.0066254501911145805 0.0022450902156930207 0 0.0066043111277972952 0.0025089318117201753 0 0.0062890724395554612 0.0025614746983696596 0 0.0066043111277972952 0.0025089318117201753 0 0.0062890724395554612 0.0025614746983696596 0 0.0062998280292678593 0.0027295257485609259 0 0.011034709464674598 0.0062210617829487206 0 0.012207555367205395 0.0053486990729496092 0 0.011554841401826582 0.0049615006200225201 0 0.011034709464674598 0.0062210617829487206 0 0.011554841401826582 0.0049615006200225201 0 0.010820145922888623 0.0050475759042616095 0 0.012724997386092216 0.0056816034509910608 0 0.0092528607759210929 0.0039273125484946747 0 0.011554841401826582 0.0049615006200225201 0 0.010820145922888623 0.0050475759042616095 0 0.01162392650541923 0.0041976585529242454 0 0.0092528607759210929 0.0039273125484946747 0 0.004623464821211779 0.0028001057529100418 0 0.0092528607759210929 0.0039273125484946747 0 0.0021937500446145741 0.0018805951423219972 0 -0.002626999203169039 0.00041622800803227888 0 0.0021937500446145741 0.0018805951423219972 0 -0.002573793268217558 0.00088437402597460544 0 -0.0024404047868510233 0.0014069752475712658 0 -0.0024290141600526944 0.0010390214772814819 0 -0.0025447720161667349 0.00069198442964825857 0 -0.0020393464044989634 0.001322826592263379 0 -0.0021948794772302374 0.0012330332673661764 0 0.005919242751798514 0.0028400609420026518 0 0.0059829776384126418 0.0033367519284734806 0 0.0053066159765163276 0.0034453572806872838 0 0.0021937500446145741 0.0018805951423219972 0 0.004623464821211779 0.0028001057529100418 0 -0.0024404047868510233 0.0014069752475712658 0 -0.0020393464044989634 0.001322826592263379 0 -0.0021948794772302374 0.0012330332673661764 0 -0.0024404047868510233 0.0014069752475712658 0 -0.0021948794772302374 0.0012330332673661764 0 -0.0024290141600526944 0.0010390214772814819 0 -0.0026820684523534322 0.00049205295676543097 0 -0.0026424325409834313 0.00039992068106118033 0 -0.0027269311506404915 0.00041573143832917387 0 -0.0027320919926965997 0.00052182534238832858 0 -0.0026820684523534322 0.00049205295676543097 0 -0.0027269311506404915 0.00041573143832917387 0 -0.0026424325409834313 0.00039992068106118033 0 -0.0025813885177782929 0.00035056766347943565 0 -0.0027269311506404915 0.00041573143832917387 0 0.00062646374239567581 0.00047724723535362025 0 0.0021937500446145741 0.0018805951423219972 0 0.013771652584044518 0.00016058472598366559 0 0.014525089378633461 1.2979828542778733e-07 0 0.012555414514407835 6.7444964575147645e-07 0 0.014525304084482092 6.0948948986192864e-05 0 0.013771652584044518 0.00016058472598366559 0 0.014869943772311121 0.00031035493387451346 0 0.014978410295735725 0.00011163661235516214 0 0.014525304084482092 6.0948948986192864e-05 0 0.014869943772311121 0.00031035493387451346 0 0.014978410295735725 0.00011163661235516214 0 0.014525304084482092 6.0948948986192864e-05 0 0.014991611368268104 2.5947487645784453e-06 0 0.014978410295735725 0.00011163661235516214 0 0.015222278560233178 3.6430932153410756e-05 0 0.014991611368268104 2.5947487645784453e-06 0 0.014525304084482092 6.0948948986192864e-05 0 0.013771652584044518 0.00016058472598366559 0 0.014525089378633461 1.2979828542778733e-07 0 0.013771652584044518 0.00016058472598366559 0 0.014869943772311121 0.00031035493387451346 0 0.014215751447838265 0.0013537686698780178 0 0.014869943772311121 0.00031035493387451346 0 0.015493400964234913 -2.8993023923812213e-05 0 0.014623174700895117 0.0020631351334639437 0 0.011817435125624271 0.0066166602298820985 0 0.011617787436437297 0.0074771608100104728 0 0.011244205972593138 0.0060153631421063815 0 0.011817435125624271 0.0066166602298820985 0 0.012406729976075738 0.00699073333060354 0 0.011993571290687951 0.0059808932457817284 0 0.011817435125624271 0.0066166602298820985 0 0.011244205972593138 0.0060153631421063815 0 0.011993571290687951 0.0059808932457817284 0 0.018017880089328 0.0053123104141725138 0 0.014812287986430528 0.0034490096580050171 0 0.011817435125624271 0.0066166602298820985 0 0.011617787436437297 0.0074771608100104728 0 0.012406729976075738 0.00699073333060354 0 0.016614552085040993 0.0038750754260928715 0 0.016127809194649179 0.0041591606681855697 0 0.016323528136100853 0.0034970322431718648 0 0.014812287986430528 0.0034490096580050171 0 0.016889630993937716 0.0027828532501988682 0 0.015596987204354578 0.002039537324258094 0 0.014812287986430528 0.0034490096580050171 0 0.014978410295735725 0.00011163661235516214 0 0.014869943772311121 0.00031035493387451346 0 0.015198304260650639 0.00020191941801226676 0 0.014978410295735725 0.00011163661235516214 0 0.015198304260650639 0.00020191941801226676 0 0.015222278560233178 3.6430932153410756e-05 0 0.015198304260650639 0.00020191941801226676 0 0.015222278560233178 3.6430932153410756e-05 0 0.015423889453009598 -2.3458367594688675e-05 0 0.015222278560233178 3.6430932153410756e-05 0 0.015405190974026536 -1.0710958083868787e-05 0 0.014991611368268104 2.5947487645784453e-06 0 0.015840392954559111 0.00017682596738012056 0 0.015729509852068276 -4.3847096755341713e-06 0 0.016607506292973716 -0.00024549158648589552 0 0.015222278560233178 3.6430932153410756e-05 0 0.015405190974026536 -1.0710958083868787e-05 0 0.015423889453009598 -2.3458367594688675e-05 0 0.020747832415772618 0.0070475416915927709 0 0.020325159832917286 0.0064966499185057248 0 0.021423130701979182 0.0058242521863817766 0 0.018017880089328 0.0053123104141725138 0 0.016889630993937716 0.0027828532501988682 0 0.015405190974026536 -1.0710958083868787e-05 0 0.015729509852068276 -4.3847096755341713e-06 0 0.015510910809252376 -7.2927987579968583e-05 0 0.016889630993937716 0.0027828532501988682 0 0.015458811407818454 0.00039526906733561214 0 0.015405190974026536 -1.0710958083868787e-05 0 0.015423889453009598 -2.3458367594688675e-05 0 0.015729509852068276 -4.3847096755341713e-06 0 0.015405190974026536 -1.0710958083868787e-05 0 0.015510910809252376 -7.2927987579968583e-05 0 0.014991611368268104 2.5947487645784453e-06 0 0.015510910809252376 -7.2927987579968583e-05 0 0.014991611368268104 2.5947487645784453e-06 0 0.014525089378633461 1.2979828542778733e-07 0 0.014525304084482092 6.0948948986192864e-05 0 0.014991611368268104 2.5947487645784453e-06 0 0.014525089378633461 1.2979828542778733e-07 0 0.015510910809252376 -7.2927987579968583e-05 0 0.01649367333521538 -6.9645066893131538e-07 0 0.01621848541541809 -0.00013709176119959795 0 0.015510910809252376 -7.2927987579968583e-05 0 0.014525089378633461 1.2979828542778733e-07 0 0.01649367333521538 -6.9645066893131538e-07 0 0.015729509852068276 -4.3847096755341713e-06 0 0.015510910809252376 -7.2927987579968583e-05 0 0.01621848541541809 -0.00013709176119959795 0 0.018462652457176952 1.4467818061182035e-07 0 0.01649367333521538 -6.9645066893131538e-07 0 0.017077170320487226 -0.0001875224121512776 0 0.01649367333521538 -6.9645066893131538e-07 0 0.017077170320487226 -0.0001875224121512776 0 0.01621848541541809 -0.00013709176119959795 0 0.016931378301231651 -4.264342618332577e-05 0 0.017077170320487226 -0.0001875224121512776 0 0.016607506292973716 -0.00024549158648589552 0 0.017077170320487226 -0.0001875224121512776 0 0.016607506292973716 -0.00024549158648589552 0 0.01621848541541809 -0.00013709176119959795 0 0.015729509852068276 -4.3847096755341713e-06 0 0.016607506292973716 -0.00024549158648589552 0 0.01621848541541809 -0.00013709176119959795 0 0.020325159832917286 0.0064966499185057248 0 0.020896685999175765 0.0045696012622818329 0 0.021423130701979182 0.0058242521863817766 0 0.016889630993937716 0.0027828532501988682 0 0.018706548575859468 0.002155933943774847 0 0.020896685999175765 0.0045696012622818329 0 0.022705892531228979 0.0049164813432850361 0 0.021423130701979182 0.0058242521863817766 0 0.022705892531228979 0.0049164813432850361 0 0.022439731750500187 0.0060945427795955987 0 0.021423130701979182 0.0058242521863817766 0 0.020896685999175765 0.0045696012622818329 0 0.022708114474479953 0.0036495302870242735 0 0.022705892531228979 0.0049164813432850361 0 0.021464303312123581 0.0025858705267547198 0 0.020896685999175765 0.0045696012622818329 0 0.022708114474479953 0.0036495302870242735 0 0.020740150194349861 0.0017640633595895042 0 0.018706548575859468 0.002155933943774847 0 0.020740150194349861 0.0017640633595895042 0 0.023079878569719808 0.0041457783263680386 0 0.023011187293370886 0.004238773714621614 0 0.023938138697576637 0.0047877494388328737 0 0.023702202155250571 0.0039503957009418165 0 0.023044518225544625 0.0033113957139774457 0 0.023011187293370886 0.004238773714621614 0 0.023702202155250571 0.0039503957009418165 0 0.023079878569719808 0.0041457783263680386 0 0.023732397849792777 0.0046327155613363306 0 0.022708114474479953 0.0036495302870242735 0 0.022705892531228979 0.0049164813432850361 0 0.023938138697576637 0.0047877494388328737 0 0.022705892531228979 0.0049164813432850361 0 0.022439731750500187 0.0060945427795955987 0 0.024086273228825287 0.0051275289011914948 0 0.023402271837536123 0.0057122497303207622 0 0.023840335048030719 0.0050354643127133161 0 0.023029711594665516 0.0055130893704842879 0 0.023011494586877127 0.0060318079112206295 0 0.023803100138389221 0.0055650541121139213 0 0.020747832415772618 0.0070475416915927709 0 0.022439731750500187 0.0060945427795955987 0 0.021423130701979182 0.0058242521863817766 0 0.023104358444666805 0.0058208150091904358 0 0.023029711594665516 0.0055130893704842879 0 0.023103450983867863 0.005779911650670818 0 0.018017880089328 0.0053123104141725138 0 0.023402271837536123 0.0057122497303207622 0 0.018017880089328 0.0053123104141725138 0 0.0168122757173223 0.0054656383480940259 0 0.011617787436437297 0.0074771608100104728 0 0.009883363784221437 0.0053322085001279154 0 0.011244205972593138 0.0060153631421063815 0 0.023104358444666805 0.0058208150091904358 0 0.023103450983867863 0.005779911650670818 0 0.023348507473462805 0.0053152123102036932 0 0.023103450983867863 0.005779911650670818 0 0.023011494586877127 0.0060318079112206295 0 0.023348507473462805 0.0053152123102036932 0 0.023029711594665516 0.0055130893704842879 0 0.023103450983867863 0.005779911650670818 0 0.023011494586877127 0.0060318079112206295 0 0.023011494586877127 0.0060318079112206295 0 0.024688710168663242 0.0061885017370492965 0 0.023803100138389221 0.0055650541121139213 0 0.022998336802679684 0.0060923050308088634 0 0.022567428561954015 0.0063334678817585782 0 0.023011494586877127 0.0060318079112206295 0 0.020443710308419509 0.0065556096190894754 0 0.021663839018694325 0.0049387842273264015 0 0.024688710168663242 0.0061885017370492965 0 0.024840352857578435 0.0052206574218751503 0 0.023803100138389221 0.0055650541121139213 0 0.024840352857578435 0.0052206574218751503 0 0.023803100138389221 0.0055650541121139213 0 0.023817795542381025 0.0048318159502560246 0 0.023029711594665516 0.0055130893704842879 0 0.023803100138389221 0.0055650541121139213 0 0.023817795542381025 0.0048318159502560246 0 0.024086273228825287 0.0051275289011914948 0 0.023938138697576637 0.0047877494388328737 0 0.025093863078141068 0.0043403990994159564 0 0.022705892531228979 0.0049164813432850361 0 0.024086273228825287 0.0051275289011914948 0 0.023938138697576637 0.0047877494388328737 0 0.023938138697576637 0.0047877494388328737 0 0.024432934101520823 0.0040020795949855777 0 0.025093863078141068 0.0043403990994159564 0 0.023938138697576637 0.0047877494388328737 0 0.024432934101520823 0.0040020795949855777 0 0.023702202155250571 0.0039503957009418165 0 0.025566549526160588 0.0036540944198523756 0 0.025025711785516096 0.0038558898871198619 0 0.025093863078141068 0.0043403990994159564 0 0.024432934101520823 0.0040020795949855777 0 0.025025711785516096 0.0038558898871198619 0 0.025093863078141068 0.0043403990994159564 0 0.024840352857578435 0.0052206574218751503 0 0.023817795542381025 0.0048318159502560246 0 0.025093863078141068 0.0043403990994159564 0 0.023840335048030719 0.0050354643127133161 0 0.025035422800717938 0.0043680657333456776 0 0.024840352857578435 0.0052206574218751503 0 0.025093863078141068 0.0043403990994159564 0 0.025785356322683736 0.0049460971323419638 0 0.025093863078141068 0.0043403990994159564 0 0.025785356322683736 0.0049460971323419638 0 0.026168803345668082 0.0041892661775487158 0 0.025566549526160588 0.0036540944198523756 0 0.025093863078141068 0.0043403990994159564 0 0.026168803345668082 0.0041892661775487158 0 0.026751929193694384 0.0050511397336660269 0 0.025785356322683736 0.0049460971323419638 0 0.026168803345668082 0.0041892661775487158 0 0.026751929193694384 0.0050511397336660269 0 0.025785356322683736 0.0049460971323419638 0 0.02602692415489254 0.005890702895305272 0 0.024688710168663242 0.0061885017370492965 0 0.024840352857578435 0.0052206574218751503 0 0.02602692415489254 0.005890702895305272 0 0.024840352857578435 0.0052206574218751503 0 0.025785356322683736 0.0049460971323419638 0 0.02602692415489254 0.005890702895305272 0 0.020443710308419509 0.0065556096190894754 0 0.018017691940188419 0.0068183905645959964 0 0.01905252450360477 0.0055949235824561639 0 0.022567428561954015 0.0063334678817585782 0 0.022000669059005603 0.0063560895639331056 0 0.018017691940188419 0.0068183905645959964 0 0.017889470157204265 0.0050826871722009764 0 0.01905252450360477 0.0055949235824561639 0 0.016109116559146628 0.0050732096420040415 0 0.018017691940188419 0.0068183905645959964 0 0.017889470157204265 0.0050826871722009764 0 0.016109116559146628 0.0050732096420040415 0 0.017889470157204265 0.0050826871722009764 0 0.017419866670780864 0.0041005963186642553 0 0.017889470157204265 0.0050826871722009764 0 0.01878579432833383 0.0041995515197337553 0 0.017419866670780864 0.0041005963186642553 0 0.01905252450360477 0.0055949235824561639 0 0.01878579432833383 0.0041995515197337553 0 0.020062865439348508 0.0046210269002067116 0 0.017889470157204265 0.0050826871722009764 0 0.01905252450360477 0.0055949235824561639 0 0.01878579432833383 0.0041995515197337553 0 0.01878579432833383 0.0041995515197337553 0 0.018334423321402959 0.0028934273162055622 0 0.019803523267194131 0.0035705677980459897 0 0.01878579432833383 0.0041995515197337553 0 0.019803523267194131 0.0035705677980459897 0 0.020062865439348508 0.0046210269002067116 0 0.0087224473567358157 0.0032887447815592437 0 0.012049899081631473 0.0029507794662404362 0 0.015990269812670106 0.0032506660638196307 0 0.017419866670780864 0.0041005963186642553 0 0.018334423321402959 0.0028934273162055622 0 0.01878579432833383 0.0041995515197337553 0 0.017419866670780864 0.0041005963186642553 0 0.018334423321402959 0.0028934273162055622 0 0.0016282632477531403 0.0033341278061547411 0 0.0023748847691979439 0.0022101164304166418 0 0.0046625167587061077 0.0031737495244916225 0 0.0023748847691979439 0.0022101164304166418 0 0.0037400246061572947 0.0020017030573671719 0 0.0046625167587061077 0.0031737495244916225 0 0.0026740622528599956 0.00098224902053524574 0 0.0037400246061572947 0.0020017030573671719 0 0.0053235025478364176 0.001661334684396405 0 0.0037400246061572947 0.0020017030573671719 0 0.0053235025478364176 0.001661334684396405 0 0.0046625167587061077 0.0031737495244916225 0 0.0023748847691979439 0.0022101164304166418 0 0.0026740622528599956 0.00098224902053524574 0 0.0037400246061572947 0.0020017030573671719 0 0.0015274847433339811 0.0012841485752955414 0 0.0028805066465084927 0.0018696746498358828 0 -0.00012289813006859931 0.0014362099118000737 0 0.001860872190686112 0.00047954307299638056 0 0.0024527770287596715 0.0024437747310719193 0 0.0031998217483557639 0.0010849140411147086 0 0.001860872190686112 0.00047954307299638056 0 0.0024527770287596715 0.0024437747310719193 0 0.0031998217483557639 0.0010849140411147086 0 0.001860872190686112 0.00047954307299638056 0 0.0031359613395219696 -0.00018293310711809015 0 0.0031998217483557639 0.0010849140411147086 0 0.0024527770287596715 0.0024437747310719193 0 0.0038620352259167452 0.0019629602048766587 0 0.0053235025478364176 0.001661334684396405 0 0.0046625167587061077 0.0031737495244916225 0 0.0082843062539265395 0.0026946921620278072 0 0.018334423321402959 0.0028934273162055622 0 0.020674865540834118 0.0025759830362982383 0 0.019803523267194131 0.0035705677980459897 0 0.012049899081631473 0.0029507794662404362 0 0.012047297885316138 0.0029301284314006038 0 0.0051957399076010945 0.0034673406209341051 0 0.0047926763822725444 0.00076946349430789991 0 0.0067564240276172137 0.0032226662836508922 0 0.0024527770287596715 0.0024437747310719193 0 0.0051957399076010945 0.0034673406209341051 0 0.0038620352259167452 0.0019629602048766587 0 0.0028805066465084927 0.0018696746498358828 0 0.012047297885316138 0.0029301284314006038 0 0.0051957399076010945 0.0034673406209341051 0 0.0038620352259167452 0.0019629602048766587 0 0.0047926763822725444 0.00076946349430789991 0 0.0031998217483557639 0.0010849140411147086 0 0.0038620352259167452 0.0019629602048766587 0 0.0047926763822725444 0.00076946349430789991 0 0.0031998217483557639 0.0010849140411147086 0 0.0047926763822725444 0.00076946349430789991 0 0.0031359613395219696 -0.00018293310711809015 0 0.0047926763822725444 0.00076946349430789991 0 0.0074033803473798378 0.0017716177972502366 0 0.0068156082135146694 0.0029286489716018518 0 0.0047926763822725444 0.00076946349430789991 0 0.0075518729727251203 0.00069002668472422843 0 0.0064279108694858438 -0.0004053910416421613 0 0.0045894938230659522 0.00081300497190493163 0 0.0080733805407677203 0.0028729420314370859 0 0.0047926763822725444 0.00076946349430789991 0 0.0075518729727251203 0.00069002668472422843 0 0.0074033803473798378 0.0017716177972502366 0 0.010868323933094289 0.0030402159300891916 0 0.011483015957100419 0.0029486937209877006 0 0.011828511980718522 0.0033963969874308692 0 0.0074033803473798378 0.0017716177972502366 0 0.0068156082135146694 0.0029286489716018518 0 0.0085287164789275491 0.0024939552269363039 0 0.012047297885316138 0.0029301284314006038 0 0.013518027918963338 0.0039620518554900385 0 0.0080733805407677203 0.0028729420314370859 0 0.0080642440396147628 0.0026521608775032669 0 0.012047297885316138 0.0029301284314006038 0 0.0080733805407677203 0.0028729420314370859 0 0.0074505750075660139 0.0026937975202008463 0 0.0080089954015770803 0.0034236775798840895 0 0.0085287164789275491 0.0024939552269363039 0 0.0080733805407677203 0.0028729420314370859 0 0.013518027918963338 0.0039620518554900385 0 0.020674865540834118 0.0025759830362982383 0 0.022323928771229327 0.0032712532526646544 0 0.021201611196644665 0.0037467534628909532 0 0.022323928771229327 0.0032712532526646544 0 0.021973861298861579 0.0042462131716320779 0 0.02257419555366471 0.0048946936165904604 0 0.022323928771229327 0.0032712532526646544 0 0.021973861298861579 0.0042462131716320779 0 0.021201611196644665 0.0037467534628909532 0 0.021973861298861579 0.0042462131716320779 0 0.021201611196644665 0.0037467534628909532 0 0.021663839018694325 0.0049387842273264015 0 0.020674865540834118 0.0025759830362982383 0 0.021201611196644665 0.0037467534628909532 0 0.019803523267194131 0.0035705677980459897 0 0.021201611196644665 0.0037467534628909532 0 0.020062865439348508 0.0046210269002067116 0 0.021663839018694325 0.0049387842273264015 0 0.021201611196644665 0.0037467534628909532 0 0.019803523267194131 0.0035705677980459897 0 0.020062865439348508 0.0046210269002067116 0 0.020443710308419509 0.0065556096190894754 0 0.01905252450360477 0.0055949235824561639 0 0.020062865439348508 0.0046210269002067116 0 0.020443710308419509 0.0065556096190894754 0 0.020062865439348508 0.0046210269002067116 0 0.021663839018694325 0.0049387842273264015 0 0.023011494586877127 0.0060318079112206295 0 0.021663839018694325 0.0049387842273264015 0 0.02257419555366471 0.0048946936165904604 0 0.021973861298861579 0.0042462131716320779 0 0.021663839018694325 0.0049387842273264015 0 0.02257419555366471 0.0048946936165904604 0 0.023011494586877127 0.0060318079112206295 0 0.02257419555366471 0.0048946936165904604 0 0.023348507473462805 0.0053152123102036932 0 0.009883363784221437 0.0053322085001279154 0 0.011244205972593138 0.0060153631421063815 0 0.010623790630965703 0.0044937026787359481 0 0.011244205972593138 0.0060153631421063815 0 0.010623790630965703 0.0044937026787359481 0 0.011693918505203179 0.0049808225043158185 0 0.009883363784221437 0.0053322085001279154 0 0.010623790630965703 0.0044937026787359481 0 0.0097009576206929932 0.0038882567665057266 0 0.010623790630965703 0.0044937026787359481 0 0.010663728168520804 0.0031668050590026487 0 0.011636635682594461 0.0038174773641753844 0 0.0097009576206929932 0.0038882567665057266 0 0.0094140461582342978 0.002997336790667372 0 0.010663728168520804 0.0031668050590026487 0 0.010623790630965703 0.0044937026787359481 0 0.0097009576206929932 0.0038882567665057266 0 0.010663728168520804 0.0031668050590026487 0 0.0080089954015770803 0.0034236775798840895 0 0.0097009576206929932 0.0038882567665057266 0 0.0094140461582342978 0.002997336790667372 0 0.022323928771229327 0.0032712532526646544 0 0.02257419555366471 0.0048946936165904604 0 0.023348507473462805 0.0053152123102036932 0 0.013518027918963338 0.0039620518554900385 0 0.0168122757173223 0.0054656383480940259 0 0.0084126570443742946 0.0034081582241459042 0 0.009883363784221437 0.0053322085001279154 0 0.0097009576206929932 0.0038882567665057266 0 0.013518027918963338 0.0039620518554900385 0 0.0079017474705428501 0.0032608662830597756 0 0.0080089954015770803 0.0034236775798840895 0 0.0094140461582342978 0.002997336790667372 0 0.0085287164789275491 0.0024939552269363039 0 0.0094140461582342978 0.002997336790667372 0 0.0085287164789275491 0.0024939552269363039 0 0.0099705248422304795 0.0021353235701885836 0 0.0085287164789275491 0.0024939552269363039 0 0.0089900608607748622 0.0015629634052922755 0 0.0099705248422304795 0.0021353235701885836 0 0.0074033803473798378 0.0017716177972502366 0 0.0085287164789275491 0.0024939552269363039 0 0.0089900608607748622 0.0015629634052922755 0 0.0075518729727251203 0.00069002668472422843 0 0.0074033803473798378 0.0017716177972502366 0 0.0089900608607748622 0.0015629634052922755 0 0.0089900608607748622 0.0015629634052922755 0 0.0098679317960053622 0.0012045666015950689 0 0.0099705248422304795 0.0021353235701885836 0 0.0089900608607748622 0.0015629634052922755 0 0.0091760471025837485 0.00041435604485727333 0 0.0098679317960053622 0.0012045666015950689 0 0.0075518729727251203 0.00069002668472422843 0 0.0091760471025837485 0.00041435604485727333 0 0.0080618340745997 -0.00020854611183692681 0 0.0075518729727251203 0.00069002668472422843 0 0.0089900608607748622 0.0015629634052922755 0 0.0091760471025837485 0.00041435604485727333 0 0.010771039928554478 0.001211040236508916 0 0.0113580392183164 0.00055282664522859329 0 0.010527102774170875 0.0001874860799970126 0 0.0098679317960053622 0.0012045666015950689 0 0.010771039928554478 0.001211040236508916 0 0.010527102774170875 0.0001874860799970126 0 0.0091760471025837485 0.00041435604485727333 0 0.0098679317960053622 0.0012045666015950689 0 0.010527102774170875 0.0001874860799970126 0 0.0098679317960053622 0.0012045666015950689 0 0.010771039928554478 0.001211040236508916 0 0.0099705248422304795 0.0021353235701885836 0 0.010771039928554478 0.001211040236508916 0 0.011347161458834437 0.0021316472475840288 0 0.011544096106878798 0.0013358411592169009 0 0.010771039928554478 0.001211040236508916 0 0.011544096106878798 0.0013358411592169009 0 0.0113580392183164 0.00055282664522859329 0 0.0099705248422304795 0.0021353235701885836 0 0.010663728168520804 0.0031668050590026487 0 0.011347161458834437 0.0021316472475840288 0 0.010771039928554478 0.001211040236508916 0 0.0099705248422304795 0.0021353235701885836 0 0.011347161458834437 0.0021316472475840288 0 0.0094140461582342978 0.002997336790667372 0 0.0099705248422304795 0.0021353235701885836 0 0.010663728168520804 0.0031668050590026487 0 0.010663728168520804 0.0031668050590026487 0 0.011800329914447088 0.0029248730012655074 0 0.011347161458834437 0.0021316472475840288 0 0.011800329914447088 0.0029248730012655074 0 0.012642726035376349 0.0024637354999462653 0 0.011347161458834437 0.0021316472475840288 0 0.011800329914447088 0.0029248730012655074 0 0.012642726035376349 0.0024637354999462653 0 0.012556928092997945 0.003118537916484291 0 0.012642726035376349 0.0024637354999462653 0 0.012120582474015358 0.0017271494508999809 0 0.012788631188184733 0.0016651689510123195 0 0.012642726035376349 0.0024637354999462653 0 0.011347161458834437 0.0021316472475840288 0 0.012120582474015358 0.0017271494508999809 0 0.011347161458834437 0.0021316472475840288 0 0.011544096106878798 0.0013358411592169009 0 0.012120582474015358 0.0017271494508999809 0 0.011544096106878798 0.0013358411592169009 0 0.012120582474015358 0.0017271494508999809 0 0.012344484234064694 0.00093166288060824538 0 0.012120582474015358 0.0017271494508999809 0 0.012344484234064694 0.00093166288060824538 0 0.012788631188184733 0.0016651689510123195 0 0.012344484234064694 0.00093166288060824538 0 0.013029189495404978 0.00097788414872947149 0 0.012788631188184733 0.0016651689510123195 0 0.012344484234064694 0.00093166288060824538 0 0.011881040850172841 -0.0001002611285544827 0 0.012629356618598302 5.1002116493035051e-05 0 0.012344484234064694 0.00093166288060824538 0 0.013029189495404978 0.00097788414872947149 0 0.012629356618598302 5.1002116493035051e-05 0 0.012344484234064694 0.00093166288060824538 0 0.0113580392183164 0.00055282664522859329 0 0.011881040850172841 -0.0001002611285544827 0 0.011544096106878798 0.0013358411592169009 0 0.012344484234064694 0.00093166288060824538 0 0.0113580392183164 0.00055282664522859329 0 0.010585294815194692 -3.4023662261714493e-07 0 0.010144053144065785 -9.3679393991497503e-06 0 0.0086178466175789621 3.0516638172907252e-07 0 0.012022301135010002 0.00099025666797029422 0 0.0099373022835424814 0.00030878015586380942 0 0.010144053144065785 -9.3679393991497503e-06 0 0.0086178466175789621 3.0516638172907252e-07 0 0.0086473905011379693 2.6012164021758501e-05 0 0.013029189495404978 0.00097788414872947149 0 0.013632092534964793 0.0023960393873133931 0 0.013762659034275768 -0.00017964364302492831 0 0.013029189495404978 0.00097788414872947149 0 0.013762659034275768 -0.00017964364302492831 0 0.012629356618598302 5.1002116493035051e-05 0 0.013029189495404978 0.00097788414872947149 0 0.012788631188184733 0.0016651689510123195 0 0.013632092534964793 0.0023960393873133931 0 0.010585294815194692 -3.4023662261714493e-07 0 0.010144053144065785 -9.3679393991497503e-06 0 0.011798130356233704 -1.240646149018393e-05 0 0.012642726035376349 0.0024637354999462653 0 0.012788631188184733 0.0016651689510123195 0 0.013632092534964793 0.0023960393873133931 0 0.012642726035376349 0.0024637354999462653 0 0.013632092534964793 0.0023960393873133931 0 0.013498576133592935 0.0029415979803577145 0 0.012642726035376349 0.0024637354999462653 0 0.013498576133592935 0.0029415979803577145 0 0.012556928092997945 0.003118537916484291 0 0.013498576133592935 0.0029415979803577145 0 0.012452434392099849 0.0040055317938600989 0 0.012948461475457624 0.0051975653440190775 0 0.013632183605452573 0.0028647317238324954 0 0.013498576133592935 0.0029415979803577145 0 0.014623174700895117 0.0020631351334639437 0 0.013632092534964793 0.0023960393873133931 0 0.013632183605452573 0.0028647317238324954 0 0.013498576133592935 0.0029415979803577145 0 0.010585294815194692 -3.4023662261714493e-07 0 0.011798130356233704 -1.240646149018393e-05 0 0.012555414514407835 6.7444964575147645e-07 0 0.012022301135010002 0.00099025666797029422 0 0.012747200187699471 0.0012965927472816563 0 0.0136302685511087 0.0029758467712010807 0 0.013706194224105767 0.0035798532414740977 0 0.012556928092997945 0.003118537916484291 0 0.011636635682594461 0.0038174773641753844 0 0.012452434392099849 0.0040055317938600989 0 0.013498576133592935 0.0029415979803577145 0 0.012556928092997945 0.003118537916484291 0 0.012452434392099849 0.0040055317938600989 0 0.011800329914447088 0.0029248730012655074 0 0.012556928092997945 0.003118537916484291 0 0.011636635682594461 0.0038174773641753844 0 0.010663728168520804 0.0031668050590026487 0 0.011800329914447088 0.0029248730012655074 0 0.011636635682594461 0.0038174773641753844 0 0.011636635682594461 0.0038174773641753844 0 0.012452434392099849 0.0040055317938600989 0 0.011693918505203179 0.0049808225043158185 0 0.010623790630965703 0.0044937026787359481 0 0.011636635682594461 0.0038174773641753844 0 0.011693918505203179 0.0049808225043158185 0 0.012452434392099849 0.0040055317938600989 0 0.011693918505203179 0.0049808225043158185 0 0.012948461475457624 0.0051975653440190775 0 0.014812287986430528 0.0034490096580050171 0 0.013706194224105767 0.0035798532414740977 0 0.012406729976075738 0.00699073333060354 0 0.011993571290687951 0.0059808932457817284 0 0.012948461475457624 0.0051975653440190775 0 0.011244205972593138 0.0060153631421063815 0 0.011693918505203179 0.0049808225043158185 0 0.011993571290687951 0.0059808932457817284 0 0.011693918505203179 0.0049808225043158185 0 0.011993571290687951 0.0059808932457817284 0 0.012948461475457624 0.0051975653440190775 0 0.013771652584044518 0.00016058472598366559 0 0.013632183605452573 0.0028647317238324954 0 0.014215751447838265 0.0013537686698780178 0 0.014869943772311121 0.00031035493387451346 0 0.014215751447838265 0.0013537686698780178 0 0.014623174700895117 0.0020631351334639437 0 0.01354846264120424 0.00015818124696967897 0 0.012747200187699471 0.0012965927472816563 0 0.013771652584044518 0.00016058472598366559 0 0.011798130356233704 -1.240646149018393e-05 0 0.012555414514407835 6.7444964575147645e-07 0 0.013632183605452573 0.0028647317238324954 0 0.014215751447838265 0.0013537686698780178 0 0.014623174700895117 0.0020631351334639437 0 0.0048210803055547587 -1.1139920246819464e-07 0 0.0049238509558628459 -2.4575159331133329e-06 0 0.006425532141442274 -8.0110315977280408e-08 0 0.0048210803055547587 -1.1139920246819464e-07 0 0.0049238509558628459 -2.4575159331133329e-06 0 0.0036054276834503944 -1.0791982998277321e-05 0 0.0047742801439089998 -0.0003774111896799964 0 0.0034721621857142582 -0.00045037891348842838 0 0.0043482886618058016 -0.00022642406950525962 0 0.0043423709891658585 -0.00022510292920119806 0 0.0043396672638764512 -0.00022005337923082223 0 0.0052383248764583694 -0.00058075119620732199 0 0.0048697421738532988 -0.00052636178960518195 0 0.0051291269967859996 -0.00090180711101477649 0 0.0015144974840621973 -0.00020343763272651769 0 0.0014082678513651628 -0.00043588438511679592 0 0.0017439981288450302 -0.00051472997591485599 0 0.0032749000383184169 -0.00035816253918711887 0 0.0034721621857142582 -0.00045037891348842838 0 0.0048697421738532988 -0.00052636178960518195 0 0.0051281490655713021 -0.0003789497008914303 0 0.005048626246398024 -0.00015580316759629588 0 0.0052383248764583694 -0.00058075119620732199 0 0.0048697421738532988 -0.00052636178960518195 0 0.0051281490655713021 -0.0003789497008914303 0 0.0048697421738532988 -0.00052636178960518195 0 0.005048626246398024 -0.00015580316759629588 0 0.0048267478258055465 -9.9250608421672147e-05 0 0.0051281490655713021 -0.0003789497008914303 0 0.0053582323470822398 -0.00024943875775161844 0 0.005048626246398024 -0.00015580316759629588 0 0.004681106406673503 -0.00020809721215282064 0 0.0053054004958959494 -0.00023858350930385159 0 0.0049238509558628459 -2.4575159331133329e-06 0 0.006425532141442274 -8.0110315977280408e-08 0 0.0063958434789781124 -9.7832897944751898e-06 0 0.0043482886618058016 -0.00022642406950525962 0 0.0043423709891658585 -0.00022510292920119806 0 0.0043666598839022927 -0.00022727284672419929 0 0.0052383248764583694 -0.00058075119620732199 0 0.0051281490655713021 -0.0003789497008914303 0 0.0053582323470822398 -0.00024943875775161844 0 0.0047742801439089998 -0.0003774111896799964 0 0.0053054004958959494 -0.00023858350930385159 0 0.0053054004958959494 -0.00023858350930385159 0 0.0074901566556506019 0.00020042337808346539 0 0.006425532141442274 -8.0110315977280408e-08 0 0.0063958434789781124 -9.7832897944751898e-06 0 0.0080276375670477566 1.7624025765301306e-07 0 0.0053582323470822398 -0.00024943875775161844 0 0.0051919072920777474 2.5056679320915586e-05 0 0.0053901921771137319 0.00027189961729677357 0 0.0063958434789781124 -9.7832897944751898e-06 0 0.0080276375670477566 1.7624025765301306e-07 0 0.0078214725199599079 2.0204055612407073e-05 0 0.0053582323470822398 -0.00024943875775161844 0 0.0051919072920777474 2.5056679320915586e-05 0 0.005048626246398024 -0.00015580316759629588 0 0.0088168624340653565 -6.3674413083846088e-05 0 0.0088199698907976288 8.8381755651220599e-05 0 0.0083953211880463206 -0.00010247048790189479 0 0.0099373022835424814 0.00030878015586380942 0 0.0084033006067680757 -8.1592537760925485e-05 0 0.0051919072920777474 2.5056679320915586e-05 0 0.0053901921771137319 0.00027189961729677357 0 0.0049691655465370225 0.00023535554087586336 0 0.013762659034275768 -0.00017964364302492831 0 0.012629356618598302 5.1002116493035051e-05 0 0.01195186761216803 -0.00098041399644151163 0 0.0074901566556506019 0.00020042337808346539 0 0.0084033006067680757 -8.1592537760925485e-05 0 0.0080286125796603051 3.7663169489023264e-07 0 0.0074901566556506019 0.00020042337808346539 0 0.0080299791299872272 5.7958448729388223e-09 0 0.0083082659077351722 2.6867380881457926e-05 0 0.0082779204801414381 -3.7982746589564751e-05 0 0.0080299791299872272 5.7958448729388223e-09 0 0.0086154064607098287 2.7405982260429379e-10 0 0.0082779204801414381 -3.7982746589564751e-05 0 0.0086170612215616723 -1.2571777343756042e-07 0 0.0099373022835424814 0.00030878015586380942 0 0.0086154064607098287 2.7405982260429379e-10 0 0.0082779204801414381 -3.7982746589564751e-05 0 0.0082660466774224124 -1.5697753216137694e-05 0 0.0083082659077351722 2.6867380881457926e-05 0 0.0082779204801414381 -3.7982746589564751e-05 0 0.0082660466774224124 -1.5697753216137694e-05 0 0.0074901566556506019 0.00020042337808346539 0 0.0099373022835424814 0.00030878015586380942 0 0.0113580392183164 0.00055282664522859329 0 0.011881040850172841 -0.0001002611285544827 0 0.011150726730590954 -0.00031601366328006122 0 0.011881040850172841 -0.0001002611285544827 0 0.01195186761216803 -0.00098041399644151163 0 0.011150726730590954 -0.00031601366328006122 0 0.011881040850172841 -0.0001002611285544827 0 0.012629356618598302 5.1002116493035051e-05 0 0.01195186761216803 -0.00098041399644151163 0 0.0084033006067680757 -8.1592537760925485e-05 0 0.0067455951353547188 -0.00061637438972858549 0 0.0084033006067680757 -8.1592537760925485e-05 0 0.0036594112623614321 -0.001309650998539761 0 0.01195186761216803 -0.00098041399644151163 0 0.010896100966660048 -0.0010763167628145508 0 0.011150726730590954 -0.00031601366328006122 0 0.0049691655465370225 0.00023535554087586336 0 0.0048267478258055465 -9.9250608421672147e-05 0 0.0046650822372721872 0.0001029546987830732 0 0.0049691655465370225 0.00023535554087586336 0 0.005048626246398024 -0.00015580316759629588 0 0.0048267478258055465 -9.9250608421672147e-05 0 0.0051919072920777474 2.5056679320915586e-05 0 0.0049691655465370225 0.00023535554087586336 0 0.005048626246398024 -0.00015580316759629588 0 0.0048267478258055465 -9.9250608421672147e-05 0 0.0045860640700911446 -0.00013601132002004688 0 0.0046650822372721872 0.0001029546987830732 0 0.00071503916728134296 -0.0017587808619160513 0 0.00044945676991132392 -0.0019761570713797035 0 0.0010034731636628905 -0.0020129539090285777 0 0.00067867154728608412 -0.0015168802887509808 0 0.0004318474404098179 -0.001531598600340262 0 0.00079410945585166673 -0.0012886846193936605 0 0.0004318474404098179 -0.001531598600340262 0 0.00061236180121899898 -0.0016212576261232709 0 0.00033105928136993823 -0.0019194883012375469 0 0.00067867154728608412 -0.0015168802887509808 0 0.0004318474404098179 -0.001531598600340262 0 0.00061236180121899898 -0.0016212576261232709 0 0.00067867154728608412 -0.0015168802887509808 0 0.00061236180121899898 -0.0016212576261232709 0 0.00071503916728134296 -0.0017587808619160513 0 0.00022650222527555142 -0.0022202665553734931 0 0.0036594112623614321 -0.001309650998539761 0 0.00061236180121899898 -0.0016212576261232709 0 0.00071503916728134296 -0.0017587808619160513 0 0.00033105928136993823 -0.0019194883012375469 0 0.00071503916728134296 -0.0017587808619160513 0 0.00048160727891046601 -0.001869256071770778 0 0.00044945676991132392 -0.0019761570713797035 0 0.0019083380265352936 -0.0007161283338631278 0 0.0036594112623614321 -0.001309650998539761 0 0.010905845677719895 -0.0012492922416194696 0 0.011150726730590954 -0.00031601366328006122 0 0.010590492499066483 -0.00048427678667351757 0 0.0079651416138167685 6.9610895846413008e-05 0 0.0052263826775416572 -0.0011428101161321919 0 0.0055405062824429507 -0.00013748874696483808 0 0.0067455951353547188 -0.00061637438972858549 0 0.0090300845535972538 2.6540064429568133e-06 0 0.010905845677719895 -0.0012492922416194696 0 0.0097693807634263649 -0.00058402725687546717 0 0.0084423336525794434 -0.0015843374948016342 0 0.010905845677719895 -0.0012492922416194696 0 0.0097693807634263649 -0.00058402725687546717 0 0.010590492499066483 -0.00048427678667351757 0 0.0067455951353547188 -0.00061637438972858549 0 0.0045001129030601064 -0.0018811439704019589 0 0.0036594112623614321 -0.001309650998539761 0 0.0067455951353547188 -0.00061637438972858549 0 0.0097693807634263649 -0.00058402725687546717 0 0.010527102774170875 0.0001874860799970126 0 0.010590492499066483 -0.00048427678667351757 0 0.0091760471025837485 0.00041435604485727333 0 0.0097693807634263649 -0.00058402725687546717 0 0.010527102774170875 0.0001874860799970126 0 0.0113580392183164 0.00055282664522859329 0 0.010527102774170875 0.0001874860799970126 0 0.011150726730590954 -0.00031601366328006122 0 0.010527102774170875 0.0001874860799970126 0 0.011150726730590954 -0.00031601366328006122 0 0.010590492499066483 -0.00048427678667351757 0 0.0091760471025837485 0.00041435604485727333 0 0.0097693807634263649 -0.00058402725687546717 0 0.0088678962324138435 -0.00048566817188171386 0 0.0091760471025837485 0.00041435604485727333 0 0.0080618340745997 -0.00020854611183692681 0 0.0088678962324138435 -0.00048566817188171386 0 0.0097693807634263649 -0.00058402725687546717 0 0.0088678962324138435 -0.00048566817188171386 0 0.0084423336525794434 -0.0015843374948016342 0 0.0080618340745997 -0.00020854611183692681 0 0.0088678962324138435 -0.00048566817188171386 0 0.0084423336525794434 -0.0015843374948016342 0 0.0009759629608678326 -0.0016460315497798094 0 0.00079410945585166673 -0.0012886846193936605 0 0.00134295841885421 -0.0015598070626678647 0 0.00071503916728134296 -0.0017587808619160513 0 0.0010034731636628905 -0.0020129539090285777 0 0.0009759629608678326 -0.0016460315497798094 0 0.00067867154728608412 -0.0015168802887509808 0 0.00071503916728134296 -0.0017587808619160513 0 0.0009759629608678326 -0.0016460315497798094 0 0.00067867154728608412 -0.0015168802887509808 0 0.0009759629608678326 -0.0016460315497798094 0 0.00079410945585166673 -0.0012886846193936605 0 0.0010034731636628905 -0.0020129539090285777 0 0.0009759629608678326 -0.0016460315497798094 0 0.00134295841885421 -0.0015598070626678647 0 0.00079410945585166673 -0.0012886846193936605 0 0.001115610143122347 -0.0009816143557792598 0 0.00134295841885421 -0.0015598070626678647 0 0.0004318474404098179 -0.001531598600340262 0 0.00085027802911993172 -0.00091533334242036718 0 0.00079410945585166673 -0.0012886846193936605 0 0.00085027802911993172 -0.00091533334242036718 0 0.00079410945585166673 -0.0012886846193936605 0 0.001115610143122347 -0.0009816143557792598 0 0.0032749000383184169 -0.00035816253918711887 0 0.0019083380265352936 -0.0007161283338631278 0 0.0019083380265352936 -0.0007161283338631278 0 0.00078215940180453522 -0.00053826105549787133 0 0.0015144974840621973 -0.00020343763272651769 0 0.00130398464374423 9.3420926537649592e-05 0 0.0011260029106887899 -0.00038607533941087863 0 0.0048697421738532988 -0.00052636178960518195 0 0.0048267478258055465 -9.9250608421672147e-05 0 0.0045860640700911446 -0.00013601132002004688 0 0.0004318474404098179 -0.001531598600340262 0 0.00085027802911993172 -0.00091533334242036718 0 0.00076737839034548921 -0.00057708206098285443 0 0.0015144974840621973 -0.00020343763272651769 0 0.0014082678513651628 -0.00043588438511679592 0 0.0011260029106887899 -0.00038607533941087863 0 0.00076737839034548921 -0.00057708206098285443 0 0.00089141691959745463 -0.00047403684157779877 0 0.00082085092830904512 -0.0006630015392801407 0 0.00085027802911993172 -0.00091533334242036718 0 0.00076737839034548921 -0.00057708206098285443 0 0.00089141691959745463 -0.00047403684157779877 0 0.00085027802911993172 -0.00091533334242036718 0 0.00089141691959745463 -0.00047403684157779877 0 0.001115610143122347 -0.0009816143557792598 0 0.00089141691959745463 -0.00047403684157779877 0 0.00010900648028233299 0.00013441665954936217 0 0.00024568746614012885 -0.00046402272029100444 0 0.00093076939347903269 -0.00046722908654226174 0 0.0010209925731885549 -0.00047583165452509517 0 0.00089141691959745463 -0.00047403684157779877 0 0.0019396272460044937 -0.0010004871799208172 0 0.001115610143122347 -0.0009816143557792598 0 0.00010900648028233299 0.00013441665954936217 0 -0.00031672238964348498 -0.00029985040525493486 0 0.00024568746614012885 -0.00046402272029100444 0 0.0019396272460044937 -0.0010004871799208172 0 0.00134295841885421 -0.0015598070626678647 0 0.0021439807238494437 -0.0017209798036685203 0 0.0010209925731885549 -0.00047583165452509517 0 0.0010397793606429586 -0.00071694647751109847 0 0.0019396272460044937 -0.0010004871799208172 0 0.0021439807238494437 -0.0017209798036685203 0 0.0026442411006269971 -0.0019032743179280987 0 0.0019396272460044937 -0.0010004871799208172 0 0.001115610143122347 -0.0009816143557792598 0 0.00134295841885421 -0.0015598070626678647 0 0.0010034731636628905 -0.0020129539090285777 0 0.00134295841885421 -0.0015598070626678647 0 0.0018695283664528529 -0.002055020542473474 0 0.00134295841885421 -0.0015598070626678647 0 0.0018695283664528529 -0.002055020542473474 0 0.0021439807238494437 -0.0017209798036685203 0 0.0045001129030601064 -0.0018811439704019589 0 0.0037827573193068209 -0.0018762051504111546 0 0.0084423336525794434 -0.0015843374948016342 0 0.0064279108694858438 -0.0004053910416421613 0 0.0056384363083768815 -0.0018138943621890181 0 0.0080618340745997 -0.00020854611183692681 0 0.0084423336525794434 -0.0015843374948016342 0 0.0064279108694858438 -0.0004053910416421613 0 0.0075518729727251203 0.00069002668472422843 0 0.0080618340745997 -0.00020854611183692681 0 0.0064279108694858438 -0.0004053910416421613 0 0.0047926763822725444 0.00076946349430789991 0 0.0064279108694858438 -0.0004053910416421613 0 0.0056384363083768815 -0.0018138943621890181 0 0.0056384363083768815 -0.0018138943621890181 0 0.002618946074895575 -0.0017037347622966563 0 0.0031359613395219696 -0.00018293310711809015 0 0.0047926763822725444 0.00076946349430789991 0 0.0056384363083768815 -0.0018138943621890181 0 0.0031359613395219696 -0.00018293310711809015 0 0.0037827573193068209 -0.0018762051504111546 0 0.0026986140907514352 -0.0017823308883263352 0 0.0018695283664528529 -0.002055020542473474 0 0.0021439807238494437 -0.0017209798036685203 0 0.002618946074895575 -0.0017037347622966563 0 0.0021439807238494437 -0.0017209798036685203 0 0.0026442411006269971 -0.0019032743179280987 0 0.002618946074895575 -0.0017037347622966563 0 0.0026442411006269971 -0.0019032743179280987 0 0.002618946074895575 -0.0017037347622966563 0 0.001083900165283021 -0.0011364519971457472 0 0.0010397793606429586 -0.00071694647751109847 0 0.00013169499205132836 -0.00020119775886126562 0 0.002618946074895575 -0.0017037347622966563 0 0.0021697961104051593 -0.00066183693191738328 0 0.001083900165283021 -0.0011364519971457472 0 0.002618946074895575 -0.0017037347622966563 0 0.0021697961104051593 -0.00066183693191738328 0 0.0031359613395219696 -0.00018293310711809015 0 0.001860872190686112 0.00047954307299638056 0 0.0021697961104051593 -0.00066183693191738328 0 0.0031359613395219696 -0.00018293310711809015 0 -0.00012289813006859931 0.0014362099118000737 0 0.001860872190686112 0.00047954307299638056 0 0.001083900165283021 -0.0011364519971457472 0 0.001860872190686112 0.00047954307299638056 0 0.0021697961104051593 -0.00066183693191738328 0 0.001083900165283021 -0.0011364519971457472 0 -0.00046730117639898536 0.00042230450007196211 0 -0.00083674306555237726 0.00059441534298592823 0 -0.00079235831317720938 0.00039329364665258967 0 -0.00083674306555237726 0.00059441534298592823 0 -0.00079235831317720938 0.00039329364665258967 0 -0.0010879134670814148 0.00039675540029044087 0 -0.00079235831317720938 0.00039329364665258967 0 -0.0009785146007652225 0.00023812495328190782 0 -0.0010879134670814148 0.00039675540029044087 0 -0.0009785146007652225 0.00023812495328190782 0 -0.00062843889569202927 0.0001105094573942136 0 -0.0010813625956395676 -5.3085576144143235e-05 0 -0.00079235831317720938 0.00039329364665258967 0 -0.0009785146007652225 0.00023812495328190782 0 -0.00062843889569202927 0.0001105094573942136 0 0.00010900648028233299 0.00013441665954936217 0 -0.00046730117639898536 0.00042230450007196211 0 -0.00062843889569202927 0.0001105094573942136 0 -0.00046730117639898536 0.00042230450007196211 0 -0.00079235831317720938 0.00039329364665258967 0 -0.00062843889569202927 0.0001105094573942136 0 -0.00062843889569202927 0.0001105094573942136 0 -0.00031672238964348498 -0.00029985040525493486 0 -0.00077238101381234877 -0.0002324205497534174 0 0.00010900648028233299 0.00013441665954936217 0 -0.00062843889569202927 0.0001105094573942136 0 -0.00031672238964348498 -0.00029985040525493486 0 -0.00062843889569202927 0.0001105094573942136 0 -0.00077238101381234877 -0.0002324205497534174 0 -0.0010813625956395676 -5.3085576144143235e-05 0 -0.00077238101381234877 -0.0002324205497534174 0 -0.0010813625956395676 -5.3085576144143235e-05 0 -0.0012052950604081343 -0.00036156242967584986 0 -0.00071256340592652247 -0.00062915759897608703 0 -0.0012052950604081343 -0.00036156242967584986 0 -0.0013232793886918776 -0.00073252936175538909 0 -0.00077238101381234877 -0.0002324205497534174 0 -0.00071256340592652247 -0.00062915759897608703 0 -0.0012052950604081343 -0.00036156242967584986 0 -0.00031672238964348498 -0.00029985040525493486 0 -0.00071256340592652247 -0.00062915759897608703 0 -4.0295030950532996e-05 -0.00072354473094363993 0 -0.00071256340592652247 -0.00062915759897608703 0 -0.00038299457101556214 -0.00098865298052947231 0 -4.0295030950532996e-05 -0.00072354473094363993 0 -0.00031672238964348498 -0.00029985040525493486 0 -0.00077238101381234877 -0.0002324205497534174 0 -0.00071256340592652247 -0.00062915759897608703 0 -0.00038299457101556214 -0.00098865298052947231 0 -0.00033591829338506217 -0.0014851027428179865 0 6.0829721085224785e-05 -0.0010545556699721121 0 -0.00038299457101556214 -0.00098865298052947231 0 -0.0008876005272014072 -0.0010863529789020964 0 -0.00033591829338506217 -0.0014851027428179865 0 -0.00071256340592652247 -0.00062915759897608703 0 -0.00038299457101556214 -0.00098865298052947231 0 -0.0008876005272014072 -0.0010863529789020964 0 -0.00071256340592652247 -0.00062915759897608703 0 -0.0008876005272014072 -0.0010863529789020964 0 -0.0013232793886918776 -0.00073252936175538909 0 -0.0008876005272014072 -0.0010863529789020964 0 -0.0014582654921528047 -0.0010612719612787447 0 -0.0013232793886918776 -0.00073252936175538909 0 -0.0008876005272014072 -0.0010863529789020964 0 -0.0011881157737085991 -0.0016140742621632918 0 -0.0014582654921528047 -0.0010612719612787447 0 -0.0029881101167177496 -0.00040187014782356987 0 -0.002115376056080546 -0.00016066732692352674 0 -0.0008876005272014072 -0.0010863529789020964 0 -0.0011881157737085991 -0.0016140742621632918 0 -0.00033591829338506217 -0.0014851027428179865 0 -0.0046590151408819717 6.6092325703679959e-05 0 -0.004110263773606489 0.00036073832813505373 0 -0.0046204033948953295 0.00075341201480158462 0 -0.004110263773606489 0.00036073832813505373 0 -0.0046204033948953295 0.00075341201480158462 0 -0.0039585563544041937 0.0011557985837485063 0 -0.0039585563544041937 0.0011557985837485063 0 -0.0032585187713925897 0.00093027892926271006 0 -0.0030647255078342078 0.0015673791811809767 0 -0.002115376056080546 -0.00016066732692352674 0 -0.0012732078967061498 0.0001435206147266395 0 -0.00033591829338506217 -0.0014851027428179865 0 0.00048545783257894986 -0.0012813950838199901 0 6.0829721085224785e-05 -0.0010545556699721121 0 -0.004110263773606489 0.00036073832813505373 0 -0.0039585563544041937 0.0011557985837485063 0 -0.0032585187713925897 0.00093027892926271006 0 -0.0033475571385021556 0.00023367208642336432 0 -0.0032585187713925897 0.00093027892926271006 0 -0.0023661642059036574 0.00086707900077252406 0 -0.0032585187713925897 0.00093027892926271006 0 -0.0025279081908511835 0.0013110164144657487 0 -0.0023661642059036574 0.00086707900077252406 0 -0.0032585187713925897 0.00093027892926271006 0 -0.0030647255078342078 0.0015673791811809767 0 -0.0025279081908511835 0.0013110164144657487 0 0.00048545783257894986 -0.0012813950838199901 0 0.00052941276664573956 -0.00078751425195140235 0 0.00088705093330981508 -0.00092356153051153362 0 0.00048545783257894986 -0.0012813950838199901 0 6.0829721085224785e-05 -0.0010545556699721121 0 0.00052941276664573956 -0.00078751425195140235 0 6.0829721085224785e-05 -0.0010545556699721121 0 -4.0295030950532996e-05 -0.00072354473094363993 0 0.00052941276664573956 -0.00078751425195140235 0 -0.00038299457101556214 -0.00098865298052947231 0 6.0829721085224785e-05 -0.0010545556699721121 0 -4.0295030950532996e-05 -0.00072354473094363993 0 -0.00031672238964348498 -0.00029985040525493486 0 0.00024568746614012885 -0.00046402272029100444 0 -4.0295030950532996e-05 -0.00072354473094363993 0 0.00024568746614012885 -0.00046402272029100444 0 -4.0295030950532996e-05 -0.00072354473094363993 0 0.00052941276664573956 -0.00078751425195140235 0 0.00052941276664573956 -0.00078751425195140235 0 0.00082085092830904512 -0.0006630015392801407 0 0.00088705093330981508 -0.00092356153051153362 0 0.00089141691959745463 -0.00047403684157779877 0 0.00052941276664573956 -0.00078751425195140235 0 0.00082085092830904512 -0.0006630015392801407 0 0.00089141691959745463 -0.00047403684157779877 0 0.00024568746614012885 -0.00046402272029100444 0 0.00052941276664573956 -0.00078751425195140235 0 0.00078215940180453522 -0.00053826105549787133 0 0.0009285704627067737 -0.00088858513124853299 0 0.0011260029106887899 -0.00038607533941087863 0 0.0011218670487901183 -0.00075031988809017513 0 0.00088705093330981508 -0.00092356153051153362 0 0.00076737839034548921 -0.00057708206098285443 0 0.00082085092830904512 -0.0006630015392801407 0 0.00088705093330981508 -0.00092356153051153362 0 0.0011260029106887899 -0.00038607533941087863 0 0.0013336393917047005 -0.00068135209600479838 0 0.0011218670487901183 -0.00075031988809017513 0 0.0014082678513651628 -0.00043588438511679592 0 0.0011260029106887899 -0.00038607533941087863 0 0.0013336393917047005 -0.00068135209600479838 0 0.0013336393917047005 -0.00068135209600479838 0 0.0011462939103247223 -0.0010260295611867283 0 0.001628038909090441 -0.0008886885815924605 0 -0.0020192811868579592 0.0018918475606851722 0 -0.0019078642061204369 0.0013209660513802855 0 -0.00095622921051796901 0.0021380060730591694 0 0.0013336393917047005 -0.00068135209600479838 0 0.0011218670487901183 -0.00075031988809017513 0 0.0011462939103247223 -0.0010260295611867283 0 -0.00052204762283085122 0.00043278202991650085 0 0.00073519828379438052 0.00048873145347119392 0 0.00048545783257894986 -0.0012813950838199901 0 0.0011462939103247223 -0.0010260295611867283 0 0.00088705093330981508 -0.00092356153051153362 0 -0.0012732078967061498 0.0001435206147266395 0 -0.00052204762283085122 0.00043278202991650085 0 0.0011218670487901183 -0.00075031988809017513 0 0.0011462939103247223 -0.0010260295611867283 0 0.00088705093330981508 -0.00092356153051153362 0 -0.0030647255078342078 0.0015673791811809767 0 -0.0020192811868579592 0.0018918475606851722 0 -0.0025279081908511835 0.0013110164144657487 0 -0.0020192811868579592 0.0018918475606851722 0 -0.0025279081908511835 0.0013110164144657487 0 -0.0019078642061204369 0.0013209660513802855 0 -0.0025279081908511835 0.0013110164144657487 0 -0.0023661642059036574 0.00086707900077252406 0 -0.0019078642061204369 0.0013209660513802855 0 -0.0013854867755966895 -8.9720250674451616e-05 0 -0.0008151539691407376 0.00066943147794560872 0 -0.0023661642059036574 0.00086707900077252406 0 -0.0019078642061204369 0.0013209660513802855 0 -0.0012810511445381584 0.0010821944579642675 0 -0.0014966407440929477 4.2368723844617971e-05 0 -0.0023661642059036574 0.00086707900077252406 0 -0.0012810511445381584 0.0010821944579642675 0 -0.0019078642061204369 0.0013209660513802855 0 -0.0012810511445381584 0.0010821944579642675 0 -0.00095622921051796901 0.0021380060730591694 0 -9.5071669696035347e-05 8.5543525443005032e-06 0 0.0014011927978046183 9.1957423257628599e-05 0 0.00093752651767858766 0.00053525120613048002 0 -0.0008151539691407376 0.00066943147794560872 0 0.00073519828379438052 0.00048873145347119392 0 -0.00046016820223784431 -4.8908168061910065e-05 0 -9.5071669696035347e-05 8.5543525443005032e-06 0 0.0012406776168663587 -7.3726022897777286e-07 0 -0.00037055673611906823 -1.1249591409117485e-07 0 -0.00046016820223784431 -4.8908168061910065e-05 0 0.0012406776168663587 -7.3726022897777286e-07 0 0.0012406776168663587 -7.3726022897777286e-07 0 0.0028479934127433057 2.2037579809755876e-06 0 0.0014011927978046183 9.1957423257628599e-05 0 -9.5071669696035347e-05 8.5543525443005032e-06 0 0.0012406776168663587 -7.3726022897777286e-07 0 0.0014011927978046183 9.1957423257628599e-05 0 0.0029618050888570338 4.5784721449557397e-05 0 0.00073519828379438052 0.00048873145347119392 0 0.002329504928996523 0.0005557315719271794 0 0.0014011927978046183 9.1957423257628599e-05 0 0.00093752651767858766 0.00053525120613048002 0 0.002612656142179111 -8.2447735509826172e-05 0 0.002659357643501406 -9.7106722394900506e-05 0 0.0023638523592175928 -0.00016359176614325072 0 0.0028509790171040131 1.1764486443044788e-07 0 0.0029618050888570338 4.5784721449557397e-05 0 0.0028479934127433057 2.2037579809755876e-06 0 0.002329504928996523 0.0005557315719271794 0 0.0014011927978046183 9.1957423257628599e-05 0 0.002612656142179111 -8.2447735509826172e-05 0 0.002659357643501406 -9.7106722394900506e-05 0 0.0026146668000857362 -3.0271434889306731e-05 0 0.0028514650990094878 -2.1694473769600193e-10 0 0.003163784221256022 -7.157196700272108e-08 0 0.0032170307110697231 -8.5126168182928542e-11 0 0.0034109416632032582 9.4565687013943713e-05 0 0.0032189357314715171 1.9938434438005046e-07 0 0.0036054276834503944 -1.0791982998277321e-05 0 0.0029618050888570338 4.5784721449557397e-05 0 0.0032173279011427675 2.3830832413021395e-07 0 0.002612656142179111 -8.2447735509826172e-05 0 0.0023638523592175928 -0.00016359176614325072 0 0.0026134784120957666 -3.2297156618232448e-05 0 0.0014082678513651628 -0.00043588438511679592 0 0.0013336393917047005 -0.00068135209600479838 0 0.0017439981288450302 -0.00051472997591485599 0 0.0013336393917047005 -0.00068135209600479838 0 0.001628038909090441 -0.0008886885815924605 0 0.0017439981288450302 -0.00051472997591485599 0 0.00073519828379438052 0.00048873145347119392 0 0.0034721621857142582 -0.00045037891348842838 0 0.0043423709891658585 -0.00022510292920119806 0 0.0043396672638764512 -0.00022005337923082223 0 0.0043262200060168827 -0.00021081129159642519 0 0.0034721621857142582 -0.00045037891348842838 0 0.0034300936570098228 -8.1292456078691259e-05 0 0.0023638523592175928 -0.00016359176614325072 0 0.0024746097470999383 0.00016764606382398931 0 0.0026134784120957666 -3.2297156618232448e-05 0 0.004681106406673503 -0.00020809721215282064 0 0.0034300936570098228 -8.1292456078691259e-05 0 0.0048210803055547587 -1.1139920246819464e-07 0 0.0032189357314715171 1.9938434438005046e-07 0 0.0036054276834503944 -1.0791982998277321e-05 0 0.0029618050888570338 4.5784721449557397e-05 0 0.0034300936570098228 -8.1292456078691259e-05 0 0.0033588616271760744 -7.7626656307416134e-05 0 0.0034300936570098228 -8.1292456078691259e-05 0 -0.0026239718871560692 0.00011101948676250264 0 -0.002642075241198322 -0.0001364868000402112 0 -0.0028295762807284131 -9.3747557706223741e-05 0 -0.0026239718871560692 0.00011101948676250264 0 -0.0028295762807284131 -9.3747557706223741e-05 0 -0.0028356121115800542 0.00012989767531955551 0 -0.0026239718871560692 0.00011101948676250264 0 -0.0022274239459563008 0.0003125788631739957 0 -0.0023352758396179498 -9.8239335587733911e-06 0 -0.0026239718871560692 0.00011101948676250264 0 -0.002642075241198322 -0.0001364868000402112 0 -0.0023352758396179498 -9.8239335587733911e-06 0 -0.002642075241198322 -0.0001364868000402112 0 -0.0026064984033060119 -0.00033664783381325686 0 -0.0023352758396179498 -9.8239335587733911e-06 0 -0.002642075241198322 -0.0001364868000402112 0 -0.0026064984033060119 -0.00033664783381325686 0 -0.0027690784513794498 -0.00028950722423063644 0 -0.002642075241198322 -0.0001364868000402112 0 -0.0027690784513794498 -0.00028950722423063644 0 -0.0028295762807284131 -9.3747557706223741e-05 0 -0.0027690784513794498 -0.00028950722423063644 0 -0.0028295762807284131 -9.3747557706223741e-05 0 -0.0029021461111644114 -0.00030759097845743151 0 -0.0028295762807284131 -9.3747557706223741e-05 0 -0.0029372697369605101 -0.00018553091614207311 0 -0.0029775451324764641 -5.0312216113821041e-05 0 -0.0029372697369605101 -0.00018553091614207311 0 -0.0030367287433401527 -0.00028879906055241438 0 -0.0029775451324764641 -5.0312216113821041e-05 0 -0.0029021461111644114 -0.00030759097845743151 0 -0.0029372697369605101 -0.00018553091614207311 0 -0.0030367287433401527 -0.00028879906055241438 0 -0.0028295762807284131 -9.3747557706223741e-05 0 -0.0029021461111644114 -0.00030759097845743151 0 -0.0029372697369605101 -0.00018553091614207311 0 -0.0030367287433401527 -0.00028879906055241438 0 -0.003115797936356256 -0.00016289776324819011 0 -0.0029775451324764641 -5.0312216113821041e-05 0 -0.0030367287433401527 -0.00028879906055241438 0 -0.003115797936356256 -0.00016289776324819011 0 -0.003166338282544293 -0.00031474096524531866 0 -0.003115797936356256 -0.00016289776324819011 0 -0.0029775451324764641 -5.0312216113821041e-05 0 -0.0030850989517128484 1.4006828354020288e-05 0 -0.0029775451324764641 -5.0312216113821041e-05 0 -0.0029464440763895014 0.00015656079243752327 0 -0.0030850989517128484 1.4006828354020288e-05 0 -0.0028295762807284131 -9.3747557706223741e-05 0 -0.0029775451324764641 -5.0312216113821041e-05 0 -0.0028356121115800542 0.00012989767531955551 0 -0.0029775451324764641 -5.0312216113821041e-05 0 -0.0028356121115800542 0.00012989767531955551 0 -0.0029464440763895014 0.00015656079243752327 0 -0.0028356121115800542 0.00012989767531955551 0 -0.0028344151410086816 0.00029569924326752794 0 -0.0027337031376557914 0.00034337534690936764 0 -0.0028356121115800542 0.00012989767531955551 0 -0.0028344151410086816 0.00029569924326752794 0 -0.0029464440763895014 0.00015656079243752327 0 -0.0028344151410086816 0.00029569924326752794 0 -0.0027529327393363552 0.00048888584463032759 0 -0.0027337031376557914 0.00034337534690936764 0 -0.0029464440763895014 0.00015656079243752327 0 -0.0030850989517128484 1.4006828354020288e-05 0 -0.0030626526664635262 0.0001855089261354221 0 -0.0028344151410086816 0.00029569924326752794 0 -0.0029464440763895014 0.00015656079243752327 0 -0.0028720148427665466 0.00036976335686570496 0 -0.0029464440763895014 0.00015656079243752327 0 -0.0028720148427665466 0.00036976335686570496 0 -0.0030626526664635262 0.0001855089261354221 0 -0.0027588036953493985 0.00054232134645029132 0 -0.0028720148427665466 0.00036976335686570496 0 -0.0027529327393363552 0.00048888584463032759 0 -0.0027588036953493985 0.00054232134645029132 0 -0.0028720148427665466 0.00036976335686570496 0 -0.0028482663950331675 0.0005662150187442309 0 -0.0028344151410086816 0.00029569924326752794 0 -0.0028720148427665466 0.00036976335686570496 0 -0.0027529327393363552 0.00048888584463032759 0 -0.0027150541216939151 0.00056654052422070984 0 -0.0027588036953493985 0.00054232134645029132 0 -0.0027529327393363552 0.00048888584463032759 0 -0.0026911827961907035 0.00059873315680922853 0 -0.0027529327393363552 0.00048888584463032759 0 -0.0027569862631299327 0.00057858385966490017 0 -0.0027569862631299327 0.00057858385966490017 0 -0.0027337031376557914 0.00034337534690936764 0 -0.0025417348132995487 0.00039829784047230973 0 -0.0027529327393363552 0.00048888584463032759 0 -0.0027569862631299327 0.00057858385966490017 0 -0.0027337031376557914 0.00034337534690936764 0 -0.0026239718871560692 0.00011101948676250264 0 -0.0028356121115800542 0.00012989767531955551 0 -0.0027337031376557914 0.00034337534690936764 0 -0.0026239718871560692 0.00011101948676250264 0 -0.0027337031376557914 0.00034337534690936764 0 -0.0025417348132995487 0.00039829784047230973 0 -0.0026239718871560692 0.00011101948676250264 0 -0.0025417348132995487 0.00039829784047230973 0 -0.0022274239459563008 0.0003125788631739957 0 -0.0027569862631299327 0.00057858385966490017 0 -0.0025417348132995487 0.00039829784047230973 0 -0.0022256433656646932 0.00075414593482666292 0 -0.0024763123961287804 0.0011197867091093756 0 -0.0027569862631299327 0.00057858385966490017 0 -0.0022256433656646932 0.00075414593482666292 0 -0.0025417348132995487 0.00039829784047230973 0 -0.0022256433656646932 0.00075414593482666292 0 -0.0022274239459563008 0.0003125788631739957 0 -0.0022256433656646932 0.00075414593482666292 0 -0.001490381859159311 0.00054862950571578058 0 -0.0022274239459563008 0.0003125788631739957 0 -0.0016408502552973422 0.0011916878061884399 0 -0.0022256433656646932 0.00075414593482666292 0 -0.001490381859159311 0.00054862950571578058 0 -0.00052633959802728602 0.00068401450245367192 0 -0.0013545608197362104 0.00054188102890066975 0 -0.001490381859159311 0.00054862950571578058 0 -0.0016678790926050505 0.00034188506419929925 0 -0.0015141311253564951 0.00053398129030579416 0 -0.001490381859159311 0.00054862950571578058 0 -0.0016678790926050505 0.00034188506419929925 0 -0.0019378909660762969 0.00024942236156842978 0 -0.0016678790926050505 0.00034188506419929925 0 -0.0019378909660762969 0.00024942236156842978 0 -0.001960602706442412 5.100767245665123e-05 0 -0.001490381859159311 0.00054862950571578058 0 -0.0019378909660762969 0.00024942236156842978 0 -0.0022274239459563008 0.0003125788631739957 0 -0.0019378909660762969 0.00024942236156842978 0 -0.0022274239459563008 0.0003125788631739957 0 -0.0023352758396179498 -9.8239335587733911e-06 0 -0.00085630648691719508 0.00086634884684588613 0 -0.00083674306555237726 0.00059441534298592823 0 -0.0012184173536998787 0.00054276558417257941 0 -0.00080786206231897421 0.00075841588121785717 0 0.00013169499205132836 -0.00020119775886126562 0 -0.0015504194559073762 0.00073920120373200011 0 -0.00085630648691719508 0.00086634884684588613 0 -0.0012184173536998787 0.00054276558417257941 0 -0.0015504194559073762 0.00073920120373200011 0 -0.001490381859159311 0.00054862950571578058 0 -0.0015141311253564951 0.00053398129030579416 0 -0.0012184173536998787 0.00054276558417257941 0 -0.0015141311253564951 0.00053398129030579416 0 -0.0013894950034090269 0.00035977066855047158 0 -0.0015504194559073762 0.00073920120373200011 0 -0.0012184173536998787 0.00054276558417257941 0 -0.0015141311253564951 0.00053398129030579416 0 -0.0016678790926050505 0.00034188506419929925 0 -0.0015141311253564951 0.00053398129030579416 0 -0.0013894950034090269 0.00035977066855047158 0 -0.0016678790926050505 0.00034188506419929925 0 -0.0013894950034090269 0.00035977066855047158 0 -0.0016186762185891105 0.00011786364074503349 0 -0.00083674306555237726 0.00059441534298592823 0 -0.0012184173536998787 0.00054276558417257941 0 -0.0010879134670814148 0.00039675540029044087 0 -0.0012184173536998787 0.00054276558417257941 0 -0.0013894950034090269 0.00035977066855047158 0 -0.0010879134670814148 0.00039675540029044087 0 -0.0013894950034090269 0.00035977066855047158 0 -0.0010879134670814148 0.00039675540029044087 0 -0.0012826364188625399 0.00016575312494113766 0 -0.0010813625956395676 -5.3085576144143235e-05 0 -0.0012826364188625399 0.00016575312494113766 0 -0.0014910583243884989 -0.00012091142281109815 0 -0.0009785146007652225 0.00023812495328190782 0 -0.0010813625956395676 -5.3085576144143235e-05 0 -0.0012826364188625399 0.00016575312494113766 0 -0.0009785146007652225 0.00023812495328190782 0 -0.0010879134670814148 0.00039675540029044087 0 -0.0012826364188625399 0.00016575312494113766 0 -0.0013894950034090269 0.00035977066855047158 0 -0.0012826364188625399 0.00016575312494113766 0 -0.0016186762185891105 0.00011786364074503349 0 -0.0012826364188625399 0.00016575312494113766 0 -0.0016186762185891105 0.00011786364074503349 0 -0.0014910583243884989 -0.00012091142281109815 0 -0.0016186762185891105 0.00011786364074503349 0 -0.0014910583243884989 -0.00012091142281109815 0 -0.001893030488470037 -0.00014852573019134138 0 -0.0014910583243884989 -0.00012091142281109815 0 -0.001893030488470037 -0.00014852573019134138 0 -0.0017703754498984189 -0.00048318458975500655 0 -0.0014910583243884989 -0.00012091142281109815 0 -0.0012052950604081343 -0.00036156242967584986 0 -0.0017703754498984189 -0.00048318458975500655 0 -0.0010813625956395676 -5.3085576144143235e-05 0 -0.0014910583243884989 -0.00012091142281109815 0 -0.0012052950604081343 -0.00036156242967584986 0 -0.0019378909660762969 0.00024942236156842978 0 -0.0023352758396179498 -9.8239335587733911e-06 0 -0.001960602706442412 5.100767245665123e-05 0 -0.0023352758396179498 -9.8239335587733911e-06 0 -0.001960602706442412 5.100767245665123e-05 0 -0.0022641404598237073 -0.0002299641007488716 0 -0.0016186762185891105 0.00011786364074503349 0 -0.001960602706442412 5.100767245665123e-05 0 -0.001893030488470037 -0.00014852573019134138 0 -0.0016678790926050505 0.00034188506419929925 0 -0.0016186762185891105 0.00011786364074503349 0 -0.001960602706442412 5.100767245665123e-05 0 -0.001960602706442412 5.100767245665123e-05 0 -0.001893030488470037 -0.00014852573019134138 0 -0.0022641404598237073 -0.0002299641007488716 0 -0.001893030488470037 -0.00014852573019134138 0 -0.0022641404598237073 -0.0002299641007488716 0 -0.0022490734958423532 -0.00049754771191782882 0 -0.0026064984033060119 -0.00033664783381325686 0 -0.0023352758396179498 -9.8239335587733911e-06 0 -0.0022641404598237073 -0.0002299641007488716 0 -0.0024984452195278392 -0.00045812060931880744 0 -0.0022490734958423532 -0.00049754771191782882 0 -0.0026046451226392018 -0.00065983164728317003 0 -0.0026064984033060119 -0.00033664783381325686 0 -0.0022641404598237073 -0.0002299641007488716 0 -0.0024984452195278392 -0.00045812060931880744 0 -0.0022641404598237073 -0.0002299641007488716 0 -0.0024984452195278392 -0.00045812060931880744 0 -0.0022490734958423532 -0.00049754771191782882 0 -0.0022490734958423532 -0.00049754771191782882 0 -0.0024798419171361049 -0.00079803326997912442 0 -0.0021357597862443644 -0.00070605501350073409 0 -0.0022490734958423532 -0.00049754771191782882 0 -0.0024798419171361049 -0.00079803326997912442 0 -0.0026046451226392018 -0.00065983164728317003 0 -0.0024798419171361049 -0.00079803326997912442 0 -0.0021357597862443644 -0.00070605501350073409 0 -0.002267022009446569 -0.00094073314768417849 0 -0.0024798419171361049 -0.00079803326997912442 0 -0.0026046451226392018 -0.00065983164728317003 0 -0.0027381402078935496 -0.00082724455934925797 0 -0.0026046451226392018 -0.00065983164728317003 0 -0.0027381402078935496 -0.00082724455934925797 0 -0.0028237148275932671 -0.0007606404022459202 0 -0.0024984452195278392 -0.00045812060931880744 0 -0.0026046451226392018 -0.00065983164728317003 0 -0.0027765877413996067 -0.00061740206194126328 0 -0.0012052950604081343 -0.00036156242967584986 0 -0.0017703754498984189 -0.00048318458975500655 0 -0.0013232793886918776 -0.00073252936175538909 0 -0.001893030488470037 -0.00014852573019134138 0 -0.0022490734958423532 -0.00049754771191782882 0 -0.0017703754498984189 -0.00048318458975500655 0 -0.0022490734958423532 -0.00049754771191782882 0 -0.0017703754498984189 -0.00048318458975500655 0 -0.0021357597862443644 -0.00070605501350073409 0 -0.0017703754498984189 -0.00048318458975500655 0 -0.0021357597862443644 -0.00070605501350073409 0 -0.0018534182997814871 -0.00084218972431729724 0 -0.0021357597862443644 -0.00070605501350073409 0 -0.0018534182997814871 -0.00084218972431729724 0 -0.002267022009446569 -0.00094073314768417849 0 -0.0018534182997814871 -0.00084218972431729724 0 -0.0020435146596582219 -0.0011343072591617914 0 -0.002267022009446569 -0.00094073314768417849 0 -0.0017703754498984189 -0.00048318458975500655 0 -0.0018534182997814871 -0.00084218972431729724 0 -0.0013232793886918776 -0.00073252936175538909 0 -0.0018534182997814871 -0.00084218972431729724 0 -0.0014582654921528047 -0.0010612719612787447 0 -0.0020435146596582219 -0.0011343072591617914 0 -0.0018534182997814871 -0.00084218972431729724 0 -0.0014582654921528047 -0.0010612719612787447 0 -0.0013232793886918776 -0.00073252936175538909 0 -0.0011881157737085991 -0.0016140742621632918 0 -0.0020435146596582219 -0.0011343072591617914 0 -0.0022384037125126647 -0.0017977496237047265 0 -0.0011881157737085991 -0.0016140742621632918 0 -0.0014582654921528047 -0.0010612719612787447 0 -0.0020435146596582219 -0.0011343072591617914 0 -0.002189494999764641 -0.0011865151133724533 0 -0.0032116825332760184 -0.00093983921455899387 0 -0.0020435146596582219 -0.0011343072591617914 0 -0.0023866913297394422 -0.0010885845996439528 0 -0.0025503829490270331 -0.0011117843537761132 0 -0.0020435146596582219 -0.0011343072591617914 0 -0.002267022009446569 -0.00094073314768417849 0 -0.0023866913297394422 -0.0010885845996439528 0 -0.002267022009446569 -0.00094073314768417849 0 -0.0023866913297394422 -0.0010885845996439528 0 -0.0025482174195772707 -0.0010000776284545066 0 -0.0023866913297394422 -0.0010885845996439528 0 -0.0025414199860291087 -0.0010921580193852334 0 -0.0025482174195772707 -0.0010000776284545066 0 -0.0023866913297394422 -0.0010885845996439528 0 -0.0025414199860291087 -0.0010921580193852334 0 -0.0025503829490270331 -0.0011117843537761132 0 -0.0025414199860291087 -0.0010921580193852334 0 -0.0026820758679147053 -0.0010960699770212509 0 -0.0025503829490270331 -0.0011117843537761132 0 -0.0026820758679147053 -0.0010960699770212509 0 -0.0025503829490270331 -0.0011117843537761132 0 -0.0028731759727438646 -0.0011165129664951357 0 -0.0029881101167177496 -0.00040187014782356987 0 -0.0032116825332760184 -0.00093983921455899387 0 -0.004938319276226971 0.00012490578559631155 0 -0.0046204033948953295 0.00075341201480158462 0 -0.0051489704508023383 0.00045948047151258089 0 -0.004938319276226971 0.00012490578559631155 0 -0.0046590151408819717 6.6092325703679959e-05 0 -0.0046204033948953295 0.00075341201480158462 0 -0.0029676651106639849 -0.00093054201760865577 0 -0.0027381402078935496 -0.00082724455934925797 0 -0.0028237148275932671 -0.0007606404022459202 0 -0.0027872188583134591 -0.00097842187148469988 0 -0.0029676651106639849 -0.00093054201760865577 0 -0.0027381402078935496 -0.00082724455934925797 0 -0.0027872188583134591 -0.00097842187148469988 0 -0.0027381402078935496 -0.00082724455934925797 0 -0.0026484797274345701 -0.00089085500445282599 0 -0.0024798419171361049 -0.00079803326997912442 0 -0.0027381402078935496 -0.00082724455934925797 0 -0.0026484797274345701 -0.00089085500445282599 0 -0.0024798419171361049 -0.00079803326997912442 0 -0.0026484797274345701 -0.00089085500445282599 0 -0.0025482174195772707 -0.0010000776284545066 0 -0.0024798419171361049 -0.00079803326997912442 0 -0.002267022009446569 -0.00094073314768417849 0 -0.0025482174195772707 -0.0010000776284545066 0 -0.0027872188583134591 -0.00097842187148469988 0 -0.0026484797274345701 -0.00089085500445282599 0 -0.0025482174195772707 -0.0010000776284545066 0 -0.0027872188583134591 -0.00097842187148469988 0 -0.0025482174195772707 -0.0010000776284545066 0 -0.0027470622527264736 -0.0010676055724586986 0 -0.0027872188583134591 -0.00097842187148469988 0 -0.0027470622527264736 -0.0010676055724586986 0 -0.0030103648072448124 -0.0010584689625784312 0 -0.0027470622527264736 -0.0010676055724586986 0 -0.0028731759727438646 -0.0011165129664951357 0 -0.0030103648072448124 -0.0010584689625784312 0 -0.0025414199860291087 -0.0010921580193852334 0 -0.0026820758679147053 -0.0010960699770212509 0 -0.0027470622527264736 -0.0010676055724586986 0 -0.0025414199860291087 -0.0010921580193852334 0 -0.0025482174195772707 -0.0010000776284545066 0 -0.0027470622527264736 -0.0010676055724586986 0 -0.0026820758679147053 -0.0010960699770212509 0 -0.0027470622527264736 -0.0010676055724586986 0 -0.0028731759727438646 -0.0011165129664951357 0 -0.0032914148723887818 -0.0010531250079040039 0 -0.0029676651106639849 -0.00093054201760865577 0 -0.0030103648072448124 -0.0010584689625784312 0 -0.0027872188583134591 -0.00097842187148469988 0 -0.0029676651106639849 -0.00093054201760865577 0 -0.0030103648072448124 -0.0010584689625784312 0 -0.0032914148723887818 -0.0010531250079040039 0 -0.0029676651106639849 -0.00093054201760865577 0 -0.0031566082848073851 -0.00092925910980719338 0 -0.0033477479740355964 -0.00097456755420606035 0 -0.0031445686401443272 -0.00084719229750991425 0 -0.0032074535661827906 -0.00085095529421487547 0 -0.0033477479740355964 -0.00097456755420606035 0 -0.0031566082848073851 -0.00092925910980719338 0 -0.0031445686401443272 -0.00084719229750991425 0 -0.0031566082848073851 -0.00092925910980719338 0 -0.0031445686401443272 -0.00084719229750991425 0 -0.002987354519813184 -0.00080623396033376743 0 -0.0031445686401443272 -0.00084719229750991425 0 -0.002987354519813184 -0.00080623396033376743 0 -0.0029998829625698096 -0.00065424168206177074 0 -0.0029676651106639849 -0.00093054201760865577 0 -0.002987354519813184 -0.00080623396033376743 0 -0.0028237148275932671 -0.0007606404022459202 0 -0.0029676651106639849 -0.00093054201760865577 0 -0.0031566082848073851 -0.00092925910980719338 0 -0.002987354519813184 -0.00080623396033376743 0 -0.002987354519813184 -0.00080623396033376743 0 -0.0028237148275932671 -0.0007606404022459202 0 -0.0027765877413996067 -0.00061740206194126328 0 -0.002987354519813184 -0.00080623396033376743 0 -0.0027765877413996067 -0.00061740206194126328 0 -0.0029998829625698096 -0.00065424168206177074 0 -0.0026046451226392018 -0.00065983164728317003 0 -0.0028237148275932671 -0.0007606404022459202 0 -0.0027765877413996067 -0.00061740206194126328 0 -0.0027765877413996067 -0.00061740206194126328 0 -0.0029998829625698096 -0.00065424168206177074 0 -0.0028589342480817917 -0.0004937134589320973 0 -0.0029998829625698096 -0.00065424168206177074 0 -0.0028589342480817917 -0.0004937134589320973 0 -0.0029761849515703887 -0.00045914469446763263 0 -0.0029021461111644114 -0.00030759097845743151 0 -0.0028589342480817917 -0.0004937134589320973 0 -0.0029761849515703887 -0.00045914469446763263 0 -0.0027690784513794498 -0.00028950722423063644 0 -0.0029021461111644114 -0.00030759097845743151 0 -0.0028589342480817917 -0.0004937134589320973 0 -0.0026064984033060119 -0.00033664783381325686 0 -0.0024984452195278392 -0.00045812060931880744 0 -0.0027765877413996067 -0.00061740206194126328 0 -0.0026064984033060119 -0.00033664783381325686 0 -0.0027765877413996067 -0.00061740206194126328 0 -0.0028589342480817917 -0.0004937134589320973 0 -0.0026064984033060119 -0.00033664783381325686 0 -0.0027690784513794498 -0.00028950722423063644 0 -0.0028589342480817917 -0.0004937134589320973 0 -0.0030367287433401527 -0.00028879906055241438 0 -0.0031539269600825226 -0.00044643851557365615 0 -0.0030834106204833361 -0.000537456005490099 0 -0.0031539269600825226 -0.00044643851557365615 0 -0.003166338282544293 -0.00031474096524531866 0 -0.0032380583184691393 -0.00042925360135678055 0 -0.0030367287433401527 -0.00028879906055241438 0 -0.0031539269600825226 -0.00044643851557365615 0 -0.003166338282544293 -0.00031474096524531866 0 -0.0030367287433401527 -0.00028879906055241438 0 -0.0029761849515703887 -0.00045914469446763263 0 -0.0030834106204833361 -0.000537456005490099 0 -0.0029021461111644114 -0.00030759097845743151 0 -0.0030367287433401527 -0.00028879906055241438 0 -0.0029761849515703887 -0.00045914469446763263 0 -0.0029998829625698096 -0.00065424168206177074 0 -0.0030834106204833361 -0.000537456005490099 0 -0.0031455154052888882 -0.00071689631152236288 0 -0.0029998829625698096 -0.00065424168206177074 0 -0.0029761849515703887 -0.00045914469446763263 0 -0.0030834106204833361 -0.000537456005490099 0 -0.0030834106204833361 -0.000537456005490099 0 -0.0032206040395434477 -0.00061113471821084371 0 -0.0031455154052888882 -0.00071689631152236288 0 -0.0031539269600825226 -0.00044643851557365615 0 -0.0030834106204833361 -0.000537456005490099 0 -0.0032206040395434477 -0.00061113471821084371 0 -0.0031539269600825226 -0.00044643851557365615 0 -0.0032206040395434477 -0.00061113471821084371 0 -0.0032380583184691393 -0.00042925360135678055 0 -0.0032206040395434477 -0.00061113471821084371 0 -0.0032295621655821769 -0.00075571916549722364 0 -0.0033169124029225816 -0.00073238184446093862 0 -0.0032295621655821769 -0.00075571916549722364 0 -0.0031455154052888882 -0.00071689631152236288 0 -0.0032074535661827906 -0.00085095529421487547 0 -0.0032206040395434477 -0.00061113471821084371 0 -0.0032295621655821769 -0.00075571916549722364 0 -0.0031455154052888882 -0.00071689631152236288 0 -0.0032295621655821769 -0.00075571916549722364 0 -0.0032713987310766788 -0.0008302621378326186 0 -0.0033169124029225816 -0.00073238184446093862 0 -0.0031445686401443272 -0.00084719229750991425 0 -0.0029998829625698096 -0.00065424168206177074 0 -0.0031455154052888882 -0.00071689631152236288 0 -0.0031445686401443272 -0.00084719229750991425 0 -0.0031455154052888882 -0.00071689631152236288 0 -0.0032074535661827906 -0.00085095529421487547 0 -0.0032374483347809837 -0.00089429425985478159 0 -0.0032074535661827906 -0.00085095529421487547 0 -0.0032713987310766788 -0.0008302621378326186 0 -0.0032374483347809837 -0.00089429425985478159 0 -0.0032713987310766788 -0.0008302621378326186 0 -0.0033133027681892693 -0.00086802341746202881 0 -0.0032295621655821769 -0.00075571916549722364 0 -0.0032074535661827906 -0.00085095529421487547 0 -0.0032713987310766788 -0.0008302621378326186 0 -0.0032713987310766788 -0.0008302621378326186 0 -0.0033133027681892693 -0.00086802341746202881 0 -0.0033546114463669174 -0.00082521951391387367 0 -0.0032713987310766788 -0.0008302621378326186 0 -0.0033546114463669174 -0.00082521951391387367 0 -0.0033169124029225816 -0.00073238184446093862 0 -0.0033870485362480999 -0.00093430885621468543 0 -0.0034228198557855229 -0.00081633095481386175 0 -0.0034375609108150268 -0.00080676183319668788 0 -0.0033870485362480999 -0.00093430885621468543 0 -0.0033546114463669174 -0.00082521951391387367 0 -0.0034228198557855229 -0.00081633095481386175 0 -0.0033546114463669174 -0.00082521951391387367 0 -0.0034228198557855229 -0.00081633095481386175 0 -0.0033959276511933258 -0.00075608691353558127 0 -0.0034228198557855229 -0.00081633095481386175 0 -0.0034432341283863912 -0.00080543125558758821 0 -0.0033959276511933258 -0.00075608691353558127 0 -0.0035789591425609796 -0.0004211522985611452 0 -0.0036736955543637279 -0.00032853131850169243 0 -0.0036736955543637279 -0.00032853131850169243 0 -0.0034563023133538772 -0.00045516165957975544 0 -0.0034432341283863912 -0.00080543125558758821 0 -0.0033959276511933258 -0.00075608691353558127 0 -0.0035087041022719254 -0.00058802363004685249 0 -0.0033959276511933258 -0.00075608691353558127 0 -0.0033169124029225816 -0.00073238184446093862 0 -0.0033771696618200503 -0.00060610679992995271 0 -0.0033546114463669174 -0.00082521951391387367 0 -0.0033959276511933258 -0.00075608691353558127 0 -0.0033169124029225816 -0.00073238184446093862 0 -0.0036036806260364629 0.00025318482513728017 0 -0.0037953280281917815 0.0002542948284473968 0 -0.003761215050494007 1.05417086622006e-05 0 -0.0039763680171286449 0.00017919921899225456 0 -0.0037953280281917815 0.0002542948284473968 0 -0.003761215050494007 1.05417086622006e-05 0 -0.0039083587383390061 0.00031572602459772631 0 -0.0039763680171286449 0.00017919921899225456 0 -0.0037953280281917815 0.0002542948284473968 0 -0.0035996528365927929 -0.00024122512527464067 0 -0.0035423055763117665 -0.00028070247701461978 0 -0.0035812079078595869 -0.0003091007270598047 0 -0.0036736955543637279 -0.00032853131850169243 0 -0.0036986878829205808 -7.533744343689262e-05 0 -0.0036036806260364629 0.00025318482513728017 0 -0.003761215050494007 1.05417086622006e-05 0 -0.0034515026297916615 5.814200321352435e-05 0 -0.0035423055763117665 -0.00028070247701461978 0 -0.0035326917077915902 -0.0003154652856095504 0 -0.0034827290788708924 -0.00032176654697090739 0 -0.0036986878829205808 -7.533744343689262e-05 0 -0.0034256281163293333 -0.00028611026102085576 0 -0.0034165475542712264 -0.00033033723138452796 0 -0.0034256281163293333 -0.00028611026102085576 0 -0.0034165475542712264 -0.00033033723138452796 0 -0.0034563023133538772 -0.00045516165957975544 0 -0.0035423055763117665 -0.00028070247701461978 0 -0.0035326917077915902 -0.0003154652856095504 0 -0.0035812079078595869 -0.0003091007270598047 0 -0.0034563023133538772 -0.00045516165957975544 0 -0.0033848377703972394 -0.0003244117947180748 0 -0.003311933661906017 -0.0003517436710641326 0 -0.0033468735081003723 -0.00034732180420510105 0 -0.0033322195661244472 -0.00039376927954705313 0 -0.003311933661906017 -0.0003517436710641326 0 -0.0032915685310929755 -0.00038333117672754882 0 -0.00327619159021141 -0.00035386382966196396 0 -0.003311933661906017 -0.0003517436710641326 0 -0.0032915685310929755 -0.00038333117672754882 0 -0.0033322195661244472 -0.00039376927954705313 0 -0.0032206040395434477 -0.00061113471821084371 0 -0.0032883895475387332 -0.00052290578262839758 0 -0.0032380583184691393 -0.00042925360135678055 0 -0.0032206040395434477 -0.00061113471821084371 0 -0.0033169124029225816 -0.00073238184446093862 0 -0.0033771696618200503 -0.00060610679992995271 0 -0.0032247933244345722 -0.00060034521697568651 0 -0.0033282042081873671 -0.00056920325734013922 0 -0.0033959276511933258 -0.00075608691353558127 0 -0.0033771696618200503 -0.00060610679992995271 0 -0.0035087041022719254 -0.00058802363004685249 0 -0.0032883895475387332 -0.00052290578262839758 0 -0.0034267075996471884 -0.00048993612266293824 0 -0.0033288017560115053 -0.00034280803452799716 0 -0.0033282042081873671 -0.00056920325734013922 0 -0.0034563023133538772 -0.00045516165957975544 0 -0.0034267075996471884 -0.00048993612266293824 0 -0.0033288017560115053 -0.00034280803452799716 0 -0.0034501353265361571 -0.00019306186645345712 0 -0.0032883895475387332 -0.00052290578262839758 0 -0.0033288017560115053 -0.00034280803452799716 0 -0.0032380583184691393 -0.00042925360135678055 0 -0.0033288017560115053 -0.00034280803452799716 0 -0.0032380583184691393 -0.00042925360135678055 0 -0.0032448351903529762 -0.00023623672604434026 0 -0.003166338282544293 -0.00031474096524531866 0 -0.0032380583184691393 -0.00042925360135678055 0 -0.0032448351903529762 -0.00023623672604434026 0 -0.003115797936356256 -0.00016289776324819011 0 -0.003166338282544293 -0.00031474096524531866 0 -0.0032448351903529762 -0.00023623672604434026 0 -0.003115797936356256 -0.00016289776324819011 0 -0.0032448351903529762 -0.00023623672604434026 0 -0.0032178080586684776 -9.0762273282015123e-05 0 -0.003115797936356256 -0.00016289776324819011 0 -0.0032178080586684776 -9.0762273282015123e-05 0 -0.0030850989517128484 1.4006828354020288e-05 0 -0.0032178080586684776 -9.0762273282015123e-05 0 -0.0030850989517128484 1.4006828354020288e-05 0 -0.0032111971299802699 5.3049145003234138e-05 0 -0.0030850989517128484 1.4006828354020288e-05 0 -0.0032111971299802699 5.3049145003234138e-05 0 -0.0030626526664635262 0.0001855089261354221 0 -0.0032111971299802699 5.3049145003234138e-05 0 -0.0033039056807003912 -3.5426092391325482e-05 0 -0.0033635598008302623 5.218730598483724e-05 0 -0.0033039056807003912 -3.5426092391325482e-05 0 -0.003354569599728254 -1.9355061656945537e-05 0 -0.0033635598008302623 5.218730598483724e-05 0 -0.0032178080586684776 -9.0762273282015123e-05 0 -0.0032111971299802699 5.3049145003234138e-05 0 -0.0033039056807003912 -3.5426092391325482e-05 0 -0.0032178080586684776 -9.0762273282015123e-05 0 -0.0033039056807003912 -3.5426092391325482e-05 0 -0.0033278708375478363 -0.00014946768113565544 0 -0.0033039056807003912 -3.5426092391325482e-05 0 -0.0033278708375478363 -0.00014946768113565544 0 -0.003354569599728254 -1.9355061656945537e-05 0 -0.0033288017560115053 -0.00034280803452799716 0 -0.0033278708375478363 -0.00014946768113565544 0 -0.0034501353265361571 -0.00019306186645345712 0 -0.0033288017560115053 -0.00034280803452799716 0 -0.0032448351903529762 -0.00023623672604434026 0 -0.0033278708375478363 -0.00014946768113565544 0 -0.0032448351903529762 -0.00023623672604434026 0 -0.0032178080586684776 -9.0762273282015123e-05 0 -0.0033278708375478363 -0.00014946768113565544 0 -0.0033278708375478363 -0.00014946768113565544 0 -0.0034501353265361571 -0.00019306186645345712 0 -0.003354569599728254 -1.9355061656945537e-05 0 -0.0033322195661244472 -0.00039376927954705313 0 -0.0032987564535413775 -0.00040834812192722987 0 -0.0033061103950669298 -0.00042487113354544343 0 -0.0032915685310929755 -0.00038333117672754882 0 -0.0033322195661244472 -0.00039376927954705313 0 -0.0032987564535413775 -0.00040834812192722987 0 -0.0028718817029314741 0.00026010094400802212 0 -0.0026531233811020872 0.00013830049444015204 0 -0.0029740556824150587 0.00020881155689243144 0 -0.0026118347008399277 0.00014179386297976388 0 -0.0024997447031831124 0.00040092841079073367 0 -0.002904641285750889 0.00038562020265893568 0 -0.0029740556824150587 0.00020881155689243144 0 -0.0026022843561543958 0.00038633206223254098 0 -0.0032987564535413775 -0.00040834812192722987 0 -0.0033061103950669298 -0.00042487113354544343 0 -0.0033008339889853077 -0.0004252948139185177 0 -0.0030957181344400107 -0.00015497004031057274 0 -0.0032085649791804031 -4.0730171165670204e-05 0 -0.002904641285750889 0.00038562020265893568 0 -0.003163663976026953 0.0002560731431424978 0 -0.0029740556824150587 0.00020881155689243144 0 -0.0033061103950669298 -0.00042487113354544343 0 -0.0033006519341818343 -0.00042468206041946773 0 -0.0033166641536886616 -0.00043227666247523455 0 -0.003177732416161907 -0.00018827666280855256 0 -0.0030957181344400107 -0.00015497004031057274 0 -0.0030957181344400107 -0.00015497004031057274 0 -0.0026531233811020872 0.00013830049444015204 0 -0.0033848377703972394 -0.0003244117947180748 0 -0.0032085649791804031 -4.0730171165670204e-05 0 -0.0034501353265361571 -0.00019306186645345712 0 -0.003354569599728254 -1.9355061656945537e-05 0 -0.0033037051078401354 4.3419623573025713e-05 0 -0.0033322195661244472 -0.00039376927954705313 0 -0.0033061103950669298 -0.00042487113354544343 0 -0.0033166641536886616 -0.00043227666247523455 0 -0.003354569599728254 -1.9355061656945537e-05 0 -0.0033037051078401354 4.3419623573025713e-05 0 -0.0033635598008302623 5.218730598483724e-05 0 -0.0033037051078401354 4.3419623573025713e-05 0 -0.0031906038761768236 -0.00022966925937959354 0 -0.0033635598008302623 5.218730598483724e-05 0 -0.0033037051078401354 4.3419623573025713e-05 0 -0.0030502262964280801 -0.00032244168053738417 0 -0.0031906038761768236 -0.00022966925937959354 0 -0.0035051692794715256 0.00011009828010054083 0 -0.0033154222982697741 1.4570902732265765e-05 0 -0.0032085649791804031 -4.0730171165670204e-05 0 -0.0030818909077629389 -0.00023256722358385305 0 -0.0035319697290021219 0.00034639025877962113 0 -0.0033635598008302623 5.218730598483724e-05 0 -0.0033535522069024545 0.00028535993307466512 0 -0.0029740556824150587 0.00020881155689243144 0 -0.0028197141289581875 -7.5723190279773119e-05 0 -0.0030502262964280801 -0.00032244168053738417 0 -0.003163663976026953 0.0002560731431424978 0 -0.0029740556824150587 0.00020881155689243144 0 -0.0030502262964280801 -0.00032244168053738417 0 -0.0029740556824150587 0.00020881155689243144 0 -0.0028197141289581875 -7.5723190279773119e-05 0 -0.0026118347008399277 0.00014179386297976388 0 -0.0030502262964280801 -0.00032244168053738417 0 -0.0031906038761768236 -0.00022966925937959354 0 -0.0028049964538168393 -0.00062261008530163631 0 -0.0028197141289581875 -7.5723190279773119e-05 0 -0.0030502262964280801 -0.00032244168053738417 0 -0.0024961596093454864 -0.00016879160265988606 0 -0.0030502262964280801 -0.00032244168053738417 0 -0.0024961596093454864 -0.00016879160265988606 0 -0.0028049964538168393 -0.00062261008530163631 0 -0.0035051692794715256 0.00011009828010054083 0 -0.0020096212143540962 0.00015723432005810024 0 -0.0035319697290021219 0.00034639025877962113 0 -0.0034886069557744323 0.0005778229436954385 0 -0.0036814364838293808 0.00058513209944461892 0 -0.0035319697290021219 0.00034639025877962113 0 -0.0033961609255308712 0.00044238118989814673 0 -0.0034886069557744323 0.0005778229436954385 0 -0.0035319697290021219 0.00034639025877962113 0 -0.0033961609255308712 0.00044238118989814673 0 -0.0033535522069024545 0.00028535993307466512 0 -0.0032362299637318484 0.00037838726030770968 0 -0.0031026025385484527 0.00049301601165021376 0 -0.003278609462761923 0.00069700807937623111 0 -0.0033961609255308712 0.00044238118989814673 0 -0.0032362299637318484 0.00037838726030770968 0 -0.003278609462761923 0.00069700807937623111 0 -0.0033961609255308712 0.00044238118989814673 0 -0.0032362299637318484 0.00037838726030770968 0 -0.0033535522069024545 0.00028535993307466512 0 -0.0032362299637318484 0.00037838726030770968 0 -0.0031026025385484527 0.00049301601165021376 0 -0.0030470080547006975 0.00035463788182089304 0 -0.0032362299637318484 0.00037838726030770968 0 -0.0030470080547006975 0.00035463788182089304 0 -0.0032238954832595566 0.00020629083364079916 0 -0.0028720148427665466 0.00036976335686570496 0 -0.0030470080547006975 0.00035463788182089304 0 -0.0028482663950331675 0.0005662150187442309 0 -0.0031026025385484527 0.00049301601165021376 0 -0.0030470080547006975 0.00035463788182089304 0 -0.0028482663950331675 0.0005662150187442309 0 -0.0030470080547006975 0.00035463788182089304 0 -0.0030626526664635262 0.0001855089261354221 0 -0.0032238954832595566 0.00020629083364079916 0 -0.0028720148427665466 0.00036976335686570496 0 -0.0030470080547006975 0.00035463788182089304 0 -0.0030626526664635262 0.0001855089261354221 0 -0.0032111971299802699 5.3049145003234138e-05 0 -0.0030626526664635262 0.0001855089261354221 0 -0.0032238954832595566 0.00020629083364079916 0 -0.0032111971299802699 5.3049145003234138e-05 0 -0.0033635598008302623 5.218730598483724e-05 0 -0.0032238954832595566 0.00020629083364079916 0 -0.0033635598008302623 5.218730598483724e-05 0 -0.0033535522069024545 0.00028535993307466512 0 -0.0032238954832595566 0.00020629083364079916 0 -0.0032362299637318484 0.00037838726030770968 0 -0.0033535522069024545 0.00028535993307466512 0 -0.0032238954832595566 0.00020629083364079916 0 -0.0017289482531249764 0.00014143379847607077 0 -0.001900819349343213 8.7508205687666836e-06 0 -0.0019607950612812045 0.00016475815889916646 0 -0.0017289482531249764 0.00014143379847607077 0 -0.0019607950612812045 0.00016475815889916646 0 -0.0018608807693402203 0.00034162688718131706 0 -0.0017289482531249764 0.00014143379847607077 0 -0.0017247405690593118 -4.3540231677433463e-05 0 -0.001900819349343213 8.7508205687666836e-06 0 -0.0017289482531249764 0.00014143379847607077 0 -0.0015549555300849384 2.6841270807879796e-05 0 -0.0015033638032860208 0.00028759019867941965 0 -0.0017289482531249764 0.00014143379847607077 0 -0.0015549555300849384 2.6841270807879796e-05 0 -0.0017247405690593118 -4.3540231677433463e-05 0 -0.0015549555300849384 2.6841270807879796e-05 0 -0.0015467846864251956 -0.0001461817278686695 0 -0.0017247405690593118 -4.3540231677433463e-05 0 -0.0015467846864251956 -0.0001461817278686695 0 -0.0017247405690593118 -4.3540231677433463e-05 0 -0.0017134991436586408 -0.00020506416270041415 0 -0.0017247405690593118 -4.3540231677433463e-05 0 -0.0018621245347840451 -0.00015559787060074776 0 -0.0017134991436586408 -0.00020506416270041415 0 -0.0017247405690593118 -4.3540231677433463e-05 0 -0.001900819349343213 8.7508205687666836e-06 0 -0.0018621245347840451 -0.00015559787060074776 0 -0.001900819349343213 8.7508205687666836e-06 0 -0.0018621245347840451 -0.00015559787060074776 0 -0.002044602181592223 -9.9910651703575908e-05 0 -0.0018621245347840451 -0.00015559787060074776 0 -0.002044602181592223 -9.9910651703575908e-05 0 -0.0019832911169841176 -0.00025181503900113458 0 -0.002044602181592223 -9.9910651703575908e-05 0 -0.0022462792298127824 4.2391747646686117e-06 0 -0.0020758635384019101 5.9598036799307397e-05 0 -0.001900819349343213 8.7508205687666836e-06 0 -0.002044602181592223 -9.9910651703575908e-05 0 -0.0020758635384019101 5.9598036799307397e-05 0 -0.0024683335819637581 -0.00020651603610818346 0 -0.0020096212143540962 0.00015723432005810024 0 -0.0022462792298127824 4.2391747646686117e-06 0 -0.0023572319447284044 -0.00022493648421943973 0 -0.0021764065262913118 -0.00018033462255211073 0 -0.002044602181592223 -9.9910651703575908e-05 0 -0.0022462792298127824 4.2391747646686117e-06 0 -0.0021764065262913118 -0.00018033462255211073 0 -0.0024961596093454864 -0.00016879160265988606 0 -0.0026118347008399277 0.00014179386297976388 0 -0.0021929531857536222 0.00028779687057875762 0 -0.0024683335819637581 -0.00020651603610818346 0 -0.0021616621825376525 0.00031846503502083073 0 -0.0028197141289581875 -7.5723190279773119e-05 0 -0.0024961596093454864 -0.00016879160265988606 0 -0.0026118347008399277 0.00014179386297976388 0 -0.0022462792298127824 4.2391747646686117e-06 0 -0.0020758635384019101 5.9598036799307397e-05 0 -0.0021929531857536222 0.00028779687057875762 0 -0.001900819349343213 8.7508205687666836e-06 0 -0.0020758635384019101 5.9598036799307397e-05 0 -0.0019607950612812045 0.00016475815889916646 0 -0.0020758635384019101 5.9598036799307397e-05 0 -0.0019607950612812045 0.00016475815889916646 0 -0.0021929531857536222 0.00028779687057875762 0 -0.0028860247303221804 -0.00016351484185726811 0 -0.0028083538575133676 -0.00012924656270684105 0 -0.0028460687199551265 -0.00011744194861596123 0 -0.0026531233811020872 0.00013830049444015204 0 -0.0020497706116623976 0.00018834613609523587 0 -0.0019607950612812045 0.00016475815889916646 0 -0.0021929531857536222 0.00028779687057875762 0 -0.0018608807693402203 0.00034162688718131706 0 -0.0026150408198747366 1.5564060594164711e-05 0 -0.0023925746516520242 0.0001203143198632612 0 -0.0022912706604739761 1.6889907736689089e-05 0 -0.0021929531857536222 0.00028779687057875762 0 -0.0024997447031831124 0.00040092841079073367 0 -0.0018608807693402203 0.00034162688718131706 0 -0.0026531233811020872 0.00013830049444015204 0 -0.0026276403970265333 -1.8827580117277635e-05 0 -0.0030957181344400107 -0.00015497004031057274 0 -0.0030598373307914681 -0.00027536519259740446 0 -0.0026118347008399277 0.00014179386297976388 0 -0.0021929531857536222 0.00028779687057875762 0 -0.0024997447031831124 0.00040092841079073367 0 -0.0032987564535413775 -0.00040834812192722987 0 -0.0033008339889853077 -0.0004252948139185177 0 -0.0032605998611072483 -0.00041606761157076723 0 -0.0029384598820671598 -0.00016286087338798159 0 -0.0028860247303221804 -0.00016351484185726811 0 -0.0028460687199551265 -0.00011744194861596123 0 -0.0032915685310929755 -0.00038333117672754882 0 -0.0032605998611072483 -0.00041606761157076723 0 -0.0032633786853233935 -0.00038496374900496595 0 -0.0032915685310929755 -0.00038333117672754882 0 -0.0032987564535413775 -0.00040834812192722987 0 -0.0032605998611072483 -0.00041606761157076723 0 -0.0030598373307914681 -0.00027536519259740446 0 -0.0029601221541273792 -0.00031723511597908123 0 -0.0032605998611072483 -0.00041606761157076723 0 -0.0031773608974212234 -0.00039350410941721463 0 -0.0032207668679868091 -0.00038892486581146714 0 -0.0032605998611072483 -0.00041606761157076723 0 -0.0032633786853233935 -0.00038496374900496595 0 -0.0032207668679868091 -0.00038892486581146714 0 -0.0028083538575133676 -0.00012924656270684105 0 -0.0028460687199551265 -0.00011744194861596123 0 -0.0027545519294773992 -7.1385585443179986e-05 0 -0.0026276403970265333 -1.8827580117277635e-05 0 -0.0024148306523646352 -6.4612020004316967e-05 0 -0.0023925746516520242 0.0001203143198632612 0 -0.002170473178327068 0.00022641551285177737 0 -0.0022912706604739761 1.6889907736689089e-05 0 -0.0028083538575133676 -0.00012924656270684105 0 -0.0027309212316731835 -9.4515209709537955e-05 0 -0.0027545519294773992 -7.1385585443179986e-05 0 -0.0024148306523646352 -6.4612020004316967e-05 0 -0.0029601221541273792 -0.00031723511597908123 0 -0.0020497706116623976 0.00018834613609523587 0 -0.0017902158353094182 0.00016179182492888269 0 -0.0017289482531249764 0.00014143379847607077 0 -0.0018608807693402203 0.00034162688718131706 0 -0.0015033638032860208 0.00028759019867941965 0 -0.002170473178327068 0.00022641551285177737 0 -0.0022912706604739761 1.6889907736689089e-05 0 -0.0019670700150537543 2.0644874357027933e-05 0 -0.0024148306523646352 -6.4612020004316967e-05 0 -0.002276855383185763 -0.00021479187233379058 0 -0.0017423578254736219 7.9704305574597602e-05 0 -0.0018463748799653742 0.00010251575918527529 0 -0.0018867301513136208 -9.979554102299426e-06 0 -0.0024148306523646352 -6.4612020004316967e-05 0 -0.0017902158353094182 0.00016179182492888269 0 -0.0017423578254736219 7.9704305574597602e-05 0 -0.0018463748799653742 0.00010251575918527529 0 -0.001868855732856597 0.0002007023740430435 0 -0.0029907959961620995 -0.00055558948060009748 0 -0.002658332523030626 -0.0004033141649060163 0 -0.0027168778857553865 -0.00024806338443533976 0 -0.0029601221541273792 -0.00031723511597908123 0 -0.0027974966758052095 -0.00030599280569480861 0 -0.0029643493736848168 -0.00026781640628550045 0 -0.0031099029904265159 -0.00044597313770278739 0 -0.0027168778857553865 -0.00024806338443533976 0 -0.0029907959961620995 -0.00055558948060009748 0 -0.0030850638081533909 -0.00045726829077430273 0 -0.0027168778857553865 -0.00024806338443533976 0 -0.0029643493736848168 -0.00026781640628550045 0 -0.0028880059835995515 -0.0001754914569331514 0 -0.0027168778857553865 -0.00024806338443533976 0 -0.0031099029904265159 -0.00044597313770278739 0 -0.0031801992644540722 -0.00036378251093602103 0 -0.0030998586045466055 -0.00029129931410606773 0 -0.0031773608974212234 -0.00039350410941721463 0 -0.0031801992644540722 -0.00036378251093602103 0 -0.0032207668679868091 -0.00038892486581146714 0 -0.0029601221541273792 -0.00031723511597908123 0 -0.0030592739328647281 -0.00030446833803742494 0 -0.0031801992644540722 -0.00036378251093602103 0 -0.0032207668679868091 -0.00038892486581146714 0 -0.003218318478636796 -0.00032589474848649611 0 -0.0031801992644540722 -0.00036378251093602103 0 -0.0031981035014576366 -0.00027212715559435624 0 -0.003218318478636796 -0.00032589474848649611 0 -0.0031801992644540722 -0.00036378251093602103 0 -0.0031981035014576366 -0.00027212715559435624 0 -0.0030998586045466055 -0.00029129931410606773 0 -0.0031981035014576366 -0.00027212715559435624 0 -0.0030998586045466055 -0.00029129931410606773 0 -0.0031526908814408618 -0.00020476017748060631 0 -0.0029643493736848168 -0.00026781640628550045 0 -0.0030998586045466055 -0.00029129931410606773 0 -0.0030038096097149821 -0.00018696720535382906 0 -0.0029643493736848168 -0.00026781640628550045 0 -0.0031099029904265159 -0.00044597313770278739 0 -0.0030998586045466055 -0.00029129931410606773 0 -0.0030998586045466055 -0.00029129931410606773 0 -0.0030038096097149821 -0.00018696720535382906 0 -0.0031526908814408618 -0.00020476017748060631 0 -0.0030038096097149821 -0.00018696720535382906 0 -0.0031526908814408618 -0.00020476017748060631 0 -0.0031090340635126258 -0.00010349652146668067 0 -0.0031526908814408618 -0.00020476017748060631 0 -0.0031090340635126258 -0.00010349652146668067 0 -0.0032365181501284083 -0.00011040528397588331 0 -0.0031981035014576366 -0.00027212715559435624 0 -0.0031526908814408618 -0.00020476017748060631 0 -0.003243233065330621 -0.00019304619580090427 0 -0.0031526908814408618 -0.00020476017748060631 0 -0.003243233065330621 -0.00019304619580090427 0 -0.0032365181501284083 -0.00011040528397588331 0 -0.0031090340635126258 -0.00010349652146668067 0 -0.0030752548512194625 1.1183648163799602e-06 0 -0.0031942226477523804 -1.0393384762758662e-05 0 -0.0031090340635126258 -0.00010349652146668067 0 -0.0032365181501284083 -0.00011040528397588331 0 -0.0031942226477523804 -1.0393384762758662e-05 0 -0.0031090340635126258 -0.00010349652146668067 0 -0.002956199264257203 -6.8303040510374636e-05 0 -0.0030752548512194625 1.1183648163799602e-06 0 -0.0030038096097149821 -0.00018696720535382906 0 -0.0031090340635126258 -0.00010349652146668067 0 -0.002956199264257203 -6.8303040510374636e-05 0 -0.002956199264257203 -6.8303040510374636e-05 0 -0.0028016971829053637 -9.8303976049854774e-05 0 -0.0028880059835995515 -0.0001754914569331514 0 -0.002956199264257203 -6.8303040510374636e-05 0 -0.0028016971829053637 -9.8303976049854774e-05 0 -0.0028092273683593817 5.4654745699110027e-05 0 -0.0028016971829053637 -9.8303976049854774e-05 0 -0.0028880059835995515 -0.0001754914569331514 0 -0.0027168778857553865 -0.00024806338443533976 0 -0.0030038096097149821 -0.00018696720535382906 0 -0.002956199264257203 -6.8303040510374636e-05 0 -0.0028880059835995515 -0.0001754914569331514 0 -0.0029643493736848168 -0.00026781640628550045 0 -0.0030038096097149821 -0.00018696720535382906 0 -0.0028880059835995515 -0.0001754914569331514 0 -0.0032915685310929755 -0.00038333117672754882 0 -0.0032633786853233935 -0.00038496374900496595 0 -0.00327619159021141 -0.00035386382966196396 0 -0.0032207668679868091 -0.00038892486581146714 0 -0.0034572563913137025 -0.00020703867786695502 0 -0.0035185279838051029 -0.00020094801676722899 0 -0.0032633786853233935 -0.00038496374900496595 0 -0.0032207668679868091 -0.00038892486581146714 0 -0.00327619159021141 -0.00035386382966196396 0 -0.0032207668679868091 -0.00038892486581146714 0 -0.0033622571485386597 -0.00021566349785440294 0 -0.0034572563913137025 -0.00020703867786695502 0 -0.0032216503055766286 -0.00038384534746060289 0 -0.0034256281163293333 -0.00028611026102085576 0 -0.0032207668679868091 -0.00038892486581146714 0 -0.003218318478636796 -0.00032589474848649611 0 -0.0032872370312648502 -0.00025253934248882195 0 -0.0031981035014576366 -0.00027212715559435624 0 -0.003218318478636796 -0.00032589474848649611 0 -0.0032872370312648502 -0.00025253934248882195 0 -0.0032207668679868091 -0.00038892486581146714 0 -0.0032872370312648502 -0.00025253934248882195 0 -0.0033622571485386597 -0.00021566349785440294 0 -0.0031981035014576366 -0.00027212715559435624 0 -0.0032872370312648502 -0.00025253934248882195 0 -0.003243233065330621 -0.00019304619580090427 0 -0.0033023253512412848 -0.00017966643184388133 0 -0.0032365181501284083 -0.00011040528397588331 0 -0.0033816471958984951 -0.00012513085522192677 0 -0.0032872370312648502 -0.00025253934248882195 0 -0.003243233065330621 -0.00019304619580090427 0 -0.0033023253512412848 -0.00017966643184388133 0 -0.003243233065330621 -0.00019304619580090427 0 -0.0033023253512412848 -0.00017966643184388133 0 -0.0032365181501284083 -0.00011040528397588331 0 -0.0033164479887057394 -3.3744830689927971e-05 0 -0.0032365181501284083 -0.00011040528397588331 0 -0.0033816471958984951 -0.00012513085522192677 0 -0.0033164479887057394 -3.3744830689927971e-05 0 -0.0032365181501284083 -0.00011040528397588331 0 -0.0031942226477523804 -1.0393384762758662e-05 0 -0.0033164479887057394 -3.3744830689927971e-05 0 -0.0033816471958984951 -0.00012513085522192677 0 -0.0034515026297916615 5.814200321352435e-05 0 -0.0033023253512412848 -0.00017966643184388133 0 -0.0033816471958984951 -0.00012513085522192677 0 -0.0033622571485386597 -0.00021566349785440294 0 -0.0032872370312648502 -0.00025253934248882195 0 -0.0033023253512412848 -0.00017966643184388133 0 -0.0033622571485386597 -0.00021566349785440294 0 -0.0033816471958984951 -0.00012513085522192677 0 -0.0033622571485386597 -0.00021566349785440294 0 -0.0034572563913137025 -0.00020703867786695502 0 -0.0033816471958984951 -0.00012513085522192677 0 -0.0035123619067357042 -0.00019322113362032386 0 -0.0034515026297916615 5.814200321352435e-05 0 -0.003761215050494007 1.05417086622006e-05 0 -0.0035123619067357042 -0.00019322113362032386 0 -0.0034515026297916615 5.814200321352435e-05 0 -0.0033816471958984951 -0.00012513085522192677 0 -0.0034572563913137025 -0.00020703867786695502 0 -0.0035123619067357042 -0.00019322113362032386 0 -0.0034561286400317946 -0.00026757420035049436 0 -0.0034256281163293333 -0.00028611026102085576 0 -0.0034515026297916615 5.814200321352435e-05 0 -0.003292152350107751 5.7508795532990725e-05 0 -0.0032799442281386767 0.00018222366651217178 0 -0.0033164479887057394 -3.3744830689927971e-05 0 -0.0034515026297916615 5.814200321352435e-05 0 -0.003292152350107751 5.7508795532990725e-05 0 -0.0033164479887057394 -3.3744830689927971e-05 0 -0.003292152350107751 5.7508795532990725e-05 0 -0.0031942226477523804 -1.0393384762758662e-05 0 -0.0033972355606647683 0.00027777090082258557 0 -0.0032799442281386767 0.00018222366651217178 0 -0.0031587996576505741 0.0003169097572249038 0 -0.0034515026297916615 5.814200321352435e-05 0 -0.0033972355606647683 0.00027777090082258557 0 -0.0032799442281386767 0.00018222366651217178 0 -0.0036036806260364629 0.00025318482513728017 0 -0.0034515026297916615 5.814200321352435e-05 0 -0.0033972355606647683 0.00027777090082258557 0 -0.0035052180403768078 0.00037795843278512335 0 -0.0036036806260364629 0.00025318482513728017 0 -0.0033972355606647683 0.00027777090082258557 0 -0.0028092273683593817 5.4654745699110027e-05 0 -0.0029351500173440933 0.00019579448453245328 0 -0.0026559658283408821 0.00021135046776500312 0 -0.002975707788184749 7.5443291205694665e-05 0 -0.0031305657471113729 0.00011989058124057941 0 -0.0029351500173440933 0.00019579448453245328 0 -0.002975707788184749 7.5443291205694665e-05 0 -0.0028092273683593817 5.4654745699110027e-05 0 -0.0029351500173440933 0.00019579448453245328 0 -0.002956199264257203 -6.8303040510374636e-05 0 -0.002975707788184749 7.5443291205694665e-05 0 -0.0028092273683593817 5.4654745699110027e-05 0 -0.002956199264257203 -6.8303040510374636e-05 0 -0.002975707788184749 7.5443291205694665e-05 0 -0.0030752548512194625 1.1183648163799602e-06 0 -0.002975707788184749 7.5443291205694665e-05 0 -0.0030752548512194625 1.1183648163799602e-06 0 -0.0031305657471113729 0.00011989058124057941 0 -0.003292152350107751 5.7508795532990725e-05 0 -0.0031942226477523804 -1.0393384762758662e-05 0 -0.0031305657471113729 0.00011989058124057941 0 -0.0030752548512194625 1.1183648163799602e-06 0 -0.0031942226477523804 -1.0393384762758662e-05 0 -0.0031305657471113729 0.00011989058124057941 0 -0.003292152350107751 5.7508795532990725e-05 0 -0.0032799442281386767 0.00018222366651217178 0 -0.0031305657471113729 0.00011989058124057941 0 -0.0032799442281386767 0.00018222366651217178 0 -0.0031305657471113729 0.00011989058124057941 0 -0.0031587996576505741 0.0003169097572249038 0 -0.0031305657471113729 0.00011989058124057941 0 -0.0031587996576505741 0.0003169097572249038 0 -0.0029351500173440933 0.00019579448453245328 0 -0.0028832344613730762 0.00036139922053247833 0 -0.0029351500173440933 0.00019579448453245328 0 -0.0026559658283408821 0.00021135046776500312 0 -0.0028832344613730762 0.00036139922053247833 0 -0.0031587996576505741 0.0003169097572249038 0 -0.0029351500173440933 0.00019579448453245328 0 -0.0026559658283408821 0.00021135046776500312 0 -0.0023819484461617708 8.3766952454673898e-05 0 -0.0025293513457933614 -3.9754121466862765e-05 0 -0.0028092273683593817 5.4654745699110027e-05 0 -0.0026559658283408821 0.00021135046776500312 0 -0.0025293513457933614 -3.9754121466862765e-05 0 -0.0026559658283408821 0.00021135046776500312 0 -0.0023819484461617708 8.3766952454673898e-05 0 -0.0023940142472391782 0.00034375929115340701 0 -0.0023799226884771724 8.8467380474321908e-05 0 -0.0023483368249489992 0.00023014859551971813 0 -0.002667480795349988 0.00052046280019841758 0 -0.0026559658283408821 0.00021135046776500312 0 -0.0023940142472391782 0.00034375929115340701 0 -0.0022943795419090099 0.00013910070352136624 0 -0.0022945093887810301 0.00010593727386629924 0 -0.0022987487036503977 0.00014102747289305192 0 -0.0023819484461617708 8.3766952454673898e-05 0 -0.0022943795419090099 0.00013910070352136624 0 -0.0022945093887810301 0.00010593727386629924 0 -0.0022987487036503977 0.00014102747289305192 0 -0.0022687091923462212 6.9769899243349111e-05 0 -0.0022961110598818421 0.00012606446556826493 0 -0.0022945093887810301 0.00010593727386629924 0 -0.0022987487036503977 0.00014102747289305192 0 -0.0022687091923462212 6.9769899243349111e-05 0 -0.0023819484461617708 8.3766952454673898e-05 0 -0.0022945093887810301 0.00010593727386629924 0 -0.002268830156165658 2.1653630003253329e-05 0 -0.0022945093887810301 0.00010593727386629924 0 -0.0022687091923462212 6.9769899243349111e-05 0 -0.002268830156165658 2.1653630003253329e-05 0 -0.002268830156165658 2.1653630003253329e-05 0 -0.0022380982107488593 -9.5181617274667994e-06 0 -0.0022301830046112087 -0.00011363014968160538 0 -0.0022687091923462212 6.9769899243349111e-05 0 -0.002268830156165658 2.1653630003253329e-05 0 -0.0022380982107488593 -9.5181617274667994e-06 0 -0.0022687091923462212 6.9769899243349111e-05 0 -0.0022380982107488593 -9.5181617274667994e-06 0 -0.0022449973741482682 1.7549996124515062e-05 0 -0.0022380982107488593 -9.5181617274667994e-06 0 -0.0021674050196900958 3.5757075830315609e-05 0 -0.0022469185719363734 3.7600023555984528e-05 0 -0.0022380982107488593 -9.5181617274667994e-06 0 -0.0022449973741482682 1.7549996124515062e-05 0 -0.0022469185719363734 3.7600023555984528e-05 0 -0.0022380982107488593 -9.5181617274667994e-06 0 -0.0022301830046112087 -0.00011363014968160538 0 -0.0021674050196900958 3.5757075830315609e-05 0 -0.0022301830046112087 -0.00011363014968160538 0 -0.0018867301513136208 -9.979554102299426e-06 0 -0.0020473505487537311 7.1534821124128879e-05 0 -0.0022301830046112087 -0.00011363014968160538 0 -0.0020473505487537311 7.1534821124128879e-05 0 -0.0021674050196900958 3.5757075830315609e-05 0 -0.0022275465600145503 -0.00012721989434966196 0 -0.002276855383185763 -0.00021479187233379058 0 -0.0022301830046112087 -0.00011363014968160538 0 -0.002658332523030626 -0.0004033141649060163 0 -0.0027168778857553865 -0.00024806338443533976 0 -0.0022301830046112087 -0.00011363014968160538 0 -0.0027168778857553865 -0.00024806338443533976 0 -0.0025293513457933614 -3.9754121466862765e-05 0 -0.0028016971829053637 -9.8303976049854774e-05 0 -0.0027168778857553865 -0.00024806338443533976 0 -0.0025293513457933614 -3.9754121466862765e-05 0 -0.0028016971829053637 -9.8303976049854774e-05 0 -0.0028092273683593817 5.4654745699110027e-05 0 -0.0025293513457933614 -3.9754121466862765e-05 0 -0.0023819484461617708 8.3766952454673898e-05 0 -0.0022301830046112087 -0.00011363014968160538 0 -0.0025293513457933614 -3.9754121466862765e-05 0 -0.0023819484461617708 8.3766952454673898e-05 0 -0.002268830156165658 2.1653630003253329e-05 0 -0.0022301830046112087 -0.00011363014968160538 0 -0.0029475319179266407 0.00074900908732666133 0 -0.0029821863016992987 0.00068338444958257721 0 -0.0029005602993248223 0.00073460370210178373 0 -0.0029513647690569775 0.00041443310342113116 0 -0.0033178824357888324 0.00037895864581121227 0 -0.0029821863016992987 0.00068338444958257721 0 -0.0029513647690569775 0.00041443310342113116 0 -0.0029821863016992987 0.00068338444958257721 0 -0.0028434527867654126 0.0006334257535143597 0 -0.0029350421959851748 0.00043591051624092183 0 -0.0028499171281813913 0.00062094672413844131 0 -0.0026826286005699018 0.00032314250679713302 0 -0.0029513647690569775 0.00041443310342113116 0 -0.0027675475187291473 0.00061969000813904933 0 -0.0028434527867654126 0.0006334257535143597 0 -0.002820911641734087 0.00070857334015512541 0 -0.0029005602993248223 0.00073460370210178373 0 -0.0029821863016992987 0.00068338444958257721 0 -0.0028434527867654126 0.0006334257535143597 0 -0.0029005602993248223 0.00073460370210178373 0 -0.0022210420596821554 6.6525346715718057e-05 0 -0.0022566288176583882 0.00012482564156978562 0 -0.0022601937432284477 7.7588388402333058e-05 0 -0.0028499171281813913 0.00062094672413844131 0 -0.002174785239966438 0.00051254195055521769 0 -0.0027675475187291473 0.00061969000813904933 0 -0.0025711937487491263 0.00086213176375809716 0 -0.0024814666773979774 0.00057016736769650313 0 -0.002174785239966438 0.00051254195055521769 0 -0.0023855063364356215 0.00034034196799082571 0 -0.0026826286005699018 0.00032314250679713302 0 -0.0027675475187291473 0.00061969000813904933 0 -0.0024814666773979774 0.00057016736769650313 0 -0.0023662366128036423 0.00021555640455995942 0 -0.0023855063364356215 0.00034034196799082571 0 -0.0022566288176583882 0.00012482564156978562 0 -0.0022961110598818421 0.00012606446556826493 0 -0.0022601937432284477 7.7588388402333058e-05 0 -0.0023797840665250522 0.00020651050749857425 0 -0.0022566288176583882 0.00012482564156978562 0 -0.0022961110598818421 0.00012606446556826493 0 -0.0023797840665250522 0.00020651050749857425 0 -0.0022987487036503977 0.00014102747289305192 0 -0.0022961110598818421 0.00012606446556826493 0 -0.0022687091923462212 6.9769899243349111e-05 0 -0.0022961110598818421 0.00012606446556826493 0 -0.0022601937432284477 7.7588388402333058e-05 0 -0.0022687091923462212 6.9769899243349111e-05 0 -0.0022601937432284477 7.7588388402333058e-05 0 -0.0022449973741482682 1.7549996124515062e-05 0 -0.0022210420596821554 6.6525346715718057e-05 0 -0.0022601937432284477 7.7588388402333058e-05 0 -0.0022449973741482682 1.7549996124515062e-05 0 -0.0017323968421902752 0.00028124254587425906 0 -0.0017906940963338417 0.00028767064642796586 0 -0.0013018023627898929 0.00055298072006216019 0 -0.0012845426828951749 0.00052360209770431021 0 -0.0013267215903407161 0.00053357685083873965 0 -0.0013018023627898929 0.00055298072006216019 0 -0.0012704724221542741 0.00054418122128641218 0 -0.0012845426828951749 0.00052360209770431021 0 -0.0012919366508251995 0.00057412722110881075 0 -0.0013018023627898929 0.00055298072006216019 0 -0.0012704724221542741 0.00054418122128641218 0 -0.002174785239966438 0.00051254195055521769 0 -0.0021169557778372532 0.00061852782387881544 0 -0.002174785239966438 0.00051254195055521769 0 -0.0017323968421902752 0.00028124254587425906 0 -0.002820911641734087 0.00070857334015512541 0 -0.0029005602993248223 0.00073460370210178373 0 -0.0028713830772453975 0.00075914962480994844 0 -0.0029005602993248223 0.00073460370210178373 0 -0.0028713830772453975 0.00075914962480994844 0 -0.0029019137061540141 0.00076280949790925856 0 -0.0028713830772453975 0.00075914962480994844 0 -0.0029019137061540141 0.00076280949790925856 0 -0.0028913618957440773 0.00074938960112194773 0 -0.0028894344614302692 0.00071589648732311236 0 -0.0029019137061540141 0.00076280949790925856 0 -0.0028913618957440773 0.00074938960112194773 0 -0.0029475319179266407 0.00074900908732666133 0 -0.0029005602993248223 0.00073460370210178373 0 -0.0029019137061540141 0.00076280949790925856 0 -0.0014161727831680578 0.0017791858368744456 0 -0.0015422853671180241 0.0018876043535999282 0 -0.0016508866879303026 0.0016322623523693566 0 -0.0014161727831680578 0.0017791858368744456 0 -0.0013187144088163056 0.0018398856581948479 0 -0.0015422853671180241 0.0018876043535999282 0 -0.00222024757934884 0.0012102739477789705 0 -0.001499936778909539 0.00097414164296719152 0 -0.0028894344614302692 0.00071589648732311236 0 -0.0028913618957440773 0.00074938960112194773 0 -0.0028811262825923127 0.00075745433098940425 0 -0.0011781225527246937 0.0017093380131860173 0 -0.0013187144088163056 0.0018398856581948479 0 -0.0015422853671180241 0.0018876043535999282 0 -0.0028713830772453975 0.00075914962480994844 0 -0.0028913618957440773 0.00074938960112194773 0 -0.0028811262825923127 0.00075745433098940425 0 -0.0021169557778372532 0.00061852782387881544 0 -0.001499936778909539 0.00097414164296719152 0 -0.00031557904208982167 0.00063815080904767692 0 -0.00047294791969926161 0.0002807646505597864 0 -0.00020522628833203178 0.00029422559111392897 0 -0.001499936778909539 0.00097414164296719152 0 -0.00087008033742769794 0.00095525718635032725 0 -0.001499936778909539 0.00097414164296719152 0 -0.00083202878287489377 0.00049706944537923116 0 -0.00031557904208982167 0.00063815080904767692 0 -0.00063016525046243835 0.00051852405051605024 0 -0.00047294791969926161 0.0002807646505597864 0 -0.0012704724221542741 0.00054418122128641218 0 -0.0012497599105062739 0.00050767633126034856 0 -0.0012845426828951749 0.00052360209770431021 0 -0.0012497599105062739 0.00050767633126034856 0 -0.0012714363701771725 0.00048724156034072593 0 -0.0012845426828951749 0.00052360209770431021 0 -0.0012714363701771725 0.00048724156034072593 0 -0.0012845426828951749 0.00052360209770431021 0 -0.0012988578661357799 0.00049785917406979603 0 -0.0012845426828951749 0.00052360209770431021 0 -0.0012988578661357799 0.00049785917406979603 0 -0.0013267215903407161 0.00053357685083873965 0 -0.0012714363701771725 0.00048724156034072593 0 -0.0012988578661357799 0.00049785917406979603 0 -0.0013017989132331482 0.00042679011915448177 0 -0.00083202878287489377 0.00049706944537923116 0 -0.00117275451413766 0.00040714167141592446 0 -0.00074792656832779628 0.00019208557072310901 0 -0.00096489503562201013 0.00041234319893259448 0 -0.0010403911174774909 1.8100184877993421e-05 0 -0.00063016525046243835 0.00051852405051605024 0 -0.00074792656832779628 0.00019208557072310901 0 -0.00096489503562201013 0.00041234319893259448 0 -0.00074792656832779628 0.00019208557072310901 0 -0.00081673232823867119 -8.9275641772661803e-05 0 -0.0010403911174774909 1.8100184877993421e-05 0 -0.00074792656832779628 0.00019208557072310901 0 -0.00081673232823867119 -8.9275641772661803e-05 0 -0.0005997141847271987 -2.790266231838029e-05 0 -0.0005997141847271987 -2.790266231838029e-05 0 -0.00047294791969926161 0.0002807646505597864 0 -0.00034749027601140464 6.4004161094497435e-05 0 -0.00074792656832779628 0.00019208557072310901 0 -0.0005997141847271987 -2.790266231838029e-05 0 -0.00047294791969926161 0.0002807646505597864 0 -0.00063016525046243835 0.00051852405051605024 0 -0.00074792656832779628 0.00019208557072310901 0 -0.00047294791969926161 0.0002807646505597864 0 -0.00047294791969926161 0.0002807646505597864 0 -0.00020522628833203178 0.00029422559111392897 0 -0.00034749027601140464 6.4004161094497435e-05 0 -0.00034749027601140464 6.4004161094497435e-05 0 -9.9814387244593153e-05 -4.5599242745225425e-05 0 -0.00033909327415472323 -0.0001946050178024003 0 -0.0005997141847271987 -2.790266231838029e-05 0 -0.00034749027601140464 6.4004161094497435e-05 0 -0.00033909327415472323 -0.0001946050178024003 0 -0.00020522628833203178 0.00029422559111392897 0 -0.00034749027601140464 6.4004161094497435e-05 0 -9.9814387244593153e-05 -4.5599242745225425e-05 0 -0.00087008033742769794 0.00095525718635032725 0 -0.0010220707001547765 0.00056431914236808019 0 -0.0013361010792243833 0.0015574865747688352 0 -0.0016508866879303026 0.0016322623523693566 0 -0.001736150937544347 0.00099933355071689682 0 -0.0013361010792243833 0.0015574865747688352 0 -0.0014161727831680578 0.0017791858368744456 0 -0.0016508866879303026 0.0016322623523693566 0 -0.0019251839830134205 0.00021896152895060128 0 -0.0020308107713674721 0.00014707411071621814 0 -0.0017315026914319796 0.00026636876371194807 0 -0.0019695503808864409 0.00022049476723923927 0 -0.0017902158353094182 0.00016179182492888269 0 -0.0019251839830134205 0.00021896152895060128 0 -0.001868855732856597 0.0002007023740430435 0 -0.0019169854058057288 0.00013100020191564627 0 -0.0019251839830134205 0.00021896152895060128 0 -0.0019489010011237251 0.0002171319657609324 0 -0.0019020908733355104 0.00018587186705814666 0 -0.0018867301513136208 -9.979554102299426e-06 0 -0.0019169854058057288 0.00013100020191564627 0 -0.0020473505487537311 7.1534821124128879e-05 0 -0.0018463748799653742 0.00010251575918527529 0 -0.0018867301513136208 -9.979554102299426e-06 0 -0.0019169854058057288 0.00013100020191564627 0 -0.0018463748799653742 0.00010251575918527529 0 -0.001868855732856597 0.0002007023740430435 0 -0.0019169854058057288 0.00013100020191564627 0 -0.0019251839830134205 0.00021896152895060128 0 -0.0020473505487537311 7.1534821124128879e-05 0 -0.0020308107713674721 0.00014707411071621814 0 -0.0019251839830134205 0.00021896152895060128 0 -0.0019169854058057288 0.00013100020191564627 0 -0.0020473505487537311 7.1534821124128879e-05 0 -0.0020473505487537311 7.1534821124128879e-05 0 -0.0021674050196900958 3.5757075830315609e-05 0 -0.0020308107713674721 0.00014707411071621814 0 -0.0021674050196900958 3.5757075830315609e-05 0 -0.0021339424851442553 0.00017183122054615233 0 -0.0020308107713674721 0.00014707411071621814 0 -0.0017906940963338417 0.00028767064642796586 0 -0.0017652885559312518 0.00032009026825923956 0 -0.0021674050196900958 3.5757075830315609e-05 0 -0.0022469185719363734 3.7600023555984528e-05 0 -0.0021339424851442553 0.00017183122054615233 0 -0.0012988578661357799 0.00049785917406979603 0 -0.0013267215903407161 0.00053357685083873965 0 -0.0013963348816357112 0.0005064726368727261 0 -0.0013017989132331482 0.00042679011915448177 0 -0.0013963348816357112 0.0005064726368727261 0 -0.001467261444984535 0.00027115458786351287 0 -0.0012988578661357799 0.00049785917406979603 0 -0.0013017989132331482 0.00042679011915448177 0 -0.0013963348816357112 0.0005064726368727261 0 -0.0021339424851442553 0.00017183122054615233 0 -0.0020308107713674721 0.00014707411071621814 0 -0.0017315026914319796 0.00026636876371194807 0 -0.0017652885559312518 0.00032009026825923956 0 -0.0017581760225960422 0.00026107827938620496 0 -0.0013963348816357112 0.0005064726368727261 0 -0.0017315026914319796 0.00026636876371194807 0 -0.001467261444984535 0.00027115458786351287 0 -0.001467261444984535 0.00027115458786351287 0 -0.0015236774041261076 0.00010670883539494869 0 -0.0012797784582103415 4.185051613820903e-05 0 -0.001467261444984535 0.00027115458786351287 0 -0.001187130198579049 0.00017804974433439894 0 -0.0012797784582103415 4.185051613820903e-05 0 -0.0017315026914319796 0.00026636876371194807 0 -0.001467261444984535 0.00027115458786351287 0 -0.0015236774041261076 0.00010670883539494869 0 -0.00117275451413766 0.00040714167141592446 0 -0.0014390106868338137 0.00028721377747841122 0 -0.00096489503562201013 0.00041234319893259448 0 -0.001467261444984535 0.00027115458786351287 0 -0.001187130198579049 0.00017804974433439894 0 -0.00096489503562201013 0.00041234319893259448 0 -0.001187130198579049 0.00017804974433439894 0 -0.0010403911174774909 1.8100184877993421e-05 0 -0.00081673232823867119 -8.9275641772661803e-05 0 -0.0010403911174774909 1.8100184877993421e-05 0 -0.00097866370170835056 -0.00028756434691865052 0 -0.001187130198579049 0.00017804974433439894 0 -0.0010403911174774909 1.8100184877993421e-05 0 -0.0012797784582103415 4.185051613820903e-05 0 -0.0015236774041261076 0.00010670883539494869 0 -0.0012780943815446477 -0.00018258419660045761 0 -0.0019020908733355104 0.00018587186705814666 0 -0.0010403911174774909 1.8100184877993421e-05 0 -0.0012797784582103415 4.185051613820903e-05 0 -0.0012780943815446477 -0.00018258419660045761 0 -0.0015236774041261076 0.00010670883539494869 0 -0.0012797784582103415 4.185051613820903e-05 0 -0.0012780943815446477 -0.00018258419660045761 0 -0.0013152442617454208 -0.00016121169035229836 0 -0.0015935345254059464 0.00011324560749880154 0 -0.0012780943815446477 -0.00018258419660045761 0 -0.0013201969313363022 -0.00016689396553318229 0 -0.0013105144104784794 1.0210612496902427e-05 0 -0.0013201969313363022 -0.00016689396553318229 0 -0.0013105144104784794 1.0210612496902427e-05 0 -0.0014138801555843273 -8.7787949702425945e-05 0 -0.0017315026914319796 0.00026636876371194807 0 -0.0015236774041261076 0.00010670883539494869 0 -0.0019020908733355104 0.00018587186705814666 0 -0.0019251839830134205 0.00021896152895060128 0 -0.0017315026914319796 0.00026636876371194807 0 -0.0019020908733355104 0.00018587186705814666 0 -0.0015549555300849384 2.6841270807879796e-05 0 -0.0015033638032860208 0.00028759019867941965 0 -0.0014449499266754266 5.5392197722360654e-05 0 -0.0015033638032860208 0.00028759019867941965 0 -0.0013105144104784794 1.0210612496902427e-05 0 -0.0014449499266754266 5.5392197722360654e-05 0 -0.0017902158353094182 0.00016179182492888269 0 -0.0015935345254059464 0.00011324560749880154 0 -0.0013105144104784794 1.0210612496902427e-05 0 -0.0014449499266754266 5.5392197722360654e-05 0 -0.0014138801555843273 -8.7787949702425945e-05 0 -0.0015549555300849384 2.6841270807879796e-05 0 -0.0014449499266754266 5.5392197722360654e-05 0 -0.0014138801555843273 -8.7787949702425945e-05 0 -0.0015467846864251956 -0.0001461817278686695 0 -0.0014138801555843273 -8.7787949702425945e-05 0 -0.0014065857162262432 -0.00026836288042896575 0 -0.0015549555300849384 2.6841270807879796e-05 0 -0.0015467846864251956 -0.0001461817278686695 0 -0.0014138801555843273 -8.7787949702425945e-05 0 -0.0013201969313363022 -0.00016689396553318229 0 -0.0014138801555843273 -8.7787949702425945e-05 0 -0.0014065857162262432 -0.00026836288042896575 0 -0.0014065857162262432 -0.00026836288042896575 0 -0.0013225879950233691 -0.0004165172160019914 0 -0.0014985685522775831 -0.0004493515573575803 0 -0.0014065857162262432 -0.00026836288042896575 0 -0.0014985685522775831 -0.0004493515573575803 0 -0.0016176583144222182 -0.00034695083026858609 0 -0.0013225879950233691 -0.0004165172160019914 0 -0.0014985685522775831 -0.0004493515573575803 0 -0.0015331833260487187 -0.00069618583993512491 0 -0.0013225879950233691 -0.0004165172160019914 0 -0.0012451088342867581 -0.00032376761826594092 0 -0.0011363527337567292 -0.00052517763565115556 0 -0.0014065857162262432 -0.00026836288042896575 0 -0.0013225879950233691 -0.0004165172160019914 0 -0.0012451088342867581 -0.00032376761826594092 0 -0.0012451088342867581 -0.00032376761826594092 0 -0.0011273491828281681 -0.00040924907153808989 0 -0.0011363527337567292 -0.00052517763565115556 0 -0.0012780943815446477 -0.00018258419660045761 0 -0.0013201969313363022 -0.00016689396553318229 0 -0.0012451088342867581 -0.00032376761826594092 0 -0.0013201969313363022 -0.00016689396553318229 0 -0.0014065857162262432 -0.00026836288042896575 0 -0.0012451088342867581 -0.00032376761826594092 0 -0.0012780943815446477 -0.00018258419660045761 0 -0.00097866370170835056 -0.00028756434691865052 0 -0.0011273491828281681 -0.00040924907153808989 0 -0.0012780943815446477 -0.00018258419660045761 0 -0.0012451088342867581 -0.00032376761826594092 0 -0.0011273491828281681 -0.00040924907153808989 0 -0.0010403911174774909 1.8100184877993421e-05 0 -0.0012780943815446477 -0.00018258419660045761 0 -0.00097866370170835056 -0.00028756434691865052 0 -0.00097866370170835056 -0.00028756434691865052 0 -0.0010030028895109489 -0.00047483990130148013 0 -0.0011273491828281681 -0.00040924907153808989 0 -0.00097866370170835056 -0.00028756434691865052 0 -0.0010030028895109489 -0.00047483990130148013 0 -0.00083942617302613703 -0.00046876093980157573 0 -0.0010030028895109489 -0.00047483990130148013 0 -0.0011273491828281681 -0.00040924907153808989 0 -0.0010834151637701378 -0.0005827106943660775 0 -0.0011273491828281681 -0.00040924907153808989 0 -0.0010834151637701378 -0.0005827106943660775 0 -0.0011363527337567292 -0.00052517763565115556 0 -0.0010030028895109489 -0.00047483990130148013 0 -0.0010834151637701378 -0.0005827106943660775 0 -0.00092963210939407941 -0.00056813582923932455 0 0.0013359187346004564 0.00025837992223908375 0 0.0036321249606254525 0.00087297536179524124 0 0.0025074136676068504 -0.00050752950373353486 0 8.8338049722544096e-05 -0.00020679075631150799 0 0.0014812107616691817 0.00024294128440708915 0 -0.0010030028895109489 -0.00047483990130148013 0 -0.00092963210939407941 -0.00056813582923932455 0 -0.00083942617302613703 -0.00046876093980157573 0 0.0036321249606254525 0.00087297536179524124 0 0.0034796744708372298 -0.00055266239608070284 0 0.0044678931779637155 3.7553644248989827e-05 0 0.0034796744708372298 -0.00055266239608070284 0 0.0039505880545608668 -0.0011831291877775077 0 0.0044678931779637155 3.7553644248989827e-05 0 0.0034796744708372298 -0.00055266239608070284 0 0.0025074136676068504 -0.00050752950373353486 0 0.0030755299481840686 -0.0011997876230417455 0 0.0036321249606254525 0.00087297536179524124 0 0.0034796744708372298 -0.00055266239608070284 0 0.0025074136676068504 -0.00050752950373353486 0 0.0025074136676068504 -0.00050752950373353486 0 0.0030755299481840686 -0.0011997876230417455 0 0.0024295686936994586 -0.0016404578420393594 0 0.0030755299481840686 -0.0011997876230417455 0 0.0024295686936994586 -0.0016404578420393594 0 0.0030178493330578629 -0.0019668299276073666 0 0.0030755299481840686 -0.0011997876230417455 0 0.0039505880545608668 -0.0011831291877775077 0 0.0030178493330578629 -0.0019668299276073666 0 0.0034796744708372298 -0.00055266239608070284 0 0.0030755299481840686 -0.0011997876230417455 0 0.0039505880545608668 -0.0011831291877775077 0 0.0013359187346004564 0.00025837992223908375 0 0.0014515303110602712 -0.00079208300694667616 0 -0.00055485557738643905 -0.0013232726204176334 0 0.0022858515733949133 -0.0016531009503833799 0 0.00101171043290103 -0.0015608647905248699 0 0.0014515303110602712 -0.00079208300694667616 0 0.0024295686936994586 -0.0016404578420393594 0 -0.00055485557738643905 -0.0013232726204176334 0 0.0024295686936994586 -0.0016404578420393594 0 0.0022725388016972504 -0.0018426806851633451 0 0.0023303569843478489 -0.0018125520736551346 0 0.0013359187346004564 0.00025837992223908375 0 0.0025074136676068504 -0.00050752950373353486 0 0.0014515303110602712 -0.00079208300694667616 0 0.0025074136676068504 -0.00050752950373353486 0 0.0014515303110602712 -0.00079208300694667616 0 0.0024295686936994586 -0.0016404578420393594 0 0.0013359187346004564 0.00025837992223908375 0 -0.0010173912292007305 -0.00067387410496890529 0 -0.00055485557738643905 -0.0013232726204176334 0 8.8338049722544096e-05 -0.00020679075631150799 0 -0.0009170916625035533 -0.00059914241034049844 0 -0.0010173912292007305 -0.00067387410496890529 0 -0.0014362391612006331 -0.00057462036073315957 0 -0.0014979393800288471 -0.0008319213294816 0 -0.0010173912292007305 -0.00067387410496890529 0 -0.00055485557738643905 -0.0013232726204176334 0 -0.0014979393800288471 -0.0008319213294816 0 0.0022725388016972504 -0.0018426806851633451 0 0.0023162069252260172 -0.0018437422763775873 0 0.0023383024486063903 -0.001867458803217805 0 0.00101171043290103 -0.0015608647905248699 0 0.00011460037470518891 -0.0013655079240911191 0 -0.00096989620704451785 -0.00048875219848069115 0 -0.0019468850737518601 -0.00068845730761002812 0 -0.0013225879950233691 -0.0004165172160019914 0 -0.0011363527337567292 -0.00052517763565115556 0 -0.0015331833260487187 -0.00069618583993512491 0 -0.0010173912292007305 -0.00067387410496890529 0 -0.0011363527337567292 -0.00052517763565115556 0 -0.0014362391612006331 -0.00057462036073315957 0 -0.0010834151637701378 -0.0005827106943660775 0 -0.0010173912292007305 -0.00067387410496890529 0 -0.0011363527337567292 -0.00052517763565115556 0 0.00031382564084259687 -0.0004709147435890359 0 0.0016554922516817062 -0.0004856179939208634 0 0.0045555302032677233 -0.0011308877020740095 0 0.0042855590509505662 -0.00025798929225761516 0 0.0041675986428091789 -0.00078008019896873087 0 0.0042855590509505662 -0.00025798929225761516 0 0.0033817706203743839 -0.0004990375627347295 0 0.0037679501856612706 -0.00079386241035618468 0 0.0042855590509505662 -0.00025798929225761516 0 0.0037679501856612706 -0.00079386241035618468 0 0.0041675986428091789 -0.00078008019896873087 0 -0.0010220707001547765 0.00056431914236808019 0 0.00031382564084259687 -0.0004709147435890359 0 -0.001258230424602235 0.00081936246959718386 0 -0.001736150937544347 0.00099933355071689682 0 -0.0015766115790271161 0.00011290778484763021 0 -9.9814387244593153e-05 -4.5599242745225425e-05 0 8.920285398900023e-06 -0.00037899427760864501 0 -0.00033909327415472323 -0.0001946050178024003 0 8.920285398900023e-06 -0.00037899427760864501 0 -0.00033909327415472323 -0.0001946050178024003 0 -0.00031827958651519078 -0.00047612699296334241 0 0.0016554922516817062 -0.0004856179939208634 0 0.0020397131050848912 -0.00029087629505661399 0 -0.00031827958651519078 -0.00047612699296334241 0 -0.00066066643960644887 -0.00030023157224176193 0 -0.00064224986279286266 -0.00055831473340927338 0 -0.00033909327415472323 -0.0001946050178024003 0 -0.00031827958651519078 -0.00047612699296334241 0 -0.00066066643960644887 -0.00030023157224176193 0 -0.0005997141847271987 -2.790266231838029e-05 0 -0.00033909327415472323 -0.0001946050178024003 0 -0.00066066643960644887 -0.00030023157224176193 0 -0.00081673232823867119 -8.9275641772661803e-05 0 -0.00097866370170835056 -0.00028756434691865052 0 -0.00066066643960644887 -0.00030023157224176193 0 -0.00081673232823867119 -8.9275641772661803e-05 0 -0.0005997141847271987 -2.790266231838029e-05 0 -0.00066066643960644887 -0.00030023157224176193 0 -0.00066066643960644887 -0.00030023157224176193 0 -0.00083942617302613703 -0.00046876093980157573 0 -0.00064224986279286266 -0.00055831473340927338 0 -0.00097866370170835056 -0.00028756434691865052 0 -0.00066066643960644887 -0.00030023157224176193 0 -0.00083942617302613703 -0.00046876093980157573 0 -0.0013280729172056489 -8.5085493485545792e-05 0 0.0020397131050848912 -0.00029087629505661399 0 0.0044678931779637155 3.7553644248989827e-05 0 0.0054831588024960732 -0.00047636359705522649 0 0.0057786780433984261 0.0015183441786682282 0 -0.00092963210939407941 -0.00056813582923932455 0 -0.00083942617302613703 -0.00046876093980157573 0 -0.00066353386163550264 -0.00053110539673836745 0 0.0036321249606254525 0.00087297536179524124 0 0.0044678931779637155 3.7553644248989827e-05 0 0.0057786780433984261 0.0015183441786682282 0 0.0014812107616691817 0.00024294128440708915 0 0.0020397131050848912 -0.00029087629505661399 0 0.0039505880545608668 -0.0011831291877775077 0 0.0044678931779637155 3.7553644248989827e-05 0 0.0054831588024960732 -0.00047636359705522649 0 0.0039505880545608668 -0.0011831291877775077 0 0.0054831588024960732 -0.00047636359705522649 0 0.0046653299474912783 -0.0020141301892388978 0 0.0054831588024960732 -0.00047636359705522649 0 0.0076190322161590789 -0.0012501017926127851 0 0.0046653299474912783 -0.0020141301892388978 0 0.0054831588024960732 -0.00047636359705522649 0 0.0067552070078335386 0.00010165282895559531 0 0.0076190322161590789 -0.0012501017926127851 0 0.0020397131050848912 -0.00029087629505661399 0 0.0057604009847815989 -0.00017459207568359895 0 0.0054831588024960732 -0.00047636359705522649 0 0.0067552070078335386 0.00010165282895559531 0 0.0057786780433984261 0.0015183441786682282 0 0.0067552070078335386 0.00010165282895559531 0 0.0057786780433984261 0.0015183441786682282 0 0.0081439431499311637 0.00060884930027393501 0 0.0033817706203743839 -0.0004990375627347295 0 0.0024497100383216331 -0.00076764352327237067 0 0.0034057465818941347 -0.0011512644913126569 0 0.0033817706203743839 -0.0004990375627347295 0 0.0034057465818941347 -0.0011512644913126569 0 0.0037679501856612706 -0.00079386241035618468 0 0.0034057465818941347 -0.0011512644913126569 0 0.0038954528336002238 -0.0012344253710069369 0 0.0037679501856612706 -0.00079386241035618468 0 0.0081439431499311637 0.00060884930027393501 0 0.0076190322161590789 -0.0012501017926127851 0 0.010497005036857158 -0.00032067964359448232 0 0.0067552070078335386 0.00010165282895559531 0 0.0081439431499311637 0.00060884930027393501 0 0.0076190322161590789 -0.0012501017926127851 0 0.015979539476071267 -0.0016436789220196013 0 0.016053011846787629 -0.0016928812209275163 0 0.016234031123569883 -0.0016349519017622161 0 0.012207297327664042 -0.0013268729471944383 0 0.011342907497092198 -0.0016001470053076882 0 0.016053011846787629 -0.0016928812209275163 0 0.016234031123569883 -0.0016349519017622161 0 0.016184300901553698 -0.0017052913358095681 0 0.0076190322161590789 -0.0012501017926127851 0 0.010543050945960348 -0.00046868684472691695 0 0.010497005036857158 -0.00032067964359448232 0 0.0046799577549754617 -0.0016568236092758231 0 0.0045526897881530328 -0.0016057739353459886 0 0.0045092095812431249 -0.0014738384934945728 0 0.011342907497092198 -0.0016001470053076882 0 0.0095095292908645278 -0.0012059123789270811 0 0.0095095292908645278 -0.0012059123789270811 0 0.009161965477239617 -0.0010550123453431032 0 0.0045441329700711772 -0.0015934471195759058 0 0.0045092095812431249 -0.0014738384934945728 0 0.0038954528336002238 -0.0012344253710069369 0 0.0045555302032677233 -0.0011308877020740095 0 0.0038954528336002238 -0.0012344253710069369 0 0.0041675986428091789 -0.00078008019896873087 0 0.0034057465818941347 -0.0011512644913126569 0 0.0045441329700711772 -0.0015934471195759058 0 0.0038954528336002238 -0.0012344253710069369 0 0.0029038933141798586 -0.0012352813985649063 0 0.0045873190659613773 -0.0011544824644262107 0 0.0048247991513469431 -0.0011214411578714565 0 0.0045092095812431249 -0.0014738384934945728 0 0.0038954528336002238 -0.0012344253710069369 0 0.0057604009847815989 -0.00017459207568359895 0 0.0095095292908645278 -0.0012059123789270811 0 0.0038954528336002238 -0.0012344253710069369 0 0.0037679501856612706 -0.00079386241035618468 0 0.0041675986428091789 -0.00078008019896873087 0 0.016247861498391556 -0.0017765270959335781 0 0.016274874880748351 -0.0017825713651420643 0 0.01622673340981394 -0.0017695496775953948 0 0.016549577443680349 -0.0019003289702262712 0 0.016271211683503997 -0.0017593891935432141 0 0.016274874880748351 -0.0017825713651420643 0 0.01622673340981394 -0.0017695496775953948 0 0.016168496323107927 -0.0017525172787474775 0 0.016251748593672413 -0.0017743304860262353 0 0.01622673340981394 -0.0017695496775953948 0 0.016184300901553698 -0.0017052913358095681 0 0.016251748593672413 -0.0017743304860262353 0 0.016234031123569883 -0.0016349519017622161 0 0.016184300901553698 -0.0017052913358095681 0 0.01622673340981394 -0.0017695496775953948 0 0.016184300901553698 -0.0017052913358095681 0 0.016146412837744588 -0.0017251923034490102 0 0.01622673340981394 -0.0017695496775953948 0 0.016168496323107927 -0.0017525172787474775 0 0.016146412837744588 -0.0017251923034490102 0 0.015926279626453321 -0.0015535570104726361 0 0.016675949736856439 -0.0026747323263604243 0 0.016053011846787629 -0.0016928812209275163 0 0.016166453461527112 -0.0017900294598022306 0 0.016168468921907764 -0.0017965599306953932 0 0.016053011846787629 -0.0016928812209275163 0 0.015815658280390971 -0.002566392927398829 0 0.015757693651869045 -0.0020778538882215724 0 0.016053011846787629 -0.0016928812209275163 0 0.016168496323107927 -0.0017525172787474775 0 0.016166453461527112 -0.0017900294598022306 0 0.016053011846787629 -0.0016928812209275163 0 0.016184300901553698 -0.0017052913358095681 0 0.016146412837744588 -0.0017251923034490102 0 0.016053011846787629 -0.0016928812209275163 0 0.016168496323107927 -0.0017525172787474775 0 0.016146412837744588 -0.0017251923034490102 0 0.015979539476071267 -0.0016436789220196013 0 0.016053011846787629 -0.0016928812209275163 0 0.015757693651869045 -0.0020778538882215724 0 0.016617672831055811 -0.002608316781330148 0 0.016675949736856439 -0.0026747323263604243 0 0.016168496323107927 -0.0017525172787474775 0 0.016166453461527112 -0.0017900294598022306 0 0.016203873356541047 -0.0017765644890604718 0 0.016274874880748351 -0.0017825713651420643 0 0.016168496323107927 -0.0017525172787474775 0 0.016203873356541047 -0.0017765644890604718 0 0.016274874880748351 -0.0017825713651420643 0 0.016203873356541047 -0.0017765644890604718 0 0.016241615931754865 -0.0018799901548563855 0 0.016166453461527112 -0.0017900294598022306 0 0.016149345601651498 -0.001797373284257888 0 0.016241615931754865 -0.0018799901548563855 0 0.016166453461527112 -0.0017900294598022306 0 0.016203873356541047 -0.0017765644890604718 0 0.016241615931754865 -0.0018799901548563855 0 0.015815658280390971 -0.002566392927398829 0 0.015224700939713245 -0.0023914732746223512 0 0.015017029178129526 -0.0029065461203626481 0 0.015815658280390971 -0.002566392927398829 0 0.015757693651869045 -0.0020778538882215724 0 0.015224700939713245 -0.0023914732746223512 0 0.016675949736856439 -0.0026747323263604243 0 0.016886904576164759 -0.0029827286394836839 0 0.015757693651869045 -0.0020778538882215724 0 0.01491278993953778 -0.0019061172236770818 0 0.015224700939713245 -0.0023914732746223512 0 0.015979539476071267 -0.0016436789220196013 0 0.015757693651869045 -0.0020778538882215724 0 0.01491278993953778 -0.0019061172236770818 0 0.012207297327664042 -0.0013268729471944383 0 0.0099275894557073457 -0.0019982571018913034 0 0.01491278993953778 -0.0019061172236770818 0 0.015224700939713245 -0.0023914732746223512 0 0.014574496607269298 -0.0024973703792174249 0 0.015224700939713245 -0.0023914732746223512 0 0.015017029178129526 -0.0029065461203626481 0 0.014574496607269298 -0.0024973703792174249 0 0.019562037234762169 -0.0027889221188560909 0 0.019748387514911269 -0.0022099251633023176 0 0.0189065512725596 -0.0021121951788492122 0 0.025211822501123356 -0.0017883332196310412 0 0.025186983976861005 -0.0020680947643644085 0 0.024812657599792388 -0.0020272782609794091 0 0.023104971329076157 -0.0021974952918840159 0 0.02132398459792571 -0.0016732724206232426 0 0.024944409820288522 -0.0016959604176315019 0 0.025211822501123356 -0.0017883332196310412 0 0.024812657599792388 -0.0020272782609794091 0 0.026024493311844751 -0.0009703576830832598 0 0.026013627739899015 -0.00096675458536955665 0 0.026046144240747457 -0.00097029172390701135 0 0.025459386137578643 -0.0014142391140228279 0 0.02132398459792571 -0.0016732724206232426 0 0.018521860128236887 -0.003278525115303607 0 0.019562037234762169 -0.0027889221188560909 0 0.0189065512725596 -0.0021121951788492122 0 0.016675949736856439 -0.0026747323263604243 0 0.02132398459792571 -0.0016732724206232426 0 0.016149345601651498 -0.001797373284257888 0 0.016105230073963445 -0.0020631587044131782 0 0.016241615931754865 -0.0018799901548563855 0 0.016105230073963445 -0.0020631587044131782 0 0.016241615931754865 -0.0018799901548563855 0 0.01644697970187689 -0.0021642921554534634 0 0.016274874880748351 -0.0017825713651420643 0 0.016241615931754865 -0.0018799901548563855 0 0.016392808981185288 -0.0019217467125165811 0 0.026013627739899015 -0.00096675458536955665 0 0.026046144240747457 -0.00097029172390701135 0 0.026029721382351989 -0.0010198557089205688 0 0.026079947594749603 -0.00095930742258853519 0 0.026046144240747457 -0.00097029172390701135 0 0.026029721382351989 -0.0010198557089205688 0 0.02132398459792571 -0.0016732724206232426 0 0.021314469567250402 -0.0015984682791968907 0 0.01664141551669648 -0.001874183710365074 0 0.01644697970187689 -0.0021642921554534634 0 0.016392808981185288 -0.0019217467125165811 0 0.016241615931754865 -0.0018799901548563855 0 0.01644697970187689 -0.0021642921554534634 0 0.016392808981185288 -0.0019217467125165811 0 0.01664141551669648 -0.001874183710365074 0 0.016274874880748351 -0.0017825713651420643 0 0.016392808981185288 -0.0019217467125165811 0 0.013574736199813295 -0.0024990715359151454 0 0.013132664978988779 -0.0027717725348295769 0 0.013579516062159659 -0.0028391415407965958 0 0.0082813397490969828 -0.002206500047345481 0 0.008078457131451066 -0.0019539581842671731 0 0.0070788623352118591 -0.002545615962994352 0 0.0082813397490969828 -0.002206500047345481 0 0.008078457131451066 -0.0019539581842671731 0 0.0090767805948503005 -0.0013742846057944972 0 0.013574736199813295 -0.0024990715359151454 0 0.013983068412017194 -0.0027194116558696088 0 0.013579516062159659 -0.0028391415407965958 0 0.011164185990917065 -0.002080793878952106 0 0.012437464058114987 -0.002126536705179068 0 0.0082813397490969828 -0.002206500047345481 0 0.0090767805948503005 -0.0013742846057944972 0 0.009477775654573712 -0.0018750366561085842 0 0.0046231389724515565 -0.0021766673564694206 0 0.0075311349971954227 -0.001610084590905814 0 0.012437464058114987 -0.002126536705179068 0 0.0075311349971954227 -0.001610084590905814 0 0.012231770863610476 -0.0014992066630744663 0 0.012257094829344468 -0.0015011309784182471 0 0.012238987483295185 -0.0015183515523289018 0 0.002304067478348899 -0.001841175786617998 0 0.0023162069252260172 -0.0018437422763775873 0 0.0023682354222471858 -0.0018100791261937269 0 0.0046231389724515565 -0.0021766673564694206 0 0.0068075297316531839 -0.0021664267349659032 0 0.002304067478348899 -0.001841175786617998 0 0.0023162069252260172 -0.0018437422763775873 0 0.0023011866571665631 -0.0018558440031776514 0 0.0022725388016972504 -0.0018426806851633451 0 0.0023162069252260172 -0.0018437422763775873 0 0.0023011866571665631 -0.0018558440031776514 0 0.002304067478348899 -0.001841175786617998 0 0.0023011866571665631 -0.0018558440031776514 0 0.0023716908213151961 -0.0019774355096111307 0 0.0022725388016972504 -0.0018426806851633451 0 0.0023011866571665631 -0.0018558440031776514 0 0.0023303569843478489 -0.0018125520736551346 0 0.0023011866571665631 -0.0018558440031776514 0 0.0023303569843478489 -0.0018125520736551346 0 0.0023716908213151961 -0.0019774355096111307 0 0.0024295686936994586 -0.0016404578420393594 0 0.0023303569843478489 -0.0018125520736551346 0 0.0023716908213151961 -0.0019774355096111307 0 0.0024295686936994586 -0.0016404578420393594 0 0.0023716908213151961 -0.0019774355096111307 0 0.0030178493330578629 -0.0019668299276073666 0 0.0068075297316531839 -0.0021664267349659032 0 0.0020124360288947107 -0.0027798657371537524 0 0.0099275894557073457 -0.0019982571018913034 0 0.0068075297316531839 -0.0021664267349659032 0 0.0046653299474912783 -0.0020141301892388978 0 0.0017161440948030961 -0.0026615744990474153 0 0.0030178493330578629 -0.0019668299276073666 0 0.01491278993953778 -0.0019061172236770818 0 0.014017511387235991 -0.0021988923393639758 0 0.014574496607269298 -0.0024973703792174249 0 0.0039505880545608668 -0.0011831291877775077 0 0.0046653299474912783 -0.0020141301892388978 0 0.0030178493330578629 -0.0019668299276073666 0 0.013574736199813295 -0.0024990715359151454 0 0.014017511387235991 -0.0021988923393639758 0 0.013983068412017194 -0.0027194116558696088 0 0.014017511387235991 -0.0021988923393639758 0 0.014574496607269298 -0.0024973703792174249 0 0.013983068412017194 -0.0027194116558696088 0 0.011164185990917065 -0.002080793878952106 0 0.0068075297316531839 -0.0021664267349659032 0 0.016927436180912657 -0.002468549437246574 0 0.019993953327882792 -0.0025592240219335675 0 0.013983068412017194 -0.0027194116558696088 0 0.013837225096626915 -0.0031372096116620558 0 0.014319668881395325 -0.0032081524339452232 0 0.015017029178129526 -0.0029065461203626481 0 0.014574496607269298 -0.0024973703792174249 0 0.014319668881395325 -0.0032081524339452232 0 0.019562037234762169 -0.0027889221188560909 0 0.019748387514911269 -0.0022099251633023176 0 0.020576568180686622 -0.0022981163246833772 0 0.014574496607269298 -0.0024973703792174249 0 0.013983068412017194 -0.0027194116558696088 0 0.014319668881395325 -0.0032081524339452232 0 0.016886904576164759 -0.0029827286394836839 0 0.019993953327882792 -0.0025592240219335675 0 0.023104971329076157 -0.0021974952918840159 0 0.019993953327882792 -0.0025592240219335675 0 0.025211822501123356 -0.0017883332196310412 0 0.025186983976861005 -0.0020680947643644085 0 0.025539606846952761 -0.0021075119685296543 0 0.025490046954948536 -0.0016572624487907284 0 0.025211822501123356 -0.0017883332196310412 0 0.025539606846952761 -0.0021075119685296543 0 0.019993953327882792 -0.0025592240219335675 0 0.027030110394216787 -0.0018286856286677936 0 0.032644535325321022 -0.00062092246694318062 0 0.032462143476962628 -0.00052198604779920199 0 0.032483893341980929 -0.00051226053215164345 0 0.029285530853266597 -0.0011537975514411319 0 0.027030110394216787 -0.0018286856286677936 0 0.020980129114244638 -0.0019815341071874695 0 0.021149798899119557 -0.0020135405218614242 0 0.020967571441475395 -0.0021014072178647939 0 0.025490046954948536 -0.0016572624487907284 0 0.025539606846952761 -0.0021075119685296543 0 0.025908820485344486 -0.0019359593093921414 0 0.026912693726533366 -0.0010346292601387289 0 0.026210229035840325 -0.00019137246049310083 0 0.024904610761290375 -0.00199712627573484 0 0.029028708976814182 -0.0012882488953397657 0 0.0289554861098014 -5.9503237953466529e-06 0 0.032749921698204433 -0.00066502315205992243 0 0.032732395362940987 -0.00074940731586558911 0 0.032804780715912044 -0.00070319846521985129 0 0.020980129114244638 -0.0019815341071874695 0 0.020868794801531566 -0.0020491692913882334 0 0.020967571441475395 -0.0021014072178647939 0 0.029028708976814182 -0.0012882488953397657 0 0.027030110394216787 -0.0018286856286677936 0 0.027125746938526332 -0.002773471280140655 0 0.025252422422875995 -0.00049904186438820216 0 0.028089578731069036 -0.0023116572168325297 0 0.024163285550192436 -0.001075480783305239 0 0.027030110394216787 -0.0018286856286677936 0 0.029028708976814182 -0.0012882488953397657 0 0.024163285550192436 -0.001075480783305239 0 0.020980129114244638 -0.0019815341071874695 0 0.020868794801531566 -0.0020491692913882334 0 0.020767606856122247 -0.0019381191009745873 0 0.016927436180912657 -0.002468549437246574 0 0.018115551879693638 -0.0014984677634410845 0 0.013837225096626915 -0.0031372096116620558 0 0.013579516062159659 -0.0028391415407965958 0 0.013386898903410903 -0.0030716458208743841 0 0.024163285550192436 -0.001075480783305239 0 0.018115551879693638 -0.0014984677634410845 0 0.013983068412017194 -0.0027194116558696088 0 0.013837225096626915 -0.0031372096116620558 0 0.013579516062159659 -0.0028391415407965958 0 0.013132664978988779 -0.0027717725348295769 0 0.013579516062159659 -0.0028391415407965958 0 0.013386898903410903 -0.0030716458208743841 0 0.012231770863610476 -0.0014992066630744663 0 0.012257629261734144 -0.0014856548913476338 0 0.012257094829344468 -0.0015011309784182471 0 0.019647910329285954 -0.00095080236858237647 0 0.018468064227291275 -0.00081750461210549285 0 0.01866858790521507 -0.00032285876777024281 0 0.020117742458110772 -0.00070936077181362942 0 0.016103384924725798 -0.0010774639817279677 0 0.016282896110861436 -0.0006704171065222322 0 0.016503625654493537 -0.0018934839556260699 0 0.015398367431343249 -0.0011872490798227875 0 0.012437464058114987 -0.002126536705179068 0 0.016103384924725798 -0.0010774639817279677 0 0.016282896110861436 -0.0006704171065222322 0 0.016503625654493537 -0.0018934839556260699 0 0.017380176714856962 -0.0019898640492548368 0 0.012437464058114987 -0.002126536705179068 0 0.018115551879693638 -0.0014984677634410845 0 0.024163285550192436 -0.001075480783305239 0 0.020117742458110772 -0.00070936077181362942 0 0.0224967533050918 -0.0018482345654735753 0 0.019668405563887874 -4.3642671750178994e-05 0 0.021139377866290335 -0.00020413273526061001 0 0.020117742458110772 -0.00070936077181362942 0 0.018115551879693638 -0.0014984677634410845 0 0.020117742458110772 -0.00070936077181362942 0 0.02107370564479236 0.00018774785474826537 0 0.025478515969520065 0.0011857044917460795 0 0.025157179688270307 0.0012807598110040018 0 0.025216292334173565 0.0014882448474524586 0 0.02412420915501973 0.0011275482759554169 0 0.024904610761290375 -0.00199712627573484 0 0.022476256957011772 0.0013031302390010718 0 0.026210229035840325 -0.00019137246049310083 0 0.02412420915501973 0.0011275482759554169 0 0.024904610761290375 -0.00199712627573484 0 0.0289554861098014 -5.9503237953466529e-06 0 0.02107370564479236 0.00018774785474826537 0 0.025157179688270307 0.0012807598110040018 0 0.024921129151672331 0.0013490039797109487 0 0.02514763244033958 0.0014932245703035791 0 0.024922062091001312 0.0011605259933993211 0 0.025157179688270307 0.0012807598110040018 0 0.024921129151672331 0.0013490039797109487 0 0.024396728135160334 0.0011239201085845038 0 0.024089267459938779 0.00095239485830077297 0 0.024536469772028672 0.00097310746794463234 0 0.017816070874709874 -0.0021669389888854013 0 0.017217644386850681 -0.00164613299589833 0 0.015609292074871202 -0.0019508331043712147 0 0.017217644386850681 -0.00164613299589833 0 0.016938200381247902 -0.0012927767268834662 0 0.015609292074871202 -0.0019508331043712147 0 0.021692224739853529 0.00035985605728191031 0 0.019986293927474974 -0.0006048991922181355 0 0.025210722214148093 0.0014969921074922748 0 0.021692224739853529 0.00035985605728191031 0 0.025157179688270307 0.0012807598110040018 0 0.02514763244033958 0.0014932245703035791 0 0.025216292334173565 0.0014882448474524586 0 0.021692224739853529 0.00035985605728191031 0 0.02107370564479236 0.00018774785474826537 0 0.017816070874709874 -0.0021669389888854013 0 0.017217644386850681 -0.00164613299589833 0 0.017597392778872047 -0.0014096136727470791 0 0.016103384924725798 -0.0010774639817279677 0 0.014601722798697826 -0.0011776731483166003 0 0.017816070874709874 -0.0021669389888854013 0 0.018059319669071504 -0.0020239505334832724 0 0.017597392778872047 -0.0014096136727470791 0 0.016885074200604738 -0.0019319071547239527 0 0.017584151542322384 -0.0015235548115801088 0 0.015732282888826044 -0.00034323762809921568 0 0.019194382129240125 -0.00050529726007012379 0 0.014601722798697826 -0.0011776731483166003 0 0.020334483868644847 0.00046465017745764823 0 0.020464486343604375 0.00044741740607475225 0 0.020417658329720128 0.0005124997117082374 0 0.021692224739853529 0.00035985605728191031 0 0.019194382129240125 -0.00050529726007012379 0 0.018468064227291275 -0.00081750461210549285 0 0.018276126611079992 -0.00055191764724224111 0 0.01866858790521507 -0.00032285876777024281 0 0.02107370564479236 0.00018774785474826537 0 0.019194382129240125 -0.00050529726007012379 0 0.019194382129240125 -0.00050529726007012379 0 0.016103384924725798 -0.0010774639817279677 0 0.0075311349971954227 -0.001610084590905814 0 0.012163528752027206 -0.00116344713097743 0 0.012257094829344468 -0.0015011309784182471 0 0.012238987483295185 -0.0015183515523289018 0 0.012283072012640501 -0.0015057822962274861 0 0.012257629261734144 -0.0014856548913476338 0 0.012257094829344468 -0.0015011309784182471 0 0.012278314194623345 -0.0014979552691710971 0 0.0084315981131842053 -0.0021928810581115649 0 0.0074708057646991725 -0.0024573503974736426 0 0.0074202946108681044 -0.00098495039783814031 0 0.012257094829344468 -0.0015011309784182471 0 0.012283072012640501 -0.0015057822962274861 0 0.012278314194623345 -0.0014979552691710971 0 0.013393748283947732 -0.00021395284538735081 0 0.012734548557053247 -0.00039248223918619465 0 0.014197928888641619 -0.0013320446657217858 0 0.012163528752027206 -0.00116344713097743 0 0.014180630324183841 -0.0010106153867573599 0 0.012163528752027206 -0.00116344713097743 0 0.014601722798697826 -0.0011776731483166003 0 0.017217644386850681 -0.00164613299589833 0 0.017261024673037712 -0.0012000860957007576 0 0.017597392778872047 -0.0014096136727470791 0 0.014180630324183841 -0.0010106153867573599 0 0.014601722798697826 -0.0011776731483166003 0 0.017254604982611856 -0.0012046008441894639 0 0.016938200381247902 -0.0012927767268834662 0 0.015687210274575591 -0.00023289586389738906 0 0.014180630324183841 -0.0010106153867573599 0 0.013459393984450958 -0.00069490058630868609 0 0.016015230202032493 -0.0011120650027354058 0 0.016938200381247902 -0.0012927767268834662 0 0.015687210274575591 -0.00023289586389738906 0 0.012023030240076622 -0.0017137844978176416 0 0.011895424362170509 -0.0017486834567302741 0 0.011239647276637775 -0.00065610682116415083 0 0.016015230202032493 -0.0011120650027354058 0 0.016938200381247902 -0.0012927767268834662 0 0.015609292074871202 -0.0019508331043712147 0 0.017217644386850681 -0.00164613299589833 0 0.017261024673037712 -0.0012000860957007576 0 0.016938200381247902 -0.0012927767268834662 0 0.011895424362170509 -0.0017486834567302741 0 0.011239647276637775 -0.00065610682116415083 0 0.010563870274897094 -0.00090055397259555597 0 0.012163528752027206 -0.00116344713097743 0 0.0088001991807420028 -0.00087256992626978268 0 0.014180630324183841 -0.0010106153867573599 0 0.015542434400535517 -0.00081488792787118432 0 0.0088001991807420028 -0.00087256992626978268 0 0.0064211526115669614 -0.00047568941046952366 0 0.0064977335483296537 -0.0011506730165546091 0 0.0074202946108681044 -0.00098495039783814031 0 0.00639720766485733 0.00023074451959682264 0 0.0074708057646991725 -0.0024573503974736426 0 0.0064977335483296537 -0.0011506730165546091 0 0.0074202946108681044 -0.00098495039783814031 0 0.0023162069252260172 -0.0018437422763775873 0 0.0023682354222471858 -0.0018100791261937269 0 0.0023789839816622592 -0.0018384607903874882 0 0.0023162069252260172 -0.0018437422763775873 0 0.0023789839816622592 -0.0018384607903874882 0 0.0023383024486063903 -0.001867458803217805 0 0.0075311349971954227 -0.001610084590905814 0 0.0049435619623847335 -0.0014434303535552256 0 0.014120516214819814 0.00074826247034186504 0 0.015687210274575591 -0.00023289586389738906 0 0.014408934199208885 -0.00052277614040421112 0 0.013803239227969595 0.000627184673573982 0 0.014120516214819814 0.00074826247034186504 0 0.014408934199208885 -0.00052277614040421112 0 0.013803239227969595 0.000627184673573982 0 0.014408934199208885 -0.00052277614040421112 0 0.013245017110818927 -0.00034560852209031333 0 0.012170176181359949 0.00071573788357520035 0 0.010265629529824226 0.0001723421853704999 0 0.011239647276637775 -0.00065610682116415083 0 0.010563870274897094 -0.00090055397259555597 0 0.010467523207127591 0.00037563949528691281 0 0.010265629529824226 0.0001723421853704999 0 0.013459393984450958 -0.00069490058630868609 0 0.0092702617051010211 -7.1707150688442691e-05 0 0.010563870274897094 -0.00090055397259555597 0 0.010467523207127591 0.00037563949528691281 0 0.016015230202032493 -0.0011120650027354058 0 0.015687210274575591 -0.00023289586389738906 0 0.014408934199208885 -0.00052277614040421112 0 0.016015230202032493 -0.0011120650027354058 0 0.014408934199208885 -0.00052277614040421112 0 0.015609292074871202 -0.0019508331043712147 0 0.014408934199208885 -0.00052277614040421112 0 0.013376044455035286 -0.0017174942006134128 0 0.013245017110818927 -0.00034560852209031333 0 0.014408934199208885 -0.00052277614040421112 0 0.015609292074871202 -0.0019508331043712147 0 0.013376044455035286 -0.0017174942006134128 0 0.024653659502311503 0.0010760953107551471 0 0.024536469772028672 0.00097310746794463234 0 0.024672256126465269 0.0010703826887531957 0 0.019986293927474974 -0.0006048991922181355 0 0.018673162874416293 -0.00040193736494942295 0 0.024653659502311503 0.0010760953107551471 0 0.024686916519863007 0.0010928140869342269 0 0.024672256126465269 0.0010703826887531957 0 0.024396728135160334 0.0011239201085845038 0 0.024536469772028672 0.00097310746794463234 0 0.024694893126924466 0.0011743940293683993 0 0.024653659502311503 0.0010760953107551471 0 0.024536469772028672 0.00097310746794463234 0 0.024694893126924466 0.0011743940293683993 0 0.025210722214148093 0.0014969921074922748 0 0.02447669962609816 0.0010754646727220575 0 0.024922062091001312 0.0011605259933993211 0 0.024921129151672331 0.0013490039797109487 0 0.024694893126924466 0.0011743940293683993 0 0.024653659502311503 0.0010760953107551471 0 0.024694893126924466 0.0011743940293683993 0 0.024686916519863007 0.0010928140869342269 0 0.024711720052174951 0.0011100239671214889 0 0.024694893126924466 0.0011743940293683993 0 0.024686916519863007 0.0010928140869342269 0 0.024686916519863007 0.0010928140869342269 0 0.024706028002053612 0.0011081461108347313 0 0.02465490497043097 0.0010842654167972879 0 0.024711720052174951 0.0011100239671214889 0 0.024686916519863007 0.0010928140869342269 0 0.024706028002053612 0.0011081461108347313 0 0.024706028002053612 0.0011081461108347313 0 0.02465490497043097 0.0010842654167972879 0 0.024715880586074563 0.0011074668471164311 0 0.018673162874416293 -0.00040193736494942295 0 0.019642754723460155 0.00064477655652148385 0 0.02465490497043097 0.0010842654167972879 0 0.024715880586074563 0.0011074668471164311 0 0.024669021347072641 0.001072803697043078 0 0.02465490497043097 0.0010842654167972879 0 0.024672256126465269 0.0010703826887531957 0 0.024563600435734457 0.0011317362163337948 0 0.025527924986860424 0.00032831420871136759 0 0.019642754723460155 0.00064477655652148385 0 0.024686916519863007 0.0010928140869342269 0 0.02465490497043097 0.0010842654167972879 0 0.024672256126465269 0.0010703826887531957 0 0.03126594037868391 0.003723025275872181 0 0.032064354646406036 0.0031520185220964836 0 0.033078273269190328 0.0033475993611269926 0 0.03269450194998666 0.0034971063432996355 0 0.032781360603332851 0.003825019646286332 0 0.03248136455407593 0.0030965881582425306 0 0.032064354646406036 0.0031520185220964836 0 0.031467041998383148 0.004210030133326147 0 0.03269450194998666 0.0034971063432996355 0 0.032781360603332851 0.003825019646286332 0 0.03132404684944113 0.0046965783757443062 0 0.031413159562904823 0.0046300723023041859 0 0.031322703733942157 0.0045935458686902041 0 0.024744403877612665 0.001115915392030482 0 0.024706028002053612 0.0011081461108347313 0 0.024715880586074563 0.0011074668471164311 0 0.030606435544756967 0.0029890708051514277 0 0.028140965660095552 0.0030636973624201006 0 0.031413159562904823 0.0046300723023041859 0 0.031322703733942157 0.0045935458686902041 0 0.031415189982546832 0.004528785771427405 0 0.030606435544756967 0.0029890708051514277 0 0.03216248759708322 0.0041815569451665521 0 0.033078273269190328 0.0033475993611269926 0 0.033512737763178931 0.0032075281235063834 0 0.032781360603332851 0.003825019646286332 0 0.028140965660095552 0.0030636973624201006 0 0.021997029455782052 0.0014869330003698061 0 0.024715880586074563 0.0011074668471164311 0 0.024677724843105396 0.0010750409461592234 0 0.024669021347072641 0.001072803697043078 0 0.031322703733942157 0.0045935458686902041 0 0.031415189982546832 0.004528785771427405 0 0.031290254710402879 0.0044367797083181984 0 0.031415189982546832 0.004528785771427405 0 0.03147236473191381 0.0044860796310989192 0 0.031290254710402879 0.0044367797083181984 0 0.031413159562904823 0.0046300723023041859 0 0.031415189982546832 0.004528785771427405 0 0.031564990030126604 0.0045044066877566501 0 0.03216248759708322 0.0041815569451665521 0 0.031673582208576911 0.004486481890214381 0 0.031415189982546832 0.004528785771427405 0 0.031564990030126604 0.0045044066877566501 0 0.03147236473191381 0.0044860796310989192 0 0.031467041998383148 0.004210030133326147 0 0.032781360603332851 0.003825019646286332 0 0.031564990030126604 0.0045044066877566501 0 0.022606942391779301 0.0038490911510808564 0 0.0066678846210984043 0.0012831721163267251 0 0.019903604065314131 0.0024223855891300199 0 0.01837849977046279 0.0025631864961109131 0 0.018157538737672188 0.0013532051842493778 0 0.014682425590842567 0.0044958447078117369 0 0.014001008788590782 0.0025300795359219173 0 0.0090471964450598644 0.0010071125346110272 0 0.010206340652628229 0.0021669314871083857 0 0.0066678846210984043 0.0012831721163267251 0 0.022606942391779301 0.0038490911510808564 0 0.025610930672106392 0.0033589202892157295 0 0.031342315554685751 0.0046547181896189459 0 0.031564990030126604 0.0045044066877566501 0 0.03147236473191381 0.0044860796310989192 0 0.01837849977046279 0.0025631864961109131 0 0.017665296866442953 0.0020359565534923672 0 0.018157538737672188 0.0013532051842493778 0 0.017665296866442953 0.0020359565534923672 0 0.017982917936574215 0.0013027136782279619 0 0.018157538737672188 0.0013532051842493778 0 0.016388121605226468 0.00066953515728192139 0 0.0085208991626953678 0.00076079325604136634 0 0.017665296866442953 0.0020359565534923672 0 0.016903816008979691 0.0022568586223786786 0 0.017982917936574215 0.0013027136782279619 0 0.011612867969088263 -0.00042504065802831457 0 0.011581940715588724 0.0010148933721869822 0 0.010335237107923539 0.00063932503700754183 0 0.017665296866442953 0.0020359565534923672 0 0.016903816008979691 0.0022568586223786786 0 0.016909032163631869 0.0026937549711318811 0 0.025610930672106392 0.0033589202892157295 0 0.021997029455782052 0.0014869330003698061 0 0.01837849977046279 0.0025631864961109131 0 0.017665296866442953 0.0020359565534923672 0 0.016909032163631869 0.0026937549711318811 0 0.016388121605226468 0.00066953515728192139 0 0.021997029455782052 0.0014869330003698061 0 0.010884113497940115 -0.0010540052231687721 0 0.011300609027447124 -0.0014272982148868295 0 0.011277196510243434 -0.00072466505797953197 0 0.018380614801289073 0.00074199095136169969 0 0.018389128690470966 -5.2296584954983671e-05 0 0.019455040051645896 -0.00016956290719850826 0 0.021997029455782052 0.0014869330003698061 0 0.019642754723460155 0.00064477655652148385 0 0.016388121605226468 0.00066953515728192139 0 0.019642754723460155 0.00064477655652148385 0 0.010884113497940115 -0.0010540052231687721 0 0.011277196510243434 -0.00072466505797953197 0 0.010869654475338405 -0.00016857168569604065 0 0.016388121605226468 0.00066953515728192139 0 0.0080336493036582916 -0.00079220431535918594 0 0.0090683359354409351 -0.00070460838580254422 0 0.010937371626830485 0.0013451770216730405 0 0.0090568414898628824 0.00083110139623346541 0 0.0080336493036582916 -0.00079220431535918594 0 0.0019469918577097558 0.0006023894461322564 0 -0.0014952554471412585 -0.00010144993676434571 0 -0.0015283206158695558 -7.1112088220412725e-05 0 -0.0015824813942030209 -7.599391543220373e-05 0 -0.0014952554471412585 -0.00010144993676434571 0 -0.0015824813942030209 -7.599391543220373e-05 0 -0.0014948994150797562 -7.9767222570306326e-05 0 -0.0016834867972567076 5.2874109378553309e-05 0 -0.0014952554471412585 -0.00010144993676434571 0 -0.0016100926709835181 -0.00035178771173410638 0 -0.00036705252806621785 -0.00080010128267080918 0 0.0019469918577097558 0.0006023894461322564 0 0.0080336493036582916 -0.00079220431535918594 0 0.0085208991626953678 0.00076079325604136634 0 -0.0015283206158695558 -7.1112088220412725e-05 0 -0.0014832930011559385 -3.4883353766320096e-05 0 -0.0015487296646204854 -9.5213860449356349e-05 0 -0.0018332718531282389 -0.0014316825442317722 0 0.0066678846210984043 0.0012831721163267251 0 -0.0016834867972567076 5.2874109378553309e-05 0 -0.0014832930011559385 -3.4883353766320096e-05 0 -0.00087935940441067251 0.00040281832654681714 0 -0.0014952554471412585 -0.00010144993676434571 0 -0.0015283206158695558 -7.1112088220412725e-05 0 -0.0014832930011559385 -3.4883353766320096e-05 0 -0.0016834867972567076 5.2874109378553309e-05 0 -0.0014952554471412585 -0.00010144993676434571 0 -0.0014832930011559385 -3.4883353766320096e-05 0 0.0072264359865494851 0.0020315903267860719 0 0.0071943325163674977 0.002366447269944204 0 0.0074620472864107374 0.0021036856242054769 0 -0.0014832930011559385 -3.4883353766320096e-05 0 -0.00087935940441067251 0.00040281832654681714 0 -0.00073926900942900139 0.00044930766512650989 0 -0.0015283206158695558 -7.1112088220412725e-05 0 -0.0015487296646204854 -9.5213860449356349e-05 0 -0.0015939690220055141 -5.5161457422896574e-05 0 0.0085208991626953678 0.00076079325604136634 0 0.0066678846210984043 0.0012831721163267251 0 -0.0015283206158695558 -7.1112088220412725e-05 0 -0.0015939690220055141 -5.5161457422896574e-05 0 -0.0015824813942030209 -7.599391543220373e-05 0 -0.0015592638626979623 -1.8630983215470825e-05 0 -0.0015487296646204854 -9.5213860449356349e-05 0 -0.0015939690220055141 -5.5161457422896574e-05 0 0.0026130883756092967 0.0012622246218294169 0 0.0066678846210984043 0.0012831721163267251 0 0.013376044455035286 -0.0017174942006134128 0 0.011964982593709051 -0.00046142426187565971 0 0.013245017110818927 -0.00034560852209031333 0 0.013376044455035286 -0.0017174942006134128 0 0.011300609027447124 -0.0014272982148868295 0 0.011964982593709051 -0.00046142426187565971 0 0.011300609027447124 -0.0014272982148868295 0 0.011277196510243434 -0.00072466505797953197 0 0.011964982593709051 -0.00046142426187565971 0 0.0080336493036582916 -0.00079220431535918594 0 0.013351899762821157 0.00063002140129906096 0 0.0090683359354409351 -0.00070460838580254422 0 0.012630980466938767 0.00049125285766782334 0 0.010937371626830485 0.0013451770216730405 0 0.011277196510243434 -0.00072466505797953197 0 0.010869654475338405 -0.00016857168569604065 0 0.011964982593709051 -0.00046142426187565971 0 0.010869654475338405 -0.00016857168569604065 0 0.011964982593709051 -0.00046142426187565971 0 0.012630980466938767 0.00049125285766782334 0 0.011964982593709051 -0.00046142426187565971 0 0.012630980466938767 0.00049125285766782334 0 0.013245017110818927 -0.00034560852209031333 0 0.013803239227969595 0.000627184673573982 0 0.012630980466938767 0.00049125285766782334 0 0.013245017110818927 -0.00034560852209031333 0 0.013803239227969595 0.000627184673573982 0 0.012630980466938767 0.00049125285766782334 0 0.012662086389182474 0.0019620192803720179 0 0.010265629529824226 0.0001723421853704999 0 0.0090424501119355308 0.00063398436735414036 0 0.012630980466938767 0.00049125285766782334 0 0.012662086389182474 0.0019620192803720179 0 0.010937371626830485 0.0013451770216730405 0 0.012662086389182474 0.0019620192803720179 0 0.010937371626830485 0.0013451770216730405 0 0.010568165467356528 0.0033476934628136282 0 0.010937371626830485 0.0013451770216730405 0 0.010568165467356528 0.0033476934628136282 0 0.0090568414898628824 0.00083110139623346541 0 0.0030025291515383429 0.0011991571274092459 0 -0.00022168204770456882 0.00067345942940001875 0 0.0090424501119355308 0.00063398436735414036 0 0.0030025291515383429 0.0011991571274092459 0 0.0034630566269098256 0.00034187692074732476 0 0.0045355607314142539 0.00052329234683062343 0 0.0041510929202293175 0.0015377123998782292 0 0.0044909345341146885 -0.00030110850441875873 0 0.0034630566269098256 0.00034187692074732476 0 0.0045355607314142539 0.00052329234683062343 0 0.0044909345341146885 -0.00030110850441875873 0 0.0045355607314142539 0.00052329234683062343 0 0.0053036910393911329 -2.7465200594618162e-05 0 -0.0023084199838642803 5.9098702285034795e-05 0 -0.0017304373949151093 -4.6912058512562228e-05 0 -0.0018810855287353838 0.00022132668160596675 0 -0.0022843990267138953 6.1182451762431444e-05 0 -0.0016368815614805615 -6.8048937786640521e-05 0 -0.0015592638626979623 -1.8630983215470825e-05 0 -0.0015939690220055141 -5.5161457422896574e-05 0 -0.0017304373949151093 -4.6912058512562228e-05 0 -0.0015592638626979623 -1.8630983215470825e-05 0 -0.0015392226978992673 -0.00013902748421244966 0 -0.0017304373949151093 -4.6912058512562228e-05 0 -0.0017304373949151093 -4.6912058512562228e-05 0 -0.0016259423888196228 2.9589692183824188e-05 0 -0.0015824813942030209 -7.599391543220373e-05 0 -0.0015939690220055141 -5.5161457422896574e-05 0 -0.0017304373949151093 -4.6912058512562228e-05 0 -0.0015824813942030209 -7.599391543220373e-05 0 -0.0017304373949151093 -4.6912058512562228e-05 0 -0.0016259423888196228 2.9589692183824188e-05 0 -0.0018810855287353838 0.00022132668160596675 0 0.0030025291515383429 0.0011991571274092459 0 0.0019469918577097558 0.0006023894461322564 0 -0.0011625991058272938 0.0002782134691315051 0 -0.0014868915728849222 -5.326968974644468e-05 0 -0.0014879824007144624 -0.00017261289267001556 0 -0.0016259423888196228 2.9589692183824188e-05 0 -0.0014868915728849222 -5.326968974644468e-05 0 -0.0015790121005560302 0.00020552168473746021 0 -0.0015824813942030209 -7.599391543220373e-05 0 -0.0014868915728849222 -5.326968974644468e-05 0 -0.0014948994150797562 -7.9767222570306326e-05 0 -0.0016259423888196228 2.9589692183824188e-05 0 -0.0015824813942030209 -7.599391543220373e-05 0 -0.0014868915728849222 -5.326968974644468e-05 0 0.0011422107568612645 0.00017622622375683422 0 0.0019469918577097558 0.0006023894461322564 0 -0.0011625991058272938 0.0002782134691315051 0 -0.0014868915728849222 -5.326968974644468e-05 0 -0.0015790121005560302 0.00020552168473746021 0 -0.0015790121005560302 0.00020552168473746021 0 -0.0018810855287353838 0.00022132668160596675 0 -0.0017917526942041321 0.00060499964864514145 0 -0.0011625991058272938 0.0002782134691315051 0 -0.0015790121005560302 0.00020552168473746021 0 -0.0017917526942041321 0.00060499964864514145 0 0.0030025291515383429 0.0011991571274092459 0 -0.0031017320219855963 0.00067504703126352054 0 -0.0023641082938307138 0.00029508691514986085 0 -0.0026988683514366459 0.00052014051138868497 0 -0.0024471222071499044 0.00052257773099846313 0 -0.0016259423888196228 2.9589692183824188e-05 0 -0.0015790121005560302 0.00020552168473746021 0 -0.0018810855287353838 0.00022132668160596675 0 -0.0018810855287353838 0.00022132668160596675 0 -0.002192033686341837 0.0003825091454930183 0 -0.0017917526942041321 0.00060499964864514145 0 -0.0023084199838642803 5.9098702285034795e-05 0 -0.0018810855287353838 0.00022132668160596675 0 -0.002192033686341837 0.0003825091454930183 0 -0.002245989461073536 0.00053141484435506234 0 -0.0031017320219855963 0.00067504703126352054 0 -0.0026247096717246232 0.00065366830597559148 0 -0.0024209624777716734 0.00054425938627025272 0 -0.0017917526942041321 0.00060499964864514145 0 -0.0026247096717246232 0.00065366830597559148 0 -0.0026988683514366459 0.00052014051138868497 0 -0.002722791740054032 0.00059941426734841396 0 -0.0024209624777716734 0.00054425938627025272 0 -0.002192033686341837 0.0003825091454930183 0 -0.0017917526942041321 0.00060499964864514145 0 -0.0026988683514366459 0.00052014051138868497 0 -0.0025740508866230636 0.00067816020542532814 0 -0.0024471222071499044 0.00052257773099846313 0 -0.0026988683514366459 0.00052014051138868497 0 -0.0025740508866230636 0.00067816020542532814 0 -0.002722791740054032 0.00059941426734841396 0 -0.0031026025385484527 0.00049301601165021376 0 -0.003278609462761923 0.00069700807937623111 0 -0.0028482663950331675 0.0005662150187442309 0 -0.0034561179409817772 0.00080092111770040531 0 -0.0026221282237813338 0.0005052886266412865 0 -0.0025740508866230636 0.00067816020542532814 0 -0.002722791740054032 0.00059941426734841396 0 -0.0028482663950331675 0.0005662150187442309 0 -0.0026247096717246232 0.00065366830597559148 0 -0.002722791740054032 0.00059941426734841396 0 -0.0028482663950331675 0.0005662150187442309 0 -0.00022168204770456882 0.00067345942940001875 0 0.0030056815310350593 -0.00015172273572231889 0 0.0045355607314142539 0.00052329234683062343 0 0.0041510929202293175 0.0015377123998782292 0 0.0056336885064808065 0.00086350587226783639 0 -0.00015985280190638872 0.00025158218690811201 0 0.00078708976141594336 0.0001627690827657866 0 0.0011687178355458024 -0.0003529370299033715 0 -0.00015985280190638872 0.00025158218690811201 0 0.00037930815606694606 0.0011659562550048865 0 0.00078708976141594336 0.0001627690827657866 0 -0.0025740508866230636 0.00067816020542532814 0 -0.0022075147617445839 0.00058913164311476837 0 -0.0024471222071499044 0.00052257773099846313 0 -0.0034561179409817772 0.00080092111770040531 0 -0.00022168204770456882 0.00067345942940001875 0 -0.0023641082938307138 0.00029508691514986085 0 -0.0022075147617445839 0.00058913164311476837 0 -0.0024471222071499044 0.00052257773099846313 0 -0.0033961609255308712 0.00044238118989814673 0 -0.003278609462761923 0.00069700807937623111 0 -0.0034886069557744323 0.0005778229436954385 0 -0.003278609462761923 0.00069700807937623111 0 -0.0035435847008790508 0.00080237055750975305 0 -0.0034886069557744323 0.0005778229436954385 0 -0.00022168204770456882 0.00067345942940001875 0 -0.0020096212143540962 0.00015723432005810024 0 -0.0035435847008790508 0.00080237055750975305 0 -0.0034886069557744323 0.0005778229436954385 0 -0.0036814364838293808 0.00058513209944461892 0 -0.0020096212143540962 0.00015723432005810024 0 -0.00045274205643313812 -8.0993719562549873e-05 0 -0.0023572319447284044 -0.00022493648421943973 0 -0.0021764065262913118 -0.00018033462255211073 0 -0.0021850023767134574 -0.00042228991582363449 0 0.00037930815606694606 0.0011659562550048865 0 0.00078708976141594336 0.0001627690827657866 0 0.0010962719228335589 0.00031082051305351103 0 0.0010962719228335589 0.00031082051305351103 0 0.0012317505205525429 -0.0003399441923862499 0 0.0017553513199784015 -0.00048108465380354316 0 0.0010962719228335589 0.00031082051305351103 0 0.0011521980258302937 -0.00030507730039410445 0 0.0012317505205525429 -0.0003399441923862499 0 0.0011417631816070012 0.0004619628951982042 0 0.0030056815310350593 -0.00015172273572231889 0 0.00078708976141594336 0.0001627690827657866 0 0.0010962719228335589 0.00031082051305351103 0 0.0011521980258302937 -0.00030507730039410445 0 -0.0021850023767134574 -0.00042228991582363449 0 -0.0019351749513510823 -0.00044410284038747189 0 -0.0019832911169841176 -0.00025181503900113458 0 -0.00045274205643313812 -8.0993719562549873e-05 0 -0.00013940428331201004 -0.00054467563867845257 0 -0.0021850023767134574 -0.00042228991582363449 0 -0.0019351749513510823 -0.00044410284038747189 0 -0.0020046217878490224 -0.0006195336241076511 0 -0.0021764065262913118 -0.00018033462255211073 0 -0.0021850023767134574 -0.00042228991582363449 0 -0.0019832911169841176 -0.00025181503900113458 0 -0.002044602181592223 -9.9910651703575908e-05 0 -0.0021764065262913118 -0.00018033462255211073 0 -0.0019832911169841176 -0.00025181503900113458 0 -0.0018621245347840451 -0.00015559787060074776 0 -0.0019832911169841176 -0.00025181503900113458 0 -0.0018102265226570015 -0.00032745800120543114 0 -0.0019351749513510823 -0.00044410284038747189 0 -0.0019832911169841176 -0.00025181503900113458 0 -0.0018102265226570015 -0.00032745800120543114 0 -0.0018621245347840451 -0.00015559787060074776 0 -0.0018102265226570015 -0.00032745800120543114 0 -0.0017134991436586408 -0.00020506416270041415 0 -0.0018102265226570015 -0.00032745800120543114 0 -0.0017134991436586408 -0.00020506416270041415 0 -0.0016176583144222182 -0.00034695083026858609 0 -0.0015467846864251956 -0.0001461817278686695 0 -0.0017134991436586408 -0.00020506416270041415 0 -0.0016176583144222182 -0.00034695083026858609 0 -0.0015467846864251956 -0.0001461817278686695 0 -0.0014065857162262432 -0.00026836288042896575 0 -0.0016176583144222182 -0.00034695083026858609 0 -0.0016176583144222182 -0.00034695083026858609 0 -0.0017534823084217335 -0.00049395935829884489 0 -0.0016137794109535451 -0.00056179963355486621 0 -0.0014985685522775831 -0.0004493515573575803 0 -0.0016176583144222182 -0.00034695083026858609 0 -0.0016137794109535451 -0.00056179963355486621 0 -0.0019351749513510823 -0.00044410284038747189 0 -0.0018102265226570015 -0.00032745800120543114 0 -0.0017534823084217335 -0.00049395935829884489 0 -0.0018102265226570015 -0.00032745800120543114 0 -0.0016176583144222182 -0.00034695083026858609 0 -0.0017534823084217335 -0.00049395935829884489 0 -0.0019351749513510823 -0.00044410284038747189 0 -0.0017534823084217335 -0.00049395935829884489 0 -0.0018508681847882501 -0.00060347380985816327 0 -0.0018508681847882501 -0.00060347380985816327 0 -0.0017173756270377138 -0.00063428044639984599 0 -0.0018317506266322429 -0.00081332609408275142 0 -0.0017534823084217335 -0.00049395935829884489 0 -0.0018508681847882501 -0.00060347380985816327 0 -0.0017173756270377138 -0.00063428044639984599 0 -0.0014985685522775831 -0.0004493515573575803 0 -0.0016137794109535451 -0.00056179963355486621 0 -0.0015331833260487187 -0.00069618583993512491 0 -0.0017173756270377138 -0.00063428044639984599 0 -0.0015331833260487187 -0.00069618583993512491 0 -0.0018317506266322429 -0.00081332609408275142 0 -0.0017534823084217335 -0.00049395935829884489 0 -0.0017173756270377138 -0.00063428044639984599 0 -0.0016137794109535451 -0.00056179963355486621 0 -0.0017173756270377138 -0.00063428044639984599 0 -0.0016137794109535451 -0.00056179963355486621 0 -0.0015331833260487187 -0.00069618583993512491 0 -0.0019468850737518601 -0.00068845730761002812 0 0.00033791493515351949 -0.00097421791781168959 0 0.00011460037470518891 -0.0013655079240911191 0 0.0018121549466809195 -0.0012115686414549188 0 0.0023789839816622592 -0.0018384607903874882 0 0.0023383024486063903 -0.001867458803217805 0 0.0023941080126071573 -0.0018613019942737544 0 -0.0014362391612006331 -0.00057462036073315957 0 -0.0014979393800288471 -0.0008319213294816 0 -0.001763683444856843 -0.00078658780895286579 0 0.0064977335483296537 -0.0011506730165546091 0 0.0055241876736942626 0.00016525039102999176 0 0.0058425212850182527 0.00028402472784282514 0 0.0064977335483296537 -0.0011506730165546091 0 0.00639720766485733 0.00023074451959682264 0 0.0058425212850182527 0.00028402472784282514 0 -0.0014362391612006331 -0.00057462036073315957 0 -0.0017914531077889366 -0.0007508752869167779 0 -0.001763683444856843 -0.00078658780895286579 0 0.00033791493515351949 -0.00097421791781168959 0 0.0018121549466809195 -0.0012115686414549188 0 0.0016104725904851429 -0.0011500743852123458 0 0.0011467128485070949 -0.00058843680630214193 0 0.0027312344930358126 -0.00073362263968882488 0 0.0018121549466809195 -0.0012115686414549188 0 0.0038741633911905547 -0.00065962650435976052 0 0.00033791493515351949 -0.00097421791781168959 0 0.0038741633911905547 -0.00065962650435976052 0 0.0049435619623847335 -0.0014434303535552256 0 0.0018121549466809195 -0.0012115686414549188 0 0.010265629529824226 0.0001723421853704999 0 0.0064211526115669614 -0.00047568941046952366 0 0.0021656562856587256 -0.0013431221764826896 0 0.0019079271862288355 -0.0013179057634162615 0 0.0017553513199784015 -0.00048108465380354316 0 0.0023974162900919399 -0.001255958173169495 0 0.0021656562856587256 -0.0013431221764826896 0 0.0017553513199784015 -0.00048108465380354316 0 0.0055087950469812838 -0.00093261253054557642 0 0.0066425162440312312 -0.00050592832204163544 0 0.0065566215862251668 -0.00038861608218212216 0 0.0064211526115669614 -0.00047568941046952366 0 0.0038741633911905547 -0.00065962650435976052 0 0.0055232400620879888 -0.00041949169163816804 0 0.0047560035459950599 -0.00070471061925572699 0 0.005798774470742684 -0.00080013759317122278 0 0.0038741633911905547 -0.00065962650435976052 0 0.0050787052450213524 -0.00025315808999694763 0 0.0064211526115669614 -0.00047568941046952366 0 0.0050787052450213524 -0.00025315808999694763 0 0.0055087950469812838 -0.00093261253054557642 0 0.0065566215862251668 -0.00038861608218212216 0 0.0053036910393911329 -2.7465200594618162e-05 0 0.0055087950469812838 -0.00093261253054557642 0 0.0044909345341146885 -0.00030110850441875873 0 0.0053036910393911329 -2.7465200594618162e-05 0 0.013803239227969595 0.000627184673573982 0 0.014221320502701683 0.00077460228042532727 0 0.012662086389182474 0.0019620192803720179 0 0.0065566215862251668 -0.00038861608218212216 0 0.0053036910393911329 -2.7465200594618162e-05 0 0.0056336885064808065 0.00086350587226783639 0 0.0045355607314142539 0.00052329234683062343 0 0.0053036910393911329 -2.7465200594618162e-05 0 0.0056336885064808065 0.00086350587226783639 0 0.0030056815310350593 -0.00015172273572231889 0 0.0028382045590305692 -0.00010380382549288214 0 0.0019079271862288355 -0.0013179057634162615 0 0.0011550927462677144 -0.00030485728833681152 0 0.0012317505205525429 -0.0003399441923862499 0 0.0050787052450213524 -0.00025315808999694763 0 0.0030056815310350593 -0.00015172273572231889 0 0.0019079271862288355 -0.0013179057634162615 0 0.0012317505205525429 -0.0003399441923862499 0 0.0017553513199784015 -0.00048108465380354316 0 -0.0018508681847882501 -0.00060347380985816327 0 -0.0018317506266322429 -0.00081332609408275142 0 -0.0020046217878490224 -0.0006195336241076511 0 0.00033791493515351949 -0.00097421791781168959 0 -0.00013940428331201004 -0.00054467563867845257 0 -0.0019351749513510823 -0.00044410284038747189 0 -0.0018508681847882501 -0.00060347380985816327 0 -0.0020046217878490224 -0.0006195336241076511 0 
</DataArray>
</PointData>
<CellData Scalars="region_id,cross_section_updated," Vectors="" Tensors="stress,">
<DataArray type="Float64" Name="region_id" format="ascii">
5 5 5 5 5 5 6 5 5 5 6 5 5 6 5 6 5 5 5 6 6 5 5 6 5 5 5 5 5 5 6 5 5 5 5 5 5 5 5 6 5 6 5 6 5 6 5 5 6 5 6 5 6 5 5 5 5 6 5 5 5 5 5 6 5 5 5 5 5 5 5 5 5 6 5 6 5 5 5 5 6 5 5 5 5 5 5 5 5 6 5 5 5 5 5 5 5 5 5 5 5 5 5 5 5 5 5 5 5 5 5 5 6 5 6 5 5 5 5 5 5 6 5 5 6 5 5 5 5 5 6 5 5 5 5 6 5 5 6 5 6 5 6 5 5 6 5 6 5 5 5 6 5 5 5 5 5 5 5 5 5 5 5 5 5 5 5 5 5 5 5 6 5 6 5 5 5 5 5 6 6 5 5 5 5 5 5 5 5 5 5 6 5 6 5 5 5 6 5 5 6 5 5 6 5 5 5 5 6 5 5 5 6 5 5 5 5 5 6 5 6 5 5 5 5 5 5 6 5 5 5 5 5 5 5 5 5 5 5 5 5 5 5 5 5 5 5 5 5 5 5 5 5 5 5 5 5 5 5 5 5 5 5 5 6 5 5 5 5 5 5 5 5 6 5 5 5 5 5 5 5 5 5 5 5 5 5 5 6 5 5 5 5 5 6 5 6 5 5 6 5 6 6 5 6 5 6 5 6 5 5 6 5 6 5 5 6 5 5 5 5 5 5 5 5 5 6 6 5 5 5 5 6 5 5 6 5 5 6 5 5 6 6 6 6 5 6 5 5 5 6 5 5 5 5 5 5 5 5 6 5 5 6 5 6 5 5 5 5 5 5 5 6 6 5 5 5 5 5 5 5 5 5 5 6 6 6 5 6 6 6 6 6 5 6 5 6 5 6 5 5 6 5 6 5 6 6 5 5 6 5 6 5 5 5 5 5 6 5 5 5 5 5 5 5 5 5 5 5 5 5 5 6 6 5 5 5 5 5 5 5 5 6 5 5 5 5 5 5 5 5 5 5 6 5 5 5 6 5 5 5 5 5 5 5 5 5 5 5 5 5 5 5 5 5 5 5 5 5 5 5 5 5 5 5 5 5 5 5 5 5 5 5 5 5 5 5 5 5 5 5 5 5 5 5 5 5 5 5 5 5 5 5 5 5 5 5 5 5 5 5 5 5 5 5 5 5 5 6 5 6 5 5 5 5 5 5 5 6 5 5 5 5 5 5 5 5 5 5 6 6 5 5 5 5 6 5 5 6 5 6 6 5 5 6 5 5 5 5 5 5 5 5 5 5 6 5 5 6 6 5 5 5 5 5 5 5 5 5 5 5 5 5 5 5 5 5 5 5 5 5 5 5 5 5 5 5 5 5 6 5 6 5 5 5 5 5 5 5 5 5 5 5 5 5 5 5 5 5 5 5 5 5 5 5 5 5 5 5 5 5 6 5 5 5 6 5 5 5 6 5 6 5 5 5 6 5 5 5 5 5 5 5 5 5 5 5 5 5 5 5 5 5 6 5 6 5 5 5 5 5 5 5 5 5 5 5 5 5 5 5 5 5 5 5 5 5 5 5 5 5 5 5 5 5 5 5 5 5 5 5 5 5 5 5 6 5 5 6 5 5 5 5 5 5 6 6 5 5 5 5 5 5 5 5 5 5 5 5 5 5 5 5 5 5 5 5 5 5 5 5 5 5 5 5 6 5 6 5 5 5 5 5 5 5 5 5 5 5 5 5 5 5 5 5 5 5 5 5 5 5 5 5 5 5 5 5 6 5 5 5 5 5 6 5 5 5 5 5 5 5 5 5 5 6 5 5 5 6 5 5 5 5 5 5 5 6 5 5 5 5 5 5 5 5 5 5 6 5 5 5 6 5 5 6 5 5 5 5 5 6 5 5 5 5 5 6 5 6 5 5 5 5 5 5 5 5 5 5 5 5 5 5 5 5 5 5 5 5 5 6 5 5 6 5 5 5 5 5 5 5 5 5 5 5 5 5 5 5 6 5 5 5 5 5 5 5 5 6 5 6 6 5 5 5 5 5 5 5 5 5 5 6 5 5 5 5 5 6 5 5 5 5 5 5 5 5 5 6 6 5 5 5 5 5 5 5 5 5 5 5 5 5 5 5 5 5 5 5 5 5 5 6 6 5 5 5 5 5 5 5 5 5 5 5 5 5 5 5 5 5 5 5 6 5 5 5 5 5 5 5 6 5 5 5 5 5 5 5 5 5 6 5 5 5 6 5 5 5 5 5 5 5 5 5 6 5 5 5 5 5 5 5 5 5 5 5 5 5 5 5 5 5 5 5 5 5 5 5 6 5 5 5 5 5 5 5 5 5 5 5 5 5 6 5 5 5 6 5 5 5 5 5 5 6 5 5 5 5 5 5 5 5 5 5 5 5 5 5 5 5 5 5 5 5 5 5 5 5 5 5 5 5 5 5 5 6 5 5 6 5 5 5 5 5 5 6 5 5 5 5 5 5 5 5 5 5 5 5 5 5 5 5 5 6 5 5 5 5 5 6 5 6 5 5 5 5 5 5 6 5 5 5 6 5 5 6 5 5 5 6 5 5 5 5 5 5 5 5 5 5 5 5 5 5 6 5 5 6 6 5 6 5 5 5 5 5 5 5 5 5 5 6 5 5 5 5 5 5 5 5 5 6 5 5 5 5 5 5 6 5 5 5 5 6 5 6 5 5 5 5 6 5 5 5 5 6 5 5 5 5 6 5 5 5 5 5 6 6 5 5 5 5 5 5 5 5 5 5 5 5 5 5 6 5 5 5 6 5 5 5 5 5 5 5 5 5 5 5 6 6 5 5 5 5 5 5 5 5 5 5 5 5 5 5 5 5 5 5 5 5 6 5 5 5 5 5 5 6 5 5 6 5 5 5 6 5 5 5 5 5 5 5 6 5 6 5 5 5 5 5 5 5 5 6 5 5 5 5 5 5 5 5 5 6 5 5 5 5 5 5 5 5 5 5 5 5 5 5 5 5 5 5 5 5 6 6 5 5 5 6 5 5 6 5 5 5 5 5 5 5 6 5 5 5 5 5 5 5 5 5 5 5 5 5 5 6 5 6 5 5 5 5 5 5 5 5 5 5 5 5 5 5 5 5 5 5 5 5 5 5 6 5 6 6 5 5 5 5 5 5 5 6 5 5 5 5 5 5 5 6 5 5 5 5 5 5 5 5 5 5 5 5 5 5 5 5 5 5 5 5 5 5 5 5 5 5 5 6 5 5 6 5 5 5 5 6 5 5 5 5 5 5 5 5 5 6 5 6 5 5 5 6 5 5 5 5 5 5 5 5 5 5 5 5 6 5 6 5 5 5 5 5 6 5 5 5 6 6 6 5 5 5 5 6 5 5 5 5 5 5 6 5 5 5 5 5 6 5 5 6 6 6 5 5 5 5 5 6 5 5 5 5 5 5 5 5 5 5 5 5 6 5 5 5 5 5 5 5 5 5 5 5 5 5 5 5 5 5 5 5 5 5 5 5 5 6 5 6 6 5 5 6 5 5 5 5 5 5 5 5 5 5 5 6 5 5 5 5 5 5 5 5 5 5 6 5 5 5 5 6 5 5 5 5 5 5 5 5 5 5 5 5 5 5 5 6 5 5 5 5 5 5 5 5 5 5 5 5 5 5 5 5 6 6 5 6 5 6 5 6 5 6 5 6 5 5 5 5 5 5 5 6 6 5 5 6 5 5 5 5 6 5 5 5 5 6 5 6 5 5 5 5 5 5 6 5 5 5 6 5 5 5 5 5 6 5 5 5 5 5 5 5 5 5 5 6 5 5 5 5 5 5 6 5 5 6 5 6 5 5 6 5 5 5 6 6 5 5 5 5 6 5 6 5 5 5 5 5 5 5 5 5 5 6 5 5 6 5 6 5 5 5 5 5 5 6 5 5 6 5 5 5 5 5 5 5 5 6 6 5 5 5 5 6 5 5 6 5 5 6 5 5 5 5 6 5 5 6 6 5 6 6 5 6 5 5 6 6 5 6 5 5 5 6 5 5 6 5 5 5 5 5 5 5 5 5 5 5 5 5 5 6 5 5 5 6 5 5 5 5 5 5 5 6 5 5 5 5 5 5 6 5 5 5 5 6 5 5 6 5 5 5 5 5 5 5 5 5 5 5 5 5 5 5 5 6 5 5 6 5 5 5 6 5 5 5 5 6 5 5 5 6 5 5 5 6 5 5 5 5 6 5 5 5 5 5 5 5 5 6 5 6 5 5 5 5 5 5 5 5 5 5 5 5 6 5 5 6 6 6 5 5 5 6 5 5 5 5 5 5 5 5 5 5 6 6 5 5 5 6 5 5 6 5 5 5 5 5 5 5 5 5 5 6 5 5 6 5 5 5 6 6 5 5 5 5 6 5 6 5 6 5 6 6 5 5 5 5 5 5 5 6 5 5 5 6 6 5 5 5 5 5 6 5 6 6 5 5 5 5 5 5 6 5 6 5 6 5 5 5 5 6 5 5 5 6 5 5 6 5 5 5 5 6 5 5 5 5 5 5 5 6 5 5 5 5 5 5 5 5 5 5 5 5 6 5 5 5 5 5 5 5 5 5 5 5 5 5 5 6 5 5 6 5 5 5 5 6 5 5 5 5 5 5 5 5 5 6 5 6 5 5 6 5 6 5 5 5 5 5 5 5 5 5 5 6 5 5 5 6 5 5 6 5 5 5 5 5 5 5 5 5 5 5 5 5 5 5 5 5 5 5 5 6 5 6 6 5 5 6 6 5 6 5 5 5 5 6 5 5 5 6 6 5 6 5 5 5 5 6 6 6 6 5 5 6 5 5 5 6 6 5 5 6 6 5 5 6 5 5 6 5 5 6 5 5 6 5 6 6 5 5 6 5 6 5 6 6 5 5 6 5 5 6 5 5 6 6 5 6 5 6 5 6 5 5 5 5 6 5 5 6 5 6 5 5 5 6 5 5 5 5 6 6 5 5 5 6 5 5 5 5 5 5 6 5 5 5 5 6 6 5 5 5 6 5 5 6 5 6 5 5 5 6 5 5 5 5 5 5 5 5 5 5 5 5 5 5 5 5 5 6 5 5 5 5 5 5 5 5 5 5 5 5 5 5 5 5 5 5 5 5 5 5 6 5 6 5 5 5 5 5 5 6 5 5 5 5 5 6 5 6 5 6 5 5 5 5 5 5 5 6 5 6 5 5 5 5 5 6 6 5 5 6 6 5 6 5 5 5 6 5 5 5 5 5 5 6 5 5 5 5 5 5 5 5 5 5 5 5 6 5 6 5 6 6 5 5 5 5 5 6 6 5 6 5 6 5 5 5 5 5 5 5 5 5 5 5 5 6 6 5 5 5 5 6 5 5 5 5 5 5 5 5 5 5 5 5 5 5 5 5 5 5 5 5 5 5 5 5 5 5 5 5 5 6 5 5 5 5 5 5 5 5 5 5 5 6 5 5 5 5 5 5 5 5 5 6 5 6 5 6 5 5 6 5 5 5 6 5 5 5 5 5 5 5 5 5 5 5 5 5 5 5 5 6 5 5 6 5 5 6 5 6 5 5 6 5 6 5 5 5 5 6 6 5 5 5 5 5 5 5 5 5 5 5 6 5 6 5 5 6 5 5 5 5 5 5 5 6 6 6 5 5 5 6 5 5 5 5 5 5 5 6 5 5 5 6 5 6 6 5 5 5 5 5 6 5 5 5 5 5 5 5 5 5 6 5 5 5 5 5 5 5 5 5 5 5 6 5 5 5 5 5 5 5 5 5 5 5 5 5 6 5 5 5 6 5 6 5 5 5 5 5 5 5 5 5 5 5 5 5 5 6 6 5 5 5 5 5 5 5 5 5 5 5 5 6 5 5 5 5 5 6 5 5 5 5 5 5 6 5 5 5 5 5 6 5 5 5 5 5 5 5 6 5 6 5 5 5 5 6 5 5 5 5 5 5 6 6 5 5 5 5 5 5 5 5 5 5 6 6 5 5 6 5 5 5 5 5 5 5 5 6 5 6 5 5 5 5 5 5 5 5 5 5 5 5 6 5 6 5 5 5 6 5 5 5 5 5 5 5 5 5 5 5 5 5 6 5 5 5 5 5 5 5 5 5 5 5 5 5 5 5 5 5 6 5 5 6 6 5 5 6 5 5 5 5 5 5 5 5 5 6 6 5 5 5 5 5 5 5 5 5 5 6 5 5 5 5 5 5 5 6 5 5 5 5 5 5 5 5 5 5 5 5 5 5 5 5 6 6 5 5 5 5 5 5 5 5 5 5 5 5 5 5 6 5 5 5 5 5 5 5 5 5 5 5 6 5 5 5 6 5 5 5 5 5 5 5 5 5 6 5 5 5 6 5 5 5 5 5 5 5 5 5 5 5 5 5 5 5 5 5 5 5 5 5 5 5 6 5 5 5 5 6 5 5 5 5 5 5 5 6 5 5 5 5 5 5 5 5 5 5 5 5 6 5 5 5 5 5 5 5 5 5 5 5 5 5 6 5 5 5 6 5 5 6 6 5 5 5 5 5 5 5 5 6 5 6 5 6 5 6 5 5 5 5 5 5 5 5 5 5 5 5 6 5 5 5 6 5 5 5 6 6 6 5 5 5 5 6 5 5 5 5 5 5 5 5 5 5 6 5 5 5 5 5 6 5 5 6 5 5 6 5 5 5 5 5 5 5 5 5 6 5 5 5 5 5 5 5 6 5 5 6 5 6 5 6 5 5 6 5 5 5 5 5 5 5 6 5 5 6 5 5 5 6 5 5 5 6 6 5 5 5 5 5 5 5 5 5 5 5 5 6 5 5 6 5 5 5 5 5 5 5 5 5 6 5 5 5 5 5 5 5 5 5 5 6 5 5 5 5 5 5 6 5 5 5 6 5 5 5 5 5 5 5 5 6 5 5 5 5 6 5 5 5 6 5 5 5 5 5 5 5 5 5 5 6 5 5 5 5 5 5 5 5 6 5 5 5 5 5 5 5 6 5 5 6 5 6 5 5 5 5 6 6 5 5 6 5 5 5 6 5 5 5 5 6 5 5 5 5 5 5 5 5 5 5 5 5 5 5 5 5 5 6 5 5 5 6 5 5 5 5 6 5 5 6 6 5 6 6 5 6 5 5 5 5 6 5 5 5 5 6 5 5 5 5 6 6 6 5 5 6 5 6 5 5 6 5 5 5 6 5 5 5 5 5 6 5 5 5 5 5 5 5 6 5 6 5 5 5 5 5 5 5 5 5 5 5 5 5 5 5 5 5 5 5 5 5 5 5 5 5 5 5 5 5 5 5 5 5 5 6 5 5 6 5 5 5 5 5 5 5 5 5 5 5 6 5 5 5 5 5 5 5 5 5 5 5 5 5 6 5 5 5 6 5 5 5 5 5 6 5 5 5 5 5 5 5 5 5 5 5 5 5 5 5 5 5 5 5 5 5 5 5 5 5 5 5 5 5 5 5 5 5 5 5 5 5 5 5 5 5 5 5 5 5 6 5 5 5 6 5 5 6 5 5 5 5 5 5 5 5 5 6 5 5 6 5 5 5 5 5 5 5 5 5 5 5 5 6 5 5 5 5 5 6 5 5 5 6 5 5 6 5 5 6 5 5 5 5 5 5 6 5 6 5 6 5 5 6 5 5 6 5 6 5 5 6 5 5 5 5 5 5 5 6 5 5 5 5 5 5 5 5 5 5 5 5 5 5 5 5 6 5 5 5 5 5 5 5 5 6 5 5 5 5 5 6 5 5 5 5 5 5 5 5 5 5 5 5 5 5 6 5 5 5 5 5 5 6 5 5 6 5 5 5 5 5 5 5 5 5 5 6 5 5 5 6 6 5 5 6 5 5 6 5 5 5 5 5 5 6 5 6 5 5 5 6 5 5 5 5 5 5 5 5 5 6 5 6 5 6 5 6 5 5 6 5 5 5 5 5 5 5 5 6 6 5 5 5 5 5 5 5 5 5 5 5 5 5 5 5 5 5 5 5 5 5 5 5 6 5 5 5 5 5 5 5 5 6 5 5 5 5 5 5 5 5 5 5 5 5 5 5 5 5 5 5 5 5 6 5 5 5 5 5 5 5 5 5 5 5 5 5 5 5 5 5 5 5 5 5 5 5 6 5 5 5 5 6 5 6 6 5 5 5 5 5 6 6 5 5 5 5 5 5 5 5 5 5 6 5 5 5 6 5 5 5 5 5 5 5 5 6 5 5 5 5 5 5 5 5 5 5 5 5 5 6 5 5 5 5 5 6 5 5 5 5 5 6 5 5 5 5 5 5 5 5 5 6 6 5 5 5 5 5 5 5 5 5 5 5 5 5 6 5 5 5 5 5 5 5 6 5 5 5 6 5 5 5 5 5 5 5 5 5 6 5 5 5 6 5 6 5 5 5 5 5 6 5 5 5 5 5 5 5 5 5 5 5 5 5 5 5 5 5 5 5 5 5 5 5 5 5 5 5 5 5 5 5 5 5 5 5 5 5 5 5 5 5 5 5 5 6 5 5 6 5 5 6 5 5 5 5 6 6 5 5 5 5 5 5 6 5 5 5 5 5 5 5 5 5 5 5 6 5 5 5 5 5 5 5 5 5 5 5 5 5 5 5 5 5 5 6 5 6 5 5 6 5 5 5 5 5 5 5 5 6 5 5 5 5 5 5 5 5 5 5 5 5 5 5 5 5 5 5 5 5 5 5 5 5 5 5 5 5 5 5 5 5 5 5 5 6 5 5 6 5 5 5 6 5 5 5 5 5 5 6 5 5 5 6 5 5 5 5 5 5 5 5 5 5 5 6 5 6 5 5 5 5 6 5 5 5 5 5 5 5 6 5 5 5 6 5 5 5 5 5 5 5 5 5 5 5 5 6 6 6 5 5 6 5 5 5 5 5 6 5 5 5 6 5 5 6 5 5 5 6 5 6 5 5 5 5 5 5 5 5 6 5 5 6 5 5 5 5 5 5 5 5 5 5 5 5 5 6 5 5 5 5 5 5 5 6 5 5 5 6 5 5 5 5 5 5 5 5 5 5 5 5 5 5 5 6 5 5 5 5 5 5 5 5 5 5 6 6 5 5 5 5 5 5 5 5 5 5 5 5 5 5 5 5 5 5 6 5 5 6 5 6 5 5 5 5 5 5 5 5 6 5 5 5 5 6 5 5 6 5 5 5 6 5 5 5 6 5 5 5 5 6 6 5 5 5 5 5 5 6 5 5 5 5 5 5 5 5 5 5 5 5 5 5 5 5 5 5 5 5 5 5 5 5 5 5 5 5 5 5 5 5 5 5 5 5 5 5 5 5 5 5 5 5 5 5 5 5 6 5 5 5 5 5 5 5 5 5 5 5 5 5 5 5 5 5 5 5 5 5 5 5 5 5 5 5 5 6 5 5 5 5 5 6 5 5 5 5 5 5 5 5 5 5 5 5 5 6 5 5 5 5 5 6 5 5 6 5 5 5 5 5 6 5 5 5 5 5 5 5 5 5 5 5 5 5 5 5 5 5 5 6 5 5 5 6 5 5 5 5 5 5 5 6 5 5 5 5 5 5 5 5 5 5 5 5 6 5 5 5 6 5 5 5 5 5 5 5 5 5 5 5 6 5 5 6 6 6 5 5 5 5 5 5 5 5 5 5 6 5 5 6 6 5 5 5 5 5 5 5 5 5 5 5 5 6 5 5 5 5 5 5 5 5 5 5 5 5 5 5 5 5 5 5 5 5 5 5 5 5 5 5 5 5 6 5 5 5 5 5 5 5 5 5 5 5 6 5 6 5 5 5 5 6 5 5 6 5 5 5 5 5 6 5 5 6 6 5 5 5 5 5 5 6 5 5 5 6 5 6 5 5 6 5 5 5 6 5 5 5 5 5 5 5 5 6 5 5 5 5 5 5 5 6 5 5 5 5 6 5 5 5 5 5 5 5 5 5 5 5 5 5 5 5 5 5 5 5 5 6 5 5 5 5 5 5 5 5 5 5 5 5 6 6 5 5 5 5 5 5 6 5 5 5 5 5 5 5 5 5 5 5 5 5 5 5 5 6 5 5 6 5 5 5 5 5 5 6 6 5 5 5 6 5 5 5 5 6 5 6 5 5 5 5 5 5 5 6 5 5 5 5 6 5 5 6 5 5 5 5 5 5 5 5 5 5 5 6 5 5 5 6 5 5 5 5 6 5 5 5 5 5 5 5 5 5 5 5 5 5 5 5 5 5 5 5 5 5 5 5 5 5 5 6 5 6 5 5 5 5 6 5 5 5 6 5 6 5 5 5 6 5 5 5 5 5 5 6 5 5 5 5 5 5 5 5 5 6 5 5 5 5 5 6 5 5 6 5 6 5 6 5 6 5 5 5 5 5 5 5 5 6 6 5 5 5 6 5 6 5 5 5 5 6 5 5 5 5 5 5 5 5 5 6 5 5 5 5 5 5 6 6 5 5 5 5 5 5 5 5 5 5 5 5 5 6 5 5 6 6 5 5 5 6 6 5 5 5 5 5 5 5 5 5 5 5 6 5 5 5 6 5 5 5 6 5 6 5 5 5 6 5 5 5 5 6 5 5 5 5 6 5 6 6 5 6 6 5 5 6 6 6 5 6 5 5 6 5 5 6 6 5 5 5 6 5 5 5 5 5 6 5 6 5 6 5 6 5 5 6 5 5 5 5 6 5 5 6 5 5 5 5 5 5 5 5 5 5 5 5 5 5 6 5 5 5 6 5 5 6 6 5 5 5 5 5 5 5 5 5 6 5 5 5 5 5 5 6 5 5 5 6 6 6 5 5 5 6 5 5 6 5 5 5 5 5 5 5 5 6 5 6 5 5 5 5 6 5 5 5 5 5 5 5 5 5 5 5 5 5 5 5 5 5 5 5 5 6 5 6 5 5 5 5 5 5 5 5 5 5 5 5 5 5 5 5 5 5 5 5 5 5 5 5 5 5 5 5 5 5 5 5 5 5 5 5 5 6 5 5 5 5 5 5 5 5 5 5 5 5 5 5 5 5 5 5 5 5 5 5 5 5 5 5 5 5 5 5 5 5 5 5 5 5 5 5 5 5 5 5 5 5 5 5 5 5 5 5 5 5 5 5 5 5 5 5 5 5 5 5 5 5 5 6 5 6 5 5 5 5 5 6 5 5 5 5 5 5 5 5 5 5 5 5 5 5 5 5 5 5 6 5 5 5 5 6 6 5 5 6 5 5 5 6 5 5 5 5 5 6 5 5 5 5 5 5 5 6 5 5 5 5 5 5 5 5 5 5 5 6 5 5 5 6 5 5 5 5 5 5 5 5 6 5 5 5 6 6 5 5 5 5 5 5 5 5 5 5 5 5 5 5 5 5 5 5 5 5 5 5 5 6 5 5 5 5 5 5 6 5 5 5 5 5 5 5 5 5 5 5 5 5 5 5 5 5 5 5 5 5 5 5 5 5 5 5 5 5 5 5 5 5 6 5 5 5 5 5 5 5 5 5 5 6 5 5 5 5 5 5 6 5 5 5 5 5 5 5 6 5 5 5 5 5 5 5 5 5 5 5 5 5 5 6 5 5 5 5 5 6 5 5 5 5 5 5 5 5 5 5 5 5 5 5 5 5 5 5 6 5 5 5 5 5 6 5 5 6 5 5 5 6 5 5 5 5 6 5 6 5 5 5 5 6 5 5 6 5 5 5 6 5 5 5 5 5 5 5 5 5 5 5 5 5 5 6 6 5 5 6 5 5 5 5 5 5 5 5 5 5 6 5 5 5 5 5 5 5 5 5 5 5 5 5 5 6 5 5 5 6 5 5 6 5 5 5 5 5 5 5 6 5 5 6 5 5 5 5 5 5 5 5 5 5 5 5 5 5 5 5 5 5 5 6 5 6 5 6 5 5 5 5 5 5 5 5 6 6 5 5 6 5 5 5 5 5 5 5 5 5 5 5 5 5 5 6 5 6 5 5 5 5 6 5 5 5 5 5 5 5 5 5 5 5 5 5 5 5 5 5 5 5 5 5 6 5 5 5 6 5 5 5 5 5 5 5 5 5 5 5 5 5 5 5 5 5 5 5 5 5 5 5 5 5 5 5 5 5 5 5 5 5 5 5 5 5 5 5 5 6 5 5 5 5 5 5 5 6 5 5 5 6 5 5 5 5 5 5 5 5 5 5 5 5 5 5 5 6 5 5 5 5 5 5 5 5 6 5 5 5 5 5 5 5 5 5 5 5 5 5 5 6 5 5 5 5 5 5 5 5 5 5 5 5 5 5 5 6 6 5 6 5 5 5 5 6 5 6 5 5 5 5 5 6 5 6 5 6 5 5 5 5 5 5 5 5 5 6 5 6 5 5 5 5 5 5 5 5 5 5 5 5 5 6 5 5 5 5 5 5 5 5 6 5 6 5 5 5 5 5 6 5 5 5 5 5 5 5 5 5 6 5 6 5 5 5 6 5 5 5 5 6 5 6 5 5 5 5 5 5 5 5 5 6 5 5 5 5 5 5 5 6 6 5 6 5 5 5 5 5 5 5 5 5 5 5 5 5 6 5 5 6 5 5 5 6 5 5 5 5 5 5 5 5 5 5 5 5 5 5 5 5 5 5 5 5 5 5 5 5 5 5 6 5 6 5 5 5 5 5 5 5 5 5 5 5 5 5 5 5 5 5 6 5 6 5 6 5 5 5 5 6 5 6 5 5 5 5 5 5 5 5 5 5 5 5 6 5 5 5 5 5 5 5 5 5 5 5 6 5 5 5 5 5 5 5 5 5 6 5 5 5 5 5 6 5 5 5 5 5 5 6 5 5 5 6 6 5 5 5 5 5 5 6 5 5 6 5 5 6 5 6 6 5 5 6 5 5 5 5 6 6 5 5 5 5 5 5 5 5 5 5 6 5 5 5 5 5 5 5 5 5 5 5 5 5 5 5 6 5 5 5 5 5 5 5 5 5 5 5 5 5 6 5 5 5 5 6 5 5 5 5 5 6 5 5 5 5 5 5 5 5 6 5 5 5 5 6 5 5 5 5 5 5 5 5 5 5 5 5 5 5 5 5 5 5 5 5 5 5 5 5 5 5 5 5 5 5 6 5 5 5 5 5 5 5 5 5 5 5 6 6 5 5 5 5 5 5 5 5 5 5 5 5 5 5 5 5 5 5 5 5 5 5 5 5 5 5 5 6 5 5 5 5 5 5 5 5 5 5 6 5 5 5 5 5 5 5 5 5 5 5 5 5 5 5 5 5 5 5 5 6 5 5 5 5 5 5 5 6 6 5 5 5 5 6 5 5 6 5 5 5 5 5 5 5 5 5 5 5 5 5 5 5 5 5 6 5 5 5 5 5 5 5 5 6 5 5 5 5 5 6 5 5 5 6 6 5 5 6 6 5 5 5 6 6 5 6 5 5 6 5 6 5 5 5 5 6 5 5 5 5 5 5 5 5 5 5 5 5 5 5 6 5 5 6 6 5 5 5 5 5 5 6 5 5 5 5 5 5 6 5 5 6 5 5 6 5 6 5 5 5 6 5 5 5 5 5 5 5 5 5 5 5 5 5 5 5 6 5 5 5 5 5 5 5 5 5 5 5 5 5 5 5 5 5 5 5 5 6 5 5 5 5 5 5 5 5 5 5 5 6 6 5 6 5 5 6 6 5 5 5 6 6 5 6 6 5 5 5 5 5 6 6 5 6 5 6 5 5 5 5 5 5 5 6 5 5 5 6 5 6 6 6 5 5 6 5 5 6 5 5 6 5 5 5 6 6 5 5 5 5 5 5 5 5 6 6 5 5 5 5 6 5 5 5 5 6 5 6 5 6 5 5 6 5 5 5 5 5 6 6 5 5 5 5 5 5 5 6 6 6 5 6 6 6 5 6 5 5 5 6 5 5 5 5 5 6 5 6 5 6 5 5 5 6 5 5 5 5 5 5 5 5 6 5 5 5 5 5 5 5 5 5 6 5 5 5 5 5 5 5 5 5 5 5 5 5 5 5 5 5 5 5 5 5 6 5 5 5 5 5 5 5 5 5 6 5 5 5 5 5 6 5 5 5 5 5 5 5 5 5 5 5 5 5 5 5 5 5 5 5 5 5 5 5 5 5 5 6 6 5 5 5 5 5 5 5 5 5 5 5 5 5 5 6 5 5 5 5 5 5 5 5 5 5 5 5 5 5 5 5 5 5 5 6 6 5 5 5 5 6 5 5 5 5 5 5 6 5 5 5 5 5 5 5 5 6 6 5 6 5 5 5 5 5 5 5 5 5 5 5 5 5 6 5 5 5 5 5 5 5 5 5 5 5 5 5 5 6 5 5 5 5 5 5 5 5 5 5 5 5 5 5 5 5 5 5 5 5 5 5 5 5 5 5 5 6 5 5 5 5 5 5 5 5 5 5 5 5 6 5 5 5 5 5 5 5 5 5 5 5 5 5 5 5 5 5 5 5 5 5 5 6 5 5 5 5 5 5 5 5 6 6 5 6 5 5 5 5 6 5 6 5 5 6 5 5 5 5 5 5 5 5 5 5 6 5 5 5 5 5 5 5 5 5 5 5 5 5 5 5 6 5 5 5 5 6 5 5 5 5 5 5 5 5 5 5 5 5 5 5 5 5 5 5 5 5 5 5 5 5 6 5 6 5 5 6 5 5 5 5 6 5 5 6 5 5 5 5 5 5 5 5 6 5 5 6 6 5 5 5 5 6 5 5 5 6 6 5 6 5 5 6 5 6 5 5 5 5 6 5 5 5 5 5 5 5 6 5 5 5 6 5 5 6 5 5 5 5 5 5 5 5 5 5 5 6 5 5 5 6 5 5 5 5 5 5 5 5 5 5 5 5 5 5 6 5 5 5 6 5 5 5 5 5 6 5 5 5 5 5 5 5 5 5 5 5 5 5 6 5 5 5 5 6 5 5 5 5 5 5 5 5 5 5 5 5 5 5 5 5 5 6 5 6 5 5 5 5 5 5 5 5 6 6 5 5 5 5 5 6 5 5 6 5 5 5 5 5 5 5 5 5 5 6 5 5 5 5 5 5 5 5 5 5 5 6 5 5 5 6 5 5 5 5 5 5 5 6 5 5 5 5 5 5 5 5 5 5 5 5 5 5 5 5 5 5 5 6 6 5 5 5 6 5 6 5 5 5 5 5 5 5 5 5 5 5 5 5 5 5 5 5 5 5 5 5 5 5 5 5 5 6 5 5 6 5 5 5 5 5 5 5 5 6 5 6 5 5 5 5 5 5 5 5 5 5 5 5 5 5 5 5 5 6 5 5 5 6 5 5 5 5 6 6 6 5 5 5 5 5 5 5 6 5 5 6 5 5 5 5 5 5 5 5 5 5 6 5 5 5 5 5 5 5 5 5 5 5 5 5 5 5 5 5 5 5 5 5 5 5 5 5 5 6 5 5 5 5 5 5 5 5 5 5 6 5 5 5 5 6 5 5 5 5 5 6 5 5 5 5 5 6 5 5 6 5 5 5 5 5 5 5 5 5 5 5 5 5 5 5 5 5 5 5 5 5 5 5 5 5 5 5 5 5 5 5 5 5 5 5 5 5 6 5 5 5 5 5 5 5 5 5 5 6 5 5 5 5 5 5 5 5 5 5 5 5 5 5 5 5 5 5 5 6 5 5 6 5 5 5 5 5 6 6 5 5 5 5 5 6 6 5 5 5 5 5 6 5 5 5 6 5 6 5 5 6 5 5 5 6 5 6 5 5 6 5 5 5 5 6 5 6 5 6 6 5 5 5 6 5 5 5 5 6 5 5 5 6 5 5 5 5 5 5 5 5 5 5 5 5 5 5 5 5 5 5 5 5 5 5 5 5 5 5 5 5 5 5 5 5 5 5 5 5 5 5 5 5 5 5 5 5 5 5 5 5 5 5 6 5 5 5 5 5 5 5 5 5 5 5 5 5 5 5 5 5 5 5 5 5 5 5 5 5 6 5 5 5 5 5 5 5 5 5 5 5 5 5 5 5 5 5 6 5 5 5 5 6 5 5 5 5 5 5 5 5 5 5 6 5 5 5 5 5 5 5 5 5 5 5 5 5 5 5 5 5 6 6 5 5 5 5 5 5 5 5 5 5 5 6 5 5 5 5 6 5 5 5 5 6 6 5 5 5 5 5 6 5 5 6 5 5 5 5 5 5 5 5 6 5 5 5 5 5 5 5 5 5 5 5 5 5 5 5 6 5 5 5 5 5 5 5 5 5 5 5 5 5 5 5 5 5 5 5 5 5 5 5 5 5 5 5 5 5 5 5 5 5 5 5 5 5 5 5 5 5 5 5 5 5 5 5 5 5 5 5 5 5 5 5 5 5 5 5 5 5 5 5 5 5 5 6 5 5 5 5 5 5 5 5 5 5 5 6 5 5 5 5 5 5 5 5 5 5 5 5 6 5 5 5 6 5 5 6 6 6 5 6 5 6 5 5 5 6 6 5 5 5 5 6 5 5 5 6 5 5 5 5 5 5 5 5 5 6 5 5 6 5 5 6 5 5 6 5 5 6 5 6 6 5 5 5 5 5 6 6 5 5 5 5 5 5 5 6 5 5 5 6 5 6 5 6 6 6 5 5 5 5 5 6 5 5 5 6 5 5 5 5 5 5 6 5 5 6 5 5 5 5 5 5 6 5 5 6 5 5 5 5 5 6 6 5 5 5 6 5 5 5 5 5 6 5 5 6 6 5 5 5 6 5 5 6 6 5 5 6 6 6 5 5 5 5 5 5 5 5 5 5 5 6 5 5 5 5 5 6 5 5 5 5 5 5 5 5 5 5 5 5 5 6 5 5 5 6 5 5 5 5 5 5 6 5 5 6 5 5 5 5 6 6 5 5 6 6 6 6 5 5 5 6 6 5 5 5 5 5 5 5 5 5 6 6 5 5 5 6 6 5 5 5 6 5 5 5 5 5 5 5 5 5 5 5 5 5 5 5 5 6 5 5 5 5 6 6 6 5 6 5 5 5 5 5 5 5 5 6 6 5 6 5 5 5 5 5 5 5 5 5 5 5 5 5 5 5 5 5 5 5 6 5 5 5 6 5 5 6 5 5 5 5 5 5 5 5 5 5 5 6 5 5 5 5 5 5 5 5 5 5 6 5 5 5 5 5 5 5 5 5 5 5 5 5 6 5 5 5 5 5 5 5 5 5 5 5 5 5 5 5 6 5 5 5 5 5 5 5 5 5 5 5 5 5 5 5 6 5 5 5 5 5 6 5 5 5 5 5 5 5 5 5 6 5 6 5 6 5 5 6 6 5 6 5 5 5 5 5 5 5 5 5 5 5 5 5 5 5 5 5 5 5 5 5 5 5 5 6 5 5 5 5 5 6 5 5 5 5 6 5 5 5 6 6 5 5 5 5 6 6 5 6 5 6 6 5 5 5 6 5 5 5 5 6 5 5 5 6 5 5 5 5 5 5 6 6 5 5 5 6 5 5 5 5 5 5 5 5 6 5 5 5 5 5 5 5 6 5 5 5 5 5 5 5 5 5 6 5 5 5 5 5 5 5 5 5 5 6 5 5 5 5 5 5 6 6 5 5 5 5 6 5 5 5 6 5 5 5 6 5 5 5 6 5 5 5 5 5 6 5 5 5 5 5 5 6 5 5 6 5 5 5 5 5 5 5 5 5 5 5 5 5 5 5 5 5 5 5 5 5 5 5 5 5 5 5 5 5 5 5 5 5 5 5 5 5 5 5 5 5 5 5 5 5 5 5 5 5 5 5 5 5 5 5 5 5 5 5 6 5 5 5 5 6 5 5 5 5 5 5 5 5 5 5 5 5 5 5 5 5 5 5 5 5 6 5 5 6 5 5 6 5 5 5 5 5 6 5 5 5 5 5 6 6 5 6 6 5 5 5 6 5 5 6 6 6 5 6 5 5 5 6 5 5 5 5 5 5 5 6 6 5 6 5 5 6 6 6 5 5 6 5 5 6 5 5 5 6 5 5 5 5 5 5 6 5 5 5 5 5 5 6 5 5 6 5 5 5 5 5 5 5 5 5 5 5 5 5 5 6 5 5 5 5 5 5 5 6 5 6 5 5 5 5 6 5 5 5 5 5 5 5 5 5 5 5 5 5 5 5 5 5 5 5 5 5 5 5 5 5 5 5 5 5 5 5 5 5 5 5 5 5 6 5 5 5 5 5 5 5 5 5 5 6 5 5 5 5 5 5 5 5 5 5 5 5 5 5 5 5 5 5 5 5 5 5 5 5 5 5 5 5 6 5 5 5 6 5 5 5 6 6 5 5 5 5 5 5 5 5 5 6 5 5 5 5 5 5 5 5 5 5 5 5 5 5 5 5 5 5 5 5 5 5 6 5 5 6 5 5 5 5 5 5 5 5 5 6 5 5 5 5 5 5 6 5 6 5 6 5 5 5 5 5 5 5 5 6 5 5 5 6 5 5 5 5 5 6 5 5 6 6 5 5 5 6 5 5 5 5 6 5 5 5 5 5 5 5 5 5 5 5 5 5 5 5 5 5 5 5 5 5 5 5 5 5 5 6 5 6 5 5 5 5 5 5 5 5 5 5 5 6 5 5 5 6 5 5 5 5 5 5 5 5 5 5 5 5 5 6 5 5 5 5 5 5 5 6 5 5 5 5 6 5 6 5 5 5 5 5 6 5 5 5 5 5 5 5 5 5 5 5 6 5 5 5 5 5 5 5 5 5 5 5 5 5 5 5 5 6 5 5 5 6 5 5 5 5 5 5 5 5 6 5 5 5 5 5 5 5 5 5 5 5 5 5 5 5 5 5 5 5 5 5 5 5 5 5 5 5 5 5 5 5 5 6 5 5 5 5 5 5 5 5 5 5 5 5 5 5 5 5 5 5 5 5 5 5 5 6 5 5 5 5 5 6 6 5 5 5 5 5 5 6 5 5 6 5 5 5 5 5 5 5 6 5 5 5 6 5 5 5 6 5 5 5 5 6 5 5 5 5 6 5 5 6 5 5 6 5 5 5 5 5 5 5 5 5 5 5 5 5 5 5 5 5 5 5 5 5 5 5 5 5 6 5 6 5 5 6 5 5 5 6 5 5 5 5 5 5 5 5 5 5 5 5 5 5 5 5 5 5 5 5 5 5 6 5 5 5 5 5 5 5 6 5 5 5 5 6 5 5 5 5 5 5 5 5 6 6 5 5 5 5 5 6 5 5 5 5 5 5 5 5 5 5 6 5 5 5 6 5 5 5 5 5 5 5 6 5 5 6 6 5 5 5 5 5 5 5 6 5 5 5 5 5 5 6 5 5 5 5 5 5 5 6 5 5 5 5 5 6 5 6 5 6 5 5 5 5 5 6 5 5 5 5 5 5 5 5 5 5 5 5 5 5 5 5 5 5 5 5 5 5 5 5 5 5 5 5 5 5 5 5 5 5 5 6 5 5 5 5 5 6 5 6 5 5 6 5 5 6 5 5 5 5 5 5 5 5 5 5 6 5 5 5 5 6 5 5 5 6 6 5 5 6 5 5 5 5 5 5 5 5 5 5 6 5 6 5 6 5 5 6 6 6 5 5 5 5 6 5 5 5 5 5 5 5 5 5 5 6 5 5 5 5 6 5 5 5 6 5 5 5 5 5 6 5 5 5 5 5 5 5 6 5 5 5 5 5 5 5 5 5 5 5 5 5 5 6 5 5 6 5 5 5 5 5 5 5 5 5 5 5 5 5 5 5 5 6 5 5 5 5 5 5 5 5 6 5 5 5 5 5 5 5 5 5 5 5 5 5 5 6 5 5 5 6 5 5 5 5 5 5 5 6 5 5 5 5 5 5 5 5 5 5 5 5 5 5 5 5 6 5 6 5 5 5 5 5 6 5 5 5 5 5 5 5 5 5 5 5 5 5 5 5 5 5 5 6 5 5 5 5 5 6 5 5 5 5 5 6 5 5 5 5 5 6 5 5 5 5 6 5 5 5 5 5 5 5 5 6 5 5 5 5 5 5 5 5 5 5 5 5 5 5 5 5 5 5 5 5 5 5 5 6 5 5 5 5 5 5 5 5 6 5 5 5 5 5 5 5 5 6 5 5 5 5 5 5 5 5 5 5 5 5 5 5 5 6 5 5 6 5 5 5 5 5 5 5 5 5 5 5 5 5 5 5 5 6 5 5 5 5 5 5 5 5 5 5 5 5 5 5 5 5 5 5 5 5 5 5 5 5 5 6 5 5 6 5 6 5 5 5 5 6 6 5 5 6 6 5 6 6 6 5 5 5 5 5 6 5 5 5 5 6 5 5 5 6 5 5 6 5 5 6 5 5 5 6 5 5 6 6 5 5 5 5 5 5 5 5 5 5 6 5 5 5 6 5 5 5 6 5 5 5 5 6 5 5 5 6 5 5 5 6 5 5 5 6 5 5 5 5 5 5 5 6 5 5 6 5 5 5 5 5 6 5 5 5 5 5 6 5 5 5 5 5 5 5 5 5 5 6 5 5 5 5 5 5 5 5 5 5 5 5 5 5 5 5 6 5 5 5 6 5 5 5 5 5 6 5 5 5 5 5 5 5 5 5 5 5 5 5 5 5 5 5 5 6 5 5 5 5 6 5 5 5 6 5 6 5 5 5 5 5 6 5 6 6 6 5 5 5 6 5 5 5 5 5 6 5 5 5 5 5 5 5 5 5 5 5 6 5 5 6 6 5 5 5 5 5 5 5 6 5 6 5 5 5 5 5 5 5 5 5 5 5 5 5 6 5 5 5 5 6 6 5 5 6 5 5 6 5 5 5 6 6 5 5 5 5 5 6 5 5 5 5 5 5 5 5 5 5 5 6 5 5 5 5 5 5 5 5 6 5 5 5 5 5 5 5 5 6 5 5 5 5 5 5 5 6 5 5 5 5 5 5 6 5 5 6 5 5 5 5 5 6 5 5 5 6 6 6 5 6 5 5 5 5 5 5 5 5 5 5 5 5 5 5 5 5 5 5 5 5 6 5 6 5 5 5 5 5 5 5 5 5 5 5 5 5 5 5 5 5 5 5 5 5 5 5 5 5 5 5 5 5 5 5 5 6 5 5 5 5 5 5 5 5 5 5 5 5 6 6 5 5 5 5 5 5 5 6 5 5 5 5 5 6 5 5 5 5 6 5 5 5 6 5 5 5 5 6 5 5 5 6 6 5 5 5 5 5 6 5 5 6 6 5 5 6 5 5 6 5 5 5 6 6 5 5 5 5 5 5 5 5 5 5 6 5 5 6 5 5 6 5 5 6 6 5 5 5 5 5 5 5 5 5 5 5 5 5 5 5 5 6 6 5 5 5 5 5 5 5 5 6 5 5 5 6 5 5 5 5 6 5 5 5 5 5 5 6 5 5 5 6 5 5 5 5 5 5 5 5 5 5 5 5 5 5 5 5 5 5 5 5 5 5 5 5 5 5 5 6 5 5 5 5 6 5 5 5 5 5 5 5 5 5 5 5 5 5 5 6 5 5 5 5 5 5 5 6 5 6 5 5 5 5 6 5 5 5 5 6 5 5 5 5 6 5 5 6 5 5 5 5 6 5 5 5 6 5 6 5 6 5 6 6 5 5 5 5 5 5 5 5 5 5 5 5 5 5 5 5 5 5 5 5 5 5 5 5 5 5 5 5 5 5 5 5 5 5 5 5 5 5 5 6 5 5 5 5 5 5 6 5 5 5 5 5 5 5 5 5 5 5 5 5 5 5 5 5 5 5 5 5 5 5 5 5 5 5 5 5 5 5 5 5 5 5 5 5 5 5 5 5 5 5 5 5 6 5 5 5 5 5 5 5 6 5 5 5 5 5 5 5 5 5 5 5 5 5 5 5 5 5 5 5 5 5 5 5 5 5 5 5 5 5 5 5 5 5 5 5 5 5 5 5 5 5 5 5 5 5 5 5 5 5 5 5 5 5 5 5 5 5 5 5 6 6 5 5 5 5 5 5 5 6 5 5 6 6 6 5 6 5 5 5 5 5 6 5 5 6 5 5 5 5 5 5 5 5 5 5 5 5 5 5 5 5 5 5 5 5 6 5 5 5 6 5 5 6 6 6 5 5 5 5 5 6 6 5 5 5 5 5 5 5 6 5 5 5 5 5 5 5 5 5 5 5 5 5 5 5 5 5 5 5 5 5 5 5 5 5 5 5 5 5 6 5 5 5 6 5 5 5 5 5 6 5 5 5 6 6 5 5 5 5 5 6 5 5 5 6 5 5 6 6 5 5 6 5 6 5 5 6 5 5 5 5 5 6 5 5 5 5 5 5 5 5 5 5 5 5 5 5 5 5 5 5 5 5 5 5 5 5 6 5 5 5 5 5 5 5 5 5 5 5 5 5 5 5 5 6 5 5 5 5 5 5 5 5 5 5 5 5 5 5 5 5 5 5 5 5 5 5 5 6 5 5 5 5 5 5 5 5 5 5 5 5 5 5 5 6 5 5 5 5 5 5 5 5 5 6 5 5 5 5 6 5 6 5 6 5 5 5 5 5 5 6 5 5 5 6 6 5 5 5 5 5 5 5 6 5 5 5 6 5 6 6 5 5 5 5 5 5 6 5 5 5 5 5 5 5 5 5 5 5 6 5 5 5 6 5 5 5 5 5 5 5 5 5 6 5 5 5 5 5 6 5 5 5 5 6 5 5 5 5 5 5 5 6 5 5 5 5 5 5 6 5 5 5 5 5 5 5 5 5 5 5 5 5 5 5 5 5 5 5 5 5 5 6 5 5 5 5 5 5 5 5 5 5 6 5 5 5 5 5 6 5 5 5 6 6 5 5 5 6 5 5 5 6 5 5 5 6 5 5 5 5 5 5 5 6 5 5 5 6 5 5 5 5 6 5 5 5 5 5 5 5 5 6 5 5 5 6 6 5 5 5 6 5 6 5 5 6 5 5 5 5 5 6 5 5 5 5 5 5 6 5 5 5 5 5 5 5 6 5 5 6 5 5 5 5 6 5 5 6 5 6 5 5 5 5 5 6 5 5 5 5 5 5 5 6 5 6 6 5 5 6 5 5 5 5 5 5 5 6 6 5 5 5 5 5 6 6 5 5 5 5 6 6 5 5 6 5 6 5 5 5 6 5 5 6 5 6 6 5 6 5 6 5 5 5 5 6 5 6 5 6 6 5 6 6 5 5 5 6 5 5 5 5 5 6 6 5 6 5 6 5 5 6 5 6 5 6 6 6 5 5 5 5 5 6 6 5 6 5 6 5 5 5 5 5 6 6 6 5 5 5 5 6 5 5 5 6 5 6 5 5 5 5 5 5 6 5 5 5 6 5 5 5 5 5 5 6 5 5 6 5 6 5 6 5 5 5 6 5 6 5 6 5 5 5 5 6 5 5 6 5 5 6 6 5 5 5 6 5 5 5 6 5 6 5 5 6 6 5 6 5 6 5 5 5 6 6 5 6 5 5 5 5 5 5 6 5 5 6 5 5 5 6 5 5 5 5 5 5 6 5 5 5 6 6 5 5 5 5 6 5 5 5 5 5 6 5 5 5 5 6 5 5 5 6 5 5 5 5 6 5 5 5 5 5 5 6 5 5 6 5 5 5 5 6 5 5 5 6 5 6 5 5 5 5 6 5 5 6 5 5 5 5 5 5 5 5 5 5 5 5 5 5 5 5 5 5 5 5 6 6 5 5 5 5 5 6 5 6 6 6 6 5 5 5 6 5 6 6 5 5 5 5 5 6 5 6 5 5 6 5 
</DataArray>
<DataArray type="Float64" Name="stress" NumberOfComponents="9" format="ascii">
3497.8386909484034 -224.97590203741444 0 -224.97590203741444 -163.05049007932445 0 0 0 0 3254.9920106681639 -97.811460920267336 0 -97.811460920267336 -3.4339511155872771 0 0 0 0 3081.4204987740741 -55.629217007827464 0 -55.629217007827464 0.44793639700703636 0 0 0 0 3154.4945291527183 -408.93391569839321 0 -408.93391569839321 -239.88058010095253 0 0 0 0 2977.4333255449965 -82.893472519018673 0 -82.893472519018673 -11.331860272545015 0 0 0 0 3233.2541436878819 -117.33416110997712 0 -117.33416110997712 -18.585121705244838 0 0 0 0 3.7848410361274389 -1.8527812706109898 0 -1.8527812706109898 1.1156420388210684 0 0 0 0 1664.4737051128359 140.59801539301807 0 140.59801539301807 -14.63939401316269 0 0 0 0 2741.0258889135002 695.39443470279502 0 695.39443470279502 198.1962936344421 0 0 0 0 -69.59454395177454 -33.276448317255429 0 -33.276448317255429 -0.24022978760256472 0 0 0 0 -2.4524466426491358 2.7257316984543252 0 2.7257316984543252 21.322115231436918 0 0 0 0 3868.8082777248346 858.28201781194343 0 858.28201781194343 10.047331053675293 0 0 0 0 3410.8859848085558 1339.557634983315 0 1339.557634983315 549.65643108109339 0 0 0 0 16.27310528999061 10.514189857880609 0 10.514189857880609 8.6200499593473907 0 0 0 0 3014.8027267188008 2110.5232316615711 0 2110.5232316615711 589.68461594995301 0 0 0 0 0.3723875096195286 1.195086342843922 0 1.195086342843922 2.2911269484614665 0 0 0 0 -9.8759728125151014 -87.351457868258322 0 -87.351457868258322 -39.274838767223649 0 0 0 0 37.709983398439363 92.873112727438638 0 92.873112727438638 160.13442371139536 0 0 0 0 9.2309817321920491 43.372851090853104 0 43.372851090853104 1.7309614659726265 0 0 0 0 25.74895104336241 0.6713913399971716 0 0.6713913399971716 -18.438974993415499 0 0 0 0 -3.8231415578128747 7.3954200375619052 0 7.3954200375619052 11.109058038621463 0 0 0 0 121.68150122439692 10.492692822345191 0 10.492692822345191 -16.597359784738728 0 0 0 0 47.393115632003173 109.98395067004242 0 109.98395067004242 129.83886043012581 0 0 0 0 31.478451744515041 -9.2363927629823195 0 -9.2363927629823195 -14.082950336339534 0 0 0 0 1100.4340007308638 616.99840018489908 0 616.99840018489908 249.88615450832475 0 0 0 0 3137.4743728644826 170.26886301956421 0 170.26886301956421 -13.455787349863925 0 0 0 0 2470.382465372968 -60.984266544564846 0 -60.984266544564846 51.260451275427783 0 0 0 0 2128.260258750408 873.31766915585024 0 873.31766915585024 152.26138347443271 0 0 0 0 27.785837992996676 2.1438282483335609 0 2.1438282483335609 0.027827367474352618 0 0 0 0 466.71806518065569 351.28157804983039 0 351.28157804983039 160.34814754078363 0 0 0 0 -0.32277311894625882 -1.6738886370643513 0 -1.6738886370643513 0.67235902380557966 0 0 0 0 264.30299268259841 -93.474830351794523 0 -93.474830351794523 0.81284026611679361 0 0 0 0 180.36475962059922 115.49506582697558 0 115.49506582697558 -17.053727677755774 0 0 0 0 122.18044361268403 -139.24253625962345 0 -139.24253625962345 -59.501866780874664 0 0 0 0 170.03717297455296 74.434248405381084 0 74.434248405381084 86.321656450890856 0 0 0 0 209.70203027963726 76.524408011285345 0 76.524408011285345 -10.725715018057599 0 0 0 0 90.305851651355624 88.630405098485085 0 88.630405098485085 84.423977439137616 0 0 0 0 180.73527699048282 37.160084555858361 0 37.160084555858361 -60.225808089372322 0 0 0 0 175.30036291455053 82.302095063081453 0 82.302095063081453 -7.4411287015475409 0 0 0 0 132.06519190523082 73.898998703868415 0 73.898998703868415 35.496671611072451 0 0 0 0 114.83097083331086 156.78683633105902 0 156.78683633105902 31.717777255649708 0 0 0 0 54.765734225276617 22.745065893367496 0 22.745065893367496 -4.4700752994138711 0 0 0 0 168.7300562159362 71.686474945621285 0 71.686474945621285 -1.1509016967811476 0 0 0 0 62.806880619950846 -0.42047923537278109 0 -0.42047923537278109 0.62087007212930612 0 0 0 0 68.357103550639295 43.898006091100342 0 43.898006091100342 26.911389988166775 0 0 0 0 6.4247797605507913 35.749086599413161 0 35.749086599413161 23.467110041040065 0 0 0 0 244.92829460378562 -166.71557036900768 0 -166.71557036900768 159.9283376020918 0 0 0 0 93.504874824873696 394.40809728216846 0 394.40809728216846 -165.97762068310294 0 0 0 0 82.863605655750462 39.229804376978016 0 39.229804376978016 17.956812947803606 0 0 0 0 79.557556807470974 27.301429681068839 0 27.301429681068839 -24.46164425058214 0 0 0 0 96.909985754822571 23.023124892494494 0 23.023124892494494 -14.724509208451115 0 0 0 0 75.263836654705074 155.5876810287053 0 155.5876810287053 256.2652648793628 0 0 0 0 108.74314354540442 -1.7069281518174577 0 -1.7069281518174577 3.9619834812960164 0 0 0 0 74.941966199068702 -174.59584098317464 0 -174.59584098317464 127.87148653245276 0 0 0 0 -3.4697146575745137 -117.76131057827979 0 -117.76131057827979 -787.18895596832226 0 0 0 0 -75.962342347222148 -192.15756388566297 0 -192.15756388566297 -240.46015963799255 0 0 0 0 113.60053201565461 50.199459277739152 0 50.199459277739152 12.564916985455056 0 0 0 0 59.720630775487052 49.918298934545803 0 49.918298934545803 10.616673155403078 0 0 0 0 1757.5062475749583 52.216177668762477 0 52.216177668762477 66.414177199957734 0 0 0 0 1494.706397144284 337.12521454580303 0 337.12521454580303 -95.348601161027361 0 0 0 0 1477.7312865841377 189.57887098413934 0 189.57887098413934 9.619382124403085 0 0 0 0 1882.1632172408099 428.16414128593419 0 428.16414128593419 150.20273562046344 0 0 0 0 954.4849036711621 -60.003556664350299 0 -60.003556664350299 38.535665677455228 0 0 0 0 7.6250918140844988 7.3559535374554059 0 7.3559535374554059 5.3380081999212008 0 0 0 0 663.39699814462801 523.33071940051104 0 523.33071940051104 109.30525058692332 0 0 0 0 1412.9767258698121 601.79295887194644 0 601.79295887194644 24.237542872520883 0 0 0 0 1306.5627769866696 172.84308948543904 0 172.84308948543904 -63.742714663628249 0 0 0 0 1378.2720947087073 322.93019171700473 0 322.93019171700473 -26.347004770255779 0 0 0 0 1106.5186393125477 -49.757254672743727 0 -49.757254672743727 56.102470683455351 0 0 0 0 1658.1063681005471 118.77926681969227 0 118.77926681969227 -50.584152497385759 0 0 0 0 1439.2677842302655 191.75370649879414 0 191.75370649879414 -59.680685935839534 0 0 0 0 1408.4972813036293 247.8588327195416 0 247.8588327195416 128.61300078462284 0 0 0 0 1343.6737184414233 172.66197745236514 0 172.66197745236514 244.38590763704576 0 0 0 0 96.287830038286046 70.894988372963937 0 70.894988372963937 37.283700259375308 0 0 0 0 3516.2572790168342 2701.9705551893121 0 2701.9705551893121 -1999.7004267191226 0 0 0 0 21.247536160947647 26.468008896048545 0 26.468008896048545 38.682838923852209 0 0 0 0 -817.99039713728416 1393.9622107141695 0 1393.9622107141695 1398.2713014433257 0 0 0 0 -1878.2619565501082 662.87750161889517 0 662.87750161889517 1013.5879975981743 0 0 0 0 3675.8129653955111 -4085.5475533465928 0 -4085.5475533465928 -1287.2330104093139 0 0 0 0 -1545.0202110134487 1142.7800328660071 0 1142.7800328660071 1391.6158789764113 0 0 0 0 32.274987640445715 24.079387909669194 0 24.079387909669194 23.435917124889723 0 0 0 0 2384.5535013736517 4411.4022338472842 0 4411.4022338472842 2062.8750407326088 0 0 0 0 277.0460236509025 -661.02544291574486 0 -661.02544291574486 -1941.1604301424213 0 0 0 0 326.75768473276548 288.85982065936059 0 288.85982065936059 -1555.2756903969948 0 0 0 0 183.37905795090046 531.92206645193801 0 531.92206645193801 -876.58921004201056 0 0 0 0 -782.59535680114641 -1293.3826671323513 0 -1293.3826671323513 -495.13644577904233 0 0 0 0 1049.9669630112185 1902.5123241288784 0 1902.5123241288784 -2218.0140278820836 0 0 0 0 2844.711442765547 -1026.5193256765224 0 -1026.5193256765224 -2151.9736839930515 0 0 0 0 -1504.5205731592287 -1626.8563161613956 0 -1626.8563161613956 -2179.8705826056139 0 0 0 0 38.630634011953504 20.369692170544745 0 20.369692170544745 -11.713372539196548 0 0 0 0 2508.5492099589392 1921.3727602943154 0 1921.3727602943154 1184.025669943597 0 0 0 0 438.89562322378515 556.04556871894681 0 556.04556871894681 596.98143712612546 0 0 0 0 -966.99959045016294 201.74224985992532 0 201.74224985992532 2152.6039658035988 0 0 0 0 481.22389351423408 480.64104676460397 0 480.64104676460397 635.2895884716545 0 0 0 0 -535.82651245893794 -380.05483040566833 0 -380.05483040566833 991.06207652396097 0 0 0 0 672.99793031816989 324.08796323749561 0 324.08796323749561 258.61526883171791 0 0 0 0 -47.523986635700567 52.042707452392278 0 52.042707452392278 447.23432050737028 0 0 0 0 745.57893510346912 577.69918119030262 0 577.69918119030262 381.56951732489233 0 0 0 0 1533.647799525781 925.37598573134255 0 925.37598573134255 507.76827863722156 0 0 0 0 2308.7117458838075 174.79276961419509 0 174.79276961419509 -77.274926851405326 0 0 0 0 1258.7029519558855 54.514469248062369 0 54.514469248062369 -86.103131529493112 0 0 0 0 1100.2311317113708 298.0622070190152 0 298.0622070190152 -55.545489092579317 0 0 0 0 1584.3967821057377 373.28989702971194 0 373.28989702971194 -49.069928619976963 0 0 0 0 877.40600472177903 330.19400201763028 0 330.19400201763028 149.96792360506197 0 0 0 0 532.51536703083548 272.62061172734548 0 272.62061172734548 243.08264579717888 0 0 0 0 -515.95341820816611 999.30608635818317 0 999.30608635818317 -1501.3446441927317 0 0 0 0 3222.280689164354 -426.86433627093299 0 -426.86433627093299 54.532161365791126 0 0 0 0 1358.0414784257009 -398.45941545753249 0 -398.45941545753249 229.08951970385806 0 0 0 0 1210.1683987093602 72.753183135587051 0 72.753183135587051 -58.782262825486669 0 0 0 0 1161.579209191761 25.422203016090862 0 25.422203016090862 -82.284565675035083 0 0 0 0 590.2844290870853 -264.99776342163341 0 -264.99776342163341 257.4990817342532 0 0 0 0 443.43962603394903 94.112549610834435 0 94.112549610834435 81.176305698707438 0 0 0 0 69.032941778592431 86.812445159897678 0 86.812445159897678 82.752344637498027 0 0 0 0 262.13532063918683 302.70258156331329 0 302.70258156331329 -1393.1760736642964 0 0 0 0 30.944244902473653 -3.8606366970320209 0 -3.8606366970320209 -84.952420446697772 0 0 0 0 1351.7378726657043 -368.95332648357544 0 -368.95332648357544 134.73856551033543 0 0 0 0 2413.7008432579169 -404.37081710915453 0 -404.37081710915453 -150.75214086758956 0 0 0 0 2453.5289380291215 -350.31316362777414 0 -350.31316362777414 -200.84033252798139 0 0 0 0 2882.7223174296232 -884.95240236680399 0 -884.95240236680399 -288.88421661847985 0 0 0 0 3500.2388290969998 -611.44988515941077 0 -611.44988515941077 -443.29227846843486 0 0 0 0 2954.0954199527987 -464.61592040768926 0 -464.61592040768926 -230.0017632246508 0 0 0 0 4.9925499447616417 -5.1509329251706788 0 -5.1509329251706788 3.434656317188661 0 0 0 0 2835.6872132692515 -171.78322155178279 0 -171.78322155178279 -61.28588991612645 0 0 0 0 1387.8961251244327 143.10591697933316 0 143.10591697933316 104.98697469354761 0 0 0 0 1.7237924029079057 -13.996447287142985 0 -13.996447287142985 -19.41614716083885 0 0 0 0 2083.4816545670747 -326.12558232899698 0 -326.12558232899698 -21.489038276187557 0 0 0 0 1664.5376182190885 1475.9310879999452 0 1475.9310879999452 9626.925867021062 0 0 0 0 2859.2371459261776 -528.93926798440134 0 -528.93926798440134 -156.79975208119617 0 0 0 0 2566.2471896146017 -125.94622312498751 0 -125.94622312498751 -60.477345348815447 0 0 0 0 84.732635481781472 -7.6934726798084014 0 -7.6934726798084014 6.4602996360815723 0 0 0 0 -1.3757505639937619 -0.43924771829156839 0 -0.43924771829156839 -2.3171851228032061 0 0 0 0 85.48398073358112 -3.8650959339749917 0 -3.8650959339749917 12.285444890378995 0 0 0 0 174.72799198669964 -45.539566661432673 0 -45.539566661432673 -25.103646901888339 0 0 0 0 181.04121003648106 -72.885790294794703 0 -72.885790294794703 -10.687070251468867 0 0 0 0 90.253936700610211 -28.663096973276932 0 -28.663096973276932 29.054193289465246 0 0 0 0 0.74896074835740478 1.7403052035957671 0 1.7403052035957671 3.368992804943316 0 0 0 0 163.50657030060393 -76.618675903780598 0 -76.618675903780598 45.362091463847719 0 0 0 0 182.221208156785 -78.944502439967664 0 -78.944502439967664 33.746169235425896 0 0 0 0 0.77529549782482476 0.73163276478018702 0 0.73163276478018702 -0.080374157643569699 0 0 0 0 115.11671961141838 -25.641368067011978 0 -25.641368067011978 9.5394640927365941 0 0 0 0 0.72944082485894057 -0.1092370866875001 0 -0.1092370866875001 0.46983538641065331 0 0 0 0 145.39703874723637 -41.516136251927215 0 -41.516136251927215 3.3302037979361501 0 0 0 0 1.4010825487707308 1.4768325198412811 0 1.4768325198412811 0.86277205839786031 0 0 0 0 105.85839060033322 -31.269471246207075 0 -31.269471246207075 59.861683718818824 0 0 0 0 226.85790638219623 -75.555301012186973 0 -75.555301012186973 -49.483397222492144 0 0 0 0 0.4162619043906659 -0.1092333865225612 0 -0.1092333865225612 -0.60942557286899857 0 0 0 0 175.32425940152461 -68.564497337431035 0 -68.564497337431035 102.99354281100412 0 0 0 0 0.66844751690393878 0.45655081445582368 0 0.45655081445582368 0.11906706594101424 0 0 0 0 287.8657199536683 -97.967991147327282 0 -97.967991147327282 -85.984671940772628 0 0 0 0 3.9227840256862692 11.487704631794935 0 11.487704631794935 0.0091443474188479829 0 0 0 0 14.124114978672878 -10.139208076721181 0 -10.139208076721181 -2.5683343379032522 0 0 0 0 0.091693309756564645 -0.23372516832927204 0 -0.23372516832927204 0.17605931639125372 0 0 0 0 160.21293350281849 -26.311476017850289 0 -26.311476017850289 1.3442574101787415 0 0 0 0 153.93370681122178 -21.151346636266339 0 -21.151346636266339 -1.3902605920255127 0 0 0 0 10.954124794559903 8.5927860191833645 0 8.5927860191833645 -2.5683343379085244 0 0 0 0 179.21971453930018 -27.224337007858026 0 -27.224337007858026 -2.3735764275260038 0 0 0 0 162.44196675934654 -36.790791923071026 0 -36.790791923071026 -1.4623212036766517 0 0 0 0 170.16957965315669 -30.986668169129771 0 -30.986668169129771 -1.9750949487651539 0 0 0 0 163.98696677852422 -25.364205271552272 0 -25.364205271552272 0.0069154506942508583 0 0 0 0 178.06463337275636 -24.258300080877717 0 -24.258300080877717 -0.0072679550549179413 0 0 0 0 183.44537628857506 -32.327483944382521 0 -32.327483944382521 -2.4576891925760549 0 0 0 0 190.68879035733517 -20.215611123923029 0 -20.215611123923029 4.0229899678046905 0 0 0 0 187.56361269933404 -40.551091649625363 0 -40.551091649625363 -2.6813473403097987 0 0 0 0 162.01458547948278 -27.121044999375457 0 -27.121044999375457 -1.0221296105083986 0 0 0 0 154.36148867549491 -32.641961554376643 0 -32.641961554376643 0.86936671029283019 0 0 0 0 155.82862069968542 -38.76499332320364 0 -38.76499332320364 6.574397393449317 0 0 0 0 141.54794497588591 -35.328334041420376 0 -35.328334041420376 -0.8312018933596903 0 0 0 0 230.05163239932153 -52.17890562350982 0 -52.17890562350982 1.5593192256398964 0 0 0 0 137.08661170024425 -50.930796615677963 0 -50.930796615677963 64.771240219202014 0 0 0 0 192.55173824657686 -22.622490406032483 0 -22.622490406032483 6.615996822552404 0 0 0 0 203.48803607862283 -5.3230586269517488 0 -5.3230586269517488 28.865168390045582 0 0 0 0 165.7660800147975 -56.612892052478728 0 -56.612892052478728 -21.944033192064559 0 0 0 0 192.34122805195511 -21.837445297485608 0 -21.837445297485608 10.857256388968203 0 0 0 0 46.232675067350158 7.9943206902092072 0 7.9943206902092072 -6.4584018150658693 0 0 0 0 418.35894319863291 -18.916249542293372 0 -18.916249542293372 -127.52436160935667 0 0 0 0 -173.28163950566886 -552.71109626544398 0 -552.71109626544398 -58.32679775399447 0 0 0 0 40.701217573710892 32.504073322181284 0 32.504073322181284 48.040711401273256 0 0 0 0 164.21380534966011 18.955369821308068 0 18.955369821308068 1.3681299028494323 0 0 0 0 293.86203271170234 -67.722719076119574 0 -67.722719076119574 -265.45884105927325 0 0 0 0 79.955294574144375 -25.196698668329304 0 -25.196698668329304 -5.1226302322146253 0 0 0 0 92.744630388968574 -26.56321730059264 0 -26.56321730059264 -25.870484354686845 0 0 0 0 232.43138088136038 -17.549439236534557 0 -17.549439236534557 -3.3784580544243141 0 0 0 0 188.82149609474436 -11.991532005850498 0 -11.991532005850498 -3.3940565704550352 0 0 0 0 195.11862046153692 -21.296033458209834 0 -21.296033458209834 -4.8159906752059385 0 0 0 0 181.24086838989751 -14.051977341851195 0 -14.051977341851195 -1.5170858268239868 0 0 0 0 181.06355527571577 -23.056345786267212 0 -23.056345786267212 -4.8925346879245462 0 0 0 0 180.04539313728856 -13.989536468988394 0 -13.989536468988394 -0.79860942426873294 0 0 0 0 156.26650480009266 -20.96195049787346 0 -20.96195049787346 -0.01951219962962026 0 0 0 0 180.88317151920637 -13.257495121068144 0 -13.257495121068144 -1.1049807532996709 0 0 0 0 183.29874811752234 -12.815259192143046 0 -12.815259192143046 -1.284817577708921 0 0 0 0 190.15449521419941 -18.485036363229916 0 -18.485036363229916 -0.15242452136908469 0 0 0 0 14.53634670495461 -6.646260859360595 0 -6.646260859360595 -6.8580149500726968 0 0 0 0 182.05966174553032 -13.225760793215137 0 -13.225760793215137 -1.5983451159715187 0 0 0 0 41.747659332092667 -32.796680073627641 0 -32.796680073627641 -11.173784614130199 0 0 0 0 181.08222815518093 -15.408460083822249 0 -15.408460083822249 -1.1317215704556247 0 0 0 0 122.79362579795998 24.200175834478159 0 24.200175834478159 -3.0350460223485243 0 0 0 0 117.506463055106 14.105279545262945 0 14.105279545262945 0.51935245225531368 0 0 0 0 81.372548101116934 23.721087554789634 0 23.721087554789634 1.3884501415323585 0 0 0 0 72.843653864212683 14.608200927503372 0 14.608200927503372 22.664314670699074 0 0 0 0 140.20650545634999 22.311803503253817 0 22.311803503253817 -4.687991134533533 0 0 0 0 14.917664443614711 2.710713224236315 0 2.710713224236315 -0.32872019982202866 0 0 0 0 106.69140767250792 8.1019188270829741 0 8.1019188270829741 -0.0016600611936692998 0 0 0 0 47.105965052563988 33.122378545847972 0 33.122378545847972 8.8105263635832269 0 0 0 0 27.054733490135817 14.82367636737095 0 14.82367636737095 5.8146314820961624 0 0 0 0 168.58858515489555 178.55369448529854 0 178.55369448529854 66.261352054756912 0 0 0 0 112.83463361568283 28.763844719606883 0 28.763844719606883 6.0508441180532859 0 0 0 0 104.62251919031041 149.55284995621969 0 149.55284995621969 110.18598216036116 0 0 0 0 195.11520454083802 93.862911015652571 0 93.862911015652571 -22.064795482414866 0 0 0 0 150.93619357963442 76.376478095753214 0 76.376478095753214 32.338620357405439 0 0 0 0 221.40076738577773 103.95930938206584 0 103.95930938206584 -26.450817682860361 0 0 0 0 224.68105003371602 60.514262964285081 0 60.514262964285081 -91.70777945629743 0 0 0 0 94.872053322644206 -2.4475819534218317 0 -2.4475819534218317 9.8422574697838172 0 0 0 0 121.5795302312372 4.0623894785894237 0 4.0623894785894237 -24.049828730302131 0 0 0 0 263.20035151745833 122.55568683638739 0 122.55568683638739 -70.253356114314556 0 0 0 0 212.54793288900328 143.53010835418354 0 143.53010835418354 85.84921262988064 0 0 0 0 267.43138361329693 140.35081462597009 0 140.35081462597009 85.04802928673962 0 0 0 0 243.35965205662342 161.47423579309202 0 161.47423579309202 69.808681248345238 0 0 0 0 226.59973769049247 88.643264931740305 0 88.643264931740305 176.42950904729332 0 0 0 0 9.877576660817823 9.4551260198603089 0 9.4551260198603089 -1.2884402049586328 0 0 0 0 108.81727208683151 159.67120919475838 0 159.67120919475838 -52.310906108927156 0 0 0 0 32.272668735285251 -1.9657442285520474 0 -1.9657442285520474 4.2793683230926511 0 0 0 0 166.8915885205497 193.35901605564868 0 193.35901605564868 192.39556034231828 0 0 0 0 89.264906535237969 92.994517454910238 0 92.994517454910238 156.92499991447403 0 0 0 0 97.332732695824234 -238.56246411836037 0 -238.56246411836037 -969.1198173118155 0 0 0 0 -262.00895029617823 -48.719057846896249 0 -48.719057846896249 -462.50606009763942 0 0 0 0 218.2868269936298 -318.68565268010934 0 -318.68565268010934 -659.00408593771454 0 0 0 0 211.20492057820957 -218.45466474374371 0 -218.45466474374371 -989.90186692325278 0 0 0 0 10.966225319200234 -1.1222005361294691 0 -1.1222005361294691 -1.8213728646329379 0 0 0 0 250.64352910652451 -411.68300170929956 0 -411.68300170929956 -641.06022737205512 0 0 0 0 519.72089149762905 666.66305900812449 0 666.66305900812449 580.96834829859154 0 0 0 0 31.098255268383582 -110.05149241075651 0 -110.05149241075651 -937.05662918990674 0 0 0 0 -138.44822472644773 -455.30290203172831 0 -455.30290203172831 -326.85505726065821 0 0 0 0 -52.55053257959662 -156.87085988129911 0 -156.87085988129911 70.713118657462473 0 0 0 0 180.70139309850492 -350.56519470120838 0 -350.56519470120838 -297.16706449332696 0 0 0 0 182.87037895619505 -312.61041832320757 0 -312.61041832320757 -68.045586745240144 0 0 0 0 358.88800348294171 -223.12960507094067 0 -223.12960507094067 -34.96359582446712 0 0 0 0 0.47244256261910778 -230.1187000970549 0 -230.1187000970549 128.13153667665756 0 0 0 0 52.64613702094357 -322.11119970651635 0 -322.11119970651635 -343.81712144945959 0 0 0 0 -101.7873051478673 -281.29210442977865 0 -281.29210442977865 154.11321206108187 0 0 0 0 -7.2501204848813359 -510.36190326770793 0 -510.36190326770793 -620.94120847143085 0 0 0 0 142.21587378814002 12.112405602354556 0 12.112405602354556 194.04882201817475 0 0 0 0 347.70367347638239 325.3179679431928 0 325.3179679431928 502.55690008421072 0 0 0 0 223.01149120907212 -35.377464507289915 0 -35.377464507289915 254.82304888633644 0 0 0 0 119.23986977336244 -13.678902756843399 0 -13.678902756843399 283.73726324650306 0 0 0 0 540.58865921435063 137.04617683025117 0 137.04617683025117 218.35066065891033 0 0 0 0 347.4775128251058 93.939220677994399 0 93.939220677994399 330.06979043088722 0 0 0 0 457.50610458647134 84.02165807836036 0 84.02165807836036 184.91698658429323 0 0 0 0 390.85627610421943 -37.35378805388973 0 -37.35378805388973 213.84440999455546 0 0 0 0 435.67598374327645 -87.643562981053037 0 -87.643562981053037 164.24116922024041 0 0 0 0 388.37826049539512 -89.517541891553648 0 -89.517541891553648 172.80013813492405 0 0 0 0 459.50798151549679 -19.842840857264946 0 -19.842840857264946 138.10627474210742 0 0 0 0 480.95987448267988 11.744680111468824 0 11.744680111468824 183.57596629731052 0 0 0 0 246.83743677809252 -70.519911643069463 0 -70.519911643069463 230.12794268748803 0 0 0 0 412.74760519129632 -11.221892993145957 0 -11.221892993145957 245.01000689374723 0 0 0 0 358.39666991997365 -120.05831797194242 0 -120.05831797194242 217.92104727046717 0 0 0 0 119.03523161216435 -197.97962565318335 0 -197.97962565318335 194.73206141486662 0 0 0 0 371.97007684085838 -170.32759078931667 0 -170.32759078931667 174.21553002685368 0 0 0 0 488.89803727104299 -243.32970915384931 0 -243.32970915384931 51.286292281914939 0 0 0 0 433.28813523688586 -264.56773048887771 0 -264.56773048887771 138.2802473871584 0 0 0 0 319.81547455352484 -179.86751747165408 0 -179.86751747165408 143.8177127531726 0 0 0 0 431.9389329590922 -172.89783594941946 0 -172.89783594941946 110.2201960151142 0 0 0 0 466.11142214961001 -117.37056246132215 0 -117.37056246132215 162.80563224527941 0 0 0 0 451.52806347509613 -139.11041500212013 0 -139.11041500212013 44.849027934835249 0 0 0 0 591.11503716779407 -135.65734639875609 0 -135.65734639875609 118.2209066414398 0 0 0 0 0.36008416510900076 1.5889407761668952 0 1.5889407761668952 0.78927582021894604 0 0 0 0 325.12320895415905 -258.98861608960669 0 -258.98861608960669 292.46262886815293 0 0 0 0 359.21245081821689 -1.626381625544127 0 -1.626381625544127 -147.41375061675899 0 0 0 0 -307.74190423229447 19.769040800960511 0 19.769040800960511 185.04351164038553 0 0 0 0 101.40549540720531 -126.2205098182967 0 -126.2205098182967 261.8591199784214 0 0 0 0 123.06656741631741 -78.763647912454871 0 -78.763647912454871 97.117266297943388 0 0 0 0 407.99273959081256 -195.28019474306848 0 -195.28019474306848 137.13192536401948 0 0 0 0 2.7976237911643693 -23.401007644538822 0 -23.401007644538822 156.1643647107494 0 0 0 0 102.80260865728815 -122.97440016130759 0 -122.97440016130759 76.033169210943015 0 0 0 0 1.3500965017271511 2.5967574854690683 0 2.5967574854690683 1.1054785519721886 0 0 0 0 212.40835736783629 58.534554160796688 0 58.534554160796688 -300.22865994080166 0 0 0 0 -16.209013592553674 -33.67368291206094 0 -33.67368291206094 21.3153091329159 0 0 0 0 463.04982042734082 -155.71895881399837 0 -155.71895881399837 -130.88028762789691 0 0 0 0 -58.147222600833629 -43.990246164205018 0 -43.990246164205018 19.150154931994621 0 0 0 0 347.35634611670685 -454.03859275730429 0 -454.03859275730429 348.33597743553491 0 0 0 0 120.27227429237973 -77.167587384456965 0 -77.167587384456965 -40.362797425581448 0 0 0 0 4.2436245586432051 -525.39574723491205 0 -525.39574723491205 -184.67280684649268 0 0 0 0 540.78135983948778 -90.118901315807079 0 -90.118901315807079 -236.84226791232868 0 0 0 0 659.21978763920197 -276.9288759131091 0 -276.9288759131091 -604.54787252121696 0 0 0 0 774.03864947195689 -18.084384583678002 0 -18.084384583678002 -217.77109206659861 0 0 0 0 1025.5889581639713 236.69191702592343 0 236.69191702592343 -282.35201340611366 0 0 0 0 356.64042977303325 242.11111353600063 0 242.11111353600063 72.910716901915293 0 0 0 0 728.47780410172163 -394.70869091695999 0 -394.70869091695999 -466.49518113376325 0 0 0 0 873.75309948074573 141.7383894937343 0 141.7383894937343 -92.145258100021238 0 0 0 0 -0.74021217454007626 -1.7094692691272542 0 -1.7094692691272542 -1.5553797764123871 0 0 0 0 -798.24148785755824 -575.13044134444726 0 -575.13044134444726 281.22418796970305 0 0 0 0 63.425507136213128 145.49579216267466 0 145.49579216267466 154.44796822188164 0 0 0 0 -512.40375646533357 85.375570403140955 0 85.375570403140955 386.33711246844268 0 0 0 0 222.95395537602599 -40.140544442039285 0 -40.140544442039285 37.942455683809996 0 0 0 0 266.57514992335928 -303.92258072459299 0 -303.92258072459299 -94.253723341498699 0 0 0 0 167.16818578878872 -59.901780191960093 0 -59.901780191960093 -20.189413407476721 0 0 0 0 235.87191241083929 -39.279239595798572 0 -39.279239595798572 -113.49042501874931 0 0 0 0 50.280760843475143 2.3853993362974677 0 2.3853993362974677 0.34337427402633192 0 0 0 0 111.35831961489748 -10.095948675527325 0 -10.095948675527325 23.84992084729852 0 0 0 0 144.59829411347164 -17.549512319425393 0 -17.549512319425393 20.438060510810487 0 0 0 0 22.586283161072473 -0.21340012310912471 0 -0.21340012310912471 4.1977007600471348 0 0 0 0 123.81341376467026 -32.441090115298842 0 -32.441090115298842 9.9438335533218591 0 0 0 0 66.497833707231621 -40.981497560130393 0 -40.981497560130393 -3.544687666438131 0 0 0 0 60.106578871238746 -47.314450939545978 0 -47.314450939545978 -15.073539429257689 0 0 0 0 101.75081870821305 -32.419002155301769 0 -32.419002155301769 -7.5277171170723705 0 0 0 0 59.379453944691704 -22.770340367292988 0 -22.770340367292988 -9.5035533161670163 0 0 0 0 61.703986694177729 -21.468496578538236 0 -21.468496578538236 -17.780354723880919 0 0 0 0 35.096370647789087 -28.391234792903372 0 -28.391234792903372 -2.9757804462931112 0 0 0 0 59.789779118465958 -25.719554439228432 0 -25.719554439228432 -12.245265012337768 0 0 0 0 75.305279812664196 -0.92022778995838905 0 -0.92022778995838905 -15.193244175342679 0 0 0 0 67.04997392873338 28.395337203578038 0 28.395337203578038 -216.80515395851489 0 0 0 0 19.41819159174338 69.837224587718083 0 69.837224587718083 -77.451806790023511 0 0 0 0 11.361914564344772 -1.2298407659251609 0 -1.2298407659251609 -0.90928940224574006 0 0 0 0 89.74093962754705 -37.96398194166386 0 -37.96398194166386 -5.220078962342086 0 0 0 0 73.90329335998689 -50.954437384638922 0 -50.954437384638922 -16.666731653864748 0 0 0 0 53.744823137036292 -102.2448946744928 0 -102.2448946744928 -92.671214893406614 0 0 0 0 -59.966853885790442 -89.589719947136473 0 -89.589719947136473 88.477780555578647 0 0 0 0 11.933707082929899 -12.528727414783955 0 -12.528727414783955 -1.9819617076938396 0 0 0 0 145.67871331544302 -115.77968422383219 0 -115.77968422383219 16.095259979776074 0 0 0 0 435.23745580553441 -305.30561613320288 0 -305.30561613320288 52.489770954389314 0 0 0 0 130.72701705721192 -112.37558940946906 0 -112.37558940946906 75.34069044770149 0 0 0 0 -15.786559284690156 -65.620619652834648 0 -65.620619652834648 70.92341350519655 0 0 0 0 33.895427709081559 -82.821923727550711 0 -82.821923727550711 -96.322967280432295 0 0 0 0 51.086431508141686 -36.926240156211861 0 -36.926240156211861 -16.826200419243833 0 0 0 0 -52.179359709119126 -90.762539330386289 0 -90.762539330386289 5.5925440481732949 0 0 0 0 0.83114515105262399 -84.41393934547159 0 -84.41393934547159 6.3034382588909921 0 0 0 0 -12.567252003642352 -59.971674405292561 0 -59.971674405292561 69.253871373366565 0 0 0 0 5.4911173489316383 -5.5863937650647459 0 -5.5863937650647459 0.95335962953996134 0 0 0 0 2.4987251255800231 -3.5096316618158045 0 -3.5096316618158045 -1.0079596707134018 0 0 0 0 85.365153812570497 3.8168155062885489 0 3.8168155062885489 -104.65693694509253 0 0 0 0 -7.1842154627665877 -18.874600411030769 0 -18.874600411030769 22.302953989552407 0 0 0 0 56.578815615866915 -37.982163450996268 0 -37.982163450996268 1.1394452561848993 0 0 0 0 223.11908589309314 -68.084076398415618 0 -68.084076398415618 -100.5791518179376 0 0 0 0 4.6884752936657605 -3.3792839553697824 0 -3.3792839553697824 -0.74110173177626137 0 0 0 0 27.667655724253564 3.331803845991999 0 3.331803845991999 -8.2714592361833184 0 0 0 0 -32.569167487468803 -165.91770586744133 0 -165.91770586744133 -75.255163533248606 0 0 0 0 16.73556423176133 -6.10304383105656 0 -6.10304383105656 -20.069306792272471 0 0 0 0 20.371586085432682 -16.028545281308489 0 -16.028545281308489 -10.505036259849419 0 0 0 0 56.720547250472009 -34.047651674545705 0 -34.047651674545705 -16.883003703267605 0 0 0 0 9.4137059153909348 -11.036658057698254 0 -11.036658057698254 -8.5723963266361256 0 0 0 0 22.296450810579699 -6.0383933902703575 0 -6.0383933902703575 -15.915705664994675 0 0 0 0 15.325689927703934 -22.723876899592142 0 -22.723876899592142 12.632166699999289 0 0 0 0 27.623901375345824 -25.384434720485068 0 -25.384434720485068 -24.83891618474134 0 0 0 0 36.758198717947394 -19.418142732054775 0 -19.418142732054775 1.1983863493380262 0 0 0 0 18.76296643570339 -3.834396107113772 0 -3.834396107113772 -10.160179336679022 0 0 0 0 44.548011204418543 -14.827908115212109 0 -14.827908115212109 -14.57593655577212 0 0 0 0 29.369423883705167 9.8770233116066493 0 9.8770233116066493 -6.8724180854542283 0 0 0 0 20.650631709772966 -13.932406606723518 0 -13.932406606723518 -5.8839898599923846 0 0 0 0 68.369789270800538 36.23689595525957 0 36.23689595525957 -100.71887525374859 0 0 0 0 23.279782781086396 -28.740617188882254 0 -28.740617188882254 14.279665521882407 0 0 0 0 250.53329843461688 22.949749675331077 0 22.949749675331077 -144.00779356360727 0 0 0 0 16.05150153227093 -31.375810651903528 0 -31.375810651903528 -3.0640360899434533 0 0 0 0 10.994419041644505 -29.024308445412998 0 -29.024308445412998 44.9927790637812 0 0 0 0 24.0974083479814 8.8451620542923592 0 8.8451620542923592 151.2671051182715 0 0 0 0 60.433363865507999 13.979350391047774 0 13.979350391047774 -152.91949417472233 0 0 0 0 95.944880647351965 -72.671779640203795 0 -72.671779640203795 -44.980928876031612 0 0 0 0 168.38431856529323 -136.67506219379001 0 -136.67506219379001 -20.487133981319857 0 0 0 0 168.78606835225946 -15.566293271518589 0 -15.566293271518589 -35.977847452055357 0 0 0 0 70.4231547174968 -58.533191886434224 0 -58.533191886434224 -52.981135858513881 0 0 0 0 -49.368544736935291 34.295463931835911 0 34.295463931835911 -14.450925490713416 0 0 0 0 2.0336310711143426 -1.189694610153857 0 -1.189694610153857 -6.2441136850914667 0 0 0 0 22.459386661095778 23.968901180181547 0 23.968901180181547 -72.325065852503712 0 0 0 0 -40.077075474575395 26.565201785249428 0 26.565201785249428 -85.930723501009481 0 0 0 0 15.650178902271875 5.0450206007881597 0 5.0450206007881597 -7.9133857858400223 0 0 0 0 57.114793243585154 -84.108128330811269 0 -84.108128330811269 71.746523456362411 0 0 0 0 34.252357914675827 -7.6343127734663696 0 -7.6343127734663696 -8.2354462370071495 0 0 0 0 22.159505627969338 -28.026434846676977 0 -28.026434846676977 3.0992818289719253 0 0 0 0 17.984272124886047 4.2405317403026856 0 4.2405317403026856 16.663495662683545 0 0 0 0 18.316013843228575 -11.789622001693715 0 -11.789622001693715 12.181128851343374 0 0 0 0 15.536925886612153 -17.639671194408038 0 -17.639671194408038 0.49809332730092137 0 0 0 0 15.797689026949229 -21.689536104804574 0 -21.689536104804574 -34.834419520411473 0 0 0 0 21.986183212739888 6.6840578016177403 0 6.6840578016177403 -37.744393439006672 0 0 0 0 21.659704570018221 10.256496791947939 0 10.256496791947939 -10.763745304380791 0 0 0 0 16.677892115114105 -4.7656988528561577 0 -4.7656988528561577 -5.9039457395131141 0 0 0 0 33.290030828029444 -11.274947894389292 0 -11.274947894389292 -9.1011954548736824 0 0 0 0 60.147138549073134 -20.472351411746558 0 -20.472351411746558 -32.604145729337688 0 0 0 0 52.299327803943015 -47.030867333359765 0 -47.030867333359765 10.147207243875073 0 0 0 0 65.615576067210895 -0.66315030583564294 0 -0.66315030583564294 3.9167831668137296 0 0 0 0 93.864074911223724 -47.22451461001765 0 -47.22451461001765 9.7435091235208802 0 0 0 0 82.984069488540626 -8.2781599078619763 0 -8.2781599078619763 5.9561553298553918 0 0 0 0 30.128462790496997 6.0615137340441834 0 6.0615137340441834 -11.517146113730405 0 0 0 0 87.48379948856018 -42.861261259453386 0 -42.861261259453386 47.621748307094094 0 0 0 0 12.055580949410796 20.603088579702671 0 20.603088579702671 -71.034947899025155 0 0 0 0 28.754393626702949 15.190655567072554 0 15.190655567072554 -67.400217810308959 0 0 0 0 34.946286573598627 -3.9876599818985596 0 -3.9876599818985596 -41.143143899856341 0 0 0 0 41.312873129459263 -0.25321394119976048 0 -0.25321394119976048 -5.4748583025149111 0 0 0 0 19.984976454975339 13.26735304660248 0 13.26735304660248 -17.536038583334637 0 0 0 0 26.634262795270701 -10.500805141837454 0 -10.500805141837454 -12.119749818324546 0 0 0 0 60.642145857360447 4.6807999847446808 0 4.6807999847446808 -56.566557064690642 0 0 0 0 60.436567185181843 26.841015627301218 0 26.841015627301218 -24.634779843098968 0 0 0 0 84.279961932266957 -10.297457637806502 0 -10.297457637806502 -22.804857374816766 0 0 0 0 50.293393555406539 -18.959652917843812 0 -18.959652917843812 -10.304623670752934 0 0 0 0 49.153776118363965 15.977574356534888 0 15.977574356534888 -6.4421506442158343 0 0 0 0 23.308115651617527 -15.303842688930285 0 -15.303842688930285 -0.20021722731779823 0 0 0 0 36.6993868520658 -5.9079096581235717 0 -5.9079096581235717 -26.747034330981478 0 0 0 0 48.260665626867734 -26.016354454807392 0 -26.016354454807392 -1.4415033225005933 0 0 0 0 19.68411181634292 -14.753081994400418 0 -14.753081994400418 -19.259793288482115 0 0 0 0 19.660733972903074 -18.881613840123702 0 -18.881613840123702 -3.4971583344459711 0 0 0 0 56.913169596751686 -1.7871632582911161 0 -1.7871632582911161 -50.305971748879529 0 0 0 0 31.983205208984629 10.727716741272147 0 10.727716741272147 -7.1324368404097065 0 0 0 0 78.491955068879179 -31.756638996910468 0 -31.756638996910468 -63.862868645055968 0 0 0 0 62.802854202178423 1.1703626416432371 0 1.1703626416432371 -8.257037332873324 0 0 0 0 54.594432613816025 1.7121276137894554 0 1.7121276137894554 -3.4617993806977827 0 0 0 0 60.108680958568584 2.0380737927395103 0 2.0380737927395103 -6.6180292703128885 0 0 0 0 62.996571375266868 -1.9922189864750806 0 -1.9922189864750806 -8.9459134439968775 0 0 0 0 112.28251104049559 -65.394805061886018 0 -65.394805061886018 -70.732911171193791 0 0 0 0 50.037563084577044 -16.192600322855498 0 -16.192600322855498 -1.2419539765141336 0 0 0 0 56.169370092494603 -2.0346885694271606 0 -2.0346885694271606 -5.9198197200641012 0 0 0 0 38.318359079537913 -26.503489954309771 0 -26.503489954309771 -57.650225856586076 0 0 0 0 51.839923021849245 0.78339251550778499 0 0.78339251550778499 -16.110809162152691 0 0 0 0 37.922432770739817 6.8188090079034112 0 6.8188090079034112 -2.5823550650311198 0 0 0 0 89.859017624286935 -34.182718584572285 0 -34.182718584572285 8.7726555440542597 0 0 0 0 52.980775847338748 -16.519131396513146 0 -16.519131396513146 6.0751384154635293 0 0 0 0 102.19104230806988 -10.706399456935287 0 -10.706399456935287 -13.691688187241084 0 0 0 0 88.237413942420972 -2.5296104217559332 0 -2.5296104217559332 7.1722702094762099 0 0 0 0 128.06911188774393 -29.656773718905356 0 -29.656773718905356 -2.6314280043693543 0 0 0 0 117.55837047895329 -31.01823716340084 0 -31.01823716340084 36.327117678705235 0 0 0 0 133.24567887702142 3.6298642239671608 0 3.6298642239671608 -29.782226880364121 0 0 0 0 12.801295718032264 -2.7159720145006645 0 -2.7159720145006645 -5.1571415313781728 0 0 0 0 64.698571691646066 -21.450165490937845 0 -21.450165490937845 -26.727649830691803 0 0 0 0 61.371781480876962 -17.499421948950562 0 -17.499421948950562 11.724041960955262 0 0 0 0 57.608802949063829 -22.510155091913894 0 -22.510155091913894 20.813755378096715 0 0 0 0 43.254848232281802 183.08284185991363 0 183.08284185991363 -222.69752727595881 0 0 0 0 216.95564166222903 -90.463103721190464 0 -90.463103721190464 -369.23920418696281 0 0 0 0 126.80788307221883 -35.478928496994627 0 -35.478928496994627 134.27389125576997 0 0 0 0 163.93849499394128 97.845748756574721 0 97.845748756574721 -167.54866278291433 0 0 0 0 72.43830110804538 -16.545939133411423 0 -16.545939133411423 -67.709782305541921 0 0 0 0 76.562748635594289 -26.491011755458601 0 -26.491011755458601 -101.83620716243649 0 0 0 0 52.329817454934528 -16.865164717558855 0 -16.865164717558855 -30.516129993446953 0 0 0 0 67.713164392791441 -12.787631374459522 0 -12.787631374459522 -78.820347732314985 0 0 0 0 53.353975175312371 60.36842870053556 0 60.36842870053556 -162.31831378959987 0 0 0 0 45.737181737868468 28.228047924792861 0 28.228047924792861 -23.372142518815963 0 0 0 0 64.104372128134855 -5.9011149473881233 0 -5.9011149473881233 -40.833672283003295 0 0 0 0 1.8428545196636064 0.20238968998110352 0 0.20238968998110352 -22.246620309861164 0 0 0 0 0.984804682928484 -0.62484785947116706 0 -0.62484785947116706 -5.3029773134698184 0 0 0 0 44.394851248638588 -79.823274929966828 0 -79.823274929966828 -19.249017351192833 0 0 0 0 -2.3093287345316185 -19.170042737563094 0 -19.170042737563094 -63.70756176511486 0 0 0 0 65.111911784457334 -40.010290677590092 0 -40.010290677590092 -27.993013792271086 0 0 0 0 -166.99645430360397 -31.399717672818497 0 -31.399717672818497 -26.326260653018835 0 0 0 0 6.7704349808445841 -5.5438036035461664 0 -5.5438036035461664 -90.467095713403523 0 0 0 0 43.855319553353183 -75.981658053785168 0 -75.981658053785168 -94.917619055083378 0 0 0 0 -112.53940353747021 129.66810623197102 0 129.66810623197102 -75.130860095850494 0 0 0 0 -220.49196712154662 -249.14210613145315 0 -249.14210613145315 -193.36811497918472 0 0 0 0 -0.62665899558894456 1.1709574724264158 0 1.1709574724264158 -7.6871876508039989 0 0 0 0 181.16417508359882 -67.870810302204291 0 -67.870810302204291 -505.43332755516849 0 0 0 0 374.75077936835078 42.149622504314948 0 42.149622504314948 -215.50370242019449 0 0 0 0 166.68006729792614 -68.761698921861523 0 -68.761698921861523 -178.138409058364 0 0 0 0 396.54448402713751 -0.76873806816263368 0 -0.76873806816263368 -164.0509507219781 0 0 0 0 565.12707223945836 153.59002952724632 0 153.59002952724632 -144.0593580499858 0 0 0 0 301.49421319155726 68.491741583023682 0 68.491741583023682 -88.337992964051409 0 0 0 0 488.56349923743619 -10.327077665146021 0 -10.327077665146021 -164.27787570923329 0 0 0 0 71.536835057471762 -114.50693865844937 0 -114.50693865844937 -179.55378152156487 0 0 0 0 293.64046181632148 -39.831468184831238 0 -39.831468184831238 -226.78836359904608 0 0 0 0 41.430565622832546 60.698279859546801 0 60.698279859546801 -262.04839378350789 0 0 0 0 -1.0740825248225008 -0.20309774425806637 0 -0.20309774425806637 0.60406391584822572 0 0 0 0 124.60041744054615 104.26921137014006 0 104.26921137014006 -200.35843503982051 0 0 0 0 226.03970329350705 -143.6922979518622 0 -143.6922979518622 90.239354550319376 0 0 0 0 50.066957950752112 -18.288709558815754 0 -18.288709558815754 83.357655782011079 0 0 0 0 -1.0040129010272949 0.93036704991823171 0 0.93036704991823171 0.68689282261045026 0 0 0 0 285.97658204663458 -23.672927429099673 0 -23.672927429099673 -187.42784060194208 0 0 0 0 4.5828443630562106 68.121873025804007 0 68.121873025804007 -28.515458423446034 0 0 0 0 -117.15270989708733 70.868699810719363 0 70.868699810719363 -22.025419828974918 0 0 0 0 435.91764227916974 -122.20638561942849 0 -122.20638561942849 99.960302542884165 0 0 0 0 446.36975689345854 -68.149550779402489 0 -68.149550779402489 162.57887784390277 0 0 0 0 457.11091747947648 -44.232050358713877 0 -44.232050358713877 -129.2984681113121 0 0 0 0 305.49330007896788 -22.64842375713306 0 -22.64842375713306 -13.017305098347535 0 0 0 0 273.37770785460089 -70.479896051112291 0 -70.479896051112291 -14.842883064388843 0 0 0 0 506.28712760632334 -60.304218045591369 0 -60.304218045591369 -84.425477573744502 0 0 0 0 462.93418022886181 9.6300367481251214 0 9.6300367481251214 -1.3081792756092909 0 0 0 0 440.46987832516243 -61.835726862450429 0 -61.835726862450429 -192.26197630473507 0 0 0 0 553.46154419138475 -33.451118601943108 0 -33.451118601943108 -128.51143429717501 0 0 0 0 620.08706595299009 58.293860260843189 0 58.293860260843189 -16.909737998491437 0 0 0 0 509.83950270212881 -25.59992366027177 0 -25.59992366027177 77.968086728466005 0 0 0 0 585.83758874284104 13.35847956786256 0 13.35847956786256 53.041379478306226 0 0 0 0 538.59427983518981 -37.535537022775316 0 -37.535537022775316 -1.7255922226134999 0 0 0 0 491.20031065067451 -11.273547180173864 0 -11.273547180173864 140.2165361118532 0 0 0 0 470.30062823023763 -59.807719381914239 0 -59.807719381914239 59.221538492167383 0 0 0 0 643.7164389483296 179.12495692583946 0 179.12495692583946 55.418896976487304 0 0 0 0 659.6497212441609 119.58070440746133 0 119.58070440746133 115.11678678213411 0 0 0 0 581.82028502816911 57.069790929304929 0 57.069790929304929 64.912951832802719 0 0 0 0 765.41958949880654 95.491208548694203 0 95.491208548694203 -27.853738888415592 0 0 0 0 766.16689091859007 89.696696257312396 0 89.696696257312396 -4.357981176715839 0 0 0 0 635.92889732726508 29.838418835035554 0 29.838418835035554 -7.6612270526438806 0 0 0 0 814.42443734333938 178.93089314459303 0 178.93089314459303 -45.613138997933675 0 0 0 0 739.21933509346854 115.20787422350031 0 115.20787422350031 -82.958331864658362 0 0 0 0 756.28030742461488 64.759572222050224 0 64.759572222050224 50.59482167449687 0 0 0 0 645.583877568155 48.324455951642676 0 48.324455951642676 -70.288621641539066 0 0 0 0 596.99117608755478 112.39159726723778 0 112.39159726723778 -102.21244872386154 0 0 0 0 608.38858665693624 89.05055222625839 0 89.05055222625839 -100.00043626701631 0 0 0 0 716.84648988790286 198.37316950945467 0 198.37316950945467 -75.136214390255773 0 0 0 0 727.385145205968 167.76024037050706 0 167.76024037050706 13.713458214834191 0 0 0 0 843.32193547572388 274.52542716424409 0 274.52542716424409 -83.26561074714914 0 0 0 0 791.51399132808365 267.82522973901905 0 267.82522973901905 -66.24218013724203 0 0 0 0 867.67521890102944 285.5845700053984 0 285.5845700053984 -140.52571647331683 0 0 0 0 801.67899148913511 206.66051760870374 0 206.66051760870374 -146.97243869482236 0 0 0 0 624.96476058821281 123.51827253891486 0 123.51827253891486 -109.09837119055786 0 0 0 0 897.39493022749957 157.86251363298572 0 157.86251363298572 -119.32306546857399 0 0 0 0 849.56754987372915 192.85679400783533 0 192.85679400783533 -106.05872904932562 0 0 0 0 961.05895811432492 301.72575657783 0 301.72575657783 -137.8128667494093 0 0 0 0 915.85435091031832 303.99905148759467 0 303.99905148759467 -115.12203541078202 0 0 0 0 1009.4038737867986 356.22828152344073 0 356.22828152344073 -86.636500116879688 0 0 0 0 1216.2453267936471 348.54455011843834 0 348.54455011843834 -27.729020580919268 0 0 0 0 918.12327150400233 285.45316044304843 0 285.45316044304843 10.815958681791699 0 0 0 0 1217.123663778937 271.44944203148179 0 271.44944203148179 -50.004619718441973 0 0 0 0 1116.3162540623271 134.01359197301781 0 134.01359197301781 154.04468422306275 0 0 0 0 1062.971776293979 171.78481566244071 0 171.78481566244071 -111.38996694979915 0 0 0 0 617.98225413665205 -86.295500615669084 0 -86.295500615669084 47.380610463762736 0 0 0 0 632.17212956012008 -49.514181707766056 0 -49.514181707766056 53.672185006091695 0 0 0 0 983.57621225800904 -276.30291532270974 0 -276.30291532270974 54.119111987053202 0 0 0 0 473.95123051791779 -258.40848819375481 0 -258.40848819375481 222.89175465603103 0 0 0 0 397.30477267491005 60.018579362557261 0 60.018579362557261 -6.3625894742422133 0 0 0 0 598.74847585292082 162.09192961164069 0 162.09192961164069 -136.59945849137148 0 0 0 0 390.56189371169421 -21.935209582312723 0 -21.935209582312723 -27.755346788287852 0 0 0 0 241.28887329396821 143.72796027176162 0 143.72796027176162 -193.04846314171328 0 0 0 0 77.682475800960674 -63.344316745432138 0 -63.344316745432138 35.659831195246852 0 0 0 0 -322.45963137718195 -282.36889215293394 0 -282.36889215293394 60.591079038451198 0 0 0 0 -256.84317824004029 228.06323501818827 0 228.06323501818827 -214.736346519113 0 0 0 0 -135.19560815876503 -210.14414591656873 0 -210.14414591656873 246.02020021599265 0 0 0 0 42.261222316183193 4.8095161174420014 0 4.8095161174420014 68.831961855475356 0 0 0 0 237.0977604866639 -132.6209598170683 0 -132.6209598170683 161.97673225041274 0 0 0 0 142.98317471152404 -111.28791934566584 0 -111.28791934566584 184.57027776375298 0 0 0 0 133.17920135462555 -64.931868244494581 0 -64.931868244494581 156.40733404217076 0 0 0 0 108.91959906996271 -127.61150242936424 0 -127.61150242936424 459.31869137725198 0 0 0 0 74.075759555176774 -166.6675292529743 0 -166.6675292529743 317.19412133182618 0 0 0 0 75.55244943863363 -193.76464082742768 0 -193.76464082742768 241.15294096560206 0 0 0 0 58.493853923919232 -208.70077284047636 0 -208.70077284047636 284.07754322221444 0 0 0 0 71.03040071037185 -197.05058630478544 0 -197.05058630478544 271.71770654933744 0 0 0 0 53.106874458630045 -202.22878831177968 0 -202.22878831177968 271.60952320713892 0 0 0 0 64.540297675186594 8.7601452179910666 0 8.7601452179910666 3.1539784892660236 0 0 0 0 2.008378998053729 -0.27261772484652624 0 -0.27261772484652624 -1.3798066331488554 0 0 0 0 8.585269149269152 38.661837622101757 0 38.661837622101757 18.117631410810191 0 0 0 0 0.79767067074928377 0.43809783081248099 0 0.43809783081248099 -0.55414986506183261 0 0 0 0 91.700121405097889 -69.907615835024899 0 -69.907615835024899 42.603389032595828 0 0 0 0 -19.55977432752843 -35.931268455864029 0 -35.931268455864029 56.08146011741627 0 0 0 0 49.102274591605237 27.728702693093737 0 27.728702693093737 15.756054086876247 0 0 0 0 89.365317506320935 -71.68165514219163 0 -71.68165514219163 -21.776925129336178 0 0 0 0 92.376049836471793 -53.96217289863398 0 -53.96217289863398 -27.280542870376962 0 0 0 0 247.2347104132914 -214.06082562360524 0 -214.06082562360524 129.81711407682542 0 0 0 0 513.27183431074809 -263.737379939108 0 -263.737379939108 107.44025710732012 0 0 0 0 2.2083303188436787 -1.0263474392679939 0 -1.0263474392679939 -3.496833186566612 0 0 0 0 203.32974086257309 -360.87922032699862 0 -360.87922032699862 313.09252632267226 0 0 0 0 203.86569217522629 -286.43423908942992 0 -286.43423908942992 187.39811955539153 0 0 0 0 110.00246949864959 -245.74153649588607 0 -245.74153649588607 192.42660337154803 0 0 0 0 24.480544786558312 -211.29795661672392 0 -211.29795661672392 285.32391582573518 0 0 0 0 63.401709494490206 -193.76987540187213 0 -193.76987540187213 79.413089484801731 0 0 0 0 498.38398460653843 -202.96099339647628 0 -202.96099339647628 29.45026094628372 0 0 0 0 66.564865229815041 -274.22830273470197 0 -274.22830273470197 327.73968133199378 0 0 0 0 30.907110792162712 24.926053450287093 0 24.926053450287093 -29.653543272267349 0 0 0 0 -30.304333940526703 88.73386666536922 0 88.73386666536922 -22.005195003492016 0 0 0 0 130.82977453681087 56.83663913162269 0 56.83663913162269 22.75594913393882 0 0 0 0 6.108621361270572 25.685199111190286 0 25.685199111190286 6.7094502527317852 0 0 0 0 10.332316267947554 2.5317844682143544 0 2.5317844682143544 1.3650597482930953 0 0 0 0 110.53235147232772 33.370399744538773 0 33.370399744538773 16.211299793121576 0 0 0 0 154.17319725474954 35.93084895872466 0 35.93084895872466 -3.3549352189829804 0 0 0 0 112.58828713740877 26.291834567465685 0 26.291834567465685 -6.7300142654216302 0 0 0 0 136.10497601555835 15.833867702122149 0 15.833867702122149 -7.3017500463859051 0 0 0 0 70.77725090675429 18.816689584328252 0 18.816689584328252 -4.1609684227008241 0 0 0 0 9.70979026949135 27.042676111276279 0 27.042676111276279 30.909311658269701 0 0 0 0 146.94176009044895 -3.1952505109375124 0 -3.1952505109375124 -249.18545862834213 0 0 0 0 23.611218355774895 14.686700951955302 0 14.686700951955302 2.5331090936995659 0 0 0 0 1.5273065128276357 44.212227666293657 0 44.212227666293657 -3.6942235634548366 0 0 0 0 9.4286033674556506 15.5439770647465 0 15.5439770647465 5.2468146523947183 0 0 0 0 33.818971684375924 13.167833972872472 0 13.167833972872472 -4.9136366212555247 0 0 0 0 2022.8060269955022 -2834.5387745845956 0 -2834.5387745845956 3008.4224686259299 0 0 0 0 2192.6900024303086 -1630.8504307010126 0 -1630.8504307010126 1124.9156390571161 0 0 0 0 5.3973465901168538 3.1680664275631898 0 3.1680664275631898 3.1470778562638979 0 0 0 0 2662.9975929599823 -1505.3802960157889 0 -1505.3802960157889 402.51682122411967 0 0 0 0 3496.9018807766188 -2254.1280197694286 0 -2254.1280197694286 1021.4925781841159 0 0 0 0 2403.0210267126386 -1778.0414896802686 0 -1778.0414896802686 1042.8697312745819 0 0 0 0 9.7649936879170127 11.791783637772006 0 11.791783637772006 -22.568132584630376 0 0 0 0 2027.6828987187364 -1102.0322495383837 0 -1102.0322495383837 457.04406279424541 0 0 0 0 3499.824263027182 -1487.5444831550919 0 -1487.5444831550919 27.964686215329841 0 0 0 0 2712.2170240360574 -847.91859032649279 0 -847.91859032649279 -279.17121908450224 0 0 0 0 2010.0172111057836 -1243.2681934398888 0 -1243.2681934398888 479.79494014387132 0 0 0 0 1653.121786835909 -390.39885152373711 0 -390.39885152373711 84.270633950533977 0 0 0 0 -72.72569931124599 14.155969862877262 0 14.155969862877262 162.68468292023402 0 0 0 0 44.560186542353676 22.105648161376209 0 22.105648161376209 -2.1640004041329828 0 0 0 0 111.67437411946594 58.0600853085989 0 58.0600853085989 -56.192012745160454 0 0 0 0 158.20789355615852 -77.277222459695778 0 -77.277222459695778 44.67957154882356 0 0 0 0 22.068300872463237 34.237305787472394 0 34.237305787472394 15.062674291889776 0 0 0 0 49.930397346066286 34.392459005359285 0 34.392459005359285 -8.9261180688229391 0 0 0 0 141.52548441673889 95.045613245806379 0 95.045613245806379 120.82983385412535 0 0 0 0 597.02931656012515 -54.905444516941543 0 -54.905444516941543 28.437754125795095 0 0 0 0 703.86728711861178 136.8595735186808 0 136.8595735186808 -75.830580326265135 0 0 0 0 610.7176907797475 160.35921716309258 0 160.35921716309258 -62.970836121880893 0 0 0 0 1020.5906113735255 165.07795001896216 0 165.07795001896216 -119.92844450209441 0 0 0 0 1214.0433633646926 354.97695090556402 0 354.97695090556402 -35.033319635811495 0 0 0 0 354.36563662892877 -6.1372494641007052 0 -6.1372494641007052 -83.405462480067172 0 0 0 0 484.39860726048209 266.86486427886825 0 266.86486427886825 161.42512523044297 0 0 0 0 931.42079558694968 174.60009088531342 0 174.60009088531342 -78.644374290380483 0 0 0 0 999.74382409168174 240.70719037276103 0 240.70719037276103 -66.83360128853792 0 0 0 0 917.29021022593952 155.27939741567684 0 155.27939741567684 -9.9476836561452728 0 0 0 0 1029.3039654552049 140.42324023818264 0 140.42324023818264 -116.84835759823955 0 0 0 0 1016.9843958638166 155.89131012924088 0 155.89131012924088 -109.26119203051121 0 0 0 0 1165.3446886858437 53.013594155663895 0 53.013594155663895 -61.300122598179314 0 0 0 0 890.17963243628765 123.94268743440239 0 123.94268743440239 -56.108972010584125 0 0 0 0 921.79639802006204 73.209166477396025 0 73.209166477396025 -7.364105073295832 0 0 0 0 825.29665033173842 125.18715531380951 0 125.18715531380951 218.33610816743885 0 0 0 0 1028.437138744448 48.407280925127452 0 48.407280925127452 -4.0200559127317774 0 0 0 0 1019.3890063561339 92.80252120330033 0 92.80252120330033 -15.035009414311389 0 0 0 0 1208.3969150846237 -204.76449449237833 0 -204.76449449237833 303.06961915104648 0 0 0 0 1392.3174517356238 468.18021686699615 0 468.18021686699615 -75.089000002537887 0 0 0 0 913.88552252567752 346.99441308605583 0 346.99441308605583 556.35550999455199 0 0 0 0 848.06528495603925 254.16527931393841 0 254.16527931393841 -1.0287774295666168 0 0 0 0 914.42130549387366 306.96716503366952 0 306.96716503366952 40.195077040882211 0 0 0 0 282.76307830770384 31.113592027199161 0 31.113592027199161 -35.120068654056695 0 0 0 0 36.06196042316833 30.294888961644588 0 30.294888961644588 117.24837306196105 0 0 0 0 410.63235099967278 305.32987244560843 0 305.32987244560843 164.45149119302863 0 0 0 0 1297.4072510630215 739.01824634384764 0 739.01824634384764 261.22084724948513 0 0 0 0 1196.365207804738 -426.1472647415444 0 -426.1472647415444 -16.568938672330773 0 0 0 0 7.1957701527647373 0.26741732056921297 0 0.26741732056921297 0.062428233297461388 0 0 0 0 203.10246456661116 113.04679452889434 0 113.04679452889434 -13.54792287499572 0 0 0 0 16.642175873138569 7.1829540799418865 0 7.1829540799418865 2.208852025451808 0 0 0 0 198.31466730535612 80.351826748072995 0 80.351826748072995 -42.917489056499107 0 0 0 0 100.47824749623396 10.74059572652709 0 10.74059572652709 -50.054280883826152 0 0 0 0 51.024259383069875 90.772623752078289 0 90.772623752078289 34.86612777633195 0 0 0 0 -35.130919003913732 31.630898622797758 0 31.630898622797758 37.47332981566251 0 0 0 0 279.85451409543384 -40.593832887913777 0 -40.593832887913777 -33.671962760857696 0 0 0 0 949.63319741830492 -81.119517874199346 0 -81.119517874199346 -97.297061114320968 0 0 0 0 227.56064854473425 -66.203328229281084 0 -66.203328229281084 50.917953116093031 0 0 0 0 441.21373892810516 -9.8447762713356042 0 -9.8447762713356042 -114.05554650342185 0 0 0 0 336.92496848418614 84.823253541168526 0 84.823253541168526 -56.670861496375892 0 0 0 0 -118.74606331104587 74.65915991188217 0 74.65915991188217 8.8674788771120348 0 0 0 0 912.15630736606545 349.20830783449969 0 349.20830783449969 -49.65595912775575 0 0 0 0 1005.2822747760474 293.62780851525667 0 293.62780851525667 -155.53917209576389 0 0 0 0 871.05086695005593 249.25056764446731 0 249.25056764446731 -90.733229134204933 0 0 0 0 734.72198079586815 215.81713198900184 0 215.81713198900184 -137.37984292238107 0 0 0 0 910.47072402400318 330.37208473793362 0 330.37208473793362 -86.869931211400399 0 0 0 0 709.04309703450417 228.0789125122667 0 228.0789125122667 -69.715150591116867 0 0 0 0 676.45188566477555 273.52763860189668 0 273.52763860189668 9.1729642308628172 0 0 0 0 444.11807056083853 97.77226331473048 0 97.77226331473048 19.260309615579025 0 0 0 0 904.76615196277999 383.51436567346946 0 383.51436567346946 33.771729330404924 0 0 0 0 327.04115047858795 145.7682129103124 0 145.7682129103124 -106.19144069409776 0 0 0 0 64.163739038376661 62.098896121757434 0 62.098896121757434 -13.14818549480492 0 0 0 0 486.36939150861872 94.971785391360072 0 94.971785391360072 -113.92762383617014 0 0 0 0 708.48510677035119 236.3383154168597 0 236.3383154168597 -85.489049539461575 0 0 0 0 336.99382528722708 168.50410937727867 0 168.50410937727867 18.580163105658585 0 0 0 0 39.644022642802156 155.25560812580034 0 155.25560812580034 -5.8273766845175032 0 0 0 0 295.53720575229636 82.286210280031241 0 82.286210280031241 -59.090122510243873 0 0 0 0 -18.367685725010233 43.375761311931456 0 43.375761311931456 -19.858169340584254 0 0 0 0 2456.210002649932 664.67456290416601 0 664.67456290416601 9.1785550289053788 0 0 0 0 1705.0037858249852 355.60378967302466 0 355.60378967302466 -95.096527120827034 0 0 0 0 0.12916769095868652 20.50407200387663 0 20.50407200387663 8.0898140465719006 0 0 0 0 780.19154138191425 581.74443732914779 0 581.74443732914779 386.81029097682313 0 0 0 0 56.016580913412326 117.49403076493627 0 117.49403076493627 -33.499318700874397 0 0 0 0 9.3287181082014285 96.589905677487423 0 96.589905677487423 -29.301750740553643 0 0 0 0 -0.66301528806096766 -0.19305123666813273 0 -0.19305123666813273 -0.92445104498868957 0 0 0 0 184.33442493212715 27.514097335139468 0 27.514097335139468 -24.37373867275528 0 0 0 0 988.0010652540077 415.04722515027652 0 415.04722515027652 -41.96257977819689 0 0 0 0 170.5919757920783 -203.57693808185081 0 -203.57693808185081 65.930782955401071 0 0 0 0 12.125841879591428 21.545290881243098 0 21.545290881243098 -0.31201060364748479 0 0 0 0 -160.90387328446855 -63.618760599583517 0 -63.618760599583517 179.58829399188471 0 0 0 0 12.061913034994628 3.0509970427267561 0 3.0509970427267561 -3.1795973902342816 0 0 0 0 97.707286748334695 30.333670935284253 0 30.333670935284253 8.482604311517207 0 0 0 0 1161.1941370565764 2575.6098125127151 0 2575.6098125127151 2466.9286378148618 0 0 0 0 3480.4454996435088 23.991442877145364 0 23.991442877145364 8.6028859328648313 0 0 0 0 6.4145614961215074 6.5050586778821469 0 6.5050586778821469 8.3711665081026894 0 0 0 0 -365.19863339977746 637.83433900339026 0 637.83433900339026 2750.4330185509139 0 0 0 0 430.32281684961345 -4.9996702364992416 0 -4.9996702364992416 -368.68663288043439 0 0 0 0 -6.0616438923862006 1.3440023048752323 0 1.3440023048752323 275.43482309479054 0 0 0 0 363.73700297051255 825.25133326554283 0 825.25133326554283 1295.5835535730075 0 0 0 0 373.71104657246906 503.69840005889773 0 503.69840005889773 725.0370065797531 0 0 0 0 1130.412599563304 1031.6997671740701 0 1031.6997671740701 551.24851125738769 0 0 0 0 1425.2250208307159 1096.1533727432229 0 1096.1533727432229 179.37821773854714 0 0 0 0 1219.5665168224805 995.16301071512191 0 995.16301071512191 288.43250383485548 0 0 0 0 3494.6025795346504 2077.6654873164921 0 2077.6654873164921 195.77252833288046 0 0 0 0 2221.4320394634706 1517.75409002282 0 1517.75409002282 -1.8234825080949975 0 0 0 0 2367.0660126844159 1261.1171836681326 0 1261.1171836681326 11.698513156646925 0 0 0 0 3500.4044155057381 1154.8452428969763 0 1154.8452428969763 -265.01535267489004 0 0 0 0 2905.0023013238306 429.2875904311731 0 429.2875904311731 15.243431857620322 0 0 0 0 2890.9124648141042 1073.299421168078 0 1073.299421168078 -237.29927787277461 0 0 0 0 3499.4066933600006 679.211978933914 0 679.211978933914 -150.97860156867651 0 0 0 0 -307.81225293379612 157.09319926436149 0 157.09319926436149 77.03067485863221 0 0 0 0 56.168582546633843 239.62812719862529 0 239.62812719862529 -53.362850639528574 0 0 0 0 3.0528000900043608 16.209371043685522 0 16.209371043685522 7.635673458402513 0 0 0 0 3918.8101323510346 657.01237282441764 0 657.01237282441764 -96.09497376808558 0 0 0 0 2.7906991044535632 5.6769547527644022 0 5.6769547527644022 2.9039152997056257 0 0 0 0 -564.16285012986157 133.68408886735224 0 133.68408886735224 60.609401250192718 0 0 0 0 2889.284547002866 888.33281043454701 0 888.33281043454701 80.741256131790749 0 0 0 0 382.46612813521642 545.22412116501391 0 545.22412116501391 15.664367489919918 0 0 0 0 1980.2603200994963 270.00340005999851 0 270.00340005999851 -253.89969112193853 0 0 0 0 1979.7115626687519 302.55222435422871 0 302.55222435422871 -242.95205196912389 0 0 0 0 1005.3658941601061 664.99364422734845 0 664.99364422734845 24.493958208718368 0 0 0 0 3059.3001275441889 273.21475728924952 0 273.21475728924952 -491.85004726665397 0 0 0 0 3499.4217750441458 678.62432549370067 0 678.62432549370067 -150.98957970671208 0 0 0 0 2935.9466510264319 309.25202433106926 0 309.25202433106926 -499.02735668732345 0 0 0 0 3500.0654329717731 85.549174299203372 0 85.549174299203372 -775.5960404462046 0 0 0 0 2854.9248439161092 -50.060077998420411 0 -50.060077998420411 -798.6901811415679 0 0 0 0 2794.4424433704735 69.672660694248634 0 69.672660694248634 -624.59669976696716 0 0 0 0 2663.5718963702475 8.7587713219032821 0 8.7587713219032821 -583.00407792287933 0 0 0 0 1954.3465344878059 -40.060910377466428 0 -40.060910377466428 -297.50019831767418 0 0 0 0 2315.4802633743857 381.86059846867875 0 381.86059846867875 -374.22450900204836 0 0 0 0 1354.2063228457482 349.53502938294741 0 349.53502938294741 -160.27252584535876 0 0 0 0 1662.9222747147687 107.21093893688044 0 107.21093893688044 -309.09869458995985 0 0 0 0 2187.4267618005579 -278.46763808476555 0 -278.46763808476555 -426.38330456408244 0 0 0 0 1519.8196585361802 -167.00707667866942 0 -167.00707667866942 -200.12000791525929 0 0 0 0 1562.1527965855112 -524.87036836089203 0 -524.87036836089203 -97.647318721827901 0 0 0 0 1384.1756200376512 -188.52046790381792 0 -188.52046790381792 -185.45839480530117 0 0 0 0 2126.6374851000874 -199.02745444060349 0 -199.02745444060349 -448.73021144333489 0 0 0 0 2666.3013507623009 -596.68406977591496 0 -596.68406977591496 -483.59502234378567 0 0 0 0 3499.8958975308433 -648.78482175234171 0 -648.78482175234171 -735.89448670898105 0 0 0 0 2845.9684990875994 -338.7710871930409 0 -338.7710871930409 -817.66235486850746 0 0 0 0 3499.2586988061048 -262.91487551965673 0 -262.91487551965673 -858.29700024745625 0 0 0 0 -39.268625585347763 -11.796644757591821 0 -11.796644757591821 -0.27634521191657768 0 0 0 0 -38.210876588087672 46.278674202198211 0 46.278674202198211 -60.425272074115128 0 0 0 0 -168.0047376525763 80.121112597581032 0 80.121112597581032 -30.970982561790152 0 0 0 0 -245.98837484294199 59.210808628625728 0 59.210808628625728 1.7015624088235199 0 0 0 0 -31.19088286155602 4.7317178170546867 0 4.7317178170546867 -61.773848432518207 0 0 0 0 3.6956594670555205 53.524308904835834 0 53.524308904835834 -31.591452050218322 0 0 0 0 300.45421791616536 37.06460503833091 0 37.06460503833091 -74.273315163021834 0 0 0 0 116.85335148922604 7.8425655321661907 0 7.8425655321661907 -108.78136993486714 0 0 0 0 124.89276268517824 38.986850175793961 0 38.986850175793961 -5.8514924272039934 0 0 0 0 158.11824095968041 -40.084077630649517 0 -40.084077630649517 0.51247959800707577 0 0 0 0 149.48829780863889 27.26497254448077 0 27.26497254448077 -85.910924773166698 0 0 0 0 -22.90397503722852 120.32447026859222 0 120.32447026859222 -18.806236173914385 0 0 0 0 -187.73722172641283 60.280614175163919 0 60.280614175163919 24.090448290445238 0 0 0 0 10.690742571465421 0.1354761139378482 0 0.1354761139378482 -0.99425757740746512 0 0 0 0 1283.8234157064835 -473.96048057292398 0 -473.96048057292398 110.00671732478162 0 0 0 0 1385.4753471417425 -466.69512197707547 0 -466.69512197707547 100.79555656553839 0 0 0 0 31.883130141782701 9.4192593185289724 0 9.4192593185289724 9.230549202895233 0 0 0 0 1504.258054236072 -461.54997823835879 0 -461.54997823835879 28.120889942078065 0 0 0 0 1336.2906039505542 -419.64310853407909 0 -419.64310853407909 203.87542702157771 0 0 0 0 1580.0789131402325 -400.52274647865312 0 -400.52274647865312 56.495437682986108 0 0 0 0 1388.9659516942247 -438.20643754798709 0 -438.20643754798709 146.87859834268659 0 0 0 0 73.531725190016004 -72.758828402983454 0 -72.758828402983454 60.031098389265026 0 0 0 0 94.290296198341821 111.55728196265568 0 111.55728196265568 -46.223696134861456 0 0 0 0 6.8414954921872386 -4.5653974350104747 0 -4.5653974350104747 33.609288338084909 0 0 0 0 44.573667695061523 10.101286183739003 0 10.101286183739003 -22.813808393858338 0 0 0 0 -4.9052016547648236 -21.233878187706978 0 -21.233878187706978 -83.214978809840431 0 0 0 0 -170.04283097152074 -16.403571813089457 0 -16.403571813089457 -45.745591006327686 0 0 0 0 261.91998932980641 26.70001614411467 0 26.70001614411467 -53.513147895676411 0 0 0 0 48.115662282179983 -100.16219016731236 0 -100.16219016731236 80.831914640241848 0 0 0 0 67.061774924652127 109.03156228743285 0 109.03156228743285 45.044780161776316 0 0 0 0 439.77134228389332 -165.5993961995168 0 -165.5993961995168 33.811347674405624 0 0 0 0 468.31670985578785 -66.288719840037913 0 -66.288719840037913 -13.536215195166733 0 0 0 0 241.11491176039272 3.2824885442289542 0 3.2824885442289542 30.716139364223181 0 0 0 0 652.7263152774467 -94.781562567781862 0 -94.781562567781862 -69.995719178668878 0 0 0 0 882.98616950512951 -185.87943362641181 0 -185.87943362641181 -105.92475902596016 0 0 0 0 893.63418482389534 -148.98587160582997 0 -148.98587160582997 -96.892562449261959 0 0 0 0 563.17002065893757 18.664227655944842 0 18.664227655944842 -44.291381973057014 0 0 0 0 481.00569179552258 -95.80214446439777 0 -95.80214446439777 6.2575269855160514 0 0 0 0 367.76239539016387 -99.291440438646077 0 -99.291440438646077 -3.3114889229168512 0 0 0 0 322.96461252490553 -75.266249700992489 0 -75.266249700992489 10.083889791995716 0 0 0 0 401.89066107732469 54.765799943220316 0 54.765799943220316 -70.203239545254291 0 0 0 0 821.32934642876353 -45.212482499475982 0 -45.212482499475982 -116.77376906129689 0 0 0 0 483.34328949012342 82.415938603124914 0 82.415938603124914 -2.3116163163933834 0 0 0 0 830.82146675240801 14.700297824983977 0 14.700297824983977 -64.693314617457418 0 0 0 0 1208.2140861574608 -25.986309138980744 0 -25.986309138980744 -154.37519925861761 0 0 0 0 688.88472012687271 155.02568739408349 0 155.02568739408349 71.368956898687088 0 0 0 0 534.745073224527 -95.169044418675412 0 -95.169044418675412 -36.462611939740128 0 0 0 0 387.0532403161269 67.771731407601408 0 67.771731407601408 -64.616986780953084 0 0 0 0 87.94509979524446 -21.212778557900265 0 -21.212778557900265 36.699946225660426 0 0 0 0 211.99929375076317 92.431492537472195 0 92.431492537472195 -57.745527155999412 0 0 0 0 72.555164034642075 -8.3370378229005837 0 -8.3370378229005837 -15.16122195482285 0 0 0 0 -129.33964323057444 108.411135400484 0 108.411135400484 -18.547359235644763 0 0 0 0 1116.055301184726 -427.36735380009651 0 -427.36735380009651 262.6198699746634 0 0 0 0 11.687009573540848 18.108283105660796 0 18.108283105660796 8.5318530506426224 0 0 0 0 -85.932910167080991 148.56680370413812 0 148.56680370413812 -57.323603682014436 0 0 0 0 10.339451127789172 13.882871163516143 0 13.882871163516143 7.9061328281325896 0 0 0 0 90.548645569426299 -10.187291190991346 0 -10.187291190991346 -79.125632532919994 0 0 0 0 -191.71173744760381 201.47712815694686 0 201.47712815694686 -12.270614408047663 0 0 0 0 221.08285037135147 82.752878546037778 0 82.752878546037778 -160.62519251878018 0 0 0 0 274.67692163566971 -76.737212229132069 0 -76.737212229132069 21.529553880363096 0 0 0 0 192.97633699401922 -13.142015933345995 0 -13.142015933345995 13.664551167824584 0 0 0 0 333.36188955846228 -27.797865633358867 0 -27.797865633358867 -50.351400270084582 0 0 0 0 761.05019443947822 -8.2629610979459471 0 -8.2629610979459471 -31.011840791137345 0 0 0 0 467.2900795891328 42.46661308928978 0 42.46661308928978 25.068341829249675 0 0 0 0 402.90200024831938 -94.855145411152563 0 -94.855145411152563 -41.694293709563397 0 0 0 0 228.51587331728297 -78.419429851085809 0 -78.419429851085809 -36.1180628596735 0 0 0 0 374.64633945413152 -13.207981122605474 0 -13.207981122605474 -105.26214283128513 0 0 0 0 250.8797843469838 102.81053688877597 0 102.81053688877597 17.162955390659135 0 0 0 0 443.45131721825965 105.52306187886563 0 105.52306187886563 -65.898445834669133 0 0 0 0 216.25727351622118 47.031664512563793 0 47.031664512563793 -46.52235303007123 0 0 0 0 467.55710233373452 434.16574733210842 0 434.16574733210842 169.02478464697742 0 0 0 0 382.2875084198522 30.97629259144145 0 30.97629259144145 146.78248809972183 0 0 0 0 369.9568461334602 -90.105584016149464 0 -90.105584016149464 -7.6666751997079245 0 0 0 0 593.70762116773039 211.59691751584745 0 211.59691751584745 73.651969722637659 0 0 0 0 603.6861772480479 188.86156596644105 0 188.86156596644105 103.02430927701954 0 0 0 0 790.09172111031512 416.58999496575757 0 416.58999496575757 269.14666219185551 0 0 0 0 1324.0860163509788 265.70138725685058 0 265.70138725685058 62.762035449255421 0 0 0 0 1955.1755154774 -228.70701538861687 0 -228.70701538861687 263.62714748580305 0 0 0 0 1453.5215750208017 -253.07686490159728 0 -253.07686490159728 596.64272382555828 0 0 0 0 1379.5281214985953 374.89191516965809 0 374.89191516965809 349.95226333384153 0 0 0 0 1764.3307993740164 -319.99765553975681 0 -319.99765553975681 46.99452484914309 0 0 0 0 168.04292219731724 -538.59062972899005 0 -538.59062972899005 681.49582628745975 0 0 0 0 135.83695925928816 39.917669351270789 0 39.917669351270789 112.93652175008083 0 0 0 0 113.61651394853834 -88.275172782614845 0 -88.275172782614845 -45.864989896538646 0 0 0 0 1970.9500404784631 138.87413759441392 0 138.87413759441392 11.130846111661981 0 0 0 0 7.4332775142301273 -5.1362059185058087 0 -5.1362059185058087 4.0643307252900875 0 0 0 0 524.85062480254419 453.58642366260364 0 453.58642366260364 139.29416531063606 0 0 0 0 1900.2050473770614 -177.09324651092243 0 -177.09324651092243 -133.60006069216718 0 0 0 0 194.42857199892387 -198.40507397288218 0 -198.40507397288218 -21.055059148883629 0 0 0 0 -49.994923177742749 -146.64224868621477 0 -146.64224868621477 -5.146146846202555 0 0 0 0 167.413130379211 -202.5258630877002 0 -202.5258630877002 194.48617895862549 0 0 0 0 14.893507719998269 -12.623874204729248 0 -12.623874204729248 9.6123998795254053 0 0 0 0 112.01885088045674 115.42587369800412 0 115.42587369800412 -96.057601556419058 0 0 0 0 556.89266326914731 178.42599169530598 0 178.42599169530598 -48.731235032231552 0 0 0 0 262.23229151044143 -65.140526573519082 0 -65.140526573519082 21.275836404032134 0 0 0 0 8.9416716508421814 18.702580370480291 0 18.702580370480291 89.327608182261429 0 0 0 0 261.96986682357874 30.244392630918554 0 30.244392630918554 -73.557449112570794 0 0 0 0 244.75291298931552 125.15946406438155 0 125.15946406438155 234.83032023635883 0 0 0 0 4.0111552386370022 90.789360337277685 0 90.789360337277685 67.873632021623507 0 0 0 0 644.9862667814341 -40.080850535792933 0 -40.080850535792933 133.39422069175697 0 0 0 0 1816.6162516086843 -91.631978561931987 0 -91.631978561931987 -120.01362238626432 0 0 0 0 -378.8250333114338 201.88871847786396 0 201.88871847786396 118.70400101656668 0 0 0 0 4.9723421848038356 4.7872588635322799 0 4.7872588635322799 3.3972664275573283 0 0 0 0 3066.3752407452776 -384.67575518763203 0 -384.67575518763203 -159.82368113814994 0 0 0 0 2183.7771731139437 335.28039177984948 0 335.28039177984948 99.417443991574402 0 0 0 0 -13.867066902668739 0.80161082445010834 0 0.80161082445010834 57.3250546999869 0 0 0 0 0.22922887536599035 0.26985735292294066 0 0.26985735292294066 -0.21148273358405945 0 0 0 0 40.490235753761226 4.752232508422594 0 4.752232508422594 57.23520674857491 0 0 0 0 37.671340054090251 21.934322700412622 0 21.934322700412622 21.993042940925534 0 0 0 0 0.38176289447801537 17.647727642540303 0 17.647727642540303 22.537135935107926 0 0 0 0 -3.1527179066833924 -26.499901865147194 0 -26.499901865147194 49.420539112427377 0 0 0 0 9.2705310335804825 -16.01157383964528 0 -16.01157383964528 20.379960121904787 0 0 0 0 14.379788937978446 12.354723835689583 0 12.354723835689583 68.994095895342525 0 0 0 0 25.786898477515933 4.814442010770108 0 4.814442010770108 32.820777826711492 0 0 0 0 1.1717668644245691 0.012018154827316607 0 0.012018154827316607 -0.51226491972847654 0 0 0 0 -9.571236942858377 -26.13233532387676 0 -26.13233532387676 76.630972037104584 0 0 0 0 -0.54680272320274526 -2.1810802716323678 0 -2.1810802716323678 115.82588106044295 0 0 0 0 79.055579288753506 63.321583665049275 0 63.321583665049275 97.052963391141589 0 0 0 0 154.76216054086763 31.766510469768264 0 31.766510469768264 -5.8775397244771739 0 0 0 0 87.375941165984841 -13.722363017117914 0 -13.722363017117914 -29.53744688307188 0 0 0 0 95.953132863432984 2.0517579995268989 0 2.0517579995268989 -15.640308138832552 0 0 0 0 276.69961882096686 29.966821707950203 0 29.966821707950203 -200.75142311857962 0 0 0 0 -113.05943104840117 97.0189496014832 0 97.0189496014832 177.36021065240675 0 0 0 0 -140.28240798542538 113.18249677132576 0 113.18249677132576 59.857901656838067 0 0 0 0 -144.06603803738636 -60.149149666529496 0 -60.149149666529496 50.683527739605779 0 0 0 0 16.880226079047972 -12.526056463736431 0 -12.526056463736431 11.429904701115525 0 0 0 0 -21.563478003132332 -32.704549715664484 0 -32.704549715664484 2.0812016688909125 0 0 0 0 54.691919971010066 -58.793124264270773 0 -58.793124264270773 -77.479699290014651 0 0 0 0 55.853183543149498 63.229979306326641 0 63.229979306326641 13.43923848508075 0 0 0 0 2.9172057271020293 0.43081753730806582 0 0.43081753730806582 0.60554931614039464 0 0 0 0 -14.212627042434178 0.0375410508022469 0 0.0375410508022469 31.098778671975651 0 0 0 0 26.802196696570263 15.046530003578169 0 15.046530003578169 8.9177772605053178 0 0 0 0 18.77166964185372 3.7949405823531066 0 3.7949405823531066 3.3684663100846066 0 0 0 0 30.044311254918284 -21.370834111208751 0 -21.370834111208751 -21.757003525713117 0 0 0 0 77.516926654439885 -7.1365787211780116 0 -7.1365787211780116 -19.996725223465546 0 0 0 0 57.093740058015101 15.923507361360862 0 15.923507361360862 29.26885043188372 0 0 0 0 15.466970500427124 -11.825547313413949 0 -11.825547313413949 10.869962969341941 0 0 0 0 20.929826239876547 14.856142683943972 0 14.856142683943972 -1.2223316417321257 0 0 0 0 3.5054023624052206 -1.1571112033273039 0 -1.1571112033273039 -0.58335971915894547 0 0 0 0 -18.549534117388248 -54.369726621317568 0 -54.369726621317568 37.065077320685305 0 0 0 0 -9.2592667157041433 18.639360992581715 0 18.639360992581715 2.0482151447849901 0 0 0 0 130.03566041973681 120.28739040090204 0 120.28739040090204 -79.0236658306967 0 0 0 0 37.583071578403178 -7.3122941205465395 0 -7.3122941205465395 -1.8859413309000956 0 0 0 0 248.55626414982544 -86.441639271813983 0 -86.441639271813983 -42.922273495343234 0 0 0 0 25.09546487554411 -4.4223316460398756 0 -4.4223316460398756 -0.17691828530177034 0 0 0 0 25.492847783563775 0.58764874911594234 0 0.58764874911594234 6.6631647792382864 0 0 0 0 0.074686112038904184 -0.90184475365903438 0 -0.90184475365903438 1.0014648587400838 0 0 0 0 -26.938755937269889 -45.73237963925385 0 -45.73237963925385 49.814878455246799 0 0 0 0 -28.825573267895379 -40.169399660648196 0 -40.169399660648196 38.557107314565656 0 0 0 0 -27.922128674556916 -35.553485476087303 0 -35.553485476087303 27.479842496286437 0 0 0 0 -164.56674997333903 58.60896103349296 0 58.60896103349296 -18.262767370739311 0 0 0 0 -33.152136436503497 -32.491117956501512 0 -32.491117956501512 46.429350092029154 0 0 0 0 -36.408994908495515 -26.428869882897288 0 -26.428869882897288 36.646677986766008 0 0 0 0 -15.154444592728396 -13.517827051278118 0 -13.517827051278118 -10.340440476269578 0 0 0 0 -10.397652808263956 -38.956345632871034 0 -38.956345632871034 24.083169883739174 0 0 0 0 -8.0236184872933336 -13.897457168435039 0 -13.897457168435039 59.070158280659598 0 0 0 0 22.759902868769132 9.0127747536716925 0 9.0127747536716925 -12.175407605454893 0 0 0 0 -13.405939056454372 -50.042197923018875 0 -50.042197923018875 1.3533545911996043 0 0 0 0 -18.654496376446332 -53.364564598701349 0 -53.364564598701349 27.896447744675243 0 0 0 0 42.719185082263721 -2.1332849676937258 0 -2.1332849676937258 10.840480034580651 0 0 0 0 43.583930933658849 -1.2251631752696994 0 -1.2251631752696994 6.7358917953024502 0 0 0 0 44.19346296160802 3.9744821350527673 0 3.9744821350527673 10.439947709300668 0 0 0 0 39.816369942263918 8.1924309335726093 0 8.1924309335726093 14.05176252192723 0 0 0 0 37.639840986463241 1.466289641356525 0 1.466289641356525 9.4843717249264046 0 0 0 0 39.425003685304546 0.23846584506554791 0 0.23846584506554791 10.201083180225396 0 0 0 0 36.289311100976192 -5.593599693443366 0 -5.593599693443366 5.7584838817483615 0 0 0 0 29.293138646555235 -13.387364440318834 0 -13.387364440318834 2.5904010428957918 0 0 0 0 28.111102554394165 -4.1159985827989658 0 -4.1159985827989658 9.5693332336953745 0 0 0 0 23.814735070318335 -8.7929901421786845 0 -8.7929901421786845 1.1410064858664377 0 0 0 0 36.679171018979105 -7.2931809662504747 0 -7.2931809662504747 3.654158503227336 0 0 0 0 101.28619096681359 -43.560356150379448 0 -43.560356150379448 -2.0855181274343977 0 0 0 0 5.0103713608003204 0.49183254907612906 0 0.49183254907612906 0.23278245195616165 0 0 0 0 18.381381862487615 -5.5080068599252172 0 -5.5080068599252172 14.584348815920748 0 0 0 0 33.854181004484417 2.3479466613243858 0 2.3479466613243858 14.557625430282314 0 0 0 0 34.596577174328559 13.378851024846881 0 13.378851024846881 30.668085797001595 0 0 0 0 32.087087115112809 5.0782853983312179 0 5.0782853983312179 2.906953438855453 0 0 0 0 52.869266299490846 1.0522741353479432 0 1.0522741353479432 5.4860443565248715 0 0 0 0 40.72805624692046 -8.3593546408251314 0 -8.3593546408251314 22.440863387035279 0 0 0 0 45.577436275212676 19.631740632897163 0 19.631740632897163 13.459942033181505 0 0 0 0 31.386048308158934 4.5732748350210386 0 4.5732748350210386 12.653476147447691 0 0 0 0 43.245346104740747 9.1176993689614392 0 9.1176993689614392 9.0242683704636875 0 0 0 0 44.906087979739823 6.4577278345868763 0 6.4577278345868763 7.2326977447046374 0 0 0 0 43.691678908428003 11.21351371873061 0 11.21351371873061 6.5679700875193703 0 0 0 0 40.041665551238111 16.184526355352318 0 16.184526355352318 0.74865104623677325 0 0 0 0 47.237965286200051 6.8222999214558513 0 6.8222999214558513 2.3238142010402498 0 0 0 0 6.1899644536260894 -12.373082745001739 0 -12.373082745001739 11.493198781693536 0 0 0 0 -161.60887017550704 196.46680197260821 0 196.46680197260821 165.09220939537408 0 0 0 0 2.3300306954862435 -4.64824357548477 0 -4.64824357548477 5.3190741668923147 0 0 0 0 -1.09402165809297 -4.2437569432868258 0 -4.2437569432868258 19.823143949342921 0 0 0 0 10.187429510304355 16.952577588384884 0 16.952577588384884 4.9852098508763447 0 0 0 0 36.566279622726142 4.7847726477327797 0 4.7847726477327797 5.7509328331980214 0 0 0 0 27.09344746635179 -10.222350697920774 0 -10.222350697920774 13.477262603638337 0 0 0 0 48.211001414836574 9.5056966463554318 0 9.5056966463554318 5.7792170057200565 0 0 0 0 8.5746682324861467 4.3842463778863987 0 4.3842463778863987 7.414226155851793 0 0 0 0 8.0358265102004225 -0.41956298647028234 0 -0.41956298647028234 28.426784540362405 0 0 0 0 45.726365271912073 17.910919249854487 0 17.910919249854487 9.0319850691830652 0 0 0 0 2.9489576450282868 1.9005596350412759 0 1.9005596350412759 1.3942242007502159 0 0 0 0 -18.500675415722071 29.652046444555481 0 29.652046444555481 21.938895020201812 0 0 0 0 0.58086405419439302 0.7523345442397158 0 0.7523345442397158 10.19563361784861 0 0 0 0 35.852022998171115 -6.8074273501595659 0 -6.8074273501595659 0.025582961763849887 0 0 0 0 291.79943418282346 -60.587961513458595 0 -60.587961513458595 -242.1979251371481 0 0 0 0 181.06413134718059 292.87396829157024 0 292.87396829157024 284.86143388557059 0 0 0 0 191.40441704882323 217.82540098387631 0 217.82540098387631 249.50478573281475 0 0 0 0 195.97220792523876 329.52710029718708 0 329.52710029718708 214.93822944795932 0 0 0 0 310.69261033844487 453.43135781890464 0 453.43135781890464 217.49493807090565 0 0 0 0 562.35428469667386 557.81322806816354 0 557.81322806816354 94.321129046513079 0 0 0 0 164.62289336835238 179.88111032940571 0 179.88111032940571 133.78593261482524 0 0 0 0 655.77151286901608 111.08191157351314 0 111.08191157351314 74.289417592920699 0 0 0 0 164.09261518812764 1.2235797587031385 0 1.2235797587031385 210.16975518967084 0 0 0 0 287.5831185721272 80.762089271541527 0 80.762089271541527 -47.343978916342962 0 0 0 0 44.275655615250798 -10.375013018157453 0 -10.375013018157453 2.153974409971231 0 0 0 0 200.09245079333414 -9.1015421970214447 0 -9.1015421970214447 -88.114285624472473 0 0 0 0 207.11821858940857 0.71293143315233465 0 0.71293143315233465 -170.78804721669076 0 0 0 0 27.959785419679974 65.901430056648678 0 65.901430056648678 90.354492289656889 0 0 0 0 112.50447610739866 -26.599210391553015 0 -26.599210391553015 -15.296441491373457 0 0 0 0 44.841835001163417 5.0166848541607578 0 5.0166848541607578 3.6110636985263227 0 0 0 0 10.997035476549144 0.82344899250037429 0 0.82344899250037429 1.7494774106316537 0 0 0 0 37.638836476762663 12.809365101945332 0 12.809365101945332 -0.33665622555099617 0 0 0 0 46.438915897153493 3.4942476343204589 0 3.4942476343204589 10.799232526274864 0 0 0 0 46.075435195467435 3.3642664694798441 0 3.3642664694798441 10.777880540259503 0 0 0 0 52.124376717252744 -7.6098749291206786 0 -7.6098749291206786 21.343415078457838 0 0 0 0 -47.963965327937331 277.22153324949056 0 277.22153324949056 -93.958917186532133 0 0 0 0 54.059305267568561 75.400447473277268 0 75.400447473277268 224.42378829233641 0 0 0 0 -14.39262242672703 -113.51098324311613 0 -113.51098324311613 273.57509840007197 0 0 0 0 -41.871971941336597 -150.77140883754527 0 -150.77140883754527 423.16753184799484 0 0 0 0 -441.52813502845311 186.32254614926217 0 186.32254614926217 618.23366081872769 0 0 0 0 39.320116969120974 -8.3684252290451902 0 -8.3684252290451902 1.809832835765004 0 0 0 0 16.281514376449501 -2.4558162350442281 0 -2.4558162350442281 3.4581256582042208 0 0 0 0 141.08484224948188 107.89134223960809 0 107.89134223960809 -47.254093542655937 0 0 0 0 41.181655728956684 5.6730392592282897 0 5.6730392592282897 33.984549077832298 0 0 0 0 236.36638847127506 -300.77144802016369 0 -300.77144802016369 553.13362964659404 0 0 0 0 164.76405676623654 237.96236596151613 0 237.96236596151613 11.065936069544932 0 0 0 0 48.458268671201949 8.2278895475415084 0 8.2278895475415084 25.181021434545301 0 0 0 0 44.282953795664071 1.5743827013820919 0 1.5743827013820919 27.686110824800835 0 0 0 0 46.407768136225059 0.80869572974779658 0 0.80869572974779658 16.21740434135063 0 0 0 0 48.939434205829457 -0.40156088053799976 0 -0.40156088053799976 13.089852248067473 0 0 0 0 44.147389409843527 3.0112174318265374 0 3.0112174318265374 12.764648242457042 0 0 0 0 43.991267421864904 1.7085970714547329 0 1.7085970714547329 15.906102493867365 0 0 0 0 1586.7604360982587 -541.37135677460242 0 -541.37135677460242 462.21345272527469 0 0 0 0 2356.6869330774707 -66.754416997431349 0 -66.754416997431349 181.96498027814488 0 0 0 0 1521.5898471531509 -411.47712187457824 0 -411.47712187457824 218.35298390775949 0 0 0 0 1230.2476558129783 -578.60565208010075 0 -578.60565208010075 262.37308161749411 0 0 0 0 1516.0250148042978 -291.15823435637418 0 -291.15823435637418 108.75288489565651 0 0 0 0 1642.5745753346619 -63.356666212814076 0 -63.356666212814076 334.12819249800054 0 0 0 0 2028.7988025391878 215.96953087746351 0 215.96953087746351 313.71685890072649 0 0 0 0 1563.9613920210486 -97.26320949782081 0 -97.26320949782081 778.37704025647645 0 0 0 0 2060.1976901290313 -194.95007487407972 0 -194.95007487407972 -171.07520451808875 0 0 0 0 266.75733584882619 -373.16709883400267 0 -373.16709883400267 23.136053673250899 0 0 0 0 12.498598612788555 -22.932453036084155 0 -22.932453036084155 20.753677791856262 0 0 0 0 0.38830227389189531 374.56046564297492 0 374.56046564297492 219.95199266388295 0 0 0 0 -0.67354548052433927 0.88468146518005852 0 0.88468146518005852 1.6989053774686598 0 0 0 0 14.691190804892955 -2.3178832204287225 0 -2.3178832204287225 0.75093108428870758 0 0 0 0 1357.7572059430822 908.61834941229381 0 908.61834941229381 907.51998910306395 0 0 0 0 759.65392620084094 621.48181021887319 0 621.48181021887319 453.16486021431842 0 0 0 0 257.7446411180681 427.27145900595224 0 427.27145900595224 696.91778369862288 0 0 0 0 1270.6002204962278 -33.513533702757627 0 -33.513533702757627 157.76254866916651 0 0 0 0 415.65403855606382 364.66762892977579 0 364.66762892977579 330.09843585509742 0 0 0 0 145.32228295429559 187.40534954537367 0 187.40534954537367 446.26573531473832 0 0 0 0 232.7275990995804 419.48584823955986 0 419.48584823955986 433.25413414938885 0 0 0 0 148.84616364714384 402.71278264342374 0 402.71278264342374 332.01869319814045 0 0 0 0 284.04234077784531 475.70746799906527 0 475.70746799906527 265.28903607300617 0 0 0 0 669.18688745281725 143.57228347151704 0 143.57228347151704 49.771201233608735 0 0 0 0 1020.5666693057137 -450.2354900323034 0 -450.2354900323034 9.6709019869101667 0 0 0 0 523.48108876802871 47.636153427449358 0 47.636153427449358 152.95523095937028 0 0 0 0 1148.9378179424548 -94.341710390417148 0 -94.341710390417148 183.88983105092547 0 0 0 0 1490.778290716622 -473.21127783782617 0 -473.21127783782617 82.215973722743229 0 0 0 0 1283.6393109632954 -496.61543894070309 0 -496.61543894070309 224.23124951898194 0 0 0 0 1337.9150386994324 -537.27431701446835 0 -537.27431701446835 17.02112113613407 0 0 0 0 1143.5611216199177 -359.27728632917342 0 -359.27728632917342 56.922068366846219 0 0 0 0 1444.5864041097375 -366.03714658730473 0 -366.03714658730473 -39.104829497204832 0 0 0 0 1129.7004756620363 -582.21665833357315 0 -582.21665833357315 -89.260442609599522 0 0 0 0 7.8813140607056198 1.9309174033189951 0 1.9309174033189951 0.42154639052760245 0 0 0 0 1108.5285467009326 -607.36363490549263 0 -607.36363490549263 -115.19420609421104 0 0 0 0 1547.6986674138752 -272.34927794629982 0 -272.34927794629982 -143.18086963625387 0 0 0 0 37.376566034803545 -385.99393715482563 0 -385.99393715482563 134.57409538147601 0 0 0 0 971.63336274125732 -255.57838728704758 0 -255.57838728704758 -77.675693895683935 0 0 0 0 298.2056578281049 308.1590323380546 0 308.1590323380546 -609.21288035362886 0 0 0 0 -3.3475298164121341 -89.782843677296341 0 -89.782843677296341 -29.740093247828895 0 0 0 0 -133.99214844351081 453.4154819805342 0 453.4154819805342 265.78600414531786 0 0 0 0 14.944329721981688 4.8745163438063628 0 4.8745163438063628 0.66175120075965621 0 0 0 0 134.4698913195989 145.41960652855346 0 145.41960652855346 -283.89505385221963 0 0 0 0 93.095596931354976 139.17128839042232 0 139.17128839042232 -58.123111338532681 0 0 0 0 208.71474747278262 104.70034914965754 0 104.70034914965754 -48.27726811235209 0 0 0 0 211.58679686994583 304.71515355791348 0 304.71515355791348 106.44556816623242 0 0 0 0 505.34613686838634 -29.203673170934273 0 -29.203673170934273 241.79615652988514 0 0 0 0 539.60433517852107 474.92864447518014 0 474.92864447518014 178.65333794431271 0 0 0 0 689.5261326169184 555.47950312146327 0 555.47950312146327 92.225102330260825 0 0 0 0 -3.4679944869676547 112.89522105264939 0 112.89522105264939 -35.850783833708874 0 0 0 0 -0.97832478852706117 145.68684196053107 0 145.68684196053107 202.34378475280255 0 0 0 0 0.24990121225263451 -1.9290292726198075 0 -1.9290292726198075 11.06711147860978 0 0 0 0 -71.738352936674346 94.021501364635242 0 94.021501364635242 63.467864521661909 0 0 0 0 114.65673716079255 121.54798220484037 0 121.54798220484037 108.95415139298575 0 0 0 0 -33.513849397710146 -167.40682854714817 0 -167.40682854714817 275.69170932953375 0 0 0 0 0.32567625749517326 -0.90787842701037036 0 -0.90787842701037036 4.2803025522924658 0 0 0 0 210.45930069274073 212.50493762374055 0 212.50493762374055 1.3884866723644791 0 0 0 0 2.5555022634744091 -168.34917389041607 0 -168.34917389041607 209.18669487763214 0 0 0 0 200.67519014205936 17.560267769427128 0 17.560267769427128 -41.720326942104521 0 0 0 0 134.00330181238996 35.142996909161013 0 35.142996909161013 -14.332169713578423 0 0 0 0 764.94405709632179 186.484435186518 0 186.484435186518 -168.75931171701586 0 0 0 0 408.16973184132621 297.3455285988764 0 297.3455285988764 150.97794743081545 0 0 0 0 133.83587847589388 58.995899251549758 0 58.995899251549758 376.42003488235014 0 0 0 0 271.97788539984595 -80.883540584908246 0 -80.883540584908246 306.59081810701514 0 0 0 0 207.59647746822884 672.28194918842701 0 672.28194918842701 136.39477370833129 0 0 0 0 6.8501166669785647 3.164148445176318 0 3.164148445176318 0.92089819193916655 0 0 0 0 683.64954191727156 -143.32936949554573 0 -143.32936949554573 -266.32436393149453 0 0 0 0 546.71946848500193 17.608749956162683 0 17.608749956162683 -171.18081884778303 0 0 0 0 321.52906078527667 -147.45673514283305 0 -147.45673514283305 -141.68646641310806 0 0 0 0 562.07889605716809 -88.763256891387073 0 -88.763256891387073 -104.59970489046941 0 0 0 0 454.51558354725239 -0.0086130425504507002 0 -0.0086130425504507002 -174.22675028352114 0 0 0 0 456.32709144593832 -31.610408024524105 0 -31.610408024524105 -88.052035277159121 0 0 0 0 455.87473609658355 68.203077006143417 0 68.203077006143417 -137.03377825479788 0 0 0 0 249.72186051788003 60.963293524867936 0 60.963293524867936 -30.545991862170467 0 0 0 0 325.96963719455016 7.7961529697082597 0 7.7961529697082597 -99.630287559432873 0 0 0 0 210.41597145000014 -31.386188220776148 0 -31.386188220776148 -28.880466580748362 0 0 0 0 201.02747461421723 -16.772091366075017 0 -16.772091366075017 -16.177075410760153 0 0 0 0 -3.4910287899601826 1.0148986357262402 0 1.0148986357262402 12.474988412758876 0 0 0 0 119.44956456116572 -39.526799262437457 0 -39.526799262437457 19.099285155186635 0 0 0 0 411.40648078346203 -72.120821848934156 0 -72.120821848934156 -28.137150209880019 0 0 0 0 118.72887285297475 -50.045541930898032 0 -50.045541930898032 55.534534450028332 0 0 0 0 419.17201129333989 -87.650058121419761 0 -87.650058121419761 19.342318693364632 0 0 0 0 422.09419126925241 -5.0396968683073737 0 -5.0396968683073737 125.96901219271717 0 0 0 0 396.29211425525159 -20.850289328224761 0 -20.850289328224761 6.9519967436253864 0 0 0 0 632.45787102207032 -59.736811718245463 0 -59.736811718245463 -6.6072992277861431 0 0 0 0 687.61115888700965 23.835430566536967 0 23.835430566536967 39.901592498783884 0 0 0 0 538.66384590029702 19.910972700249886 0 19.910972700249886 216.37695390204379 0 0 0 0 520.40483359148129 61.398861763910872 0 61.398861763910872 207.69480685509939 0 0 0 0 63.983680594593352 -84.896215642573679 0 -84.896215642573679 94.128786440906538 0 0 0 0 2.2186786710949278 0.33739259982061132 0 0.33739259982061132 -0.27243990559498288 0 0 0 0 462.77085400486999 -98.99437025607827 0 -98.99437025607827 -3.8654346361424814 0 0 0 0 132.75801477852929 178.72513604481924 0 178.72513604481924 157.82272395241677 0 0 0 0 28.851801872079704 54.91653414959643 0 54.91653414959643 8.1664955532392014 0 0 0 0 -26.391978014740744 36.320488319282504 0 36.320488319282504 53.3620976698287 0 0 0 0 -235.84481445118945 211.85541707763133 0 211.85541707763133 -241.84501572015358 0 0 0 0 199.49705622079637 491.35264836193289 0 491.35264836193289 -356.54302281758237 0 0 0 0 314.50889993213923 65.027118311322866 0 65.027118311322866 -44.601855021087204 0 0 0 0 10.710482523469636 587.27146720341625 0 587.27146720341625 -285.43151382983933 0 0 0 0 -55.415719797323618 169.80890670025394 0 169.80890670025394 114.18490499390532 0 0 0 0 512.61539474435358 230.66372354232485 0 230.66372354232485 -129.61025793134286 0 0 0 0 1242.6581977770184 184.18847704518316 0 184.18847704518316 -127.00656631395665 0 0 0 0 609.92538810368069 18.541293965434079 0 18.541293965434079 157.07372045132797 0 0 0 0 -1220.555459517791 725.31161540494872 0 725.31161540494872 -22.252231797780155 0 0 0 0 2.0801495934668353 2.9307870366691446 0 2.9307870366691446 -2.3615425424580341 0 0 0 0 1811.890703349155 -224.39303380951935 0 -224.39303380951935 -122.7525684507209 0 0 0 0 1022.9733562324973 -118.65693452157552 0 -118.65693452157552 132.61019586876569 0 0 0 0 1191.2003526564049 -199.52136234735985 0 -199.52136234735985 38.671999312549815 0 0 0 0 5.3480793548841863 8.1291841839921268 0 8.1291841839921268 -7.8222529131706651 0 0 0 0 688.62752205216532 -32.066864263910091 0 -32.066864263910091 151.88891715399131 0 0 0 0 1069.0377419652996 23.680522930158304 0 23.680522930158304 18.938689129535533 0 0 0 0 855.72476845400615 -47.161994559180584 0 -47.161994559180584 126.51718923743874 0 0 0 0 890.55268844637885 -207.49991172828663 0 -207.49991172828663 133.15013467909193 0 0 0 0 978.38792469120926 -188.57546636967436 0 -188.57546636967436 58.474692331602455 0 0 0 0 -171.42054423959235 217.75705612848856 0 217.75705612848856 -179.47650068039582 0 0 0 0 10.261982624688924 8.1054433306864659 0 8.1054433306864659 -12.029836460296082 0 0 0 0 1024.6233316658891 -265.40185238639026 0 -265.40185238639026 92.918029765475694 0 0 0 0 -48.29969864258419 231.55456165380369 0 231.55456165380369 -194.04423469353566 0 0 0 0 -474.92961146240305 429.99527412296857 0 429.99527412296857 -178.17162184905283 0 0 0 0 -32.614300667470161 174.08316729878925 0 174.08316729878925 -212.67020569602727 0 0 0 0 323.46742885681306 89.683953505569662 0 89.683953505569662 -287.87390465978422 0 0 0 0 481.88619751410988 -103.02576219252151 0 -103.02576219252151 -193.53794442623922 0 0 0 0 184.98534284902416 -29.641739249783939 0 -29.641739249783939 -155.15111311284636 0 0 0 0 66.236246572651908 250.69372471175168 0 250.69372471175168 -250.7138932429956 0 0 0 0 504.42677318710957 144.22753480936319 0 144.22753480936319 -292.50851216020078 0 0 0 0 514.46906319433583 -199.39613081432424 0 -199.39613081432424 -64.695024301873673 0 0 0 0 795.952783336832 -73.49871851920625 0 -73.49871851920625 -14.319609696522662 0 0 0 0 828.52170658984505 56.919650404336835 0 56.919650404336835 -139.38129761302002 0 0 0 0 317.06613122659201 -325.29564537431747 0 -325.29564537431747 64.965021667271174 0 0 0 0 683.83975672571023 -678.3481951702106 0 -678.3481951702106 384.52811232629074 0 0 0 0 323.28245463958046 -429.7179297363474 0 -429.7179297363474 78.422262096016397 0 0 0 0 251.27717441020286 -376.9542900644347 0 -376.9542900644347 103.04683765775488 0 0 0 0 327.27424889614213 -423.06981674176495 0 -423.06981674176495 54.853504857596363 0 0 0 0 230.12266546520732 -192.50218531850311 0 -192.50218531850311 -129.00924153837036 0 0 0 0 526.63047407397426 -378.42625829846315 0 -378.42625829846315 -31.558051431483022 0 0 0 0 325.25470325814649 -175.25972506430426 0 -175.25972506430426 -162.14595905671712 0 0 0 0 160.0324859709317 -36.810617304539619 0 -36.810617304539619 -233.57617413315984 0 0 0 0 111.16876484819841 -202.94604113122512 0 -202.94604113122512 -44.422545613344937 0 0 0 0 55.138731738667957 -403.7027854871568 0 -403.7027854871568 358.35151448913234 0 0 0 0 554.40709037440593 -653.58557123463424 0 -653.58557123463424 79.688944886848617 0 0 0 0 1764.0630307097083 -102.87578174514741 0 -102.87578174514741 -197.58004107999585 0 0 0 0 2140.5208361960481 -833.75570647443487 0 -833.75570647443487 260.18595472811006 0 0 0 0 1676.7405568933025 -772.77471674952619 0 -772.77471674952619 473.26283271740294 0 0 0 0 672.41383402329757 -147.27941550500299 0 -147.27941550500299 84.554580255248766 0 0 0 0 3489.5528616980159 525.66986429175324 0 525.66986429175324 -523.9952832972449 0 0 0 0 234.68494852932372 1286.5750589245749 0 1286.5750589245749 -698.0093912141906 0 0 0 0 3497.8349027787735 -2492.971472377174 0 -2492.971472377174 1748.0545592508452 0 0 0 0 16.732947970632445 2.8892026326641833 0 2.8892026326641833 -4.1983001430605347 0 0 0 0 400.07996477949115 -423.27394763752619 0 -423.27394763752619 -165.22652308291583 0 0 0 0 2372.6756183367252 -1619.1729038162975 0 -1619.1729038162975 1115.6712337192416 0 0 0 0 36.079473477223189 9.5629684048812784 0 9.5629684048812784 -11.706958341296623 0 0 0 0 251.60034500177335 67.664135739120411 0 67.664135739120411 -614.47907457672852 0 0 0 0 2385.5414080336013 -1711.2971216533533 0 -1711.2971216533533 1239.1432155443297 0 0 0 0 311.92747363705348 -339.62622438488302 0 -339.62622438488302 27.230845165566279 0 0 0 0 323.987895551517 -448.61772178629718 0 -448.61772178629718 -101.97662293049154 0 0 0 0 316.99640493138349 -314.71215960764039 0 -314.71215960764039 -14.119361862452934 0 0 0 0 97.363723856581601 -38.68081591095995 0 -38.68081591095995 61.779020228592799 0 0 0 0 45.42288035475628 12.748394935081942 0 12.748394935081942 -16.802332948253159 0 0 0 0 1565.8930999203221 -972.10634762569157 0 -972.10634762569157 587.74596522500303 0 0 0 0 1447.0007512017582 -1024.7877694451163 0 -1024.7877694451163 586.06781266754604 0 0 0 0 3499.7991801159769 -1866.4260270765656 0 -1866.4260270765656 628.07560121973893 0 0 0 0 2808.7704053468833 -1277.9037669300822 0 -1277.9037669300822 153.88397430087025 0 0 0 0 1980.5342866755527 -1558.2457551858849 0 -1558.2457551858849 1110.2617277070337 0 0 0 0 2542.3397478205152 -1197.9171166476024 0 -1197.9171166476024 151.1289665788907 0 0 0 0 3499.2177223436483 -1047.8662756844597 0 -1047.8662756844597 -425.23281764883654 0 0 0 0 2678.261717647254 -563.76741421053214 0 -563.76741421053214 -486.42059498593085 0 0 0 0 2798.7471852275403 -806.13551405275973 0 -806.13551405275973 -507.29677593562224 0 0 0 0 996.77209855577166 -446.42934388310471 0 -446.42934388310471 235.77628363376471 0 0 0 0 1094.1127861436253 -625.00831978252916 0 -625.00831978252916 243.39089079749908 0 0 0 0 2340.1017968892365 -811.216830129914 0 -811.216830129914 -47.065518288331305 0 0 0 0 1946.3510945953458 -803.11636240769246 0 -803.11636240769246 -45.385279348499907 0 0 0 0 1729.822102626953 -410.25623404989892 0 -410.25623404989892 -184.65197280239613 0 0 0 0 753.98469265513995 -401.63018975003661 0 -401.63018975003661 148.91534304932907 0 0 0 0 458.83502703577687 -186.81361899694332 0 -186.81361899694332 123.39913330505827 0 0 0 0 87.2184251491135 -94.57195225806413 0 -94.57195225806413 26.492495354720177 0 0 0 0 49.37679623438823 13.387881035262183 0 13.387881035262183 -22.70773886851763 0 0 0 0 494.82221042106175 -82.646583067333978 0 -82.646583067333978 30.861700809772628 0 0 0 0 423.89223512413082 -254.54164118303748 0 -254.54164118303748 -29.192943717072239 0 0 0 0 26.327334894658634 -1.0504083513769729 0 -1.0504083513769729 57.131334051556877 0 0 0 0 1444.597771956036 -375.7460882189057 0 -375.7460882189057 127.99420854838604 0 0 0 0 1482.1188862338981 -162.48764403398516 0 -162.48764403398516 357.58973913053319 0 0 0 0 -0.48737033689839748 -1.8598385761508816 0 -1.8598385761508816 21.977549579286674 0 0 0 0 1552.3550936945612 -340.16449568584505 0 -340.16449568584505 65.175126280089444 0 0 0 0 1.0485909191500777 -0.26885983412364212 0 -0.26885983412364212 7.5525121119568119 0 0 0 0 1148.0268522606457 -438.54405455012352 0 -438.54405455012352 402.74315597205242 0 0 0 0 1349.1753374467135 -355.10179756635853 0 -355.10179756635853 127.14359487601769 0 0 0 0 708.53607069565169 -332.81530098466726 0 -332.81530098466726 578.74273319230861 0 0 0 0 1702.9745406689772 -794.20736469896485 0 -794.20736469896485 355.65709563186169 0 0 0 0 31.189596899532262 -140.25748156200507 0 -140.25748156200507 427.41042679106363 0 0 0 0 212.88136259867497 -94.761023964874084 0 -94.761023964874084 49.641613154155039 0 0 0 0 49.128971821551637 14.137405989232619 0 14.137405989232619 -19.820568293331121 0 0 0 0 126.51540454622773 -29.783014483336956 0 -29.783014483336956 49.200550685875442 0 0 0 0 147.67307744872414 -46.922894281538447 0 -46.922894281538447 -8.0485447699870747 0 0 0 0 -78.97402688486045 39.661616863027575 0 39.661616863027575 154.68907235765437 0 0 0 0 28.477187066792208 -4.6023731691897076 0 -4.6023731691897076 -3.0059451002903805 0 0 0 0 -3.3349096149186153 -76.251898789687829 0 -76.251898789687829 -25.848251188822303 0 0 0 0 -73.853111928218823 33.878598445598179 0 33.878598445598179 94.675213697136655 0 0 0 0 0.54705913873715417 0.86486749334199153 0 0.86486749334199153 -0.13290557725120217 0 0 0 0 35.884988993193474 -118.99731413496247 0 -118.99731413496247 -73.838086337194369 0 0 0 0 16.354876002322271 -16.243643582329923 0 -16.243643582329923 -26.849127304287663 0 0 0 0 19.59587174214812 -38.951408143508559 0 -38.951408143508559 -32.710241471676682 0 0 0 0 25.41141255653487 -5.4407185880191395 0 -5.4407185880191395 -3.2002656850526754 0 0 0 0 25.999840275110728 -12.44136118213089 0 -12.44136118213089 -39.713139032774507 0 0 0 0 41.314374830995803 -17.079453936131358 0 -17.079453936131358 -15.004033203019389 0 0 0 0 5.4952083958305593 -20.122541156272689 0 -20.122541156272689 -13.692881878147091 0 0 0 0 18.095990628457002 -18.172799354876815 0 -18.172799354876815 -4.5760555099862188 0 0 0 0 20.65029145929293 -20.488853039822743 0 -20.488853039822743 -3.9988435474143671 0 0 0 0 34.499047356755909 -26.350234976215916 0 -26.350234976215916 -12.580698516851385 0 0 0 0 19.499160238554396 -18.555578568521469 0 -18.555578568521469 -15.813790144523978 0 0 0 0 34.46614262753792 -33.970825487873299 0 -33.970825487873299 18.530853509010512 0 0 0 0 30.847148053048841 -37.803280648383634 0 -37.803280648383634 -38.473573959977557 0 0 0 0 33.642951470672415 -23.543415429531763 0 -23.543415429531763 -68.454009576029875 0 0 0 0 28.173464233406776 -32.428715606015658 0 -32.428715606015658 -44.58531080989718 0 0 0 0 28.087175140492036 -26.426824150443395 0 -26.426824150443395 -31.471809936022964 0 0 0 0 21.17297076894647 -25.499900522737335 0 -25.499900522737335 -31.547453570851303 0 0 0 0 13.722764975573227 -7.2272599775542403 0 -7.2272599775542403 -21.99869364830937 0 0 0 0 0.30545852317322897 -3.5888334528734411 0 -3.5888334528734411 -1.1269477558952699 0 0 0 0 27.415329738509172 -20.726352137653862 0 -20.726352137653862 -34.995905122806562 0 0 0 0 11.457249962692003 -9.5230552185357027 0 -9.5230552185357027 -21.788177253101537 0 0 0 0 12.906500830967261 -3.9707886961414172 0 -3.9707886961414172 -0.12387874256847808 0 0 0 0 11.043297499362922 1.7671322228469819 0 1.7671322228469819 -3.2289132247346481 0 0 0 0 10.744186728097702 22.346928359623917 0 22.346928359623917 -24.963733797383838 0 0 0 0 23.747005884943476 -4.4867944717660944 0 -4.4867944717660944 -1.3489047233492921 0 0 0 0 37.111074748070678 -4.2000940055011142 0 -4.2000940055011142 -25.384531440399314 0 0 0 0 15.363688305053074 0.54480583083181955 0 0.54480583083181955 6.0347469173975696 0 0 0 0 6.2574097158922086 11.202553921488573 0 11.202553921488573 -13.829239909036005 0 0 0 0 -1.824325444191345 -20.952306124280994 0 -20.952306124280994 -6.3225573472486758 0 0 0 0 10.008233458262112 -0.030051069100409222 0 -0.030051069100409222 3.080642492392144 0 0 0 0 26.498670199463959 9.8610194385878458 0 9.8610194385878458 5.9662411652240053 0 0 0 0 20.92714620079937 14.862232433066168 0 14.862232433066168 7.62577261890101 0 0 0 0 22.790701410169277 -1.5351656978677966 0 -1.5351656978677966 -17.048111397421962 0 0 0 0 25.30313724712687 -9.3351813223508771 0 -9.3351813223508771 -39.626750955882073 0 0 0 0 19.24929846946543 9.9879996866511647 0 9.9879996866511647 -30.653394841370755 0 0 0 0 8.8531074281159619 -0.67170757144963211 0 -0.67170757144963211 -0.0054844971624906647 0 0 0 0 -6.2317181862417783 -4.2274484659059794 0 -4.2274484659059794 -16.897641300659075 0 0 0 0 38.088924270516145 12.833491100592482 0 12.833491100592482 -10.418551786398126 0 0 0 0 1.6059754920715932 -12.731691091839366 0 -12.731691091839366 -12.018147906474042 0 0 0 0 13.464281484674757 32.969018089112126 0 32.969018089112126 24.261669490764007 0 0 0 0 93.930788884594222 41.487605807989212 0 41.487605807989212 -5.0498276671185067 0 0 0 0 42.693371797158761 11.407152196276229 0 11.407152196276229 2.2439346820015089 0 0 0 0 46.024393249193963 25.429925269141222 0 25.429925269141222 -9.4170494420031901 0 0 0 0 86.176504884257156 7.7369881018848901 0 7.7369881018848901 -21.263683890916809 0 0 0 0 90.267869477356726 15.893679618357282 0 15.893679618357282 -33.273228222747093 0 0 0 0 23.528405688944705 -19.118585535371583 0 -19.118585535371583 -3.5869920296844766 0 0 0 0 59.125464447053673 -66.064289504205817 0 -66.064289504205817 -15.776396219742509 0 0 0 0 26.644949601039116 15.463830368128981 0 15.463830368128981 -22.691058621695074 0 0 0 0 145.49725087563911 -109.24928796703281 0 -109.24928796703281 97.636576413741409 0 0 0 0 -13.896043957785878 -33.048628382468394 0 -33.048628382468394 118.63182747601104 0 0 0 0 84.405436373952398 73.353514371989718 0 73.353514371989718 47.250907036351549 0 0 0 0 175.61009975377965 51.401676825528796 0 51.401676825528796 -19.30853329869197 0 0 0 0 3.1951111747523129 0.12415205141889274 0 0.12415205141889274 -0.097518380911945535 0 0 0 0 35.456985727396386 3.5853281581030387 0 3.5853281581030387 4.4312247738389487 0 0 0 0 44.872327045268321 -4.8423880169174129 0 -4.8423880169174129 11.703251694520837 0 0 0 0 72.739682532150255 15.914838801743031 0 15.914838801743031 3.0722912082301264 0 0 0 0 57.094237117355078 10.792426556471924 0 10.792426556471924 4.429130035168896 0 0 0 0 25.54126410952329 -16.325503979667385 0 -16.325503979667385 -5.7986471522549135 0 0 0 0 -9.3278555077813508 -84.082588515886897 0 -84.082588515886897 36.602672273658982 0 0 0 0 28.766951049187853 13.786755227911428 0 13.786755227911428 0.26495229548767241 0 0 0 0 -127.71490299839343 125.64869368125365 0 125.64869368125365 -27.594782924310152 0 0 0 0 -138.39448299553624 164.84752249170651 0 164.84752249170651 -54.878325093242211 0 0 0 0 -8.095722298407054 26.058039039857078 0 26.058039039857078 -136.93551385000472 0 0 0 0 5.7072086391999619 -36.666888594871011 0 -36.666888594871011 -145.21490191517626 0 0 0 0 9.0689543176572691 2.7084565702737962 0 2.7084565702737962 -2.5156825512166447 0 0 0 0 -262.1294982111267 65.936592521300923 0 65.936592521300923 -22.949507471670131 0 0 0 0 -24.594515136901464 5.5229616983879914 0 5.5229616983879914 -65.395813526187112 0 0 0 0 2.69137858936665 -37.673961262637278 0 -37.673961262637278 -45.531305688107977 0 0 0 0 -55.91166414370673 25.683428623483678 0 25.683428623483678 -9.2044009754199578 0 0 0 0 8.8179732098143333 -2.3911136146218688 0 -2.3911136146218688 -4.9466915441131611 0 0 0 0 52.340016275182279 32.753389602804475 0 32.753389602804475 -58.504612829427003 0 0 0 0 54.243599582237948 83.324971718373178 0 83.324971718373178 -16.572995914708031 0 0 0 0 79.443657756764878 76.349107503206824 0 76.349107503206824 -105.30538587953617 0 0 0 0 31.908701037233186 89.767434074023811 0 89.767434074023811 96.963888830173119 0 0 0 0 -0.1742809004921142 3.4163994707922276 0 3.4163994707922276 -0.39090848523933758 0 0 0 0 71.442756573938823 62.760845272932443 0 62.760845272932443 -8.2188737571023012 0 0 0 0 132.39047336059593 58.546694004667899 0 58.546694004667899 -26.021456321253822 0 0 0 0 -14.810314274758639 16.224676208848535 0 16.224676208848535 -35.498633650299666 0 0 0 0 -187.41919477902775 -104.43617619347016 0 -104.43617619347016 198.70362847633322 0 0 0 0 36.853262655124126 -152.16099897561253 0 -152.16099897561253 -32.026874865089724 0 0 0 0 -3.8136619642933809 -3.6307938707824299 0 -3.6307938707824299 -0.081531674809704802 0 0 0 0 30.232437776838331 1.5703897532019275 0 1.5703897532019275 -0.4910178604462247 0 0 0 0 -331.54634302226077 -138.70765851073702 0 -138.70765851073702 56.902055992298756 0 0 0 0 -168.62253073714965 168.39093727710349 0 168.39093727710349 -185.45325479583872 0 0 0 0 -112.28243309267418 36.531956408574615 0 36.531956408574615 136.60289343443665 0 0 0 0 -33.839573487817688 -7.664042652610533 0 -7.664042652610533 27.752625922004768 0 0 0 0 134.63562983477823 -118.80678727291885 0 -118.80678727291885 100.85146407091008 0 0 0 0 85.586166063483688 114.86160211218373 0 114.86160211218373 110.62340618709273 0 0 0 0 46.037987308787706 37.937143384577553 0 37.937143384577553 -37.064015771873699 0 0 0 0 70.620868087768031 99.622135145127004 0 99.622135145127004 -18.66296882193376 0 0 0 0 239.94043512732878 70.134729860218641 0 70.134729860218641 -57.300622072952152 0 0 0 0 63.042101607865334 -48.444242209465529 0 -48.444242209465529 -124.98267038071513 0 0 0 0 80.071155952457048 39.437390396121316 0 39.437390396121316 -57.905687116123012 0 0 0 0 108.16028520563486 84.083778520230055 0 84.083778520230055 -40.497219883149569 0 0 0 0 74.131316486043943 54.415916034614838 0 54.415916034614838 -57.059930914256199 0 0 0 0 -3.4584176677653886 43.906847076150143 0 43.906847076150143 -1.5038798720322575 0 0 0 0 26.081496982901982 -0.92471301602259359 0 -0.92471301602259359 -5.3604574302037973 0 0 0 0 160.35438591643106 20.733926303565227 0 20.733926303565227 -126.36576404855845 0 0 0 0 71.122184754536647 27.229361437393834 0 27.229361437393834 -149.31487123455992 0 0 0 0 8.604562017281296 -13.458195101922641 0 -13.458195101922641 -14.371824512620833 0 0 0 0 11.499276703884625 -4.3423373029224646 0 -4.3423373029224646 -3.3117587699916937 0 0 0 0 3.7988957844991091 -3.5814168088575364 0 -3.5814168088575364 -94.308594999369063 0 0 0 0 22.251409478106552 -64.22160156787335 0 -64.22160156787335 -142.21526109262663 0 0 0 0 66.830132627229432 -3.0311285182222747 0 -3.0311285182222747 -98.753294538700118 0 0 0 0 21.451759856170611 -35.526849121323963 0 -35.526849121323963 -6.1272072677718086 0 0 0 0 81.668675948239979 -48.55521495019029 0 -48.55521495019029 -29.749279582812136 0 0 0 0 -2.8002316373549547 -6.1091996598036644 0 -6.1091996598036644 -65.463066918463056 0 0 0 0 52.809293705524397 8.0127252223101095 0 8.0127252223101095 -67.683399539025459 0 0 0 0 65.776812395701199 -41.343711563976115 0 -41.343711563976115 -9.4756615418452839 0 0 0 0 47.779584358346256 35.578574354272519 0 35.578574354272519 -28.70317588138056 0 0 0 0 28.621990652712157 9.1852726979219597 0 9.1852726979219597 -43.630071337071058 0 0 0 0 56.052872723332257 38.248322577680483 0 38.248322577680483 -51.647262564068569 0 0 0 0 31.799583111338883 1.5224180396763973 0 1.5224180396763973 -2.2321396805359166 0 0 0 0 4.1450505173432148 2.9678709065587814 0 2.9678709065587814 -2.8485494383957803 0 0 0 0 45.672009182515467 -12.804870900708295 0 -12.804870900708295 -106.78137951988126 0 0 0 0 45.066580500775672 -47.34112901233749 0 -47.34112901233749 -0.93158794690400271 0 0 0 0 18.80534865814343 -33.471310892648297 0 -33.471310892648297 5.4721540643262188 0 0 0 0 83.794652746768406 -34.715963929612116 0 -34.715963929612116 0.24265400667864867 0 0 0 0 54.562770838423603 -26.891603186174052 0 -26.891603186174052 -61.625210225723208 0 0 0 0 41.673049395054477 -25.933607316487155 0 -25.933607316487155 11.830442412399293 0 0 0 0 60.498211049883139 -37.082386632854991 0 -37.082386632854991 59.98012315060646 0 0 0 0 36.86923720739378 -43.82402396260585 0 -43.82402396260585 58.495892804343555 0 0 0 0 22.133878387347977 -59.278907984217582 0 -59.278907984217582 88.967391608018033 0 0 0 0 5.819284853573663 -36.18578563693778 0 -36.18578563693778 92.011416000902898 0 0 0 0 25.289142311980868 -11.320368321980197 0 -11.320368321980197 122.41942962683913 0 0 0 0 105.48534906535588 2.7211304602345194 0 2.7211304602345194 33.888451358109364 0 0 0 0 84.762880729951021 63.163602920666712 0 63.163602920666712 -11.200907356530479 0 0 0 0 208.45435529120559 41.078084476155674 0 41.078084476155674 -8.0773390673343215 0 0 0 0 50.892262086015762 -30.130755096552463 0 -30.130755096552463 30.494534191448736 0 0 0 0 199.84035375151507 -100.95497668430579 0 -100.95497668430579 60.213848963843702 0 0 0 0 70.052615002774473 -52.452407331455305 0 -52.452407331455305 -10.425235690630011 0 0 0 0 32.196035929264781 -94.548868554616561 0 -94.548868554616561 217.96405505308269 0 0 0 0 -11.047548400965752 34.490141342945435 0 34.490141342945435 179.80621483407512 0 0 0 0 6.050208014292366 -66.051986680310023 0 -66.051986680310023 171.0484774917928 0 0 0 0 -0.24248316820709537 -0.1284806484356853 0 -0.1284806484356853 -3.5033606702844153 0 0 0 0 -138.23522151126326 9.8609117025170576 0 9.8609117025170576 36.008379283737185 0 0 0 0 -23.090257375231886 33.536485348174438 0 33.536485348174438 4.9206405696872935 0 0 0 0 -80.848345511465595 76.24148134378683 0 76.24148134378683 10.700309342905257 0 0 0 0 -37.528960904744963 72.138823604992979 0 72.138823604992979 -21.005161323522053 0 0 0 0 45.463369020697428 85.844383829747684 0 85.844383829747684 105.28088536104796 0 0 0 0 -1.7293172585318644 12.56413254017377 0 12.56413254017377 -3.8296772141464714 0 0 0 0 11.361587246449961 -1.4867511336565351 0 -1.4867511336565351 -3.2389917644541786 0 0 0 0 -14.404962993429763 42.021739550111391 0 42.021739550111391 -98.136617383384333 0 0 0 0 20.794307315525657 90.766273332178415 0 90.766273332178415 -32.191009374305935 0 0 0 0 3.138987959565525 -1.1081736891447083 0 -1.1081736891447083 -7.2148441945649386 0 0 0 0 14.7011456553264 -11.948841486644938 0 -11.948841486644938 26.918237031028184 0 0 0 0 15.190885816401988 3.1258177408254255 0 3.1258177408254255 18.097051438633116 0 0 0 0 26.770279258676055 -19.152052420128143 0 -19.152052420128143 22.699349588140194 0 0 0 0 3.2073451157347437 -0.59787117329702255 0 -0.59787117329702255 0.31472544932327029 0 0 0 0 10.039779072076271 -5.2654335151986231 0 -5.2654335151986231 2.5482180788426376 0 0 0 0 18.154520482423322 -30.589212417200656 0 -30.589212417200656 13.526459428135695 0 0 0 0 11.056030581163213 -6.0341155645037361 0 -6.0341155645037361 3.0880896650312479 0 0 0 0 32.40518546950716 -14.863230042250109 0 -14.863230042250109 22.790355558198826 0 0 0 0 24.999428003080538 -25.73651714138748 0 -25.73651714138748 25.988068714438782 0 0 0 0 15.371553632112409 -18.128805528785279 0 -18.128805528785279 20.953111193918403 0 0 0 0 21.745010812842338 -0.76477994520661241 0 -0.76477994520661241 -18.589721921048749 0 0 0 0 9.6978324338818176 3.0621302634726071 0 3.0621302634726071 -0.23090673225804403 0 0 0 0 13.43396902882796 -11.607243689840402 0 -11.607243689840402 19.116278189949981 0 0 0 0 6.4686338291770795 2.2451239462344499 0 2.2451239462344499 0.90185322229254639 0 0 0 0 9.6499174653345108 -12.800817030369672 0 -12.800817030369672 38.512182538947854 0 0 0 0 29.837680016746162 -14.233055568548821 0 -14.233055568548821 33.372964400836736 0 0 0 0 41.106337283511039 30.720374198819968 0 30.720374198819968 -17.723459643010756 0 0 0 0 13.378144462612909 -8.9688314794440203 0 -8.9688314794440203 5.3245032661875484 0 0 0 0 43.649735332282035 29.260175389499807 0 29.260175389499807 26.595796750890827 0 0 0 0 94.314072165188009 110.79211053088477 0 110.79211053088477 57.513688297878275 0 0 0 0 117.68847741452737 130.26960867871014 0 130.26960867871014 73.738454586822172 0 0 0 0 160.60152697240846 97.758485060129914 0 97.758485060129914 40.581965222890517 0 0 0 0 2.3384715842593522 0.98898821485263166 0 0.98898821485263166 0.54867988985018856 0 0 0 0 -20.265709619725385 24.217053135446577 0 24.217053135446577 93.119397091474809 0 0 0 0 63.430928697448508 131.89144195165522 0 131.89144195165522 206.91910265284127 0 0 0 0 418.98522299693832 116.23820573346165 0 116.23820573346165 68.02473566279366 0 0 0 0 129.03454587438864 84.532390469511483 0 84.532390469511483 66.205914077980566 0 0 0 0 79.096870077341009 52.498869061205824 0 52.498869061205824 87.866929391307281 0 0 0 0 212.07324693385272 53.064402040289053 0 53.064402040289053 25.25192736889926 0 0 0 0 93.097181802564592 -27.83007025549125 0 -27.83007025549125 56.788639617796292 0 0 0 0 -2.5328734771865129 -12.254502628823332 0 -12.254502628823332 41.417141094621741 0 0 0 0 57.529858187991522 4.0878631465225794 0 4.0878631465225794 -17.661269179989404 0 0 0 0 -0.066564741324924626 0.48635046504442114 0 0.48635046504442114 0.22513067118408037 0 0 0 0 85.288273489326912 71.255232126916894 0 71.255232126916894 116.17962122939139 0 0 0 0 30.880769227786004 65.19253453901797 0 65.19253453901797 158.4046846775949 0 0 0 0 138.94589581815671 -32.677525439830504 0 -32.677525439830504 183.66593161851642 0 0 0 0 94.483867999264476 103.30432606702402 0 103.30432606702402 220.62315860894762 0 0 0 0 173.40657144106262 97.98982495243331 0 97.98982495243331 51.186007639204718 0 0 0 0 66.34774135830412 101.24093430863365 0 101.24093430863365 126.98780752172433 0 0 0 0 51.899733705823564 72.008514925285567 0 72.008514925285567 68.03789896778585 0 0 0 0 90.403221060852957 72.915306710301223 0 72.915306710301223 35.10973774590002 0 0 0 0 80.700613597938627 96.040410844565287 0 96.040410844565287 51.130102825607537 0 0 0 0 64.966431943728821 84.36455921834181 0 84.36455921834181 42.861564276021454 0 0 0 0 132.1319570467349 50.495171834038501 0 50.495171834038501 19.228785958811159 0 0 0 0 83.330141367028773 72.756842457066796 0 72.756842457066796 45.965948543221373 0 0 0 0 109.84452431158297 46.405517366986032 0 46.405517366986032 39.563140890160639 0 0 0 0 149.82357674087325 -3.7555064247553673 0 -3.7555064247553673 6.0977685251043923 0 0 0 0 64.243762815732225 -49.814192284179626 0 -49.814192284179626 51.145920655450709 0 0 0 0 23.935021884696653 -17.86407803083415 0 -17.86407803083415 57.642067506295916 0 0 0 0 186.9421864195283 -96.996097825811944 0 -96.996097825811944 71.616691396994156 0 0 0 0 318.72261286107459 130.40862033427152 0 130.40862033427152 79.856347369065475 0 0 0 0 122.45204317197658 42.090978595589092 0 42.090978595589092 41.03808689841253 0 0 0 0 -50.569958217021849 8.4767221478462034 0 8.4767221478462034 22.458266938796896 0 0 0 0 0.68501605491057482 -2.7071035995527524 0 -2.7071035995527524 13.96310484541986 0 0 0 0 3.9529008074997449 0.054793717093853722 0 0.054793717093853722 2.5095570831974952 0 0 0 0 26.434292060615917 -15.44811299900698 0 -15.44811299900698 -39.088441283866246 0 0 0 0 -15.056195461207608 -14.375209311367598 0 -14.375209311367598 0.3447644768648388 0 0 0 0 2.464263657572701 27.610108538754616 0 27.610108538754616 -19.746022804363975 0 0 0 0 -1.1074595201329842 -0.28842699634485325 0 -0.28842699634485325 3.7124152050015105 0 0 0 0 -5.6049588125133596 -4.2615445660912883 0 -4.2615445660912883 19.021489376151862 0 0 0 0 -7.0542152606631134 -2.8161069430283874 0 -2.8161069430283874 17.704903260203366 0 0 0 0 1.6707287957131438 -4.2343360377271271 0 -4.2343360377271271 11.243138738291741 0 0 0 0 10.553331548997448 -2.8550316969985943 0 -2.8550316969985943 10.340729493498486 0 0 0 0 -0.41682189742459741 -9.3543709758102409 0 -9.3543709758102409 15.763331585105334 0 0 0 0 1.8161494069636319 16.019588420595596 0 16.019588420595596 46.524242525605132 0 0 0 0 -6.6237926913690899 5.4462814844205809 0 5.4462814844205809 15.953277207499767 0 0 0 0 -2.843307754064881 -3.2115473652512208 0 -3.2115473652512208 15.989823572461773 0 0 0 0 -7.476054786694931 8.2712675903055555 0 8.2712675903055555 24.582558831915321 0 0 0 0 -8.9706843068788658 4.8858169991167415 0 4.8858169991167415 71.090796270897954 0 0 0 0 -0.45498911797754005 0.77036672715787646 0 0.77036672715787646 0.02211034816617119 0 0 0 0 17.270132720850597 20.323864544628577 0 20.323864544628577 25.177189693447531 0 0 0 0 38.005307835137501 64.357068469800652 0 64.357068469800652 88.298074300264659 0 0 0 0 55.770407289364812 87.593561565571463 0 87.593561565571463 75.035428725134352 0 0 0 0 69.108383377437349 84.092112366442507 0 84.092112366442507 52.040778664846471 0 0 0 0 44.405359879950083 65.108314813053255 0 65.108314813053255 42.169493833486285 0 0 0 0 60.31326547145909 66.702800850797189 0 66.702800850797189 22.414463206388064 0 0 0 0 48.063617713705753 58.604235523537966 0 58.604235523537966 44.641141786689332 0 0 0 0 48.153095618656153 60.320162199451147 0 60.320162199451147 48.219893652684277 0 0 0 0 6.9853270615813017 21.807224742487563 0 21.807224742487563 36.054464285712356 0 0 0 0 26.633097471111796 18.040846582811241 0 18.040846582811241 17.046224958246285 0 0 0 0 85.052468829231657 53.636971197317962 0 53.636971197317962 22.155092961798118 0 0 0 0 39.762327657850392 15.481664990927243 0 15.481664990927243 0.50992481578100524 0 0 0 0 -55.842031517137002 -2.3261850268934268 0 -2.3261850268934268 45.131871621631262 0 0 0 0 -17.255394111807618 -23.036760603941048 0 -23.036760603941048 10.549936033083384 0 0 0 0 0.50007500656271731 -3.0673068128634391 0 -3.0673068128634391 14.749307614941589 0 0 0 0 112.17802397715059 19.936922822904876 0 19.936922822904876 -18.945797711868238 0 0 0 0 0.46475901413487897 -2.8528996773260573 0 -2.8528996773260573 14.065451162974272 0 0 0 0 46.117366101912012 32.679323903066802 0 32.679323903066802 25.829813054369652 0 0 0 0 -47.547652493880378 -66.392578602064845 0 -66.392578602064845 40.330136777486587 0 0 0 0 61.314329764267313 -5.9244073542040496 0 -5.9244073542040496 -17.892379081739023 0 0 0 0 210.01387100185866 121.27652217100555 0 121.27652217100555 51.587183264502073 0 0 0 0 107.49363262502811 80.993485098594533 0 80.993485098594533 157.14778632437412 0 0 0 0 146.50897395032916 -16.930707735711621 0 -16.930707735711621 27.999769191855194 0 0 0 0 60.637188252321721 139.78105299910681 0 139.78105299910681 195.36738603217066 0 0 0 0 61.724020637848028 85.304989262894779 0 85.304989262894779 74.902751123927828 0 0 0 0 83.372525824819604 56.054118109447813 0 56.054118109447813 19.008216830255378 0 0 0 0 98.780446654658135 93.238751895106248 0 93.238751895106248 38.200797442777684 0 0 0 0 51.338773817008132 70.658001881217871 0 70.658001881217871 37.985810099236915 0 0 0 0 56.019750950947127 88.778305979353036 0 88.778305979353036 78.802123689290966 0 0 0 0 61.043452754967802 83.378068044495194 0 83.378068044495194 49.606351165993601 0 0 0 0 66.701595794676905 87.7441366239226 0 87.7441366239226 46.942769660272461 0 0 0 0 17.927004914065037 27.85473374871799 0 27.85473374871799 121.0493007123016 0 0 0 0 39.538650967399917 30.702358535717167 0 30.702358535717167 34.263297768115081 0 0 0 0 36.134027836774294 24.914347377693502 0 24.914347377693502 27.998978075597279 0 0 0 0 41.209459997375234 -9.3420064093752444 0 -9.3420064093752444 23.430331763316303 0 0 0 0 36.360018340188617 4.6497137902274517 0 4.6497137902274517 2.0212231684499784 0 0 0 0 35.534954070644744 -9.8225115431707763 0 -9.8225115431707763 5.4303956958513027 0 0 0 0 32.559230754253804 -10.817428258407745 0 -10.817428258407745 5.0987636860245402 0 0 0 0 45.96097429362635 -4.8615564426347646 0 -4.8615564426347646 -7.7051733256457737 0 0 0 0 31.226797306699993 -6.4452548134354153 0 -6.4452548134354153 3.4397101267712524 0 0 0 0 90.46000827831449 -50.361716451443044 0 -50.361716451443044 9.1539636331567635 0 0 0 0 45.910301103329694 -9.9249315236055988 0 -9.9249315236055988 1.5041128649397226 0 0 0 0 11.751539210361628 -2.6545786456966152 0 -2.6545786456966152 2.4208711168451318 0 0 0 0 18.87172255720543 -181.80395984282268 0 -181.80395984282268 -92.491075844323404 0 0 0 0 -134.10347942959925 56.553520056761954 0 56.553520056761954 64.67740829352249 0 0 0 0 38.863355042016337 -16.670105978636002 0 -16.670105978636002 -46.890181045242116 0 0 0 0 48.938138230843833 2.9762204681731532 0 2.9762204681731532 -0.82066042667656802 0 0 0 0 36.82479022829375 3.3420304792434763 0 3.3420304792434763 -0.19073177926520657 0 0 0 0 25.087716068550435 -24.492883178981629 0 -24.492883178981629 42.218093640152119 0 0 0 0 10.589756166154984 8.3964094672235206 0 8.3964094672235206 208.59519523272266 0 0 0 0 -0.10510678028736109 0.18251916354184239 0 0.18251916354184239 1.8862438325004049 0 0 0 0 232.34130734369774 144.2874707130855 0 144.2874707130855 49.606319681247896 0 0 0 0 217.85560788366638 186.84860050893474 0 186.84860050893474 -10.869527841593026 0 0 0 0 366.19632613954946 98.385357077472975 0 98.385357077472975 19.973562866576231 0 0 0 0 208.29481600338841 217.03370148173053 0 217.03370148173053 237.36478693622666 0 0 0 0 -6.7978045054405811 -254.31625415851636 0 -254.31625415851636 295.20729562510314 0 0 0 0 240.46986987080163 209.59550633875915 0 209.59550633875915 -63.543752646399525 0 0 0 0 49.661672819896921 88.475741018297356 0 88.475741018297356 192.41936533374084 0 0 0 0 2.2047663522033361 -2.5951523707698332 0 -2.5951523707698332 2.1842248756567066 0 0 0 0 -5.5917892843899608 181.97599487761386 0 181.97599487761386 91.573460505510866 0 0 0 0 99.344094030859196 28.795734042613162 0 28.795734042613162 80.83799869906909 0 0 0 0 -50.091576334471029 29.256463488072001 0 29.256463488072001 124.14900445523472 0 0 0 0 122.69646603993715 -24.519371571920487 0 -24.519371571920487 202.27654115704382 0 0 0 0 34.270170447092823 3.2658905737816895 0 3.2658905737816895 -35.93256919721199 0 0 0 0 68.019832891326587 21.552144795576282 0 21.552144795576282 -32.155982783467152 0 0 0 0 22.109130545179141 -0.49497100538326322 0 -0.49497100538326322 -42.385317048460934 0 0 0 0 55.599815948648029 -25.031161275737531 0 -25.031161275737531 -26.2753729767594 0 0 0 0 62.802999513900431 -13.961548423249269 0 -13.961548423249269 5.6155789253223674 0 0 0 0 61.47028381608834 -5.3170614273133765 0 -5.3170614273133765 -13.186480473442771 0 0 0 0 72.39943381561352 43.264338979085096 0 43.264338979085096 19.010972734592208 0 0 0 0 105.30853963898244 12.178687612370595 0 12.178687612370595 -11.701664269019602 0 0 0 0 37.585813724553645 10.151011902628341 0 10.151011902628341 -9.5789627100753023 0 0 0 0 85.45151177274056 44.93775731671667 0 44.93775731671667 3.9846342838334294 0 0 0 0 46.723069137458879 33.22417358665075 0 33.22417358665075 4.4336477729782402 0 0 0 0 59.129303464791519 80.513637487763845 0 80.513637487763845 46.889767250169825 0 0 0 0 69.675377081866827 72.537293808373533 0 72.537293808373533 36.222358462334057 0 0 0 0 69.389989407207395 64.94769531343627 0 64.94769531343627 19.513493147961526 0 0 0 0 48.77330154336596 63.213972726639213 0 63.213972726639213 52.69014029884147 0 0 0 0 49.766321928102116 44.594741988252736 0 44.594741988252736 7.4695802626556542 0 0 0 0 51.258886187511962 52.781377886714381 0 52.781377886714381 23.6294969275109 0 0 0 0 49.041329676058922 22.152183797948567 0 22.152183797948567 -18.268371037036559 0 0 0 0 37.345001773239346 20.928309626968257 0 20.928309626968257 13.406369546511996 0 0 0 0 62.35394243318342 34.192023137571823 0 34.192023137571823 -15.183323022675722 0 0 0 0 44.267096687610319 7.1995198993322447 0 7.1995198993322447 -32.994434995902793 0 0 0 0 47.159356294065219 24.130119318636844 0 24.130119318636844 -10.699835383976506 0 0 0 0 55.515008802951343 27.498673848510862 0 27.498673848510862 -47.013523242956126 0 0 0 0 23.33532357890553 -0.53648743913776276 0 -0.53648743913776276 -0.51053118167286593 0 0 0 0 47.038294412916002 22.450697688132323 0 22.450697688132323 -78.301002950467137 0 0 0 0 58.481815307291981 4.4904678297502869 0 4.4904678297502869 -54.914038988099378 0 0 0 0 18.781422191553986 -5.2061416193516248 0 -5.2061416193516248 -1.4820530394108582 0 0 0 0 31.596240579434379 -26.946237255280721 0 -26.946237255280721 -34.062418326172974 0 0 0 0 58.455260200193152 -3.5880103815011353 0 -3.5880103815011353 -82.295737260482838 0 0 0 0 38.599797212653357 -16.842285947571099 0 -16.842285947571099 -59.082520681844471 0 0 0 0 58.848359607081875 6.9569029807434504 0 6.9569029807434504 -38.445375925821281 0 0 0 0 5.774369258265736 6.7318399713597854 0 6.7318399713597854 -2.9840063581721288 0 0 0 0 46.284182414869065 24.092091655512149 0 24.092091655512149 -0.46606582999311286 0 0 0 0 34.958108437320334 4.4591051643069477 0 4.4591051643069477 6.6748986699401485 0 0 0 0 44.177481675877971 4.7664171567573703 0 4.7664171567573703 -25.344457159713784 0 0 0 0 24.828992037197168 5.6586754438126263 0 5.6586754438126263 -28.376189716604131 0 0 0 0 43.742596569576563 3.1595897675437072 0 3.1595897675437072 -27.362325119831439 0 0 0 0 30.766060163703514 -1.6047537989516059 0 -1.6047537989516059 -19.986410116510967 0 0 0 0 35.65635986320558 -11.436669626567891 0 -11.436669626567891 -27.958581301865706 0 0 0 0 39.599802546872525 -4.8085180457205752 0 -4.8085180457205752 13.999705939872456 0 0 0 0 38.298285244552062 4.1325164179572766 0 4.1325164179572766 -84.377102127265971 0 0 0 0 3.5630705249200645 -4.1510127040978952 0 -4.1510127040978952 -2.2916902254395159 0 0 0 0 20.10887472180184 -80.090843221754767 0 -80.090843221754767 -1.3531993800133932 0 0 0 0 38.433490767952961 -6.8639343221798104 0 -6.8639343221798104 -2.9938190064835895 0 0 0 0 40.530068521889916 1.8941806389743761 0 1.8941806389743761 -22.804197715556256 0 0 0 0 37.254694305440353 -1.1861911359892474 0 -1.1861911359892474 -25.700588999780166 0 0 0 0 43.193984059194918 -12.562576021412497 0 -12.562576021412497 -28.749137980043088 0 0 0 0 33.103286515787993 -9.8808331300954944 0 -9.8808331300954944 1.8575698928078817 0 0 0 0 33.108768551739104 -11.567886850392142 0 -11.567886850392142 -12.366178196984038 0 0 0 0 33.536740517469298 -5.4676061025247691 0 -5.4676061025247691 4.6701828921086417 0 0 0 0 37.615841078964877 -4.3311816928189728 0 -4.3311816928189728 4.8282875673189665 0 0 0 0 37.11056735564307 -6.3802200717825599 0 -6.3802200717825599 3.201379118038858 0 0 0 0 40.422824118355493 -6.7661189369932799 0 -6.7661189369932799 3.2317510437369492 0 0 0 0 37.417373332085845 -8.345292198464449 0 -8.345292198464449 3.011288194191593 0 0 0 0 37.087932061645915 -6.3654910609632225 0 -6.3654910609632225 3.4370425580482333 0 0 0 0 36.315028196120693 -12.114564941124627 0 -12.114564941124627 6.1247027512627028 0 0 0 0 19.117070636704739 -7.4473643243013612 0 -7.4473643243013612 7.4874905088040578 0 0 0 0 29.533789230401453 -12.144329410084083 0 -12.144329410084083 6.2350338267941652 0 0 0 0 36.014603264429752 -5.1015852185989843 0 -5.1015852185989843 2.0390603956593623 0 0 0 0 -13.138152644576621 1.1618465724991438 0 1.1618465724991438 25.469734963162409 0 0 0 0 20.946331551877137 -4.1737986943824028 0 -4.1737986943824028 -1.0915726290428909 0 0 0 0 20.463449395520001 -11.17200701722777 0 -11.17200701722777 -1.5747058727613421 0 0 0 0 20.684621972334796 -10.152625345073663 0 -10.152625345073663 4.0581790998459271 0 0 0 0 13.280253729386459 21.549757805571517 0 21.549757805571517 35.666172611467118 0 0 0 0 -28.692441527433402 -10.140499769315738 0 -10.140499769315738 27.52226448746444 0 0 0 0 7.0819508472613961 15.316709001510617 0 15.316709001510617 -40.293100446518338 0 0 0 0 -18.348567579439987 4.5079514127709217 0 4.5079514127709217 32.191410634809472 0 0 0 0 40.874340943083553 -25.110243018741528 0 -25.110243018741528 -88.094405471827713 0 0 0 0 24.488738291652588 -1.7388700700769251 0 -1.7388700700769251 0.03850318495416849 0 0 0 0 95.321547890958755 -14.81274179208549 0 -14.81274179208549 -67.142753545061453 0 0 0 0 10.991055983019834 -9.8485764963088975 0 -9.8485764963088975 37.687692104291727 0 0 0 0 15.292870634246356 -22.757009532546135 0 -22.757009532546135 -3.8115533029799735 0 0 0 0 -1.8586666082092549 -5.183052604795046 0 -5.183052604795046 -0.057382768200533008 0 0 0 0 18.838043938826672 -6.1737437715338555 0 -6.1737437715338555 -3.5475930100009894 0 0 0 0 28.06559099117208 -4.7417590895782737 0 -4.7417590895782737 -3.7790239411088109 0 0 0 0 103.29069637472276 -44.190906373863072 0 -44.190906373863072 -24.602626357577719 0 0 0 0 30.568561192918423 -17.087531153848317 0 -17.087531153848317 4.6104476943219197 0 0 0 0 30.502140558921383 -23.37762006487128 0 -23.37762006487128 11.021867917751479 0 0 0 0 17.676829806117894 -16.105054953618264 0 -16.105054953618264 18.831567969907155 0 0 0 0 18.309623849338465 0.25870781713595647 0 0.25870781713595647 -2.7974520035339658 0 0 0 0 26.393168193964812 -4.9545366442775958 0 -4.9545366442775958 4.8570814132117448 0 0 0 0 21.221309614620623 -9.9975725587976285 0 -9.9975725587976285 14.764661045644971 0 0 0 0 21.226008346831804 -7.3054995978318402 0 -7.3054995978318402 11.239573606005706 0 0 0 0 31.913117672838325 -10.887027447774528 0 -10.887027447774528 7.2313395991996003 0 0 0 0 21.10056289199656 -8.018151199111287 0 -8.018151199111287 7.2118497378151005 0 0 0 0 34.762059689979651 -6.2605340961899856 0 -6.2605340961899856 1.7231795257489466 0 0 0 0 21.557579658525782 -9.2073349147116694 0 -9.2073349147116694 5.5698396860931538 0 0 0 0 38.234517035951285 -10.660477792742995 0 -10.660477792742995 7.053614333709902 0 0 0 0 38.129803552263184 -9.1887809463960366 0 -9.1887809463960366 2.1473194479065185 0 0 0 0 34.972434798411996 -9.1461605054332722 0 -9.1461605054332722 8.4109985294562648 0 0 0 0 35.787829053697351 -11.535608077100051 0 -11.535608077100051 11.188430661606617 0 0 0 0 19.896189806255279 -2.4961368984836554 0 -2.4961368984836554 -2.6862717907251863 0 0 0 0 25.114426391749888 -2.6072346215821574 0 -2.6072346215821574 -0.83434968793613251 0 0 0 0 35.670380930045212 -16.242749527630622 0 -16.242749527630622 15.799616617310676 0 0 0 0 43.276126129516342 -10.788305155190301 0 -10.788305155190301 3.1375416836017394 0 0 0 0 13.844959521331106 4.1474371677726793 0 4.1474371677726793 3.5354701187474511 0 0 0 0 22.932034646472047 -3.0373775302493229 0 -3.0373775302493229 4.6358736022740938 0 0 0 0 20.608029336436644 -4.1656287427398677 0 -4.1656287427398677 0.010272455522034818 0 0 0 0 37.781653437326895 -13.188292162866674 0 -13.188292162866674 9.2254361501782114 0 0 0 0 36.936500005980633 -18.987047793402098 0 -18.987047793402098 14.056217594827103 0 0 0 0 22.798062184800074 -8.6663588146643633 0 -8.6663588146643633 16.155978815995695 0 0 0 0 33.428183584146609 -2.7982807865100767 0 -2.7982807865100767 5.3442786167042868 0 0 0 0 17.631087610738177 -1.772330222087021 0 -1.772330222087021 8.2183241273285148 0 0 0 0 6.7592534400702817 5.8562905327801715 0 5.8562905327801715 -0.21535654747165012 0 0 0 0 30.072117363459256 -1.7109331423212097 0 -1.7109331423212097 7.7386399157308006 0 0 0 0 26.873186955366691 -6.4252954467688141 0 -6.4252954467688141 8.241298358612795 0 0 0 0 17.815810221350148 -7.5084823666699094 0 -7.5084823666699094 12.071274624150647 0 0 0 0 42.799519982268976 0.11990661638355959 0 0.11990661638355959 16.346197770008075 0 0 0 0 44.892159749833809 -2.2975681677462489 0 -2.2975681677462489 10.048488655187157 0 0 0 0 39.821270845124673 -1.4997509378108589 0 -1.4997509378108589 10.736325821077116 0 0 0 0 43.257746358445729 -3.67402389659037 0 -3.67402389659037 12.111895118086068 0 0 0 0 38.917567094832521 -0.068728007174655659 0 -0.068728007174655659 18.528097610816985 0 0 0 0 44.054199483638513 -3.3814593053848512 0 -3.3814593053848512 20.315186718641598 0 0 0 0 43.190830821731652 -0.62638312727290213 0 -0.62638312727290213 21.387023497461996 0 0 0 0 44.935755870734283 2.7882099403741449 0 2.7882099403741449 22.788110024558591 0 0 0 0 48.493128266418353 -0.93217709733380616 0 -0.93217709733380616 16.363334466489505 0 0 0 0 44.723694011696267 -9.4608836792032598 0 -9.4608836792032598 0.28054752225051027 0 0 0 0 33.353099747295346 -2.8507041416692118 0 -2.8507041416692118 31.834606351074171 0 0 0 0 17.194634683866298 -139.82503956543428 0 -139.82503956543428 7.0277282094461953 0 0 0 0 54.475676651061804 -2.8690517456625457 0 -2.8690517456625457 21.686137444705764 0 0 0 0 54.391684169160726 4.9713306146936702 0 4.9713306146936702 20.978379227972255 0 0 0 0 44.472842277580639 -6.5678553412994916 0 -6.5678553412994916 28.915167195468712 0 0 0 0 35.396754909910669 -1.0892292243916017 0 -1.0892292243916017 25.633365246083486 0 0 0 0 27.673367890001828 0.71920040778559269 0 0.71920040778559269 30.694462225776988 0 0 0 0 35.40154255362944 -1.46957193458897 0 -1.46957193458897 28.788330134288117 0 0 0 0 26.574127553402832 4.2669833039487912 0 4.2669833039487912 33.299475870561764 0 0 0 0 44.350493276091584 13.578146824600026 0 13.578146824600026 26.538233394946474 0 0 0 0 37.318493225757265 2.723222815164263 0 2.723222815164263 11.635743881629423 0 0 0 0 34.857494092226261 4.5002334191940463 0 4.5002334191940463 22.932576721666919 0 0 0 0 39.129126237299261 -2.9042741755625059 0 -2.9042741755625059 16.878005952803505 0 0 0 0 39.875455636793049 -4.939365477708634 0 -4.939365477708634 8.6007585265015223 0 0 0 0 35.227041356585687 1.5565479885708555 0 1.5565479885708555 12.870811784852776 0 0 0 0 36.580782671910129 -3.9719360004983173 0 -3.9719360004983173 9.8586463241424553 0 0 0 0 30.059637111175107 -3.5730852913375202 0 -3.5730852913375202 10.665217352806394 0 0 0 0 52.959484698380038 -10.35552718535024 0 -10.35552718535024 9.6501273226140256 0 0 0 0 50.512527529426734 -8.1632153267723879 0 -8.1632153267723879 -12.64533964047132 0 0 0 0 30.478997247246298 2.0482030165503602 0 2.0482030165503602 3.3837995622611743 0 0 0 0 43.327698326509562 17.932445200533721 0 17.932445200533721 37.497971753593447 0 0 0 0 108.53091889505959 1.0247072105498773 0 1.0247072105498773 11.062242406263522 0 0 0 0 54.072502602452005 -54.338741207206112 0 -54.338741207206112 45.134713822118101 0 0 0 0 11.641918430872465 30.9539791546988 0 30.9539791546988 23.494098549344926 0 0 0 0 19.218242762841044 2.3697002894121795 0 2.3697002894121795 1.9034186600846805 0 0 0 0 22.105147241207305 -13.753462660517698 0 -13.753462660517698 10.810637283992492 0 0 0 0 0.28019012448282865 0.40031747502241366 0 0.40031747502241366 1.609706975871843 0 0 0 0 12.439288850351517 -9.9897430545939798 0 -9.9897430545939798 4.4327019355505204 0 0 0 0 40.188835794870101 -3.3399427874401226 0 -3.3399427874401226 -0.35227046941417939 0 0 0 0 39.197200460585009 -46.197264344662472 0 -46.197264344662472 2.6138567329367106 0 0 0 0 35.880694265120383 -14.102250753038373 0 -14.102250753038373 4.3756343468294991 0 0 0 0 39.134240115075954 2.8326474700568269 0 2.8326474700568269 -11.639785522226703 0 0 0 0 41.047746571108291 -5.2076403713299442 0 -5.2076403713299442 -1.7650093680681493 0 0 0 0 37.438005690237333 19.668207945347604 0 19.668207945347604 -2.2070373082385686 0 0 0 0 40.580658053786465 25.966753626534 0 25.966753626534 1.205594552349794 0 0 0 0 54.879652970463212 9.3624467579929842 0 9.3624467579929842 -15.66954333969079 0 0 0 0 58.430345849737932 -13.861311587387263 0 -13.861311587387263 -43.515221373570967 0 0 0 0 71.745772308760934 10.953206036426309 0 10.953206036426309 -36.231033906219636 0 0 0 0 35.212087171603343 11.579362743376578 0 11.579362743376578 -31.856654007153338 0 0 0 0 43.973988469420874 -11.338326824988144 0 -11.338326824988144 -69.795598921180499 0 0 0 0 31.020439781575988 -21.943858478916354 0 -21.943858478916354 -11.213863304597396 0 0 0 0 41.034506593518017 -17.667943329604441 0 -17.667943329604441 -49.000861231072122 0 0 0 0 33.44490226266926 -12.880230934647845 0 -12.880230934647845 3.2412130270357782 0 0 0 0 36.574895172459946 -3.1145546458756144 0 -3.1145546458756144 0.59578044775935268 0 0 0 0 38.188311721707578 -4.415273383353906 0 -4.415273383353906 1.3420822003135982 0 0 0 0 38.192319711822691 -2.3954643955368855 0 -2.3954643955368855 5.0246476603915653 0 0 0 0 40.203839408881322 -7.7853560349776672 0 -7.7853560349776672 -0.074466305175519665 0 0 0 0 40.007104695563612 -4.6360427181871273 0 -4.6360427181871273 -4.8724909142465549 0 0 0 0 -81.838636737811612 -86.500506051151206 0 -86.500506051151206 -19.873909317990183 0 0 0 0 -22.002287922150572 20.163093250948805 0 20.163093250948805 -57.046395489549013 0 0 0 0 72.95998513007271 -76.481884850790436 0 -76.481884850790436 -82.419128817448836 0 0 0 0 70.250707212791895 -82.382089637495483 0 -82.382089637495483 -26.635698869542011 0 0 0 0 6.2396961386475596 -30.950504084635213 0 -30.950504084635213 -33.212085085347098 0 0 0 0 32.120064136870766 -9.6104593647475092 0 -9.6104593647475092 2.0749573001958392 0 0 0 0 59.607765933149494 -119.02610109568195 0 -119.02610109568195 -88.366004184983467 0 0 0 0 90.044375126391969 -35.634434185921236 0 -35.634434185921236 -41.208484422884794 0 0 0 0 62.141750363516621 -41.20534209953712 0 -41.20534209953712 -10.799466035697151 0 0 0 0 68.111369562095206 -33.21548338546836 0 -33.21548338546836 -75.494974268704482 0 0 0 0 -3.3616750064995955 -3.4046661395375182 0 -3.4046661395375182 1.9101668280504036 0 0 0 0 -26.45479774287287 -31.440767958286187 0 -31.440767958286187 17.67141094559247 0 0 0 0 -16.683168954950816 -65.038726239541575 0 -65.038726239541575 -50.729157751324237 0 0 0 0 37.428602232495905 -5.9027332882960764 0 -5.9027332882960764 5.5132167790934545 0 0 0 0 40.328431532048853 -11.861691976744623 0 -11.861691976744623 -5.7909818853986508 0 0 0 0 36.474777516706126 -11.222017219021041 0 -11.222017219021041 1.5017217374042957 0 0 0 0 40.475969449042168 -4.3390733305022877 0 -4.3390733305022877 3.4648958957254763 0 0 0 0 42.158372882948242 -5.6234055308809729 0 -5.6234055308809729 4.4236152498087904 0 0 0 0 40.473698311412591 -2.5698255980596514 0 -2.5698255980596514 10.660486927104103 0 0 0 0 19.753511961949698 7.3556858949068555 0 7.3556858949068555 22.127959160239698 0 0 0 0 -6.0185040217402275 -42.598185069003193 0 -42.598185069003193 22.156528693887594 0 0 0 0 12.084117090729706 -7.3388405501990519 0 -7.3388405501990519 7.6709061354113146 0 0 0 0 142.49838173862372 -58.135435587837492 0 -58.135435587837492 -8.3228012755064356 0 0 0 0 35.246364825852652 -61.73619413306551 0 -61.73619413306551 114.90629821616585 0 0 0 0 33.386537985927134 46.242694399445554 0 46.242694399445554 100.22768496434816 0 0 0 0 43.237661835373729 -61.754795662402103 0 -61.754795662402103 125.40918333341358 0 0 0 0 1.9146530048900985 -0.37062497509160486 0 -0.37062497509160486 -0.029567590581824454 0 0 0 0 16.018865530881158 42.823594342441538 0 42.823594342441538 80.979502777410289 0 0 0 0 102.19184985945503 65.730886534722231 0 65.730886534722231 26.66305224144071 0 0 0 0 158.28371481729846 6.9210135114235527 0 6.9210135114235527 -22.324620974254913 0 0 0 0 11.301506212348613 -2.9290784436620498 0 -2.9290784436620498 14.724006703708255 0 0 0 0 23.509792634635232 -21.218629054263147 0 -21.218629054263147 42.121610501329542 0 0 0 0 118.47084882225317 -46.607447464491315 0 -46.607447464491315 25.935409932780203 0 0 0 0 2.3803498139241128 -46.314863219608128 0 -46.314863219608128 41.627537749262046 0 0 0 0 30.115010951547447 -42.405491720402551 0 -42.405491720402551 -29.287181611559504 0 0 0 0 53.267874311904961 -2.6245524969539247 0 -2.6245524969539247 -3.6902210593689233 0 0 0 0 97.173484175466001 46.761883029135959 0 46.761883029135959 40.677939423423595 0 0 0 0 27.738579032724374 2.8678789502225754 0 2.8678789502225754 17.528635852462685 0 0 0 0 24.396451192477116 31.311532731174381 0 31.311532731174381 52.571784743367971 0 0 0 0 42.99903678651026 7.2852449910674295 0 7.2852449910674295 13.135864632200537 0 0 0 0 28.019374018364033 25.408632353166922 0 25.408632353166922 58.131419612362606 0 0 0 0 19.033556441212568 -7.5489507550989856 0 -7.5489507550989856 7.3791913202467185 0 0 0 0 26.332468989814515 -6.6148508366377428 0 -6.6148508366377428 19.234999026233709 0 0 0 0 7.0021198759416308 -3.1668027507485164 0 -3.1668027507485164 1.0349372879025296 0 0 0 0 15.625426266289395 -9.4908084559105674 0 -9.4908084559105674 7.6914682991419951 0 0 0 0 28.650814490792982 -10.143851022995477 0 -10.143851022995477 7.2925761298349698 0 0 0 0 13.627550561319708 -15.980768991586196 0 -15.980768991586196 9.0439172606497475 0 0 0 0 -65.820191141872783 -84.118074101124876 0 -84.118074101124876 -16.60460248070649 0 0 0 0 1.1090120627466433 -6.4303375479606828 0 -6.4303375479606828 1.3321513810028662 0 0 0 0 33.605100394401234 -9.4478246536491497 0 -9.4478246536491497 17.09927447384689 0 0 0 0 31.169696380625069 -10.350200881770618 0 -10.350200881770618 2.632631260777746 0 0 0 0 28.24245713998971 -4.3053760178754601 0 -4.3053760178754601 14.183019995735776 0 0 0 0 15.864275863156536 -13.180298003103033 0 -13.180298003103033 7.5655106115982491 0 0 0 0 28.881157082490517 -11.649813057651215 0 -11.649813057651215 12.722644029739058 0 0 0 0 10.33308871444062 1.7196331550349271 0 1.7196331550349271 -0.82074372441782728 0 0 0 0 29.497976087131974 -16.068039806095157 0 -16.068039806095157 8.5612944835611273 0 0 0 0 21.252490717077308 -8.6040408303456388 0 -8.6040408303456388 6.9870016425165886 0 0 0 0 19.356425322277573 -4.265171911000607 0 -4.265171911000607 10.64222028574477 0 0 0 0 9.8167968777779606 -8.0911582762450962 0 -8.0911582762450962 9.3751729987175167 0 0 0 0 24.454853590745188 12.903391797128734 0 12.903391797128734 19.839559056834332 0 0 0 0 1.1025340858177515 -24.324716193079439 0 -24.324716193079439 76.965355861898843 0 0 0 0 12.843266507843509 4.8373046055344275 0 4.8373046055344275 4.6253566333052731 0 0 0 0 4.9552235835230221 0.43604927603100663 0 0.43604927603100663 -0.14278889605391187 0 0 0 0 8.8938033530884013 -1.9527673902387122 0 -1.9527673902387122 2.3727213192737038 0 0 0 0 19.135378869708802 -8.1418510330106528 0 -8.1418510330106528 3.7624938662438581 0 0 0 0 2.1512041630921885 -27.789824300145483 0 -27.789824300145483 37.185775092046924 0 0 0 0 18.811521916684853 -6.2306716005070655 0 -6.2306716005070655 6.3259905927250912 0 0 0 0 403.43629517726367 -271.37848999952257 0 -271.37848999952257 -223.54309597726387 0 0 0 0 12.12390341036371 -15.751573863248268 0 -15.751573863248268 26.552080790869695 0 0 0 0 3.8158442712883698 -42.371041017413063 0 -42.371041017413063 -1.2160142047910085 0 0 0 0 -555.21308024847531 -35.633294148128698 0 -35.633294148128698 -193.14248781036986 0 0 0 0 31.253722451613555 -17.869107864442441 0 -17.869107864442441 9.9076832588936945 0 0 0 0 24.655514784000843 -13.558377674376743 0 -13.558377674376743 22.89591047639442 0 0 0 0 18.842555906318012 -57.460299417885381 0 -57.460299417885381 -19.096837363765644 0 0 0 0 -0.69626249870043466 -19.240251483229656 0 -19.240251483229656 24.572306975621359 0 0 0 0 -139.2949365043678 -57.992451621107648 0 -57.992451621107648 -40.354114056854087 0 0 0 0 28.840178371432245 -16.647454106020838 0 -16.647454106020838 9.3095741694511922 0 0 0 0 -125.47206985115918 -196.9118218481467 0 -196.9118218481467 -133.9749767388148 0 0 0 0 -0.63379961839081034 -0.28659814848232656 0 -0.28659814848232656 1.8993701398104115 0 0 0 0 97.810623884135566 -121.58956599583053 0 -121.58956599583053 -83.216287430694138 0 0 0 0 52.886815683188615 -134.56179367097593 0 -134.56179367097593 -57.600403473156803 0 0 0 0 30.058161938730336 -33.812941445032948 0 -33.812941445032948 -329.53488086373181 0 0 0 0 98.308383280849739 -124.66564996202737 0 -124.66564996202737 -120.91903142166484 0 0 0 0 9.7609949388424866 -16.113118214726455 0 -16.113118214726455 -6.4536228846034192 0 0 0 0 -29.242249663693656 -160.26818324045598 0 -160.26818324045598 -129.74054824471841 0 0 0 0 15.948278929918189 -11.644667303909074 0 -11.644667303909074 7.0614488321741362 0 0 0 0 -37.372348363373021 -131.04738491484204 0 -131.04738491484204 -77.782916144694354 0 0 0 0 68.765041407923491 15.375969317163367 0 15.375969317163367 -2.4910270648651931 0 0 0 0 174.01993992883217 -9.3422232048387741 0 -9.3422232048387741 -21.576546604209398 0 0 0 0 5.9257359286615952 -5.1877628003353777 0 -5.1877628003353777 0.77717430923156172 0 0 0 0 272.72060946103738 160.60855096671503 0 160.60855096671503 -0.88547615155403037 0 0 0 0 111.24199169885833 79.503672081553304 0 79.503672081553304 138.87288567771338 0 0 0 0 -236.20080656295613 -245.39561397998477 0 -245.39561397998477 -115.63410099003431 0 0 0 0 -215.30087780185568 -42.634404474791609 0 -42.634404474791609 310.65592810903672 0 0 0 0 253.8212313837721 94.208712013488821 0 94.208712013488821 -58.399727338335651 0 0 0 0 7.5890315633104706 -5.2741653774140929 0 -5.2741653774140929 -3.0256408997847295 0 0 0 0 97.354288617751081 77.561246941183981 0 77.561246941183981 -140.31968747403516 0 0 0 0 67.974812462256523 34.900551085550433 0 34.900551085550433 83.624454260400398 0 0 0 0 214.71066171307757 171.63631462180638 0 171.63631462180638 33.25518027290309 0 0 0 0 42.098613257716352 92.372712416953618 0 92.372712416953618 221.54834251485045 0 0 0 0 281.32441642669437 -113.90230833763962 0 -113.90230833763962 -156.34167926191367 0 0 0 0 -170.07839749981213 -232.25412462638042 0 -232.25412462638042 -125.76130354346174 0 0 0 0 89.651928975850751 16.94452115877084 0 16.94452115877084 -94.93846479157537 0 0 0 0 48.184614452911774 -52.970836626331675 0 -52.970836626331675 -123.7665585698619 0 0 0 0 98.065861548915564 12.669724802409746 0 12.669724802409746 -93.456840538559391 0 0 0 0 160.54628735592041 97.588899513450627 0 97.588899513450627 -25.810866088751936 0 0 0 0 7.0457101110140172 -4.638834257186133 0 -4.638834257186133 -6.535714488569198 0 0 0 0 -69.892405472841347 -89.949340565894545 0 -89.949340565894545 -71.323717427640986 0 0 0 0 32.664491836560046 -27.126067761742661 0 -27.126067761742661 -57.527531704505236 0 0 0 0 83.102504226910241 -93.559363312506321 0 -93.559363312506321 -139.56598330763427 0 0 0 0 -32.077381037652231 -123.67300992542346 0 -123.67300992542346 -73.841205743516184 0 0 0 0 7.4051275319507113 -14.998374478478581 0 -14.998374478478581 38.549694882080985 0 0 0 0 152.41421058321748 1.3462293701071815 0 1.3462293701071815 -115.89326608277224 0 0 0 0 33.711234206099562 -12.810178612703965 0 -12.810178612703965 2.6751281200051249 0 0 0 0 30.996588350983984 3.314355056476586 0 3.314355056476586 12.115547702210279 0 0 0 0 27.590370939240529 -2.7927997689134827 0 -2.7927997689134827 13.282579590176283 0 0 0 0 15.378381921662736 -8.7482256541822636 0 -8.7482256541822636 2.9978481088064122 0 0 0 0 42.373997110473283 2.2532044854842752 0 2.2532044854842752 9.4624510268818085 0 0 0 0 21.492643164594199 -4.1843358092925609 0 -4.1843358092925609 -1.5312957956871678 0 0 0 0 17.618169164915344 -8.9943140894358748 0 -8.9943140894358748 2.4289734593012327 0 0 0 0 53.241091460542521 14.45665184817517 0 14.45665184817517 20.924165813524723 0 0 0 0 4.4506013423546449 -2.6851929266464012 0 -2.6851929266464012 0.86364617204956673 0 0 0 0 20.187676196466782 8.4086316047464607 0 8.4086316047464607 56.440151585161402 0 0 0 0 -10.595850183322909 -7.5770656551339925 0 -7.5770656551339925 19.188421113036839 0 0 0 0 72.663951112568611 -69.559809428242261 0 -69.559809428242261 36.475806412329803 0 0 0 0 28.075848110092096 -13.616799382589285 0 -13.616799382589285 5.7780424851557086 0 0 0 0 36.842248460330083 -13.412941940229153 0 -13.412941940229153 2.7782116445977234 0 0 0 0 50.055913287840667 -10.229600623910187 0 -10.229600623910187 -51.535677009980645 0 0 0 0 76.219890362641308 -104.59148735213694 0 -104.59148735213694 -122.53292663149512 0 0 0 0 103.41427942815062 117.93677243865568 0 117.93677243865568 -7.4423571571578577 0 0 0 0 -45.152354147438018 -22.517352542683511 0 -22.517352542683511 69.598629140960838 0 0 0 0 34.060768003582012 -15.357624650249925 0 -15.357624650249925 2.5317285851798648 0 0 0 0 24.184446193859912 -42.162985538309385 0 -42.162985538309385 -49.856529867114659 0 0 0 0 15.311687517995352 -1.3921290383906069 0 -1.3921290383906069 -8.9598420306269126 0 0 0 0 103.48903634900853 3.1212794231455518 0 3.1212794231455518 -68.262920171777296 0 0 0 0 10.831960048992187 31.799031551074222 0 31.799031551074222 11.847024460814019 0 0 0 0 39.527865035743162 14.735858020089381 0 14.735858020089381 -34.63113977618741 0 0 0 0 11.358528714452405 -69.346178018658065 0 -69.346178018658065 11.022683891302222 0 0 0 0 136.35859233965311 -21.736445264327358 0 -21.736445264327358 -23.388657901125043 0 0 0 0 101.43724525324069 46.347097049221702 0 46.347097049221702 32.977210143159027 0 0 0 0 -28.213121919914556 -89.181722439936721 0 -89.181722439936721 289.84609123325026 0 0 0 0 5.2708068398787873 -0.079365217946360644 0 -0.079365217946360644 12.225908162725318 0 0 0 0 60.621255707934324 -48.089233414137198 0 -48.089233414137198 -32.554218622773988 0 0 0 0 41.13235455485119 -0.96646193704918915 0 -0.96646193704918915 -12.601609188506245 0 0 0 0 32.748057546448933 -5.6940765922140626 0 -5.6940765922140626 0.61393780477601667 0 0 0 0 101.28723369377258 -38.808844102374678 0 -38.808844102374678 -53.913190027740711 0 0 0 0 24.300752822549839 -4.3206382532630414 0 -4.3206382532630414 7.9574053941287275 0 0 0 0 44.137818244020998 2.8064276135201442 0 2.8064276135201442 -1.7995840320686742 0 0 0 0 68.611011017132114 -7.7587903292228475 0 -7.7587903292228475 10.300390034838074 0 0 0 0 31.130116473809437 -2.169808704926508 0 -2.169808704926508 -0.29593715941757115 0 0 0 0 27.942447033488861 -6.1484897555473026 0 -6.1484897555473026 -8.0576105128666313 0 0 0 0 40.378046108553463 13.236551699860797 0 13.236551699860797 3.7487206587247783 0 0 0 0 45.604981700269491 5.9638728986666365 0 5.9638728986666365 2.2253465777966994 0 0 0 0 76.461772683036543 14.248010627961321 0 14.248010627961321 -6.9291423069676057 0 0 0 0 27.984674216802887 0.94209277832317184 0 0.94209277832317184 22.360331100819621 0 0 0 0 49.523925000386953 24.403787721366825 0 24.403787721366825 -4.983638979393163 0 0 0 0 32.672721445681546 4.4094173015239306 0 4.4094173015239306 -1.6359658163539024 0 0 0 0 88.342354294800316 83.944602445108103 0 83.944602445108103 68.642884110486193 0 0 0 0 46.665868663738365 -1.6404373813820712 0 -1.6404373813820712 -27.108202238426657 0 0 0 0 24.875361444136544 0.7601510063913981 0 0.7601510063913981 -3.4138085390096542 0 0 0 0 23.226627303010446 -20.667563893548873 0 -20.667563893548873 19.967641900946546 0 0 0 0 -50.233231911293842 -49.848930890991141 0 -49.848930890991141 61.317267876290316 0 0 0 0 21.619486787336427 -8.3613119621782062 0 -8.3613119621782062 9.3727957263581629 0 0 0 0 68.48427258861193 -13.745270923930548 0 -13.745270923930548 9.8129363709858808 0 0 0 0 28.312732145834161 -27.598755144641018 0 -27.598755144641018 30.734246836208513 0 0 0 0 16.057095301592199 -50.499366209471646 0 -50.499366209471646 25.204577692869861 0 0 0 0 26.817109574738424 20.108555384871579 0 20.108555384871579 49.917246546461847 0 0 0 0 59.784918149016448 -6.1535996135553432 0 -6.1535996135553432 -11.552665093275664 0 0 0 0 0.27505642690927345 -6.2437506854579325 0 -6.2437506854579325 1.8400434970919317 0 0 0 0 5.5587169538734855 1.0415159121387134 0 1.0415159121387134 -1.0369658194656619 0 0 0 0 29.429805978750665 24.051930849466316 0 24.051930849466316 54.512195396677271 0 0 0 0 42.88113348875595 -3.0719596723617997 0 -3.0719596723617997 -21.437126149739925 0 0 0 0 37.280284971890069 -6.7046872084514462 0 -6.7046872084514462 -1.6959137425596964 0 0 0 0 87.140035076226923 -143.54958956308656 0 -143.54958956308656 -47.832252865470515 0 0 0 0 41.570055767327915 -7.9534639235047235 0 -7.9534639235047235 1.0193643785182178 0 0 0 0 59.228382061170123 1.6833087499585417 0 1.6833087499585417 -30.764017681802216 0 0 0 0 202.75086925851792 -60.128013030709553 0 -60.128013030709553 -299.30531953256741 0 0 0 0 51.915460117518933 -1.8758451962234837 0 -1.8758451962234837 -0.39566059574561363 0 0 0 0 56.152933594691604 -2.7541857767700151 0 -2.7541857767700151 -2.2528277863125368 0 0 0 0 50.424046923755668 12.696874328429317 0 12.696874328429317 1.488648178757586 0 0 0 0 34.83460766130554 -8.7549840975752922 0 -8.7549840975752922 -3.1709816588115363 0 0 0 0 40.621709411442225 4.1255746960310091 0 4.1255746960310091 12.368923496503612 0 0 0 0 47.003394905777895 -15.157220618357229 0 -15.157220618357229 -9.4640312119190639 0 0 0 0 77.894644890628115 9.2533756229822757 0 9.2533756229822757 -15.080501149976044 0 0 0 0 78.787779055099236 2.1217312881658472 0 2.1217312881658472 -12.061161381663624 0 0 0 0 32.924807357565456 -18.036665669891477 0 -18.036665669891477 -1.4792172111935749 0 0 0 0 25.049224857066292 -2.1336195558578765 0 -2.1336195558578765 -3.620445402648329 0 0 0 0 60.90103290357365 6.3545025123730738 0 6.3545025123730738 4.802424289566261 0 0 0 0 27.711944230164562 -31.902585551849075 0 -31.902585551849075 -1.3472011017066929 0 0 0 0 36.133228214756244 -8.2294161991308208 0 -8.2294161991308208 -7.7940098451521234 0 0 0 0 22.919720169797074 -14.589586625759694 0 -14.589586625759694 -37.958613335424161 0 0 0 0 27.983179993972684 -25.749035234913023 0 -25.749035234913023 3.9157827606577289 0 0 0 0 81.610801042487367 14.221920882904584 0 14.221920882904584 -16.723065524667451 0 0 0 0 69.182339672337548 -1.8655793728999015 0 -1.8655793728999015 -5.7450895587608102 0 0 0 0 42.023090842753192 -1.7008745046329992 0 -1.7008745046329992 -4.9870168529048247 0 0 0 0 69.125806702355476 -6.532071463313514 0 -6.532071463313514 -9.0722105147365255 0 0 0 0 30.85608854246675 -12.752381919577601 0 -12.752381919577601 -63.231207459422876 0 0 0 0 40.866252087557697 -9.2606121109694488 0 -9.2606121109694488 -4.33976418575255 0 0 0 0 50.649600823702485 12.004993997446036 0 12.004993997446036 -4.6501783595168398 0 0 0 0 38.579597466690757 -13.361910907442052 0 -13.361910907442052 -60.761504783535202 0 0 0 0 12.959793097265788 -1.7568503411947951 0 -1.7568503411947951 0.73291058941051102 0 0 0 0 43.030464915951598 -11.438012788453079 0 -11.438012788453079 -34.755327448163371 0 0 0 0 9.0813044783499208 -49.670549880429689 0 -49.670549880429689 79.41806560578425 0 0 0 0 46.620268611863139 -5.3269138827172355 0 -5.3269138827172355 -52.937193973930334 0 0 0 0 36.979032828220028 -10.101164799983827 0 -10.101164799983827 -5.5895496113493053 0 0 0 0 40.524495605146512 -15.587609240417805 0 -15.587609240417805 -18.975735393052673 0 0 0 0 39.535560909527703 -9.2888126154748534 0 -9.2888126154748534 -25.564495548024752 0 0 0 0 35.067321583626963 1.4610746695581156 0 1.4610746695581156 -4.7983047299479757 0 0 0 0 39.984630321851 -15.944768499624843 0 -15.944768499624843 -17.653272096609726 0 0 0 0 40.265671245884732 -19.260751433272162 0 -19.260751433272162 -28.006020117049275 0 0 0 0 24.270444903421605 -32.155573833968653 0 -32.155573833968653 -37.200196562762358 0 0 0 0 41.543570362382525 -22.503025493590599 0 -22.503025493590599 -47.43514523626618 0 0 0 0 47.61663827416487 -23.396549931323534 0 -23.396549931323534 -37.799817840487776 0 0 0 0 49.082555379936821 -25.878899103207004 0 -25.878899103207004 -51.878435455088947 0 0 0 0 60.618761324774823 -15.613826313344703 0 -15.613826313344703 -50.500289053079541 0 0 0 0 57.676444048964186 -26.762446259730496 0 -26.762446259730496 -46.94069598437045 0 0 0 0 33.146878465122427 2.0402711201231796 0 2.0402711201231796 -30.995860185591482 0 0 0 0 -10.057928978276323 -10.967726783655053 0 -10.967726783655053 -34.680156790664114 0 0 0 0 -17.720098661460725 143.17552748786227 0 143.17552748786227 89.081474658099978 0 0 0 0 -7.425084429247363 -208.87899231407982 0 -208.87899231407982 275.08662944632874 0 0 0 0 152.55198617507995 -239.58042967805932 0 -239.58042967805932 -25.330856029594088 0 0 0 0 19.509390394434377 63.157293209723264 0 63.157293209723264 -43.724519806209173 0 0 0 0 1.9923898678970318 1.6123044090469811 0 1.6123044090469811 0.68920208681158979 0 0 0 0 130.92440771821566 69.411403102798204 0 69.411403102798204 -47.001775889721102 0 0 0 0 102.75166838354198 31.948343826939436 0 31.948343826939436 4.6265481668060602 0 0 0 0 75.16602343141858 -1.0722824790354935 0 -1.0722824790354935 -38.472330077963761 0 0 0 0 0.62728678684889871 -0.39970843897118868 0 -0.39970843897118868 -0.70127899847334163 0 0 0 0 43.888630730176374 46.751806216436762 0 46.751806216436762 8.4472059764202641 0 0 0 0 86.912576060138235 38.226446052850861 0 38.226446052850861 5.4776482482776032 0 0 0 0 58.032895362848649 -25.004175722718628 0 -25.004175722718628 -67.231527433952579 0 0 0 0 69.830279428279027 -6.53297424813627 0 -6.53297424813627 -49.90810653644985 0 0 0 0 33.448828562079143 -30.018131241795345 0 -30.018131241795345 -48.737302213272415 0 0 0 0 55.459679578059877 -8.4866437016989948 0 -8.4866437016989948 1.7188809996496275 0 0 0 0 99.197709834741545 60.539684390242655 0 60.539684390242655 -7.442426896240363 0 0 0 0 0.63726519129284043 -0.30596639323267993 0 -0.30596639323267993 -0.6719326606708016 0 0 0 0 83.178623518935638 26.181916819367416 0 26.181916819367416 -43.420171590863902 0 0 0 0 70.741788777155307 26.839659116772623 0 26.839659116772623 -36.092159574774996 0 0 0 0 91.885599220647919 79.147156404888136 0 79.147156404888136 23.548295500821041 0 0 0 0 78.953588421552922 45.949295744139818 0 45.949295744139818 13.133949902097811 0 0 0 0 67.700794153719471 38.726910864803358 0 38.726910864803358 55.756796952195145 0 0 0 0 24.882156363251852 36.973639266688224 0 36.973639266688224 57.230480011696727 0 0 0 0 0.5094335096281668 -0.30494336587887005 0 -0.30494336587887005 -0.42212695089065022 0 0 0 0 96.727898010951321 23.070297177424436 0 23.070297177424436 28.102873614889177 0 0 0 0 98.961397679178845 49.162776450617571 0 49.162776450617571 25.875288690944217 0 0 0 0 66.300535559879791 18.6101592315365 0 18.6101592315365 21.331383329251366 0 0 0 0 84.837341537790053 30.295204782432393 0 30.295204782432393 46.481943437307564 0 0 0 0 32.726279550380923 -18.689582001686802 0 -18.689582001686802 -3.6048287696462396 0 0 0 0 -135.88049883973872 -219.902902302656 0 -219.902902302656 79.385480699791515 0 0 0 0 27.269157844108122 83.643368559804003 0 83.643368559804003 19.79668481855515 0 0 0 0 29.499268686567092 -17.926941218838451 0 -17.926941218838451 -3.8961580169833603 0 0 0 0 -36.645492770141573 47.12443049745093 0 47.12443049745093 42.243829030142479 0 0 0 0 77.521747997714556 37.733691668875508 0 37.733691668875508 45.356761453718491 0 0 0 0 77.649942086529336 39.991173940618864 0 39.991173940618864 23.519547951224922 0 0 0 0 73.393875446592574 47.576244742864219 0 47.576244742864219 30.705359570533346 0 0 0 0 88.546574108630011 45.879210006353787 0 45.879210006353787 11.929903045866013 0 0 0 0 88.770973026636057 44.70858386036798 0 44.70858386036798 16.222767440342977 0 0 0 0 70.901708375029557 29.314351408495895 0 29.314351408495895 16.546255592076704 0 0 0 0 96.405914095797925 34.908673279219784 0 34.908673279219784 13.434888082894759 0 0 0 0 87.927641019196017 43.300112819512378 0 43.300112819512378 13.878145939055685 0 0 0 0 85.977879695812589 33.854336864640572 0 33.854336864640572 50.984085594509452 0 0 0 0 116.5184945101355 52.618423470783455 0 52.618423470783455 16.585389730133102 0 0 0 0 65.747585947152402 32.392746364611412 0 32.392746364611412 27.300743344972034 0 0 0 0 85.138457259679853 39.807108427857202 0 39.807108427857202 26.712905308211703 0 0 0 0 141.31351512066612 -19.532096017083859 0 -19.532096017083859 3.3325320899853068 0 0 0 0 122.23166899825446 -18.70962610758761 0 -18.70962610758761 18.970523829226295 0 0 0 0 180.55386446273224 -31.389406053358414 0 -31.389406053358414 -10.004021825127438 0 0 0 0 80.056677794216611 -41.246927025009995 0 -41.246927025009995 -2.5940794581423248 0 0 0 0 173.94555228399986 41.681991049507587 0 41.681991049507587 -16.258238763515692 0 0 0 0 102.98558186698938 23.19264385513452 0 23.19264385513452 25.509764164627541 0 0 0 0 54.542487166362463 45.585606856805242 0 45.585606856805242 17.360709633859077 0 0 0 0 97.268193848954979 52.247948366501078 0 52.247948366501078 54.115621320814171 0 0 0 0 76.984765225031879 19.601119377985924 0 19.601119377985924 15.630923152542891 0 0 0 0 111.76570419173277 14.824230969067344 0 14.824230969067344 9.6683446038896363 0 0 0 0 78.604760771263443 36.481048896622582 0 36.481048896622582 8.8052467580289324 0 0 0 0 69.904190047294833 31.272800348222745 0 31.272800348222745 12.387796295224689 0 0 0 0 73.292604547641531 22.175712342766587 0 22.175712342766587 13.501273552465136 0 0 0 0 176.89033641044807 -63.56923677474515 0 -63.56923677474515 3.980545085828453 0 0 0 0 127.76292472348723 -40.723954259737184 0 -40.723954259737184 17.01072525487416 0 0 0 0 22.348525149264475 2.8024187950477 0 2.8024187950477 7.8384920968090519 0 0 0 0 69.664122498423239 -14.871787811546028 0 -14.871787811546028 7.8538781757724792 0 0 0 0 89.046387533259576 10.269652499670443 0 10.269652499670443 15.224197896768601 0 0 0 0 88.766398141466198 19.82195025603778 0 19.82195025603778 27.954289269457149 0 0 0 0 38.722290916290632 -11.430590457799454 0 -11.430590457799454 -4.4240213164626887 0 0 0 0 78.760351120130508 2.3371165437365562 0 2.3371165437365562 35.001015347301745 0 0 0 0 72.428837612686038 27.648183463794453 0 27.648183463794453 63.867154437045428 0 0 0 0 24.293942236210569 -41.939993461268386 0 -41.939993461268386 144.55928214245614 0 0 0 0 -0.13383232375126397 3.0693347922655931 0 3.0693347922655931 4.0553939671919856 0 0 0 0 212.59254814173255 181.34710489676536 0 181.34710489676536 17.978992837844999 0 0 0 0 402.69837435968475 -111.27036961693352 0 -111.27036961693352 34.53813393110886 0 0 0 0 105.76848330238136 100.09609339136978 0 100.09609339136978 45.120602995494664 0 0 0 0 128.39334610653168 -7.4443103387584415 0 -7.4443103387584415 22.495500294998692 0 0 0 0 3.7745850927664861 -4.1324480222397852 0 -4.1324480222397852 3.4150183036869777 0 0 0 0 -274.51385850088468 -270.44641551226232 0 -270.44641551226232 -89.03825755152684 0 0 0 0 -272.22068351748749 41.651774705729622 0 41.651774705729622 114.87918227144291 0 0 0 0 -40.654403863276457 29.017378103595888 0 29.017378103595888 8.0279402102933091 0 0 0 0 -52.052889011982188 72.949758042547273 0 72.949758042547273 79.271405601024526 0 0 0 0 -117.91235598122876 114.92215553691312 0 114.92215553691312 136.98365070250838 0 0 0 0 333.03464341269864 -28.109126571141132 0 -28.109126571141132 -360.48918179993052 0 0 0 0 36.866125211810868 28.131058225075549 0 28.131058225075549 -22.275980873256458 0 0 0 0 -31.173498116651899 14.781631454201943 0 14.781631454201943 166.49612019599431 0 0 0 0 4.2992481008365928 0.51176657551624061 0 0.51176657551624061 -0.79200433533949166 0 0 0 0 -31.460133987520749 22.707114883055652 0 22.707114883055652 5.4835515266395305 0 0 0 0 5.8768131458186303 5.1091503631278528 0 5.1091503631278528 2.6682439665788946 0 0 0 0 -18.841143818299315 -4.0611352389885269 0 -4.0611352389885269 54.293848453371538 0 0 0 0 -2.4020094629977393 26.693587709060523 0 26.693587709060523 25.796140565987571 0 0 0 0 43.971577180331224 -21.971488530723036 0 -21.971488530723036 40.697182086762268 0 0 0 0 45.819042517839989 -23.314692198421426 0 -23.314692198421426 29.373728754108924 0 0 0 0 124.78683395199187 -51.952166079413473 0 -51.952166079413473 -10.683509374268397 0 0 0 0 38.534329358750256 71.719211876123154 0 71.719211876123154 -15.416288275583838 0 0 0 0 100.52502406571875 1.7852019599899904 0 1.7852019599899904 -3.3563819861509501 0 0 0 0 96.994357535899326 -31.482434309174096 0 -31.482434309174096 4.2291863686214128 0 0 0 0 1.2471515975121292 -45.403018087451414 0 -45.403018087451414 -9.8777300091551297 0 0 0 0 0.22626796200347599 -40.649393110892333 0 -40.649393110892333 14.022972721843416 0 0 0 0 -8.0365841232414823 7.1485607306633483 0 7.1485607306633483 35.635765115160666 0 0 0 0 112.00946045998717 1.9198738369004786 0 1.9198738369004786 -36.559324698602268 0 0 0 0 25.823741041067564 -5.1627198180250247 0 -5.1627198180250247 0.78197870393858082 0 0 0 0 141.52887692740478 -22.635416971510494 0 -22.635416971510494 -37.089523457872474 0 0 0 0 85.480593649728689 -5.0429473528556628 0 -5.0429473528556628 23.635360467682403 0 0 0 0 30.476286470458462 3.3523551015180999 0 3.3523551015180999 0.24227452474417177 0 0 0 0 32.45240258020408 -24.091699786935862 0 -24.091699786935862 2.8457306036602974 0 0 0 0 24.95893783805802 -20.64748850410794 0 -20.64748850410794 4.4691813068268642 0 0 0 0 -31.700955563703246 -7.8221710218374909 0 -7.8221710218374909 43.372251910706154 0 0 0 0 -63.618176230731478 -66.207720513027112 0 -66.207720513027112 18.472840515552086 0 0 0 0 45.510856277171115 -17.372906042168893 0 -17.372906042168893 12.518288031845941 0 0 0 0 38.754156633943921 -24.082990610130139 0 -24.082990610130139 1.279922576232071 0 0 0 0 196.44173123178552 -47.429456138500392 0 -47.429456138500392 -53.311619010159006 0 0 0 0 75.41253042491735 -7.7348778261820144 0 -7.7348778261820144 7.2782703514303648 0 0 0 0 49.387334334285697 -29.48642813627896 0 -29.48642813627896 5.401831709243595 0 0 0 0 -115.19697194713808 -100.13560092403645 0 -100.13560092403645 45.095390766993887 0 0 0 0 282.54099209859851 -6.3757962964696731 0 -6.3757962964696731 23.172080715604324 0 0 0 0 6.7578971015464049 11.404538730459876 0 11.404538730459876 34.728053170775866 0 0 0 0 21.062883301356123 19.585659702411419 0 19.585659702411419 95.153847971565028 0 0 0 0 -10.411736068681421 73.3679489821711 0 73.3679489821711 -4.032368433051488 0 0 0 0 -34.891644524774165 -162.75947434295222 0 -162.75947434295222 -80.420726434192147 0 0 0 0 42.971600356599083 -12.362750287159542 0 -12.362750287159542 7.2149003224794797 0 0 0 0 36.204631660495494 -24.918802096016094 0 -24.918802096016094 2.5413708591904651 0 0 0 0 11.125412828392371 -22.68524858339876 0 -22.68524858339876 8.2375965423899569 0 0 0 0 64.112201336831276 -115.05532177994769 0 -115.05532177994769 143.66812718316828 0 0 0 0 65.252357032324653 -13.043034665966843 0 -13.043034665966843 6.0449273584461025 0 0 0 0 46.084402280117502 -20.74105000151485 0 -20.74105000151485 6.8854446544783059 0 0 0 0 41.784322984822211 -7.4844722409410664 0 -7.4844722409410664 0.14701750199744801 0 0 0 0 429.3313033382874 188.07214059413946 0 188.07214059413946 96.610610261160843 0 0 0 0 294.30677145326626 160.34108774922106 0 160.34108774922106 92.814016262806263 0 0 0 0 0.032944140558470281 -5.9082233226699117 0 -5.9082233226699117 5.7037732354598836 0 0 0 0 384.58987314096885 108.84420481007055 0 108.84420481007055 115.89265424395262 0 0 0 0 318.54448119155131 -33.515252637987828 0 -33.515252637987828 -6.0479348384170137 0 0 0 0 615.40948939570808 28.65512067309129 0 28.65512067309129 -1.9323287675833853 0 0 0 0 418.07540917958249 -55.211114621756906 0 -55.211114621756906 -73.009793069965667 0 0 0 0 463.20845945993642 82.594681174790352 0 82.594681174790352 -91.77986521072296 0 0 0 0 300.86421519422584 209.24643131665431 0 209.24643131665431 30.594350611450523 0 0 0 0 139.95642576357932 171.52226115194094 0 171.52226115194094 32.847099770612715 0 0 0 0 -88.441678109273198 -30.44377413192376 0 -30.44377413192376 167.26994152921213 0 0 0 0 184.7084939917695 -175.2045303909824 0 -175.2045303909824 166.16249121135968 0 0 0 0 69.973276745826297 3.8696289013710867 0 3.8696289013710867 -9.2550512141029913 0 0 0 0 -1.2289573050340561 7.8608058077855105 0 7.8608058077855105 4.9440624562327953 0 0 0 0 16.724415272052283 -6.1047121989644495 0 -6.1047121989644495 2.4683389513156726 0 0 0 0 29.062912472913013 10.781359244829019 0 10.781359244829019 -4.4482248628906973 0 0 0 0 22.51713783188535 7.6389275779464896 0 7.6389275779464896 -8.3191218436004739 0 0 0 0 35.490600187033124 -1.7986186524586287 0 -1.7986186524586287 16.209511094996515 0 0 0 0 70.001605215060408 12.428443777493442 0 12.428443777493442 -12.919182753249743 0 0 0 0 55.082887736090925 14.718889908222081 0 14.718889908222081 1.9901635260580406 0 0 0 0 4.6872926901865668 9.583513915308572 0 9.583513915308572 3.2135228583503337 0 0 0 0 27.488885381585931 10.188678977187138 0 10.188678977187138 -5.9175175553404236 0 0 0 0 -15.127963766291941 4.6241116129935733 0 4.6241116129935733 1.1909397848720573 0 0 0 0 99.141221473139012 -159.9388093175946 0 -159.9388093175946 73.894040900047628 0 0 0 0 315.81225026104948 19.06325701019955 0 19.06325701019955 -80.215834971271647 0 0 0 0 53.302968883305766 8.4002464398546426 0 8.4002464398546426 -14.71370701413548 0 0 0 0 48.20747944442752 4.7366172165834399 0 4.7366172165834399 -8.9481507761378918 0 0 0 0 52.057106818685497 -19.099587246503628 0 -19.099587246503628 -17.929213590993868 0 0 0 0 40.523502202117157 27.541446725594483 0 27.541446725594483 3.645162478888559 0 0 0 0 44.292814742744667 16.760933250721791 0 16.760933250721791 -10.647841200013318 0 0 0 0 49.042056530480806 17.99111280387659 0 17.99111280387659 -2.7425790393997733 0 0 0 0 89.640191830490949 34.571930540925678 0 34.571930540925678 21.194637680164305 0 0 0 0 40.067486614249418 32.426963193997651 0 32.426963193997651 6.2129722116174904 0 0 0 0 22.140645351145547 7.1365089623009226 0 7.1365089623009226 0.41576608146903382 0 0 0 0 19.770582254720466 34.770709050183058 0 34.770709050183058 37.131741646361661 0 0 0 0 85.691891393216792 92.345342215522919 0 92.345342215522919 21.69251633531394 0 0 0 0 147.77417197440809 69.456039387740532 0 69.456039387740532 32.033683231324687 0 0 0 0 161.3898595568462 3.9173298711770599 0 3.9173298711770599 70.610767790460045 0 0 0 0 199.57834442157764 77.496988509151834 0 77.496988509151834 42.839105429712163 0 0 0 0 291.69251049653394 76.411215136384044 0 76.411215136384044 1.3081971773630698 0 0 0 0 358.85787911125226 -69.632378273354561 0 -69.632378273354561 -1.8752201935110406 0 0 0 0 29.90670469033995 -20.826157975338958 0 -20.826157975338958 -10.288275721201956 0 0 0 0 319.35266993207006 -15.934355890183916 0 -15.934355890183916 -99.103113353661684 0 0 0 0 288.2523690998205 -7.9044226334893324 0 -7.9044226334893324 -101.14631701605765 0 0 0 0 2.8317923362810689 38.095264649440644 0 38.095264649440644 -9.5257952753551081 0 0 0 0 7.2301412698054719 6.874363628092496 0 6.874363628092496 1.0032839777112741 0 0 0 0 3.2648651475328165 -0.6563997462529052 0 -0.6563997462529052 -0.6279102165008954 0 0 0 0 251.76110584088747 -425.11517550958536 0 -425.11517550958536 603.78770262589865 0 0 0 0 65.82989131436625 23.053126478203922 0 23.053126478203922 -66.405881464312642 0 0 0 0 225.707823535442 -199.00497988706707 0 -199.00497988706707 262.13820027648421 0 0 0 0 28.372327110744664 -40.302822722589326 0 -40.302822722589326 25.248714892915814 0 0 0 0 -60.962117584807856 26.919406792273435 0 26.919406792273435 51.652767052669844 0 0 0 0 -12.913837124546021 -7.4095489176354832 0 -7.4095489176354832 6.5232004955893998 0 0 0 0 46.672217357663612 -19.782399186694022 0 -19.782399186694022 26.976894924641101 0 0 0 0 3.0089024753832518 -3.4517439853498999 0 -3.4517439853498999 -4.5234541343477197 0 0 0 0 8.4387123010594678 0.045171358771614933 0 0.045171358771614933 -1.7888421996506016 0 0 0 0 127.51339380542049 -282.85185684510088 0 -282.85185684510088 389.28515143179675 0 0 0 0 6.9155500389169902 -26.991901355465416 0 -26.991901355465416 -0.84217191196830754 0 0 0 0 -12.779920781758847 -37.322651029732015 0 -37.322651029732015 20.869683015166174 0 0 0 0 -9.9805986395076616 -37.892007200013268 0 -37.892007200013268 3.6168133533938089 0 0 0 0 22.086921861598967 -28.906632506225591 0 -28.906632506225591 80.852441841574546 0 0 0 0 23.555089194785978 -74.794875677808932 0 -74.794875677808932 7.4142166871573636 0 0 0 0 -10.220683188316556 -7.2823674876453595 0 -7.2823674876453595 7.3049606427513458 0 0 0 0 89.875812703715383 -68.284513377765791 0 -68.284513377765791 -1.1526310690601349 0 0 0 0 4.7490306266012965 -1.2123515754085616 0 -1.2123515754085616 1.0655268629972676 0 0 0 0 102.90803227660945 -12.503063032435421 0 -12.503063032435421 45.774095600330838 0 0 0 0 -3.9976762184664523 -1.9960971383330488 0 -1.9960971383330488 4.4784310990686942 0 0 0 0 30.453134808725736 -2.2713708047708678 0 -2.2713708047708678 -10.804787306643902 0 0 0 0 12.75254323261106 -2.8165719832493323 0 -2.8165719832493323 -10.750347143317413 0 0 0 0 27.471348140361442 -19.275375079802416 0 -19.275375079802416 -21.119351321399336 0 0 0 0 44.406788841217349 -2.1024906418773526 0 -2.1024906418773526 -17.937660430346568 0 0 0 0 21.540360951332701 -13.513813173464044 0 -13.513813173464044 7.426504131241713 0 0 0 0 -6.2459158682904672 -39.25280488232238 0 -39.25280488232238 2.9005135054908351 0 0 0 0 -3.8856198422527086 -44.34496869460645 0 -44.34496869460645 5.1894089200559392 0 0 0 0 16.734358972622431 -53.536518885631494 0 -53.536518885631494 -40.884528393599794 0 0 0 0 26.135843316585039 -14.575158694175677 0 -14.575158694175677 8.0154030259211542 0 0 0 0 -3.3621023595587758 -23.65740553587591 0 -23.65740553587591 -43.03230457850259 0 0 0 0 50.304626678756904 -65.473349452242815 0 -65.473349452242815 -30.524247601807474 0 0 0 0 -0.91282156160345096 -0.041289135533958188 0 -0.041289135533958188 2.4195995779051422 0 0 0 0 -19.916131175916234 -47.769157297485208 0 -47.769157297485208 6.9192622776251369 0 0 0 0 1.567747808778222 -98.933699354329065 0 -98.933699354329065 127.11167358431749 0 0 0 0 -15.013731272381847 49.954793831756433 0 49.954793831756433 81.393186852945632 0 0 0 0 -49.72745558556926 -13.316222717872847 0 -13.316222717872847 -1.8635643734057794 0 0 0 0 14.256425646822763 -7.5741408874643099 0 -7.5741408874643099 -4.4941233828195468 0 0 0 0 28.021321677108062 -13.975028404409159 0 -13.975028404409159 8.8995943881764106 0 0 0 0 -86.259136162476352 -55.030405804181783 0 -55.030405804181783 118.23089121522798 0 0 0 0 182.22577450866447 -159.79051068910223 0 -159.79051068910223 158.03527259800308 0 0 0 0 -62.301126875974546 -38.626086267800517 0 -38.626086267800517 238.55319773861947 0 0 0 0 -214.08549376894371 -27.535263641108031 0 -27.535263641108031 156.205066693552 0 0 0 0 -61.343477308335423 -21.142780607455279 0 -21.142780607455279 141.94395329632357 0 0 0 0 -201.68131337727755 -122.2305152709007 0 -122.2305152709007 21.413553273530852 0 0 0 0 -0.40830464361539498 -0.97276198730114061 0 -0.97276198730114061 3.2517054863461823 0 0 0 0 -54.67100877030316 -91.995931614027995 0 -91.995931614027995 -52.09354390107444 0 0 0 0 104.4087381560239 -89.285589764900578 0 -89.285589764900578 -109.34892725324926 0 0 0 0 -26.057734877671464 17.273232723959609 0 17.273232723959609 18.817553013406723 0 0 0 0 50.877008829571423 -152.64428895017045 0 -152.64428895017045 -16.71769290354041 0 0 0 0 446.87218765758735 -40.517171787601001 0 -40.517171787601001 12.974663765706509 0 0 0 0 68.240676474928478 1.4990235719625673 0 1.4990235719625673 64.918447104221741 0 0 0 0 87.863337146496633 -68.968318248569176 0 -68.968318248569176 1.3079272282334387 0 0 0 0 190.15931947399076 -59.419067165609249 0 -59.419067165609249 -47.596201504773944 0 0 0 0 304.89518575934926 192.01577041793553 0 192.01577041793553 74.239161682423628 0 0 0 0 178.19381110875565 71.459649766564553 0 71.459649766564553 68.818183551769835 0 0 0 0 468.66134801925364 217.5576900564904 0 217.5576900564904 113.75595239891732 0 0 0 0 276.66121406688762 54.260938899635676 0 54.260938899635676 11.104096439778004 0 0 0 0 0.48812388646960869 -1.1528883520676914 0 -1.1528883520676914 3.2518595783524642 0 0 0 0 -397.35254822104253 -29.803103713576547 0 -29.803103713576547 297.91148679999151 0 0 0 0 -11.447877596929175 -73.182415861896743 0 -73.182415861896743 96.06619372452451 0 0 0 0 320.47606222672403 -119.49522131178321 0 -119.49522131178321 -38.799448415349389 0 0 0 0 152.90213685012714 63.972608453652811 0 63.972608453652811 118.09795407773083 0 0 0 0 258.93575709167635 -143.05695665403994 0 -143.05695665403994 46.661223842521792 0 0 0 0 303.04486715516396 -91.055106070561123 0 -91.055106070561123 -51.100868024167767 0 0 0 0 -26.415929484232038 -36.81674568678477 0 -36.81674568678477 -28.808705824367422 0 0 0 0 123.89203000688212 -152.72393856661756 0 -152.72393856661756 -17.309109627065027 0 0 0 0 349.66970971882984 -123.86267011486416 0 -123.86267011486416 19.576840912839543 0 0 0 0 400.87867875895699 171.17343092221307 0 171.17343092221307 10.178288303744921 0 0 0 0 350.96235007929499 40.911519996974221 0 40.911519996974221 -175.06102956126642 0 0 0 0 358.23920074023044 -69.362522998418626 0 -69.362522998418626 -36.390406395923492 0 0 0 0 132.9098485675795 -24.484403247267494 0 -24.484403247267494 42.228904331336253 0 0 0 0 148.70010148276197 17.380898821890469 0 17.380898821890469 -49.419861915603178 0 0 0 0 0.27964063039758003 -1.1765617317043393 0 -1.1765617317043393 2.7738286308531181 0 0 0 0 -79.099575288339111 -35.903467018796619 0 -35.903467018796619 -14.331381222164055 0 0 0 0 -7.3680766370252968 9.7394849007354196 0 9.7394849007354196 0.68352125849332879 0 0 0 0 2.0792302256597708 -4.0908644343775862 0 -4.0908644343775862 5.5856786657552728 0 0 0 0 134.20356193443877 -38.498269955179694 0 -38.498269955179694 -52.421613857986813 0 0 0 0 -82.489716096647044 -63.762797979604414 0 -63.762797979604414 48.842634384345729 0 0 0 0 122.81103895324486 -145.74367753978777 0 -145.74367753978777 65.238025976950439 0 0 0 0 -200.86200388552243 -56.998933294224742 0 -56.998933294224742 110.46323205905504 0 0 0 0 -1.2417148238043012 -2.3186976237901931 0 -2.3186976237901931 -2.4041642917388919 0 0 0 0 75.972887728989008 7.5957074629086492 0 7.5957074629086492 -120.38063141960458 0 0 0 0 122.68967023971345 -74.013812966313139 0 -74.013812966313139 -104.97893807686876 0 0 0 0 -131.52825925120851 120.77933914325405 0 120.77933914325405 -98.23505601820284 0 0 0 0 88.118937131597704 -17.531290202799333 0 -17.531290202799333 -153.67841193954234 0 0 0 0 -120.47500863351888 -80.405653088589077 0 -80.405653088589077 47.291835763595969 0 0 0 0 -139.24888410108542 75.646297415542705 0 75.646297415542705 52.86893929226359 0 0 0 0 -55.392391759960447 75.32880548316831 0 75.32880548316831 -139.10907282194603 0 0 0 0 -73.689448367746081 -14.856953925733819 0 -14.856953925733819 20.666904799636711 0 0 0 0 -57.674305688757158 29.342688758142174 0 29.342688758142174 27.518861591827431 0 0 0 0 -5.4942129707523009 -6.6826872435601459 0 -6.6826872435601459 -1.4413061847286111 0 0 0 0 -2.1586759462370537 -19.720524651600499 0 -19.720524651600499 15.599690434483819 0 0 0 0 2.9616723139817793 0.43659371830590743 0 0.43659371830590743 -0.63170689720098028 0 0 0 0 0.68129898723054794 62.662226119886498 0 62.662226119886498 -67.989727689310712 0 0 0 0 172.95547539378458 -247.46604556161878 0 -247.46604556161878 296.15244627361153 0 0 0 0 6.2972232697700576 -2.5585099282187258 0 -2.5585099282187258 -1.8284961371267996 0 0 0 0 11.185303511592792 -14.780458673343901 0 -14.780458673343901 10.631901074378561 0 0 0 0 -0.65040325526280185 0.43469083699682898 0 0.43469083699682898 4.405717596279997 0 0 0 0 195.58045475297695 -124.91963843674523 0 -124.91963843674523 142.09595271099897 0 0 0 0 163.21050624077907 -184.15174265946234 0 -184.15174265946234 298.95017990001406 0 0 0 0 181.6716895741265 -134.35362840106507 0 -134.35362840106507 202.77894708577401 0 0 0 0 268.96457526420272 -350.34027973490356 0 -350.34027973490356 135.95721854126009 0 0 0 0 56.309001935820561 -229.73277629418567 0 -229.73277629418567 171.78225746245568 0 0 0 0 -25.852149944104895 -61.721261515001345 0 -61.721261515001345 16.416009639554659 0 0 0 0 102.29903672375076 -174.70880200344118 0 -174.70880200344118 38.562466860158111 0 0 0 0 277.44889775748925 80.353246729120542 0 80.353246729120542 17.060339868604387 0 0 0 0 -95.221157071682683 -168.34310620682731 0 -168.34310620682731 -81.436598091883752 0 0 0 0 185.4657936290896 -211.79896658525422 0 -211.79896658525422 -75.059771361034791 0 0 0 0 -1.0411637793584703 -1.6347737905287687 0 -1.6347737905287687 2.8360777040972183 0 0 0 0 61.935304640875984 21.604962526611189 0 21.604962526611189 17.30391108552476 0 0 0 0 59.90424732658721 -1.5043269015523038 0 -1.5043269015523038 -16.05652010666563 0 0 0 0 63.297014929659781 24.077793688894417 0 24.077793688894417 0.2836375609440438 0 0 0 0 3.6023017475485233 -1.9052707123133814 0 -1.9052707123133814 2.1499362668509896 0 0 0 0 101.95978895814915 -31.926210342882769 0 -31.926210342882769 -171.35236631753014 0 0 0 0 -0.24404283827243489 85.788561285178616 0 85.788561285178616 -225.51593633551306 0 0 0 0 5.1132109940211663 -1.314428555212146 0 -1.314428555212146 -5.5121501178966898 0 0 0 0 -6.8716379926081572 -54.790625377885476 0 -54.790625377885476 -33.980952262984601 0 0 0 0 44.042793819055078 13.005892109414617 0 13.005892109414617 -1.1583487880045595 0 0 0 0 43.871145153399993 -98.270246031621582 0 -98.270246031621582 -196.97626315372145 0 0 0 0 20.73599071596982 92.291684963286457 0 92.291684963286457 -60.524404025478646 0 0 0 0 159.22504811251315 31.1330499091004 0 31.1330499091004 -291.13529045878659 0 0 0 0 117.02537169804418 -251.59961566259349 0 -251.59961566259349 -19.65255422147078 0 0 0 0 -20.829749543161597 -160.33222886991808 0 -160.33222886991808 135.88515177846818 0 0 0 0 156.39599563135744 -69.717478767895045 0 -69.717478767895045 -252.0683038686393 0 0 0 0 164.16819289570049 -159.900548990327 0 -159.900548990327 133.24741558091682 0 0 0 0 126.57239031283098 -220.69724509387856 0 -220.69724509387856 258.13643123802376 0 0 0 0 176.43177344626747 -210.57155608422386 0 -210.57155608422386 149.17100901865891 0 0 0 0 193.85120304299926 -192.07692578149044 0 -192.07692578149044 270.21551132293939 0 0 0 0 116.7081247218739 -167.32318733199531 0 -167.32318733199531 337.73350355806497 0 0 0 0 165.61987327741372 -255.00215051677486 0 -255.00215051677486 237.75943348324358 0 0 0 0 83.983922419050941 -171.66819404821189 0 -171.66819404821189 269.82344232176155 0 0 0 0 315.95361070748186 -150.9538042436252 0 -150.9538042436252 22.061815010978478 0 0 0 0 63.102458072578884 -50.063630425329634 0 -50.063630425329634 -39.776194931296757 0 0 0 0 36.674337773758452 -45.184586405450503 0 -45.184586405450503 34.283862232131966 0 0 0 0 67.662336455221521 15.747058707393307 0 15.747058707393307 52.464509535265378 0 0 0 0 108.56838145563961 -9.2695608255178641 0 -9.2695608255178641 -24.009123915737604 0 0 0 0 36.835737824228033 -0.0053077578594127317 0 -0.0053077578594127317 -2.0401084933032552 0 0 0 0 96.268842437246349 81.13186886177904 0 81.13186886177904 -38.086918064121207 0 0 0 0 5.6345164451322489 5.4319982841579133 0 5.4319982841579133 -2.9544006927344149 0 0 0 0 13.386745984809465 4.7827325879217426 0 4.7827325879217426 -2.4195408561436493 0 0 0 0 43.440338008917024 -14.669828819483985 0 -14.669828819483985 -13.297907196809106 0 0 0 0 12.074193127569743 37.633320210720711 0 37.633320210720711 15.305787687763541 0 0 0 0 53.339430730213422 -9.9061113351079157 0 -9.9061113351079157 -1.7422088426884974 0 0 0 0 43.084673092812636 18.316209589806505 0 18.316209589806505 3.1720998648299226 0 0 0 0 35.416580602730392 1.9419765040474886 0 1.9419765040474886 -3.4036433224491702 0 0 0 0 43.646595800047123 2.4159926709915212 0 2.4159926709915212 -4.3927616362539066 0 0 0 0 72.004480654606596 10.680047668014595 0 10.680047668014595 -0.10616867916542105 0 0 0 0 43.830825623794226 -2.1803910672772417 0 -2.1803910672772417 33.051569046938994 0 0 0 0 5.7165462432458298 5.401773192708788 0 5.401773192708788 4.4371832574724976 0 0 0 0 34.644731898792088 -2.7942062800016174 0 -2.7942062800016174 -4.7894140112499599 0 0 0 0 41.2011269885258 0.27605548930046098 0 0.27605548930046098 -5.2594896982546118 0 0 0 0 52.427486316233626 -32.499429316754046 0 -32.499429316754046 7.6481964035622241 0 0 0 0 40.146550265955739 -26.844986495123976 0 -26.844986495123976 29.47386814958918 0 0 0 0 29.447897155652754 -1.3321601200768782 0 -1.3321601200768782 1.3156505937877228 0 0 0 0 32.386109123671389 -5.7199732471959308 0 -5.7199732471959308 -4.0545262058534961 0 0 0 0 26.23992240290579 -1.8912542338620568 0 -1.8912542338620568 -1.0512150225429409 0 0 0 0 49.350737869914155 -4.2001729785033604 0 -4.2001729785033604 -3.9131327494474135 0 0 0 0 21.915361289050395 5.6638917469136061 0 5.6638917469136061 -5.1033011300763356 0 0 0 0 35.239441629499197 3.8701023061821616 0 3.8701023061821616 -3.5492775267148318 0 0 0 0 27.161205339536536 -6.2236422898058663 0 -6.2236422898058663 -12.819895604243811 0 0 0 0 50.245876563347338 -12.87360618394257 0 -12.87360618394257 -28.235378672166007 0 0 0 0 21.441609459434403 3.6841802051858394 0 3.6841802051858394 -59.547030055180585 0 0 0 0 25.185494816094746 -2.7408291063050516 0 -2.7408291063050516 -2.9002780372827059 0 0 0 0 23.458347565591993 -0.22075431683161995 0 -0.22075431683161995 -2.9568442753938209 0 0 0 0 49.040387046835136 -12.956192198357762 0 -12.956192198357762 -2.5688850094998079 0 0 0 0 19.379326141417721 11.646855340785766 0 11.646855340785766 -4.971837024584211 0 0 0 0 47.215904610609869 5.9210115940522883 0 5.9210115940522883 -26.870015411662962 0 0 0 0 26.558091762228287 -44.224421514696587 0 -44.224421514696587 -31.967843100393566 0 0 0 0 29.707563595790887 -8.8780303186530034 0 -8.8780303186530034 -2.1198354701250359 0 0 0 0 32.024298574782733 2.0218627722006204 0 2.0218627722006204 10.360455924152575 0 0 0 0 32.565496912313392 -1.0316287033128901 0 -1.0316287033128901 -40.363053303139168 0 0 0 0 22.008484454920108 -2.9074539321261454 0 -2.9074539321261454 -13.126940356068644 0 0 0 0 26.895962816015441 -6.2445100831075742 0 -6.2445100831075742 -0.39088986497498168 0 0 0 0 27.128240344756136 1.6661104860055271 0 1.6661104860055271 -1.7731282852598138 0 0 0 0 56.780042330981814 -6.5658761510605927 0 -6.5658761510605927 -28.912116590345249 0 0 0 0 42.892891227602377 -3.7974371152754429 0 -3.7974371152754429 -20.023611181576143 0 0 0 0 34.227793657503867 -0.46546589163228269 0 -0.46546589163228269 -2.0150804315136677 0 0 0 0 32.417916710859174 -2.6015121767066294 0 -2.6015121767066294 -2.7797395452285043 0 0 0 0 51.027486311097164 4.5691868594794869 0 4.5691868594794869 -14.754539109222833 0 0 0 0 36.485712066831184 -3.7233187236479353 0 -3.7233187236479353 -1.9366459077136824 0 0 0 0 31.585903764274889 -10.347135893773341 0 -10.347135893773341 -1.9983175004072198 0 0 0 0 36.059641249228662 -12.6511314103563 0 -12.6511314103563 -6.5250265871172815 0 0 0 0 40.497269507763122 5.2359968162381847 0 5.2359968162381847 -8.4261824719360447 0 0 0 0 17.250571098354229 3.0519019064822572 0 3.0519019064822572 -5.0362580549343683 0 0 0 0 55.190980279065116 -9.9770058010453795 0 -9.9770058010453795 -40.849459483169994 0 0 0 0 55.252907569178205 5.2314425742720232 0 5.2314425742720232 -20.875201147711778 0 0 0 0 33.801158740962364 -9.9274375429606572 0 -9.9274375429606572 0.96672323673020788 0 0 0 0 107.57762066905707 13.386264688950178 0 13.386264688950178 18.128023983761807 0 0 0 0 34.136164634983288 -7.1576002118044926 0 -7.1576002118044926 -6.3812693063896404 0 0 0 0 27.078485707558741 -7.1150171718302886 0 -7.1150171718302886 1.7156158588186976 0 0 0 0 19.420377639180515 -0.32512795405273209 0 -0.32512795405273209 -8.8044700074917728 0 0 0 0 27.585490558646711 -0.76366816725285602 0 -0.76366816725285602 -0.71574171159522804 0 0 0 0 0.23922842358334151 -0.79766422943399107 0 -0.79766422943399107 2.2371866520867316 0 0 0 0 98.706818476206536 -15.668483249262067 0 -15.668483249262067 -16.001391117046296 0 0 0 0 36.407245262962533 1.6279632259056598 0 1.6279632259056598 -3.313319047540972 0 0 0 0 41.265929548668339 2.2892819244224256 0 2.2892819244224256 0.35849083058979225 0 0 0 0 29.450218293553917 33.774614863661782 0 33.774614863661782 31.362399518042764 0 0 0 0 37.25561808675306 6.7883665159763353 0 6.7883665159763353 5.6622998868658456 0 0 0 0 26.021897016602452 18.32672584998204 0 18.32672584998204 4.7105913082941697 0 0 0 0 21.667155262171889 7.8686940085938488 0 7.8686940085938488 0.1719934858609955 0 0 0 0 38.028587149187928 -4.5110711457266177 0 -4.5110711457266177 -1.526847464560479 0 0 0 0 53.343399166304152 9.2886573631549254 0 9.2886573631549254 -7.2330458900741519 0 0 0 0 29.670883946186223 -0.39175738486028422 0 -0.39175738486028422 -6.7812502568303898 0 0 0 0 28.762117993800672 2.8276201188154033 0 2.8276201188154033 1.13371296724514 0 0 0 0 37.766388642747188 -7.9727845547186007 0 -7.9727845547186007 6.5005719615950284 0 0 0 0 67.942322829418117 4.9099233417400683 0 4.9099233417400683 -7.8529529280458519 0 0 0 0 26.005259706923567 10.803553723618464 0 10.803553723618464 0.53028804921737027 0 0 0 0 32.78232470547664 7.6734690386083457 0 7.6734690386083457 -0.34909449159658834 0 0 0 0 26.168077724170871 4.8232278475734347 0 4.8232278475734347 -9.2953501268746095 0 0 0 0 24.15165191958701 5.828581586848145 0 5.828581586848145 -1.3352032068328121 0 0 0 0 21.125230689970834 -1.6616639184472817 0 -1.6616639184472817 5.2405932693392563 0 0 0 0 50.19696097447013 7.4707420637877036 0 7.4707420637877036 -31.031951814067757 0 0 0 0 28.606581799949709 2.3972124078028685 0 2.3972124078028685 -1.1070377262371616 0 0 0 0 35.375534456463356 4.5136122356569786 0 4.5136122356569786 -12.154729369849747 0 0 0 0 26.533756235615556 5.0538891535975843 0 5.0538891535975843 -1.489295958482967 0 0 0 0 45.597265408287058 4.7719937187188748 0 4.7719937187188748 -12.831192678045284 0 0 0 0 67.381083530285082 4.1628469173769247 0 4.1628469173769247 -5.6444942638505076 0 0 0 0 93.681714136619121 -8.4034844392954255 0 -8.4034844392954255 11.693375859060325 0 0 0 0 18.116379940125626 9.352111634627704 0 9.352111634627704 -6.8678997694619284 0 0 0 0 45.078774791691103 9.4114122027923486 0 9.4114122027923486 -5.4329416562651431 0 0 0 0 15.674360974822775 14.95678261720127 0 14.95678261720127 38.958680243363233 0 0 0 0 23.842021282764307 -4.4179035098420343 0 -4.4179035098420343 -0.64643200491224029 0 0 0 0 53.957450096699176 -16.705772985194926 0 -16.705772985194926 16.050540500124043 0 0 0 0 53.956144356110599 -16.451466097158573 0 -16.451466097158573 16.234002647127454 0 0 0 0 9.6085899081189723 -4.1633832746765194 0 -4.1633832746765194 0.91689136593592657 0 0 0 0 84.973914050715393 -36.612969524782443 0 -36.612969524782443 -22.046941618471919 0 0 0 0 32.970862981378161 -0.18063834558684988 0 -0.18063834558684988 -2.3188662179715838 0 0 0 0 37.252618146972964 -7.2778416878036296 0 -7.2778416878036296 3.0300448708843533 0 0 0 0 53.944791977081422 -16.175957471566164 0 -16.175957471566164 16.72271797767371 0 0 0 0 63.491329970569495 -1.2468658223243665 0 -1.2468658223243665 10.598785079712798 0 0 0 0 40.846132764972083 -8.1515151381061628 0 -8.1515151381061628 -5.5861381829454171 0 0 0 0 55.440624864131678 -47.487761204586377 0 -47.487761204586377 -5.1999557716935669 0 0 0 0 66.155277614714578 -20.723541943817054 0 -20.723541943817054 15.215805069160297 0 0 0 0 27.099445321713574 -12.554414204393652 0 -12.554414204393652 -10.439444882818407 0 0 0 0 74.667606264003552 -2.4626851497302482 0 -2.4626851497302482 9.043045501081906 0 0 0 0 46.823867970793998 -25.363201332259536 0 -25.363201332259536 -1.2298860734628487 0 0 0 0 6.7687175377278095 -15.516077928113752 0 -15.516077928113752 -2.6598960365045272 0 0 0 0 53.511340016382746 -16.694720303672511 0 -16.694720303672511 16.595142759753912 0 0 0 0 51.119189498822379 -0.52923751451629641 0 -0.52923751451629641 10.564439659260643 0 0 0 0 67.79232762430911 -22.190522166284609 0 -22.190522166284609 -24.765424058239205 0 0 0 0 57.991491056843216 -6.9817080388590611 0 -6.9817080388590611 -1.3366179788022716 0 0 0 0 42.967827951855725 -15.625143940986163 0 -15.625143940986163 16.028853806824941 0 0 0 0 80.345423844162724 -29.084419944040292 0 -29.084419944040292 -33.822408743218375 0 0 0 0 95.816200063360156 35.670606635718286 0 35.670606635718286 -8.1333502065849643 0 0 0 0 99.775923468812834 25.849481946037031 0 25.849481946037031 2.2524153441263479 0 0 0 0 21.939084181998624 31.531217549449593 0 31.531217549449593 36.19163566681118 0 0 0 0 81.174175625219505 -10.448262819027832 0 -10.448262819027832 61.857643586044105 0 0 0 0 10.47364325606307 -4.4930177121591299 0 -4.4930177121591299 5.7413654796021696 0 0 0 0 22.398952229028509 -75.698290663280659 0 -75.698290663280659 -53.354566030747904 0 0 0 0 28.078102003193635 22.895222881153131 0 22.895222881153131 -22.369185159693188 0 0 0 0 -17.827150054756203 11.068007587081865 0 11.068007587081865 37.405684479500906 0 0 0 0 6.9863163230766077 85.49792152020018 0 85.49792152020018 134.54031727839151 0 0 0 0 25.605547838602291 -6.0710622809809029 0 -6.0710622809809029 2.1584752125461861 0 0 0 0 64.489277729874857 -10.356613728697255 0 -10.356613728697255 -1.6768397001750417 0 0 0 0 141.81371155626402 141.26236167508137 0 141.26236167508137 -76.012576250041548 0 0 0 0 83.546265665023384 -31.579859327150757 0 -31.579859327150757 -129.99903188077815 0 0 0 0 130.78524102664596 -87.271265191731345 0 -87.271265191731345 23.958884630707871 0 0 0 0 8.794633630209745 -0.79364574980843194 0 -0.79364574980843194 0.13493843415843854 0 0 0 0 -74.435241126440815 73.970687137125537 0 73.970687137125537 319.51614095498826 0 0 0 0 642.80933542172716 161.64494952411223 0 161.64494952411223 -606.09942390491324 0 0 0 0 56.489283157512091 -18.004106716388335 0 -18.004106716388335 -6.7462298743357536 0 0 0 0 55.712470606711577 -28.767392640899743 0 -28.767392640899743 -29.682331197449912 0 0 0 0 61.672704531853299 -21.103874496224215 0 -21.103874496224215 -0.99750444644592573 0 0 0 0 119.91698330678628 14.897559218869901 0 14.897559218869901 6.640433119055615 0 0 0 0 100.93835844447312 1.2208253204721586 0 1.2208253204721586 -0.14379205705063214 0 0 0 0 99.80882705035765 -3.1474721570870088 0 -3.1474721570870088 -13.568850851488378 0 0 0 0 40.857923203561427 -25.069977418593368 0 -25.069977418593368 -2.4948595681958228 0 0 0 0 62.783812242763815 -2.40430350949282 0 -2.40430350949282 1.6862267587475799 0 0 0 0 55.409948934917338 -46.622411218848697 0 -46.622411218848697 -9.754601588630976 0 0 0 0 95.552935297921067 -9.315993277097391 0 -9.315993277097391 -16.723011017895715 0 0 0 0 141.84338848807965 -5.1157359620310672 0 -5.1157359620310672 -26.778426039837086 0 0 0 0 173.71722077904269 61.135725299560931 0 61.135725299560931 6.8276078981775754 0 0 0 0 112.59507559804115 40.301973128476902 0 40.301973128476902 0.55888194123235735 0 0 0 0 223.26637345089694 -14.074150134913339 0 -14.074150134913339 -33.544014692123142 0 0 0 0 121.73379783581186 -12.418493774595731 0 -12.418493774595731 -22.407235023403018 0 0 0 0 126.49300891181338 -58.056910220769851 0 -58.056910220769851 -20.134039257372024 0 0 0 0 98.134089120547287 -40.851022661196112 0 -40.851022661196112 -17.942574659715774 0 0 0 0 90.654097339858708 -62.685970529316933 0 -62.685970529316933 1.7657539096908295 0 0 0 0 90.263382760766035 -57.032069168823611 0 -57.032069168823611 -11.268470162419817 0 0 0 0 156.81973820104031 -75.414658023810034 0 -75.414658023810034 -9.5609352165872679 0 0 0 0 64.169333714073218 -67.0249681318938 0 -67.0249681318938 20.836728176833276 0 0 0 0 60.991136642223864 -101.82665102559564 0 -101.82665102559564 7.5849903215848826 0 0 0 0 200.19520957235363 -8.7207810663105647 0 -8.7207810663105647 -24.741419222994637 0 0 0 0 144.3216235099826 -53.110963232706467 0 -53.110963232706467 -22.167784069755726 0 0 0 0 1.0002274281021641 0.54018281523062228 0 0.54018281523062228 -0.47236261356069287 0 0 0 0 391.84255466784816 -82.791591009438207 0 -82.791591009438207 146.14664973464778 0 0 0 0 212.73113277429366 -19.532555006326163 0 -19.532555006326163 -24.085516413999017 0 0 0 0 56.291229148861021 -32.090857965188206 0 -32.090857965188206 12.632076901531036 0 0 0 0 76.621360228225967 19.654262555752496 0 19.654262555752496 104.41268190406049 0 0 0 0 254.17597101538558 -57.416031727651102 0 -57.416031727651102 -25.35072983963164 0 0 0 0 263.70766116149025 -106.01994327385995 0 -106.01994327385995 8.9894458239330106 0 0 0 0 327.21425468305824 -21.421386152242462 0 -21.421386152242462 -26.903362994312147 0 0 0 0 30.599192512920126 -161.91348974519656 0 -161.91348974519656 47.404706642788369 0 0 0 0 176.61691589269321 -110.61794093591152 0 -110.61794093591152 7.6496312257088448 0 0 0 0 178.83638097241055 -110.15980735950416 0 -110.15980735950416 -10.640240657923187 0 0 0 0 275.34538599743973 -103.33684300064601 0 -103.33684300064601 -10.599003070527942 0 0 0 0 171.36867302536848 -186.36439468779344 0 -186.36439468779344 48.194282690561522 0 0 0 0 292.2026365196798 -188.19588678146815 0 -188.19588678146815 36.232885674655648 0 0 0 0 316.30279068174423 -5.1758543568609525 0 -5.1758543568609525 41.13808000336229 0 0 0 0 376.90063811017899 -43.779104231803416 0 -43.779104231803416 -17.109600435785865 0 0 0 0 355.35366251086816 -90.274499473012128 0 -90.274499473012128 9.2578082604788108 0 0 0 0 337.90175756876124 -79.751544081598354 0 -79.751544081598354 31.151218375934945 0 0 0 0 490.27573586447397 -94.396013976808376 0 -94.396013976808376 30.878608990701625 0 0 0 0 463.22254381363746 42.909132445810656 0 42.909132445810656 51.496272129448244 0 0 0 0 105.47064056443924 36.223753957236681 0 36.223753957236681 36.333460861269714 0 0 0 0 316.87907011243374 178.09013188832441 0 178.09013188832441 65.343174655603889 0 0 0 0 -245.88307324371999 -483.00567481435121 0 -483.00567481435121 -99.754219082497002 0 0 0 0 1.8720033418794628 -0.1753157494829054 0 -0.1753157494829054 -1.8849536240953684 0 0 0 0 498.6965391690901 162.04714043132981 0 162.04714043132981 39.21871654106792 0 0 0 0 4.3219797777634881 -2.2681750752356464 0 -2.2681750752356464 -0.28809071889853599 0 0 0 0 143.48018271959154 -293.75895321427538 0 -293.75895321427538 625.36978273688283 0 0 0 0 164.14033348174416 -571.80703570094056 0 -571.80703570094056 36.05874930201162 0 0 0 0 306.04610244627111 -1251.6134392517597 0 -1251.6134392517597 -266.227207356485 0 0 0 0 -32.456947177714028 -52.997489367944297 0 -52.997489367944297 -134.8555008266303 0 0 0 0 214.82475133072876 -69.512206546070473 0 -69.512206546070473 -144.11535112638217 0 0 0 0 404.07102518394822 -488.38492130434224 0 -488.38492130434224 -109.15565701044326 0 0 0 0 2.9071287079015917 0.95899773296113722 0 0.95899773296113722 0.15877069389238385 0 0 0 0 141.34759978079819 -193.56498447544607 0 -193.56498447544607 231.20835111938129 0 0 0 0 510.29751608987135 -537.09550899032399 0 -537.09550899032399 -58.092163148099189 0 0 0 0 555.27809744875412 -288.79216465255314 0 -288.79216465255314 1.0835164785147109 0 0 0 0 763.70296232846158 -15.977670632353309 0 -15.977670632353309 -73.047349375916156 0 0 0 0 1.2371988761369721 13.001387650785402 0 13.001387650785402 0.00089586909751867509 0 0 0 0 2.5035787597961985 0.35127017398093585 0 0.35127017398093585 -0.045725091556469886 0 0 0 0 42.977909744979115 57.866865397123469 0 57.866865397123469 -0.24401084201948431 0 0 0 0 0.013705923197136372 -0.029641918731101669 0 -0.029641918731101669 -0.099706025919430924 0 0 0 0 26.040451398810546 -15.079976362388418 0 -15.079976362388418 -8.079850722433406 0 0 0 0 5.2780019081425849 1.9193968862754929 0 1.9193968862754929 0.26997003882997705 0 0 0 0 12.184887436906138 -3.5682887451140459 0 -3.5682887451140459 41.433727670357371 0 0 0 0 471.86657527042553 60.243879102068604 0 60.243879102068604 397.72641791320257 0 0 0 0 554.75295687878679 590.28156023094346 0 590.28156023094346 2264.4566439797868 0 0 0 0 595.32148779941781 -46.724702073583046 0 -46.724702073583046 104.20713518418052 0 0 0 0 12.802319591486594 5.8486545867276156 0 5.8486545867276156 -8.0798507224344931 0 0 0 0 32.900722283840878 -28.272053958072547 0 -28.272053958072547 26.539846768881091 0 0 0 0 1.8581231610660325 6.9396608604397763 0 6.9396608604397763 12.305478631008569 0 0 0 0 1.7972712603541083 -0.34354860962383782 0 -0.34354860962383782 -0.63129766641612883 0 0 0 0 0.26373091188725084 0.87882890007531334 0 0.87882890007531334 -0.00041211049290602398 0 0 0 0 0.22427321229159247 0.17888085479148685 0 0.17888085479148685 0.12318321769299218 0 0 0 0 7.8988370046718046 -20.300788517189901 0 -20.300788517189901 -5.0384748000030584 0 0 0 0 0.56152638634375762 0.26589184057760956 0 0.26589184057760956 0.33158551813536102 0 0 0 0 1.4817252524517244 0.70210185668688108 0 0.70210185668688108 -0.00019961699659113233 0 0 0 0 10.589405842383712 -2.9666067844105442 0 -2.9666067844105442 -2.5496296736248212 0 0 0 0 1.8452665003715083 0.66866676922031165 0 0.66866676922031165 -0.14542548038372605 0 0 0 0 0.82640778753196287 0.52724548213987532 0 0.52724548213987532 0.46548643084275854 0 0 0 0 4.6020372154939935 0.34293366001980985 0 0.34293366001980985 1.5453332583725887 0 0 0 0 4.2481916397227906 0.9221719463247382 0 0.9221719463247382 1.3973350318723305 0 0 0 0 9.2970364676730242 0.57036549023990801 0 0.57036549023990801 -0.4107949144909071 0 0 0 0 4.6623004725533406 1.6594583772641727 0 1.6594583772641727 -0.42585645188173382 0 0 0 0 3.2977117845666157 1.7606613928125796 0 1.7606613928125796 1.7483930895377071 0 0 0 0 -2.8041608255880419 4.0908131855435954 0 4.0908131855435954 7.0320514130461902 0 0 0 0 3.8755703945150515 4.5751205906397558 0 4.5751205906397558 0.68515405385189276 0 0 0 0 0.13506166380830109 0.75481569435238782 0 0.75481569435238782 0.039103771181572711 0 0 0 0 -1.6794132514260127 1.2507090285657796 0 1.2507090285657796 7.4679696947318632 0 0 0 0 13.663915267970879 -5.7395185353054785 0 -5.7395185353054785 -0.41595407573868215 0 0 0 0 2.8435488898145422 -2.2101692316309425 0 -2.2101692316309425 1.2615131182603334 0 0 0 0 7.2852360659744591 -10.594344591811478 0 -10.594344591811478 14.565621383363805 0 0 0 0 38.619573788135312 -56.443414497558479 0 -56.443414497558479 38.295424813505633 0 0 0 0 7.1550656824663292 -5.436149615167901 0 -5.436149615167901 5.2649751006563292 0 0 0 0 -13.434836955420906 -84.710593780183501 0 -84.710593780183501 55.621393218832509 0 0 0 0 13.77771322215267 -156.93504634860517 0 -156.93504634860517 -120.53636989644929 0 0 0 0 23.80211545698694 -9.4591907229378194 0 -9.4591907229378194 -3.0967473523439821 0 0 0 0 4.4392926978574394 -7.0024079087976077 0 -7.0024079087976077 -4.8197117753613803 0 0 0 0 25.086350741155911 -44.293947197048851 0 -44.293947197048851 21.674760004936616 0 0 0 0 41.466988910469809 -37.394355968464424 0 -37.394355968464424 49.202701431336209 0 0 0 0 39.771430516877444 -41.781552337126868 0 -41.781552337126868 38.617265747765941 0 0 0 0 40.605707038397668 -49.353489372388367 0 -49.353489372388367 14.57179945450298 0 0 0 0 60.389808766543865 -66.857445196151275 0 -66.857445196151275 20.877873907264984 0 0 0 0 64.956752536760177 -47.327404192436006 0 -47.327404192436006 -1.5489732764981454 0 0 0 0 60.590378521126695 -50.33517024730827 0 -50.33517024730827 -1.395757366476289 0 0 0 0 63.325178061859333 -50.808247092445413 0 -50.808247092445413 -3.174835039691061 0 0 0 0 52.513714024738874 -37.919930890754131 0 -37.919930890754131 -41.66157896797904 0 0 0 0 59.042705128435045 -54.105410131390727 0 -54.105410131390727 -3.7065062391756101 0 0 0 0 43.118492950001382 -49.3713822697257 0 -49.3713822697257 2.7841881750173343 0 0 0 0 36.29888909086003 -35.97651897244009 0 -35.97651897244009 9.4604999693938225 0 0 0 0 31.524667752629938 -9.4732964753260234 0 -9.4732964753260234 -2.5827198378616982 0 0 0 0 36.193024626671104 -3.7446031812910405 0 -3.7446031812910405 -2.3733055204429547 0 0 0 0 32.09605200589732 -11.063354387441962 0 -11.063354387441962 -5.1444334448906135 0 0 0 0 35.774640756135341 -9.4891370491068301 0 -9.4891370491068301 -2.661154051029996 0 0 0 0 19.938388747834239 -12.553435046299683 0 -12.553435046299683 5.1599294636379032 0 0 0 0 22.005795818081936 -0.84518767682550333 0 -0.84518767682550333 0.6060024220990976 0 0 0 0 40.548860717128264 -8.1657184179528031 0 -8.1657184179528031 -0.45387603007338839 0 0 0 0 -6.5197037181205815 6.5899394215377924 0 6.5899394215377924 12.146057646735869 0 0 0 0 -11.952402947237715 15.49352182891559 0 15.49352182891559 -1.2561359532870711 0 0 0 0 9.1461805565049872 -4.5600534325390072 0 -4.5600534325390072 5.5954907351042493 0 0 0 0 36.017355018178932 -7.0352075473092555 0 -7.0352075473092555 8.9386290277652733 0 0 0 0 14.399308040884449 -1.2616849577069331 0 -1.2616849577069331 1.4409110015922248 0 0 0 0 18.16094941355027 0.71105222725702788 0 0.71105222725702788 1.5803623852411768 0 0 0 0 8.1119682904100046 -2.9734103870326294 0 -2.9734103870326294 -0.25780281943866612 0 0 0 0 20.654315056619794 -1.5337677780999712 0 -1.5337677780999712 -1.1347100587650947 0 0 0 0 24.403564853040734 34.039749013408141 0 34.039749013408141 -24.24482881127804 0 0 0 0 22.352030402890875 6.5937251276381517 0 6.5937251276381517 -0.95457649719503102 0 0 0 0 35.251253908820217 7.2787394562950567 0 7.2787394562950567 -8.5286014951684592 0 0 0 0 19.813584806095605 -5.3735335481669884 0 -5.3735335481669884 21.429004319013018 0 0 0 0 38.779826216850779 60.121608580384155 0 60.121608580384155 20.660399465920335 0 0 0 0 48.0409736011934 -13.090422399734457 0 -13.090422399734457 -20.137503145886967 0 0 0 0 51.82712533029553 -0.085330995666474507 0 -0.085330995666474507 5.8313410588124199 0 0 0 0 49.10564011108363 13.869313271723186 0 13.869313271723186 8.682568045022073 0 0 0 0 53.233374424860813 22.081108827385172 0 22.081108827385172 21.680286532870923 0 0 0 0 65.450527270775638 0.63424809036158791 0 0.63424809036158791 5.3595724676563918 0 0 0 0 73.48681469654548 15.459234299392985 0 15.459234299392985 8.0612183312450334 0 0 0 0 61.815901379042771 18.647055265995075 0 18.647055265995075 3.8935925651970535 0 0 0 0 49.049801322704297 6.2783799741348041 0 6.2783799741348041 4.9065871278096216 0 0 0 0 -0.5394777551991865 -1.1899497134244257 0 -1.1899497134244257 7.9103947218274584 0 0 0 0 0.045717989816267846 0.072274689138168924 0 0.072274689138168924 0.37318069000157661 0 0 0 0 0.74698356662906917 -0.017950341053449392 0 -0.017950341053449392 0.081902974796101605 0 0 0 0 1.8562826945699271 1.2471550936300315 0 1.2471550936300315 0.69877259916552092 0 0 0 0 1.8459953838319052 0.43010065154136157 0 0.43010065154136157 0.092587301823871163 0 0 0 0 1.9820878868849832 0.65451266166297994 0 0.65451266166297994 0.00099773973574862618 0 0 0 0 138.86869320245751 36.509598968271376 0 36.509598968271376 6.3030604842842735 0 0 0 0 0.29276975533869631 -0.078635496659387627 0 -0.078635496659387627 -0.055125923100969053 0 0 0 0 51.015954947892169 20.336777452291287 0 20.336777452291287 14.453340631425554 0 0 0 0 76.941398936018231 26.815513830372694 0 26.815513830372694 8.6894229869688751 0 0 0 0 113.05782730226929 12.734496624260803 0 12.734496624260803 -2.8324321415067075 0 0 0 0 106.74242579228303 -7.0225727740217572 0 -7.0225727740217572 -4.054271999169007 0 0 0 0 133.5685022539692 2.28215209480698 0 2.28215209480698 -8.3443629339628558 0 0 0 0 118.0115466000716 12.865546914610711 0 12.865546914610711 0.026747489379478552 0 0 0 0 199.32336263868638 24.015652044065117 0 24.015652044065117 0.21425412143623884 0 0 0 0 128.45489300525514 -9.2810907738810293 0 -9.2810907738810293 -12.576906667237445 0 0 0 0 114.33020845565625 -17.067273936407542 0 -17.067273936407542 -5.3404881698485553 0 0 0 0 113.32525708383764 -15.360010314210019 0 -15.360010314210019 -8.2408271595506779 0 0 0 0 119.41090469274786 -3.6022769853515371 0 -3.6022769853515371 -3.6606691371366669 0 0 0 0 106.27520721836481 -17.166032122729 0 -17.166032122729 -0.80194592161710432 0 0 0 0 94.635288428718923 -13.373094946421844 0 -13.373094946421844 -1.7118942744328951 0 0 0 0 99.079166110837832 -4.4889706792533701 0 -4.4889706792533701 -5.2767204531085135 0 0 0 0 100.72818366327556 -5.6106076082953429 0 -5.6106076082953429 -5.2792794743926379 0 0 0 0 108.39215170007628 -5.9429711250511392 0 -5.9429711250511392 -6.3695523972765571 0 0 0 0 74.400070911797229 8.0532220877158789 0 8.0532220877158789 -0.85182776914873415 0 0 0 0 81.70838290444226 5.6995241552764142 0 5.6995241552764142 -0.15651299122490769 0 0 0 0 95.279177331634855 -8.9941048254114264 0 -8.9941048254114264 -7.896229458146621 0 0 0 0 99.646997572417604 -1.8117374919680991 0 -1.8117374919680991 -8.379084238088609 0 0 0 0 80.346530834038276 -18.733787859029359 0 -18.733787859029359 -14.211415708262052 0 0 0 0 113.42419686869835 3.4918572107858523 0 3.4918572107858523 -9.7263907539391852 0 0 0 0 99.73625299957348 -2.9875806623642944 0 -2.9875806623642944 -2.4403102598891664 0 0 0 0 88.039520416496089 4.4278931566992128 0 4.4278931566992128 4.7866473631613715 0 0 0 0 112.44100146649998 22.307318062122125 0 22.307318062122125 14.777392244244453 0 0 0 0 103.23010923013499 -0.43209946367237251 0 -0.43209946367237251 -4.2338907239057875 0 0 0 0 177.24285954030347 25.489981949474895 0 25.489981949474895 -23.729961718231195 0 0 0 0 228.99278360334574 32.244696641014229 0 32.244696641014229 -31.490538301256379 0 0 0 0 200.57059524618671 17.498843093961 0 17.498843093961 -24.611093666062288 0 0 0 0 3.1298543830369852 0.87619944637958724 0 0.87619944637958724 -0.15569320369149242 0 0 0 0 271.68805827040342 -1.4926674460472213 0 -1.4926674460472213 -48.670550006904648 0 0 0 0 276.7196189374954 -13.353826093230708 0 -13.353826093230708 -42.9485711260063 0 0 0 0 248.10212493236759 2.7750432345344507 0 2.7750432345344507 -48.898831739001821 0 0 0 0 323.54766733539873 7.3612257929116822 0 7.3612257929116822 -70.453189044909152 0 0 0 0 300.08436300045287 12.587918964664823 0 12.587918964664823 -71.241946016011866 0 0 0 0 315.29753112731851 -28.498927591085575 0 -28.498927591085575 -62.790753320593922 0 0 0 0 365.18525120252161 15.189038535906036 0 15.189038535906036 -78.217860829311803 0 0 0 0 375.94371845686692 -83.04171241380817 0 -83.04171241380817 -35.372477828670071 0 0 0 0 378.11345848720521 -5.4131800919886501 0 -5.4131800919886501 -64.25988293939804 0 0 0 0 34.884740503024659 -6.4994903663583727 0 -6.4994903663583727 6.5466353822814654 0 0 0 0 182.91038325175759 63.83724695830773 0 63.83724695830773 -26.613064700414839 0 0 0 0 3.0271211381343619 -0.15554445668266226 0 -0.15554445668266226 0.95919652871878647 0 0 0 0 291.21483019632433 76.992135897573178 0 76.992135897573178 -63.082699962077186 0 0 0 0 182.77587740102899 43.154369103951694 0 43.154369103951694 -33.809887613857768 0 0 0 0 145.42111723372363 86.860353580434321 0 86.860353580434321 -53.03396902587906 0 0 0 0 177.53406808967702 28.396848070310284 0 28.396848070310284 -72.792836513080033 0 0 0 0 7.9010234409652185 -1.3137775549873254 0 -1.3137775549873254 -0.048373082243799104 0 0 0 0 13.402184766338905 -2.2309876727072435 0 -2.2309876727072435 0.016607996754288479 0 0 0 0 9.9489819013833767 -3.957145225045366 0 -3.957145225045366 0.43464693779071695 0 0 0 0 9.0446230604065931 -3.8991821106314148 0 -3.8991821106314148 1.6400852705687896 0 0 0 0 14.447914131626021 -3.0586315068727856 0 -3.0586315068727856 1.7653087916657419 0 0 0 0 9.6830692853154119 -6.1843442402623054 0 -6.1843442402623054 -0.13348203825233523 0 0 0 0 43.868360997948912 -2.7659025445827297 0 -2.7659025445827297 1.5917397116946148 0 0 0 0 0.99367623137193917 7.574880129327795 0 7.574880129327795 3.3952970195308541 0 0 0 0 29.624789660178067 -10.127175476111155 0 -10.127175476111155 -0.77424682660449662 0 0 0 0 1.9507427937364525 -2.0120028587704724 0 -2.0120028587704724 0.14264226526025348 0 0 0 0 25.303047585875902 -7.5095727856895351 0 -7.5095727856895351 0.42812191953922252 0 0 0 0 43.377292969031259 0.28288521106870235 0 0.28288521106870235 -4.1635989636198616 0 0 0 0 10.355320425437412 -7.3041458362565663 0 -7.3041458362565663 0.30425009925729224 0 0 0 0 21.265577319791191 -3.7505521751640458 0 -3.7505521751640458 3.4506627386612081 0 0 0 0 40.324494344837149 17.702744605373354 0 17.702744605373354 9.7503526804541707 0 0 0 0 25.214043340500211 0.071559449078165471 0 0.071559449078165471 11.039980103016489 0 0 0 0 6.0992124636191249 0.093400777009748026 0 0.093400777009748026 -1.1600965358445938 0 0 0 0 254.91949427319923 30.612555704944214 0 30.612555704944214 -49.723379359367982 0 0 0 0 202.55827426858013 -76.481290081295754 0 -76.481290081295754 -64.719202178675687 0 0 0 0 190.31808757355248 -30.60321800063457 0 -30.60321800063457 -30.584580568632418 0 0 0 0 78.777470289396206 -37.847634236108888 0 -37.847634236108888 12.774411755481196 0 0 0 0 287.45192500186386 -0.16131360759095514 0 -0.16131360759095514 -29.138354759665845 0 0 0 0 315.36062756809406 -10.34481756091219 0 -10.34481756091219 -58.76163905489318 0 0 0 0 274.87545654547284 -35.356432904659982 0 -35.356432904659982 -57.118924413085097 0 0 0 0 298.81068558126572 -0.36496208782500617 0 -0.36496208782500617 -40.833671698775447 0 0 0 0 321.14884998096386 -8.2975500640960718 0 -8.2975500640960718 -28.695695087699619 0 0 0 0 292.42912177951075 9.2189170175572315 0 9.2189170175572315 -1.4865844112946434 0 0 0 0 392.58849988540169 15.698892729566751 0 15.698892729566751 -28.643335420734275 0 0 0 0 437.7960855486599 78.105779240565425 0 78.105779240565425 -5.7735302961964408 0 0 0 0 398.68348658439936 41.360700112488416 0 41.360700112488416 6.794582553080545 0 0 0 0 392.35151572102041 69.275793092177082 0 69.275793092177082 28.549530778326016 0 0 0 0 -182.91748589840427 29.543116933993701 0 29.543116933993701 203.37698935074081 0 0 0 0 29.214705619961023 -16.90960727560514 0 -16.90960727560514 -56.295724777245596 0 0 0 0 -0.095307486892124871 -0.28723509664524727 0 -0.28723509664524727 0.90228232467283354 0 0 0 0 372.26673733976349 88.157802381810768 0 88.157802381810768 11.036069950033834 0 0 0 0 466.44546522654127 74.041735373375559 0 74.041735373375559 4.2059686531720217 0 0 0 0 -1.0010951816285569 0.21457616889506426 0 0.21457616889506426 0.78745195530908774 0 0 0 0 14.602661624097891 5.3012373440249689 0 5.3012373440249689 41.19973839191789 0 0 0 0 40.573302159406012 -16.377500925358618 0 -16.377500925358618 21.085975459344809 0 0 0 0 11.063599826701818 -10.952491466361039 0 -10.952491466361039 18.647622077859744 0 0 0 0 -18.201513263455126 -7.6606799376592107 0 -7.6606799376592107 18.382927356371965 0 0 0 0 -4.4508878861095127 1.5357553305383362 0 1.5357553305383362 1.1075077769649813 0 0 0 0 -61.740664967779594 20.302168744937603 0 20.302168744937603 35.561192012728043 0 0 0 0 -1.7990313285299635 -12.690767669549928 0 -12.690767669549928 27.554352324818865 0 0 0 0 5.0334497522410402 -10.592619256426417 0 -10.592619256426417 12.373311319178871 0 0 0 0 303.44752659072401 14.946435909123977 0 14.946435909123977 -19.722030420790475 0 0 0 0 1.283840343786963 -3.2742361092639101 0 -3.2742361092639101 3.3966057649425645 0 0 0 0 316.62972025667841 26.995599697014313 0 26.995599697014313 -29.300754905141275 0 0 0 0 361.01194784442487 61.573342347271421 0 61.573342347271421 14.328781966347833 0 0 0 0 -447.62193402116827 -509.32309347143746 0 -509.32309347143746 517.88452835594398 0 0 0 0 47.943338734003191 -24.199625017507969 0 -24.199625017507969 -16.645562740560308 0 0 0 0 54.442922128896612 -17.768443794302833 0 -17.768443794302833 -1.4516807274077905 0 0 0 0 52.331565929183995 -19.003327527623199 0 -19.003327527623199 -2.2711383443219582 0 0 0 0 62.873071156165679 1.2193984149039352 0 1.2193984149039352 43.237986342337308 0 0 0 0 64.100699805057957 1.6963327731727986 0 1.6963327731727986 9.3720189216937797 0 0 0 0 33.538098104429082 4.054282866467247 0 4.054282866467247 18.533064245413698 0 0 0 0 106.85195805843978 -10.543949221162165 0 -10.543949221162165 11.324142751119325 0 0 0 0 91.78782282197426 11.875673418503823 0 11.875673418503823 -2.968097754246628 0 0 0 0 49.115031379871652 6.3032706869904587 0 6.3032706869904587 11.904860048367709 0 0 0 0 34.243889759745798 -18.144022535040904 0 -18.144022535040904 11.55322918364476 0 0 0 0 72.360056950943545 10.299650698260564 0 10.299650698260564 -2.9699656781159538 0 0 0 0 260.22984103453928 1.244618289365917 0 1.244618289365917 -19.212615753257609 0 0 0 0 286.90764118390507 -24.47782945610652 0 -24.47782945610652 -61.371390949236343 0 0 0 0 18.058215192868374 -14.397368623451143 0 -14.397368623451143 -6.4918515719068637 0 0 0 0 7.1971010818640764 -7.8240644821701721 0 -7.8240644821701721 4.4032743211172312 0 0 0 0 -3.3871740007016342 -4.1943995662273892 0 -4.1943995662273892 -21.694002407814423 0 0 0 0 1.9759352653425992 -1.546405563373412 0 -1.546405563373412 1.4445946220220183 0 0 0 0 37.711365299386671 13.75220988325384 0 13.75220988325384 -5.2575793145575194 0 0 0 0 -24.958519176288974 -6.939277888308311 0 -6.939277888308311 37.119952755358554 0 0 0 0 1.4729358057626882 -3.8375548102087009 0 -3.8375548102087009 2.620336829084664 0 0 0 0 129.88996643186329 -47.653571532794857 0 -47.653571532794857 2.6661197798318881 0 0 0 0 241.63209030039434 -89.628001897804779 0 -89.628001897804779 -16.158307440348949 0 0 0 0 265.09911524518975 -32.716784330652388 0 -32.716784330652388 -54.853154129536051 0 0 0 0 -35.967658025896526 -7.6190363180086251 0 -7.6190363180086251 110.52616609656536 0 0 0 0 265.63217398454435 -79.974836330531673 0 -79.974836330531673 -18.914457365855554 0 0 0 0 266.77088481298051 -72.664483169124281 0 -72.664483169124281 -12.631573749630661 0 0 0 0 225.9685612838075 -207.62578375545999 0 -207.62578375545999 162.13320464255185 0 0 0 0 1.9968248711762158 -0.22503198022924664 0 -0.22503198022924664 0.056021711964900023 0 0 0 0 0.069885716895640826 -0.49856008250228001 0 -0.49856008250228001 0.40600468681263457 0 0 0 0 3.4249210169979136 -3.8078672630229278 0 -3.8078672630229278 0.89439753725241422 0 0 0 0 -3.8328452489804476 -1.0449757962311708 0 -1.0449757962311708 -47.687232975602683 0 0 0 0 -17.287341046874644 -28.938652309558563 0 -28.938652309558563 74.098998257764606 0 0 0 0 6.232384439179441 -3.0838383648956764 0 -3.0838383648956764 -0.7684873929092646 0 0 0 0 3.8698291572922017 -1.4529943340828311 0 -1.4529943340828311 -0.2474203979623732 0 0 0 0 43.051361294230446 -14.978403546265355 0 -14.978403546265355 -23.403864568837122 0 0 0 0 80.725166634394554 33.946379350413402 0 33.946379350413402 4.5976944530737889 0 0 0 0 3.5165808695310261 51.199443389869998 0 51.199443389869998 63.84485616506381 0 0 0 0 71.378769141098019 106.53210263516493 0 106.53210263516493 74.880661157865603 0 0 0 0 301.21984864361002 240.31736381142591 0 240.31736381142591 121.5139402265836 0 0 0 0 465.21521040287917 140.52507099925225 0 140.52507099925225 80.99360308281419 0 0 0 0 13.038446465106972 -28.056040640827987 0 -28.056040640827987 9.6693799997547103 0 0 0 0 7.6763379592586034 -6.041439411106893 0 -6.041439411106893 1.2686547709535594 0 0 0 0 32.299115987614641 20.729755790288564 0 20.729755790288564 -45.929808564611562 0 0 0 0 0.86731608753325418 5.991893251456105 0 5.991893251456105 11.179821800915636 0 0 0 0 -16.701267346245004 41.656812096905128 0 41.656812096905128 -66.105864607498773 0 0 0 0 10.606717280369367 -4.506748097787252 0 -4.506748097787252 0.55558599392547336 0 0 0 0 -3.0575697477906942 -3.0490430144553642 0 -3.0490430144553642 -5.6557308859165119 0 0 0 0 5.1066212724997513 -3.7371953166737413 0 -3.7371953166737413 1.3048390353889692 0 0 0 0 6.9114644325268841 -3.7231374799787602 0 -3.7231374799787602 -1.559684231403794 0 0 0 0 177.1386869828857 -46.117555424678471 0 -46.117555424678471 -280.38862555824505 0 0 0 0 -8.4488527605572017 17.512195239489927 0 17.512195239489927 -71.582111778858007 0 0 0 0 48.547239771432942 52.241104716027792 0 52.241104716027792 -82.387331488861946 0 0 0 0 35.636910086152056 98.357693255319717 0 98.357693255319717 -35.604781099291017 0 0 0 0 -1.5222298343323928 62.565586940037278 0 62.565586940037278 -40.700106609658519 0 0 0 0 -0.62210342986335831 0.84404603308792048 0 0.84404603308792048 -0.9263801573806496 0 0 0 0 -286.03395844326587 100.00996285113297 0 100.00996285113297 102.80090812689269 0 0 0 0 107.4530534686055 193.75262430483514 0 193.75262430483514 0.98034121570587351 0 0 0 0 287.90378595900256 213.75648757809421 0 213.75648757809421 -11.564439148537645 0 0 0 0 540.41643069058773 -133.04050522770618 0 -133.04050522770618 335.07357330631623 0 0 0 0 536.43615913466783 31.114492471367925 0 31.114492471367925 -26.859026646400594 0 0 0 0 421.00653770763893 -159.79014280805606 0 -159.79014280805606 -104.75275138128117 0 0 0 0 124.90067381400149 17.804074772805116 0 17.804074772805116 -8.7554477544478324 0 0 0 0 176.17159674658615 57.479774053638337 0 57.479774053638337 -21.648311725433977 0 0 0 0 291.56352914545278 66.179821101113404 0 66.179821101113404 -22.201854383707108 0 0 0 0 1.9822005606184234 1.1013397530390705 0 1.1013397530390705 -3.9147808476817998 0 0 0 0 102.26214421165059 38.689028119526533 0 38.689028119526533 -4.5691359326152936 0 0 0 0 15.068112848748569 -3.8607917993097054 0 -3.8607917993097054 18.88057860107255 0 0 0 0 92.9448503372696 3.4127287463834071 0 3.4127287463834071 0.0035754850068242285 0 0 0 0 14.136893361021066 21.821539761673254 0 21.821539761673254 21.355354442943014 0 0 0 0 164.69534385119914 38.405986669151353 0 38.405986669151353 -14.147432551983748 0 0 0 0 169.16129732678019 22.399999418726495 0 22.399999418726495 -19.835850664907845 0 0 0 0 284.83251267878222 18.780635890378015 0 18.780635890378015 -32.171019219833475 0 0 0 0 258.57074988613022 -26.659560921788369 0 -26.659560921788369 -36.960277803461331 0 0 0 0 231.59123551749508 -14.839496068418509 0 -14.839496068418509 -0.056866338571861581 0 0 0 0 257.32276867900509 -41.929096036597102 0 -41.929096036597102 2.7329240352294057 0 0 0 0 181.52905475813895 -26.557811318917835 0 -26.557811318917835 0.025730156672573039 0 0 0 0 0.012603368353828692 -0.27493486559689018 0 -0.27493486559689018 0.27215201725852561 0 0 0 0 242.54064083768208 -66.709342022834122 0 -66.709342022834122 -32.20257404657842 0 0 0 0 298.25491208453604 -60.588761944725427 0 -60.588761944725427 -57.946785933862657 0 0 0 0 344.39868711464806 -12.643188336298593 0 -12.643188336298593 -55.05056569035586 0 0 0 0 273.85830234914829 -18.049844459378455 0 -18.049844459378455 -51.553976837363514 0 0 0 0 297.9585380720996 -46.18693427093018 0 -46.18693427093018 -59.536028055840006 0 0 0 0 283.69267579758161 46.354195248235825 0 46.354195248235825 -42.492155046989353 0 0 0 0 454.45881110042683 36.760742408908527 0 36.760742408908527 -9.0438788367322047 0 0 0 0 434.8671645806171 90.517524235541998 0 90.517524235541998 -52.069569487250703 0 0 0 0 604.35329458149499 175.0433146412347 0 175.0433146412347 117.36750873350292 0 0 0 0 658.79848267044872 -159.04267792588496 0 -159.04267792588496 503.70347334675819 0 0 0 0 647.71124225052336 -121.22287980706663 0 -121.22287980706663 5.6727579487686342 0 0 0 0 466.92483955842908 -58.972098422158311 0 -58.972098422158311 -58.641972978950534 0 0 0 0 299.75466915449942 -101.86314278793154 0 -101.86314278793154 4.908540806825215 0 0 0 0 1.5110587822015118 -0.68820543433548664 0 -0.68820543433548664 0.10816687749895633 0 0 0 0 239.92370480399404 -175.55643421876374 0 -175.55643421876374 139.13931448983357 0 0 0 0 269.9478540365817 -33.235993796673995 0 -33.235993796673995 -39.649858958207034 0 0 0 0 4.0329114969208604 -80.809030521188674 0 -80.809030521188674 133.95679453602958 0 0 0 0 3.3018649754744729 -0.43182436105477606 0 -0.43182436105477606 -0.11585597895437165 0 0 0 0 223.46981867804425 162.294680199276 0 162.294680199276 114.94552928938788 0 0 0 0 1.9703200376755614 -0.79311803404243619 0 -0.79311803404243619 -1.0560598028012191 0 0 0 0 -80.247200559665544 35.02784936336441 0 35.02784936336441 102.2750065498152 0 0 0 0 328.47136009280803 112.37248798700398 0 112.37248798700398 107.24367765650196 0 0 0 0 63.633780894801021 131.61948006548914 0 131.61948006548914 113.61971747490003 0 0 0 0 344.31075099337613 121.42939536110293 0 121.42939536110293 -12.896410021884549 0 0 0 0 364.8329376228794 81.478961071477102 0 81.478961071477102 -6.8288366417613133 0 0 0 0 593.28108419588534 51.679799527376986 0 51.679799527376986 -49.116180952967966 0 0 0 0 356.93600439585862 91.943519457945854 0 91.943519457945854 38.231993140992586 0 0 0 0 402.28320412055473 -138.79892648255736 0 -138.79892648255736 0.76756078512153181 0 0 0 0 796.15790616098093 -136.58889887105698 0 -136.58889887105698 0.031136756745070215 0 0 0 0 785.9095572931401 -177.81891222088876 0 -177.81891222088876 276.80362423488873 0 0 0 0 477.6807445390732 127.00436780479396 0 127.00436780479396 174.9643404847202 0 0 0 0 472.24322489427868 38.516083887620994 0 38.516083887620994 34.352214946792614 0 0 0 0 6.3288729068081011 -2.3505954356200141 0 -2.3505954356200141 -0.8890280200655063 0 0 0 0 6.7661957438249374 -5.3950314479858932 0 -5.3950314479858932 -0.10809725106366841 0 0 0 0 5.8045105962368666 -2.0125753295362223 0 -2.0125753295362223 0.2187409433507414 0 0 0 0 6.5406948208433278 -1.9622108895537735 0 -1.9622108895537735 0.022370461307865339 0 0 0 0 10.224006457231326 -2.2951294879348696 0 -2.2951294879348696 -3.3108488742660711 0 0 0 0 6.7655737856334781 -2.9810327630902602 0 -2.9810327630902602 -0.80073021980308301 0 0 0 0 6.1546842864190694 -2.6880113296325101 0 -2.6880113296325101 0.39486944812408731 0 0 0 0 6.5189461400004802 -2.3026663638123086 0 -2.3026663638123086 -0.66141142482283699 0 0 0 0 6.1290353668446187 -2.4329688181198081 0 -2.4329688181198081 -0.63963357900995099 0 0 0 0 6.7838152367476141 -2.3324993610980673 0 -2.3324993610980673 -1.9912229228599247 0 0 0 0 3.7307984594081063 -1.427128487194335 0 -1.427128487194335 -1.3020787666568341 0 0 0 0 -4.0073707254914552 -6.1222582446649207 0 -6.1222582446649207 5.1669622717459571 0 0 0 0 10.788377624674467 -3.6946896081433964 0 -3.6946896081433964 -0.75495601425457903 0 0 0 0 4.893072000835673 -14.232452661969234 0 -14.232452661969234 9.0035783893694585 0 0 0 0 7.6728110253752675 -0.83698804830317919 0 -0.83698804830317919 0.011297681805405895 0 0 0 0 140.26948808543966 18.19853117665604 0 18.19853117665604 43.378984955787267 0 0 0 0 0.081079188580645223 0.03438783516685362 0 0.03438783516685362 -0.23651541370906976 0 0 0 0 5.4193750275735511 -1.0180919129059565 0 -1.0180919129059565 -0.0022214552475050774 0 0 0 0 144.68360935567762 -22.326668735850603 0 -22.326668735850603 1.968069403450329 0 0 0 0 6.3357367369389976 -1.8560143641512146 0 -1.8560143641512146 -0.29553178294200855 0 0 0 0 6.2555177036447276 -2.0568389366583224 0 -2.0568389366583224 -0.1891546339776462 0 0 0 0 363.58753642265219 99.392662339195766 0 99.392662339195766 14.609008266575636 0 0 0 0 0.78519698050445186 -0.39081547946776141 0 -0.39081547946776141 -0.063544308394594073 0 0 0 0 62.94590108236298 -25.610070904424525 0 -25.610070904424525 0.063256766968361869 0 0 0 0 211.92549780798436 -28.792921466696654 0 -28.792921466696654 0.13494579613179927 0 0 0 0 191.87715097499313 64.316431103875658 0 64.316431103875658 22.940959487099292 0 0 0 0 260.84120183590858 33.483638612927763 0 33.483638612927763 14.248142275580449 0 0 0 0 183.10167561244452 61.058205678004555 0 61.058205678004555 55.675831076244521 0 0 0 0 222.71702240000013 63.867930967739653 0 63.867930967739653 48.701180423097185 0 0 0 0 1.4356587598140891 -1.2788654851664205 0 -1.2788654851664205 0.077929805637900529 0 0 0 0 305.34920829728071 102.98933187522555 0 102.98933187522555 -0.29044579710165408 0 0 0 0 204.29130537703168 89.193042359861465 0 89.193042359861465 -7.881103095499725 0 0 0 0 189.34529530981672 49.583132195382177 0 49.583132195382177 21.966036699216204 0 0 0 0 221.35584975243546 40.204613327915865 0 40.204613327915865 7.7085207363331278 0 0 0 0 -39.548234695088468 5.2738064859334202 0 5.2738064859334202 -7.1450840958306117 0 0 0 0 1.5659651824762264 -0.45134077685071361 0 -0.45134077685071361 0.045174092203214222 0 0 0 0 177.25800124826492 60.741414289309034 0 60.741414289309034 20.482657533873862 0 0 0 0 207.38135194429196 58.068195837011046 0 58.068195837011046 -2.357258037856127 0 0 0 0 146.33161038986873 15.270128186343243 0 15.270128186343243 10.162753385226992 0 0 0 0 109.95205522109609 -39.966685342933914 0 -39.966685342933914 -31.400557623723444 0 0 0 0 98.690254061919404 41.921604826817713 0 41.921604826817713 -0.15024638490308462 0 0 0 0 83.375245195697062 -13.906820223601457 0 -13.906820223601457 -43.592399357255545 0 0 0 0 67.491886462608818 -41.941025911938084 0 -41.941025911938084 -77.876185872363635 0 0 0 0 2.6484871179142431 -2.6816826838415011 0 -2.6816826838415011 0.50401115624905435 0 0 0 0 -4.4784152896463638 23.927327160488034 0 23.927327160488034 98.452702131464662 0 0 0 0 0.84737491094237072 2.7937965304065528 0 2.7937965304065528 -2.0284139057749093 0 0 0 0 72.659753254934913 -12.994695297639225 0 -12.994695297639225 -58.067427044432463 0 0 0 0 230.28443060685822 61.753206192800803 0 61.753206192800803 11.978862842154058 0 0 0 0 192.76740903318569 49.257266610097872 0 49.257266610097872 35.473947174729688 0 0 0 0 194.78817977440485 37.696996228099863 0 37.696996228099863 21.680704982645011 0 0 0 0 0.81146184167823776 -0.42043493167020074 0 -0.42043493167020074 -0.78951833311277952 0 0 0 0 6.1579592373018386 -2.3456597209782268 0 -2.3456597209782268 -0.45751249059494237 0 0 0 0 32.64448225741944 -9.9728895549837375 0 -9.9728895549837375 -4.1406681745910419 0 0 0 0 79.630851532274392 -35.837689746187436 0 -35.837689746187436 5.6035945993430119 0 0 0 0 100.11345200276264 38.574494754749033 0 38.574494754749033 0.44897159833777778 0 0 0 0 71.386959875082539 -0.64277208180675416 0 -0.64277208180675416 -15.553227145094013 0 0 0 0 25.894899398423149 -39.270310569173915 0 -39.270310569173915 57.543256237968109 0 0 0 0 0.91331022903500525 -0.4306825785884314 0 -0.4306825785884314 0.0020357056156584119 0 0 0 0 -0.86511658252402412 -1.5678805007348728 0 -1.5678805007348728 0.43025069736242449 0 0 0 0 14.992701642317115 -16.522375343196813 0 -16.522375343196813 13.603116854569919 0 0 0 0 47.407664947939338 -23.430699173107598 0 -23.430699173107598 -1.3904651597885334 0 0 0 0 30.662926025921479 -9.3754249731270818 0 -9.3754249731270818 -7.6338708345661246 0 0 0 0 25.812812300762744 2.6929302631705241 0 2.6929302631705241 -13.033124315268495 0 0 0 0 40.557660109519929 -5.2078336736289543 0 -5.2078336736289543 -33.356001385113188 0 0 0 0 82.010988719237503 -51.862642131738696 0 -51.862642131738696 -13.921013297662853 0 0 0 0 14.88657513502767 -4.5551409825323645 0 -4.5551409825323645 -6.3292672664254042 0 0 0 0 217.23338903560943 72.629707960276676 0 72.629707960276676 22.978825664308147 0 0 0 0 -0.8335999924238422 -14.980886942502025 0 -14.980886942502025 3.9014216059081264 0 0 0 0 280.50481825381576 84.477617713235588 0 84.477617713235588 2.9445825783886903 0 0 0 0 1.8183813890674401 -1.6750654490616341 0 -1.6750654490616341 -0.12854816971089011 0 0 0 0 2.7000878104725388 2.0835258389574562 0 2.0835258389574562 -3.7061872051667821 0 0 0 0 15.939411459257826 2.3380749670791374 0 2.3380749670791374 -1.7602415993246154 0 0 0 0 15.581054050380772 3.1588033200882819 0 3.1588033200882819 -3.6077316178020737 0 0 0 0 0.80528238464057722 -0.090858026917572943 0 -0.090858026917572943 -0.173874697171156 0 0 0 0 9.9636023412604118 -13.966950642651568 0 -13.966950642651568 7.4270844758532917 0 0 0 0 34.350293346200488 -22.137410672276133 0 -22.137410672276133 4.0141324048233855 0 0 0 0 -2.4833936167560751 4.9657528120843608 0 4.9657528120843608 6.7940794196474599 0 0 0 0 19.076846706244396 1.155860270319522 0 1.155860270319522 -2.4214083851384203 0 0 0 0 -9.8258809790131636 -0.44456815600443633 0 -0.44456815600443633 13.739755881779047 0 0 0 0 -69.22618293215055 -32.258485152559388 0 -32.258485152559388 20.705406736866081 0 0 0 0 32.489864614864928 -15.69116284961126 0 -15.69116284961126 1.4124104685650991 0 0 0 0 35.565635235005175 -10.967779452501645 0 -10.967779452501645 -0.44935603333533436 0 0 0 0 -0.57342880711402699 -5.0825505645046292 0 -5.0825505645046292 1.4706455107045553 0 0 0 0 31.695321410152246 -5.8592854826280671 0 -5.8592854826280671 -3.2362382720790492 0 0 0 0 9.3265544143251589 4.1169205467388963 0 4.1169205467388963 -5.8078167992476759 0 0 0 0 28.628697866486618 -4.721081819825045 0 -4.721081819825045 -0.2563658320413218 0 0 0 0 33.124295749643352 -6.0026208783619737 0 -6.0026208783619737 -3.2228726495915367 0 0 0 0 587.49210916859738 -102.85023218545717 0 -102.85023218545717 66.86719215154244 0 0 0 0 477.90620788252272 -37.818224071734448 0 -37.818224071734448 66.874000656544354 0 0 0 0 453.81436084993402 -85.167731596385082 0 -85.167731596385082 160.31903474999945 0 0 0 0 516.4013451531282 -190.45005223594097 0 -190.45005223594097 65.153699892028953 0 0 0 0 339.86484426810057 -124.81434119061453 0 -124.81434119061453 146.95927285491007 0 0 0 0 617.56323285946564 -69.905796924446122 0 -69.905796924446122 74.342208890143041 0 0 0 0 579.89508892677986 -8.9707751910466413 0 -8.9707751910466413 -24.231183407026037 0 0 0 0 260.55735477645067 -26.32824997774992 0 -26.32824997774992 37.843249442908814 0 0 0 0 541.34031716443133 -56.427643473559783 0 -56.427643473559783 1.1149002734040323 0 0 0 0 210.00857398929656 136.46290452020844 0 136.46290452020844 42.712852803619739 0 0 0 0 0.879935955270156 -0.52994276946077434 0 -0.52994276946077434 -0.2335502793022135 0 0 0 0 400.36041674531589 110.00323635200419 0 110.00323635200419 -0.18339321837083844 0 0 0 0 1.301246187753236 -0.95463469024991809 0 -0.95463469024991809 0.37448922811710972 0 0 0 0 724.80642597882252 41.956052552581639 0 41.956052552581639 5.7920065880452967 0 0 0 0 124.02517416662886 -16.991715227093891 0 -16.991715227093891 87.839187240525348 0 0 0 0 458.06743671212462 93.274616391648692 0 93.274616391648692 10.506439957950562 0 0 0 0 2.0346182265992638 -2.0487604642239603 0 -2.0487604642239603 0.79708165050877033 0 0 0 0 184.17981785845768 41.063797074743434 0 41.063797074743434 29.483940984539004 0 0 0 0 241.57368925408809 38.995029033024025 0 38.995029033024025 7.6635207703616857 0 0 0 0 230.30302378232591 84.108005394513839 0 84.108005394513839 25.075966633793087 0 0 0 0 336.28609369536207 26.190120044177661 0 26.190120044177661 20.742471171385318 0 0 0 0 295.01632578211138 70.135945142477453 0 70.135945142477453 0.40085296940608828 0 0 0 0 385.66094054913265 -16.322478270221708 0 -16.322478270221708 -0.25143578896926044 0 0 0 0 473.67173837471637 -58.531096505811128 0 -58.531096505811128 50.057409151024103 0 0 0 0 457.19149850180474 -57.558579663034948 0 -57.558579663034948 30.393660375227455 0 0 0 0 471.71088679201785 -26.363780106909132 0 -26.363780106909132 -9.6173485628817161 0 0 0 0 453.5060669082377 -75.019367336448397 0 -75.019367336448397 9.7738605196528283 0 0 0 0 386.7743174492789 -17.333678842778959 0 -17.333678842778959 -18.195620513036943 0 0 0 0 363.0743825741738 -28.590296294449896 0 -28.590296294449896 -26.961455852448104 0 0 0 0 390.6299599155609 3.2742553178243838 0 3.2742553178243838 -1.8372378969580154 0 0 0 0 1.8854556942928582 -1.9707546685843624 0 -1.9707546685843624 0.50336757278274957 0 0 0 0 245.49063107592519 66.278030569506768 0 66.278030569506768 14.616926518914568 0 0 0 0 181.73298858158523 0.55195741249211494 0 0.55195741249211494 15.654591701913063 0 0 0 0 257.41239788923122 18.469495033275606 0 18.469495033275606 10.115638879282638 0 0 0 0 260.7913033310324 37.776341798731757 0 37.776341798731757 -19.084840213813138 0 0 0 0 121.60538834754698 -5.961533927770974 0 -5.961533927770974 3.6086516346647315 0 0 0 0 193.61812258762075 40.02510799075651 0 40.02510799075651 -10.296717238872867 0 0 0 0 244.84102700722724 -32.348525010407222 0 -32.348525010407222 -0.037081137731028425 0 0 0 0 313.45300034248794 7.9778589747521034 0 7.9778589747521034 -17.720190210779375 0 0 0 0 355.9266604719196 -42.907970918487244 0 -42.907970918487244 -0.054244410440934747 0 0 0 0 352.60948486668349 -53.27405688744264 0 -53.27405688744264 -20.60027251867011 0 0 0 0 397.08010478358483 -56.132556958771659 0 -56.132556958771659 -23.409595934115998 0 0 0 0 373.66283052999643 -107.72073542937463 0 -107.72073542937463 11.030901562127923 0 0 0 0 300.64370188461908 -105.66514741890312 0 -105.66514741890312 8.3262670011810087 0 0 0 0 319.99173442585743 -75.933577455746104 0 -75.933577455746104 -6.030727521028254 0 0 0 0 292.23502770904452 -60.034588167907323 0 -60.034588167907323 -0.01803233491955826 0 0 0 0 357.46255600652512 -76.020336570250237 0 -76.020336570250237 -12.641291399445421 0 0 0 0 270.67186372085416 -68.380949161729617 0 -68.380949161729617 6.4185589182874878 0 0 0 0 1.5062468610669839 -0.18979560108886062 0 -0.18979560108886062 -0.18729363380654576 0 0 0 0 4.3815595605992712 -2.1823634623049184 0 -2.1823634623049184 0.0019504703735722477 0 0 0 0 -48.760227274207864 -2.680521902157853 0 -2.680521902157853 4.4280074379835739 0 0 0 0 1.0863868994249799 -0.73672928361881418 0 -0.73672928361881418 0.31247407064791377 0 0 0 0 3.3346091745527531 -3.8911045678417508 0 -3.8911045678417508 2.886954277813742 0 0 0 0 -28.050583225311129 -14.097922653130196 0 -14.097922653130196 6.6758702100560328 0 0 0 0 6.1738610575266648 -13.617567705206 0 -13.617567705206 -1.7477384459884888 0 0 0 0 4.1295948232732655 1.0933345167283619 0 1.0933345167283619 -2.4447855781247205 0 0 0 0 11.263200622212025 1.8638002401874587 0 1.8638002401874587 -12.405935306444235 0 0 0 0 186.02647324648569 -41.705112445233866 0 -41.705112445233866 32.559615251519517 0 0 0 0 235.05173748321249 -51.252128833470579 0 -51.252128833470579 5.1579258546389095 0 0 0 0 204.40002037535305 -111.46302080517818 0 -111.46302080517818 38.674062556741831 0 0 0 0 -7.2128571661448859 34.976648788162173 0 34.976648788162173 -73.821853151019923 0 0 0 0 -7.7064830609888304 -17.773350783601927 0 -17.773350783601927 22.693052040502153 0 0 0 0 68.107283158926293 -13.532243127566971 0 -13.532243127566971 -27.017692197536007 0 0 0 0 11.847575489402516 -22.002426485643696 0 -22.002426485643696 19.453352418571285 0 0 0 0 12.060277947100985 -7.9269175514408801 0 -7.9269175514408801 -78.781332247257524 0 0 0 0 3.6417003757102009 -3.43263506775574 0 -3.43263506775574 1.8965969354905119 0 0 0 0 -0.13084610193072876 -0.72676412622926989 0 -0.72676412622926989 0.40732769405304303 0 0 0 0 -6.4007384371507214 -1.3520601197665201 0 -1.3520601197665201 14.593359554956351 0 0 0 0 -4.6893568385276012 -3.9070160471979989 0 -3.9070160471979989 17.874449746187324 0 0 0 0 24.918772812132374 -21.110175692829387 0 -21.110175692829387 -68.54939048672702 0 0 0 0 1.9367479832726531 -5.9074343444581245 0 -5.9074343444581245 -4.1540756390515412 0 0 0 0 11.649201841588365 -25.679117489152247 0 -25.679117489152247 -68.067342227180347 0 0 0 0 -12.813066662711208 -24.746053140273716 0 -24.746053140273716 -57.133042988113402 0 0 0 0 41.523237775603775 -40.745299934074865 0 -40.745299934074865 -70.437257849247999 0 0 0 0 1.3959513685986167 -41.839833848283661 0 -41.839833848283661 -62.203389873446497 0 0 0 0 46.748877285790513 -12.20783266626438 0 -12.20783266626438 -77.922477864347684 0 0 0 0 53.150036853243364 -15.841809672351701 0 -15.841809672351701 -78.924763860288607 0 0 0 0 1.3141044731759166 0.36906549090483054 0 0.36906549090483054 -0.65489188401737231 0 0 0 0 61.505171646349481 16.57389889022312 0 16.57389889022312 -88.550424945317872 0 0 0 0 -77.714575724254246 148.44239431991446 0 148.44239431991446 -103.52057740340058 0 0 0 0 698.51750930234266 -242.49816053696478 0 -242.49816053696478 60.608936134552927 0 0 0 0 502.21140280032705 -25.055637920989824 0 -25.055637920989824 -25.555313273727393 0 0 0 0 448.39905155710585 -80.209883418355133 0 -80.209883418355133 -12.160324235505982 0 0 0 0 393.39512461802224 -110.21932900351167 0 -110.21932900351167 47.088740238459827 0 0 0 0 383.98402015587089 -93.894526926765735 0 -93.894526926765735 19.684441804449932 0 0 0 0 2.9745191171797671 1.2429140498438187 0 1.2429140498438187 -1.9031816957255541 0 0 0 0 376.21822590308147 -169.3965983873789 0 -169.3965983873789 57.755293339011246 0 0 0 0 81.22187608274271 -12.940097511765861 0 -12.940097511765861 17.220239339816921 0 0 0 0 111.70604842863395 -28.30696660644098 0 -28.30696660644098 -3.8391478476067036 0 0 0 0 41.207107326103142 -24.476547466049478 0 -24.476547466049478 0.014170940969472589 0 0 0 0 81.452517603728666 -11.12186196716385 0 -11.12186196716385 -11.187258139856397 0 0 0 0 38.744108013430377 -2.0156305774309402 0 -2.0156305774309402 6.4139307979298366 0 0 0 0 8.3475925274542533 -8.4739810995790066 0 -8.4739810995790066 2.8801870732215065 0 0 0 0 26.227344470913522 -20.120911233621328 0 -20.120911233621328 0.97338242237063355 0 0 0 0 13.48775712128554 -7.4224757084518318 0 -7.4224757084518318 7.4038517860631616 0 0 0 0 -21.120811885150033 -26.883882838392548 0 -26.883882838392548 0.0024514664863382672 0 0 0 0 11.916608159419411 -13.503539418372682 0 -13.503539418372682 -1.3209593190036841 0 0 0 0 -24.328725063984166 -13.443492231863701 0 -13.443492231863701 -0.75711131868649773 0 0 0 0 -14.503659039677586 -25.237637360595215 0 -25.237637360595215 3.4898565343309933 0 0 0 0 -12.653361299271637 -12.450015036706375 0 -12.450015036706375 -10.603659208541643 0 0 0 0 -26.584861455587088 -24.101797324058367 0 -24.101797324058367 -0.28711912974075826 0 0 0 0 -56.034299609891605 -115.42840221527467 0 -115.42840221527467 -44.713132236165166 0 0 0 0 0.77248931067995841 0.15544874689902599 0 0.15544874689902599 -1.0794148739713414 0 0 0 0 4.7180134384833536 -3.3525691562966529 0 -3.3525691562966529 1.6785954433758907 0 0 0 0 11.563643353889347 -0.87184353516533974 0 -0.87184353516533974 -23.459807897466703 0 0 0 0 -17.055947190448933 -33.124471873991382 0 -33.124471873991382 20.406913069684492 0 0 0 0 -2.3114306391071295 -43.544565743669366 0 -43.544565743669366 -27.335883924621655 0 0 0 0 25.757780772029946 -0.63448582289137789 0 -0.63448582289137789 2.0197136704516652 0 0 0 0 1.016876527632121 -25.145037669720239 0 -25.145037669720239 -0.046973646633524879 0 0 0 0 43.835346695705084 -19.85736688425456 0 -19.85736688425456 4.1239007539302648 0 0 0 0 89.978589623104199 9.4975748793121966 0 9.4975748793121966 -20.220198401532485 0 0 0 0 89.068665612488985 30.082586584647473 0 30.082586584647473 -33.846781766044728 0 0 0 0 171.09746562894725 -42.119337263916577 0 -42.119337263916577 -20.028006574103113 0 0 0 0 167.92948107855068 -117.64242160223918 0 -117.64242160223918 57.107392794840393 0 0 0 0 116.44269189962142 -48.445945065910024 0 -48.445945065910024 19.703661205189832 0 0 0 0 184.74950133336097 -53.132773724740993 0 -53.132773724740993 14.125682859497317 0 0 0 0 123.84597713025141 40.752414483025149 0 40.752414483025149 64.344539863856028 0 0 0 0 -3.3373439485148992 -36.88783240851933 0 -36.88783240851933 164.45330327327059 0 0 0 0 1.9148562555694753 -1.1001231088008723 0 -1.1001231088008723 0.78085865720096359 0 0 0 0 119.00674388658081 -140.42692756897702 0 -140.42692756897702 85.962625927357323 0 0 0 0 20.957144003521535 -135.59358676331874 0 -135.59358676331874 147.55955691857048 0 0 0 0 -7.5905255131656304 -81.080457302598802 0 -81.080457302598802 91.427124341471654 0 0 0 0 -16.513486726093106 -96.833685850650397 0 -96.833685850650397 108.47657596342282 0 0 0 0 4.192197914897406 -27.020375852101452 0 -27.020375852101452 -46.397144303907453 0 0 0 0 -38.047620521319914 -109.42601369668159 0 -109.42601369668159 69.268358510820576 0 0 0 0 -52.762033742497806 -4.5679006255970762 0 -4.5679006255970762 -33.512645385931364 0 0 0 0 -43.431935725820949 -59.507778388979688 0 -59.507778388979688 139.59464771156388 0 0 0 0 8.6719143617665395 -86.246935248788361 0 -86.246935248788361 63.16751600250501 0 0 0 0 -10.301380884200626 -41.997782906002492 0 -41.997782906002492 192.00569546441992 0 0 0 0 13.296133388925227 -33.474189681545084 0 -33.474189681545084 126.93368708770356 0 0 0 0 11.098024092754656 -0.2524871318410824 0 -0.2524871318410824 0.21930203887970595 0 0 0 0 59.487527879187837 26.126376417684128 0 26.126376417684128 10.642409789924642 0 0 0 0 5.2280603205890657 0.40199269808041294 0 0.40199269808041294 12.544419424009448 0 0 0 0 19.746080330471159 -3.1371776377540073 0 -3.1371776377540073 -7.6751702667589825 0 0 0 0 17.659168613949703 -0.48377039388457543 0 -0.48377039388457543 -0.040504456184957897 0 0 0 0 2.8625422362674726 -16.098049548647737 0 -16.098049548647737 21.371204908300115 0 0 0 0 2.4052530589397065 -8.4026578040779896 0 -8.4026578040779896 1.1938975533487337 0 0 0 0 18.921647883798869 5.6901705314207902 0 5.6901705314207902 13.181453858274381 0 0 0 0 9.0087872176227393 -56.830102905055526 0 -56.830102905055526 79.730348402908078 0 0 0 0 29.954740838817088 -59.277726868601391 0 -59.277726868601391 62.247605187406073 0 0 0 0 25.307976683639026 -87.088606786592223 0 -87.088606786592223 106.57491556517266 0 0 0 0 25.083972940576132 -83.493741798165033 0 -83.493741798165033 51.946098203873589 0 0 0 0 46.993728104105685 -65.613742883093579 0 -65.613742883093579 62.427608857299241 0 0 0 0 27.678114175185328 -4.118323412489417 0 -4.118323412489417 1.9043871534781829 0 0 0 0 16.049466514698679 3.763775088816999 0 3.763775088816999 1.8469664861233457 0 0 0 0 25.582626971881837 3.0975388642330017 0 3.0975388642330017 -2.2829142181746409 0 0 0 0 22.838687499141088 -1.6335347981744235 0 -1.6335347981744235 -2.3761912051910059 0 0 0 0 14.089926291373558 -5.3436724624525027 0 -5.3436724624525027 5.691351891797467 0 0 0 0 21.59580270233829 2.4614455084060096 0 2.4614455084060096 -0.36193230984961849 0 0 0 0 24.25844765893271 1.0496828717218563 0 1.0496828717218563 4.3602546199118706 0 0 0 0 24.07695603945831 2.295326664297022 0 2.295326664297022 -4.0764645294534603 0 0 0 0 83.231722125055967 -26.596933958800719 0 -26.596933958800719 -84.870438450133179 0 0 0 0 62.404594513705888 27.761837098741903 0 27.761837098741903 -65.623924408677297 0 0 0 0 40.60011596759432 -35.973224591871116 0 -35.973224591871116 -69.731378490423978 0 0 0 0 40.671585223088186 -2.3861337992224652 0 -2.3861337992224652 -14.358612690321706 0 0 0 0 48.545896976458607 -34.541385356721719 0 -34.541385356721719 23.980147456170357 0 0 0 0 95.93392499134643 21.056340493464802 0 21.056340493464802 -36.871329510458509 0 0 0 0 379.2792848355457 -51.215300846135221 0 -51.215300846135221 42.405125547126431 0 0 0 0 418.02766638416506 -13.892914500959137 0 -13.892914500959137 65.306568184533774 0 0 0 0 414.04317570694548 -39.25381209290407 0 -39.25381209290407 35.366961927910438 0 0 0 0 418.15155545287416 -11.138341889896651 0 -11.138341889896651 -24.309001808128301 0 0 0 0 279.74623633365991 88.470352975967671 0 88.470352975967671 -139.71562324782644 0 0 0 0 89.218547211419718 -11.343044919102045 0 -11.343044919102045 -85.415858111591206 0 0 0 0 135.18345527077327 -88.671277513956397 0 -88.671277513956397 23.108788460941582 0 0 0 0 83.398295589784539 -85.225595358971788 0 -85.225595358971788 -40.096086734968594 0 0 0 0 0.087304734304780141 -35.762215467776343 0 -35.762215467776343 51.389166061448691 0 0 0 0 70.303942020109389 -117.61318424280208 0 -117.61318424280208 139.10568558467821 0 0 0 0 115.10027205535152 -20.503965591747658 0 -20.503965591747658 102.37442259882982 0 0 0 0 91.97540336115344 -134.21827229408507 0 -134.21827229408507 376.21536725711695 0 0 0 0 18.126738721184665 -16.943287496584645 0 -16.943287496584645 192.27841645139839 0 0 0 0 11.644446432566383 46.673436621916956 0 46.673436621916956 10.540160356688148 0 0 0 0 12.168649268220179 83.450155174965857 0 83.450155174965857 190.00449775303122 0 0 0 0 3.8775705141645744 0.060836998811058862 0 0.060836998811058862 0.42725083413205001 0 0 0 0 366.59312432296065 22.7177231331125 0 22.7177231331125 156.81374464870828 0 0 0 0 341.32585545617621 -135.55960613449147 0 -135.55960613449147 160.89021676745108 0 0 0 0 341.30673430102615 -105.58272904462842 0 -105.58272904462842 343.11438532936813 0 0 0 0 42.38014749368449 -0.68108823815560982 0 -0.68108823815560982 61.455082863556981 0 0 0 0 6.173140104540721 0.81123593545438766 0 0.81123593545438766 -0.072199068548030931 0 0 0 0 248.39347299974906 20.094460934113044 0 20.094460934113044 -221.79720688963539 0 0 0 0 302.55357796260796 -240.9323957857394 0 -240.9323957857394 175.96665270508208 0 0 0 0 -108.54275887414406 46.116573506001941 0 46.116573506001941 48.838145834873387 0 0 0 0 208.42514022337491 115.32555385586858 0 115.32555385586858 56.962968050157087 0 0 0 0 134.06612993610906 78.188817901056382 0 78.188817901056382 11.359377690440624 0 0 0 0 203.33067212408059 89.397963460215351 0 89.397963460215351 6.8294840048703236 0 0 0 0 75.424905297833902 143.83179825305479 0 143.83179825305479 -0.31819914935454108 0 0 0 0 2.783131594606516 0.74517772883938704 0 0.74517772883938704 0.060752902089698635 0 0 0 0 198.37228026884259 -12.048986019962399 0 -12.048986019962399 -34.78536827208768 0 0 0 0 -28.126270965328331 6.1009409157092378 0 6.1009409157092378 70.494530860398754 0 0 0 0 -30.83856637324061 -29.139087485737036 0 -29.139087485737036 97.536377675249582 0 0 0 0 63.254924537024635 -49.154068978572923 0 -49.154068978572923 38.93896106634952 0 0 0 0 21.2977903060264 18.034109337767035 0 18.034109337767035 -46.394263390938022 0 0 0 0 19.009301141180913 13.109553557361096 0 13.109553557361096 92.2025036847715 0 0 0 0 3.6594197243102826 -5.2732479773881096 0 -5.2732479773881096 74.563362591709165 0 0 0 0 12.323978516731586 35.550729978114816 0 35.550729978114816 183.85415013559486 0 0 0 0 33.356264694095444 -48.100141011372557 0 -48.100141011372557 106.85698967819894 0 0 0 0 32.952878873038571 -8.5240823607055063 0 -8.5240823607055063 -32.335075460010614 0 0 0 0 -13.698736381455092 39.770369152402736 0 39.770369152402736 102.19422935048584 0 0 0 0 157.34001486121269 -245.77263962075727 0 -245.77263962075727 139.87554568697624 0 0 0 0 4.8951386064231031 2.8460355923873806 0 2.8460355923873806 2.1012776320078075 0 0 0 0 16.243054707971169 166.7811393621821 0 166.7811393621821 135.27071994137989 0 0 0 0 112.77417149857501 -54.512818920696247 0 -54.512818920696247 -47.114985883361427 0 0 0 0 16.000041963037802 -121.1113685993445 0 -121.1113685993445 246.55686973175452 0 0 0 0 21.629530642516329 -48.20849387719386 0 -48.20849387719386 140.25775622677202 0 0 0 0 -56.988027295708889 -37.419039214437191 0 -37.419039214437191 51.632372870754352 0 0 0 0 61.58862003935792 -13.668511087814068 0 -13.668511087814068 44.449814717783511 0 0 0 0 -31.955923040819471 70.186014115990758 0 70.186014115990758 28.335639068694718 0 0 0 0 110.83438409407972 -29.105261984421617 0 -29.105261984421617 -31.489122410300197 0 0 0 0 14.971885913022561 -58.730808610731771 0 -58.730808610731771 134.21390614090006 0 0 0 0 174.52779986953828 -148.30236447793146 0 -148.30236447793146 46.155657363219632 0 0 0 0 91.745757056982256 -10.808233611429902 0 -10.808233611429902 -18.583437785957031 0 0 0 0 66.537950251949951 102.23827198115228 0 102.23827198115228 -103.54456354139938 0 0 0 0 144.39141565258615 -6.4754569128854413 0 -6.4754569128854413 -114.94174413626094 0 0 0 0 19.406791919008185 7.491047154484832 0 7.491047154484832 -0.80018589746889757 0 0 0 0 32.699501138646156 6.6706140854123532 0 6.6706140854123532 4.6167623906617337 0 0 0 0 21.390327214612626 14.334006499637326 0 14.334006499637326 18.819986015321774 0 0 0 0 23.4790061522217 7.6887148566070209 0 7.6887148566070209 23.146182717105148 0 0 0 0 16.088623769760801 12.329037343845386 0 12.329037343845386 0.6237145893574696 0 0 0 0 16.105179401958594 6.3509991574403557 0 6.3509991574403557 -3.5043620611058941 0 0 0 0 -137.67043205269147 144.07877879967944 0 144.07877879967944 -86.192140494397663 0 0 0 0 21.651487195506519 3.5327211610367755 0 3.5327211610367755 3.6907380409190966 0 0 0 0 24.952756373157456 -7.9794046120917415 0 -7.9794046120917415 3.5452901973922257 0 0 0 0 145.26840536479722 -71.415383340302697 0 -71.415383340302697 144.6132885842726 0 0 0 0 -137.70704973020474 -258.81818740559868 0 -258.81818740559868 533.23363419484338 0 0 0 0 142.25853407810428 89.109657206013722 0 89.109657206013722 -106.8509018083414 0 0 0 0 176.03964094060939 -136.48475243685115 0 -136.48475243685115 -21.501587563837973 0 0 0 0 337.43757451686542 -152.85276426548342 0 -152.85276426548342 -58.162722096481332 0 0 0 0 236.30652252957952 30.294855001741691 0 30.294855001741691 -83.504258027141162 0 0 0 0 -63.284560898842756 78.54309655795123 0 78.54309655795123 -18.557421174729228 0 0 0 0 -20.471839602236287 22.105043331500269 0 22.105043331500269 -37.522763619201555 0 0 0 0 -1.4838066975977426 4.6701628793645824 0 4.6701628793645824 3.6440695689366134 0 0 0 0 3.161223471906851 97.244006173330291 0 97.244006173330291 36.871924741759472 0 0 0 0 40.38147066688515 27.684172457544619 0 27.684172457544619 1.3786517172736006 0 0 0 0 -85.908516936848173 91.444325493695715 0 91.444325493695715 32.705838278004876 0 0 0 0 38.954284233465387 29.196091768140761 0 29.196091768140761 -2.5018316437879826 0 0 0 0 29.443862922475091 23.57566938579771 0 23.57566938579771 21.710691849279556 0 0 0 0 7.1013195182802917 2.6922788532218931 0 2.6922788532218931 -0.27895863950216082 0 0 0 0 -9.9408580340386834 23.098403765875901 0 23.098403765875901 22.173716527069246 0 0 0 0 15.44611041508324 6.831603818843405 0 6.831603818843405 12.88744027693474 0 0 0 0 9.7332875565625727 -31.787410841682686 0 -31.787410841682686 44.126686313846449 0 0 0 0 -27.328681106453587 -5.6989158377165836 0 -5.6989158377165836 26.307286007922812 0 0 0 0 -82.068156702662236 13.185111255978995 0 13.185111255978995 79.390187689578397 0 0 0 0 -39.627331098017748 12.320888200308218 0 12.320888200308218 -21.547193989998007 0 0 0 0 47.528013783157803 -6.2744975628486372 0 -6.2744975628486372 12.982215593507135 0 0 0 0 249.61280735532637 -25.325459084602926 0 -25.325459084602926 -5.9259065349538105 0 0 0 0 88.819414022844285 -32.29078718999267 0 -32.29078718999267 -0.54926368868973441 0 0 0 0 287.1540688368259 58.666636789523523 0 58.666636789523523 -142.29622704320582 0 0 0 0 -47.479622365732212 -118.86774346448942 0 -118.86774346448942 192.76449418669381 0 0 0 0 -97.571987311341218 66.604140261681778 0 66.604140261681778 38.510635585339742 0 0 0 0 1.4255578799363207 0.74165856923303863 0 0.74165856923303863 0.52603420476881624 0 0 0 0 -65.772161423214129 -80.752154527330731 0 -80.752154527330731 137.78123821091503 0 0 0 0 15.28243743017083 -43.162303976976148 0 -43.162303976976148 -76.829699490759367 0 0 0 0 30.912001508870162 -25.487786610101466 0 -25.487786610101466 -88.263880554544812 0 0 0 0 40.970159269431633 30.092045878159013 0 30.092045878159013 3.8930983796469532 0 0 0 0 138.56166846169799 168.5420244251543 0 168.5420244251543 -87.985762357374369 0 0 0 0 68.941723063704558 194.86974490493969 0 194.86974490493969 -35.388204069801247 0 0 0 0 -26.536489000485744 -42.174053330272386 0 -42.174053330272386 -60.859962435297632 0 0 0 0 2.4130375841903628 7.3122578026542584 0 7.3122578026542584 -1.1376376883077663 0 0 0 0 10.626451613960626 -1.4036474046343557 0 -1.4036474046343557 -1.0268647667942978 0 0 0 0 48.928696997937607 -0.39168810368984452 0 -0.39168810368984452 -0.6027966117052157 0 0 0 0 57.994282348037814 -10.966221377567422 0 -10.966221377567422 -14.509845963053635 0 0 0 0 68.312346333637834 -38.139140863588466 0 -38.139140863588466 -33.439439105674978 0 0 0 0 61.227253520482918 -43.746867902725569 0 -43.746867902725569 50.435045920307857 0 0 0 0 -80.926975559064886 -34.060591749271907 0 -34.060591749271907 49.959013253542253 0 0 0 0 -0.21087771096100028 0.83247438290256071 0 0.83247438290256071 1.3137578088486177 0 0 0 0 239.45281653414713 -106.32496179171233 0 -106.32496179171233 14.522974180388019 0 0 0 0 270.60991288040532 86.305446563525379 0 86.305446563525379 -110.00958615765273 0 0 0 0 49.435471481046989 54.739824617528257 0 54.739824617528257 16.640813495232351 0 0 0 0 23.011901845413377 -3.6364969951277999 0 -3.6364969951277999 9.1472198037437806 0 0 0 0 55.713469789930969 37.411701648309133 0 37.411701648309133 11.794272130521634 0 0 0 0 139.85599243844626 12.052032081554671 0 12.052032081554671 6.2605762534799396 0 0 0 0 62.414925826291437 6.8457401116213816 0 6.8457401116213816 -28.435255197135803 0 0 0 0 76.067694854718866 -39.631199305556351 0 -39.631199305556351 -230.01211104096694 0 0 0 0 42.359874215970194 28.823583242341542 0 28.823583242341542 15.306425070853379 0 0 0 0 50.928333480795118 15.591076737686057 0 15.591076737686057 -50.767196302055737 0 0 0 0 14.819037039372546 -10.802106906869255 0 -10.802106906869255 0.93182207598309197 0 0 0 0 203.02771095135904 379.6694218323118 0 379.6694218323118 -303.81140135928831 0 0 0 0 25.504379632693599 96.421674532576148 0 96.421674532576148 -71.023511799355362 0 0 0 0 81.204561442111753 -46.704390489377481 0 -46.704390489377481 -237.85723982550394 0 0 0 0 86.22205833587941 -96.061208437396203 0 -96.061208437396203 -794.70021253779009 0 0 0 0 -80.757413092826027 315.88785816546829 0 315.88785816546829 -539.26526937248514 0 0 0 0 40.588527367400332 0.24098685787852148 0 0.24098685787852148 -0.53583413369010746 0 0 0 0 40.678453033353435 92.659547310252833 0 92.659547310252833 -482.89046472643759 0 0 0 0 73.174689874009346 -46.633167706530116 0 -46.633167706530116 -77.106761755572734 0 0 0 0 7.7940603803006354 -6.0570218794107173 0 -6.0570218794107173 -2.3803286209017038 0 0 0 0 14.049765008989198 114.69094798548747 0 114.69094798548747 -293.90006808017506 0 0 0 0 -128.95817394393089 -80.555991451764612 0 -80.555991451764612 140.69581169155026 0 0 0 0 1.2089720585963164 -0.57548070485239045 0 -0.57548070485239045 -0.45535909521514206 0 0 0 0 -243.43470535935103 -263.24620398745401 0 -263.24620398745401 -503.43551958147623 0 0 0 0 322.82147285698738 -119.74992091529248 0 -119.74992091529248 -868.95344271097792 0 0 0 0 304.33375215923297 86.782380047976403 0 86.782380047976403 -802.36071666936004 0 0 0 0 346.54857044812525 23.257128881806238 0 23.257128881806238 -358.21852821341372 0 0 0 0 291.3981817017193 132.11248531439333 0 132.11248531439333 -531.08645721388507 0 0 0 0 281.06497761335049 -109.32757054760441 0 -109.32757054760441 -608.09478457087403 0 0 0 0 175.11653954125359 -53.686678121224304 0 -53.686678121224304 -197.87901382172458 0 0 0 0 54.01023759679822 104.10872530313611 0 104.10872530313611 -194.28699071655501 0 0 0 0 54.428722969380033 88.321394709016886 0 88.321394709016886 -354.61530448729536 0 0 0 0 43.602007597980275 23.172030881787379 0 23.172030881787379 5.3649983414312086 0 0 0 0 165.31066450287472 230.80626404975806 0 230.80626404975806 -544.69908349789421 0 0 0 0 180.69074078915583 136.42805121489528 0 136.42805121489528 -491.52839908609576 0 0 0 0 640.21820759766706 323.53082392931242 0 323.53082392931242 -436.73915745626346 0 0 0 0 194.57666868486376 327.30386073055968 0 327.30386073055968 86.874470148615728 0 0 0 0 293.03359526203712 -125.51290831815646 0 -125.51290831815646 146.44225671791992 0 0 0 0 650.51196828956017 -90.816331410875819 0 -90.816331410875819 -183.71843487264505 0 0 0 0 398.67199815272033 179.01580362188952 0 179.01580362188952 40.217831103691879 0 0 0 0 8.0930327794744699 -0.90593809333685371 0 -0.90593809333685371 -3.5943727259524469 0 0 0 0 664.50917753614931 -137.90302632059888 0 -137.90302632059888 -338.33893665116739 0 0 0 0 52.811023642301734 -84.063919417304987 0 -84.063919417304987 126.90800039239821 0 0 0 0 4.3980320192949538 0.98905836782725487 0 0.98905836782725487 -8.3433973565449886 0 0 0 0 -76.829135105610476 117.59055013306579 0 117.59055013306579 -149.13546936264902 0 0 0 0 4.1261149563973589 5.9395692214938407 0 5.9395692214938407 -13.743593146568106 0 0 0 0 65.789892144617625 -13.648736051327205 0 -13.648736051327205 -24.143723008712044 0 0 0 0 19.831268486745813 -2.8592541410460637 0 -2.8592541410460637 -3.9259907175133479 0 0 0 0 -45.430370066304022 -83.782725222983146 0 -83.782725222983146 -114.1875840821217 0 0 0 0 -239.844175486106 -277.39256158116729 0 -277.39256158116729 -298.00185907701984 0 0 0 0 118.78650545240367 33.798388093101245 0 33.798388093101245 4.2197103760772308 0 0 0 0 57.234218843659619 175.76646442001277 0 175.76646442001277 -150.50377402743379 0 0 0 0 13.707996083641774 178.48611210349668 0 178.48611210349668 68.825270464918958 0 0 0 0 145.69698408480326 211.73283047443618 0 211.73283047443618 -365.04656208194365 0 0 0 0 151.40564338040713 105.21748789972435 0 105.21748789972435 100.20918743773177 0 0 0 0 49.507678956506425 40.810972293283385 0 40.810972293283385 79.122542369104849 0 0 0 0 22.57055915276942 102.37828556505775 0 102.37828556505775 21.939689637211814 0 0 0 0 26.666803036292549 94.870542596322935 0 94.870542596322935 -30.189439843939795 0 0 0 0 53.673556639374027 29.297807735061966 0 29.297807735061966 4.43134336313934 0 0 0 0 19.400436919593631 -9.1716292935626313 0 -9.1716292935626313 -70.940457347773446 0 0 0 0 70.068314631847898 163.67331449200458 0 163.67331449200458 115.84463321449448 0 0 0 0 -6.7780388223219177 7.9541491001585456 0 7.9541491001585456 2.7113655062024562 0 0 0 0 -69.364112508999824 133.95546754745374 0 133.95546754745374 98.062905200737532 0 0 0 0 -34.711522247715038 495.13097021751219 0 495.13097021751219 -834.76192517876575 0 0 0 0 -144.88006460052566 290.85059774827778 0 290.85059774827778 -227.54219751359039 0 0 0 0 44.136224892735015 26.633543961534599 0 26.633543961534599 6.505594108519527 0 0 0 0 -159.12538952224713 445.2795199424877 0 445.2795199424877 -354.86062595295607 0 0 0 0 29.808875459668343 83.79943804230129 0 83.79943804230129 -13.396111380852744 0 0 0 0 31.563619069638662 40.090251217016544 0 40.090251217016544 10.180468583759193 0 0 0 0 -3.962525925811633 103.37340184555211 0 103.37340184555211 58.499787629527916 0 0 0 0 12.206923184191254 -0.45031108952379384 0 -0.45031108952379384 -9.4487193920910535 0 0 0 0 -281.16678499028012 320.49437627626571 0 320.49437627626571 -420.06139167964284 0 0 0 0 39.241263485062518 -55.099225123384713 0 -55.099225123384713 -1.3226696866140628 0 0 0 0 -283.83357195250369 530.74790265145475 0 530.74790265145475 -532.93440389153329 0 0 0 0 -80.902140085854626 239.14269186130241 0 239.14269186130241 -83.527874219707883 0 0 0 0 -40.152916546925553 343.25114686248025 0 343.25114686248025 -460.98221383990767 0 0 0 0 189.16408453702024 260.41667919427891 0 260.41667919427891 -431.17037132283167 0 0 0 0 51.161710950451379 53.575546286538611 0 53.575546286538611 -112.09656318203361 0 0 0 0 240.67720745792758 106.17918622394581 0 106.17918622394581 -267.48639290839856 0 0 0 0 78.605549987158156 155.24091122199525 0 155.24091122199525 -365.06023582830721 0 0 0 0 -211.75565207473119 310.27842749129832 0 310.27842749129832 -256.22486217623646 0 0 0 0 -149.39329035478295 316.15469987462416 0 316.15469987462416 -527.3587715008407 0 0 0 0 -521.03220444747421 600.41249334533904 0 600.41249334533904 -536.19018343849439 0 0 0 0 -0.013704237137886821 0.35504080446247599 0 0.35504080446247599 -0.6371112329038624 0 0 0 0 316.53216713959409 2.2937302476925652 0 2.2937302476925652 -236.15247811901827 0 0 0 0 -115.88460453887092 -15.793492089501342 0 -15.793492089501342 95.76048710744908 0 0 0 0 117.89662693963936 31.920391741357797 0 31.920391741357797 8.2248095922078583 0 0 0 0 310.25330328143536 166.50145734160242 0 166.50145734160242 -421.38512819042899 0 0 0 0 357.92964369037509 97.192246109351117 0 97.192246109351117 -411.48536850199889 0 0 0 0 570.01042772084475 -386.29508978466856 0 -386.29508978466856 -69.818721267413821 0 0 0 0 60.223654134795652 157.90369985730376 0 157.90369985730376 -422.85053380582985 0 0 0 0 75.887670851239818 42.058849070448105 0 42.058849070448105 -297.28322448650761 0 0 0 0 31.306868691608543 133.56832799788845 0 133.56832799788845 -366.43587802343927 0 0 0 0 82.53346235936624 71.948773083337073 0 71.948773083337073 -362.8052705052807 0 0 0 0 74.92635789783526 132.71894577765534 0 132.71894577765534 -436.57096277285837 0 0 0 0 86.204598347234423 80.65178418610958 0 80.65178418610958 -424.9907496451583 0 0 0 0 109.11318011234152 29.098641329846387 0 29.098641329846387 6.4131388646759211 0 0 0 0 457.35277114150813 272.76087095029504 0 272.76087095029504 -736.06976476007776 0 0 0 0 39.639811144304986 264.56643265516612 0 264.56643265516612 238.38605877681471 0 0 0 0 574.65731898711238 -202.62908611459079 0 -202.62908611459079 -316.60994221267106 0 0 0 0 330.58958395943046 -555.49240905343754 0 -555.49240905343754 391.16811056955021 0 0 0 0 541.26296213369642 -90.896147315708731 0 -90.896147315708731 164.67009114848582 0 0 0 0 256.40511345733103 -164.05749423249188 0 -164.05749423249188 213.46594722803104 0 0 0 0 683.24480348460929 -446.42876041118211 0 -446.42876041118211 -23.877895368186273 0 0 0 0 786.81100908209919 -252.8946492044638 0 -252.8946492044638 148.80918771086203 0 0 0 0 394.74157714250032 -326.41839603616802 0 -326.41839603616802 392.44458145421481 0 0 0 0 -26.157811104250868 -487.96185660551129 0 -487.96185660551129 91.286909318672315 0 0 0 0 5.6792085254051585 1.1857118747223439 0 1.1857118747223439 0.022311396199554245 0 0 0 0 228.90525073393655 85.646402514853889 0 85.646402514853889 130.42571920132639 0 0 0 0 846.02164898707997 -677.34610276078115 0 -677.34610276078115 -26.955614289493042 0 0 0 0 881.87132765910064 -332.0542032111689 0 -332.0542032111689 -165.96434770187534 0 0 0 0 1020.5446191493247 -681.81843492272628 0 -681.81843492272628 -26.933007733896744 0 0 0 0 683.7653953183908 1301.7332763276017 0 1301.7332763276017 1887.2366540283758 0 0 0 0 160.06293542958156 -366.03477292207549 0 -366.03477292207549 114.9065296354683 0 0 0 0 13.566853597527256 4.5473627066852913 0 4.5473627066852913 0.5225894764513892 0 0 0 0 1336.5273319905973 -411.17433086668575 0 -411.17433086668575 -153.08628588718693 0 0 0 0 360.54923226401297 -280.05859331695058 0 -280.05859331695058 -319.78418775708064 0 0 0 0 -118.58201815745269 132.77169153309819 0 132.77169153309819 201.88285446912752 0 0 0 0 91.890051781642313 22.98570132767528 0 22.98570132767528 4.641224476708377 0 0 0 0 55.279402166052023 123.85715390231235 0 123.85715390231235 -408.82234757238348 0 0 0 0 79.613889503263636 61.076377632885851 0 61.076377632885851 -467.33921812017297 0 0 0 0 68.137970778421732 149.5047730997228 0 149.5047730997228 -487.680894978379 0 0 0 0 297.70626090731821 56.95208347434982 0 56.95208347434982 -466.39172101532142 0 0 0 0 95.177606719604228 122.17067689673604 0 122.17067689673604 -550.74319353860028 0 0 0 0 -190.98143367111334 225.88421868768057 0 225.88421868768057 248.33271733662468 0 0 0 0 1.6989085319364676 216.38744460560338 0 216.38744460560338 -573.92448365614655 0 0 0 0 2.6599278994835913 71.73350547267637 0 71.73350547267637 -500.80164781138683 0 0 0 0 14.039055021371382 -5.0769959973243317 0 -5.0769959973243317 -8.8561282414716835 0 0 0 0 495.00281131934389 -682.53874699914729 0 -682.53874699914729 183.0901075741674 0 0 0 0 201.85665466883802 -117.01394275454805 0 -117.01394275454805 -159.80118114405923 0 0 0 0 132.19686253767577 156.09281488836496 0 156.09281488836496 -792.83008560524831 0 0 0 0 114.41492902199388 216.1812766082603 0 216.1812766082603 -712.3663324016743 0 0 0 0 64.596362630864405 18.035609191003573 0 18.035609191003573 3.9494494987076791 0 0 0 0 575.48130954453518 -1082.0445943008594 0 -1082.0445943008594 -78.847798545785736 0 0 0 0 434.36041556904092 -623.33226586315686 0 -623.33226586315686 1269.4364932220847 0 0 0 0 1371.9242654300397 -69.869920827945407 0 -69.869920827945407 1189.0484651195075 0 0 0 0 2.970652174718623 -2.1753109416373633 0 -2.1753109416373633 -1.4618205536768212 0 0 0 0 1154.3741102588538 -1207.520014262162 0 -1207.520014262162 1287.6739894177585 0 0 0 0 615.66628066699195 -1138.3745847160462 0 -1138.3745847160462 2312.2023107955047 0 0 0 0 1090.4598482696747 -872.47911952133188 0 -872.47911952133188 431.06358575013155 0 0 0 0 672.7692269263207 -836.31909751921057 0 -836.31909751921057 428.23359418851663 0 0 0 0 622.33759923282196 -737.64628064960107 0 -737.64628064960107 543.85149863468359 0 0 0 0 907.99558467122188 -39.217021663828348 0 -39.217021663828348 -282.8608488446007 0 0 0 0 474.8318286501526 -21.358989235445733 0 -21.358989235445733 -327.46305903602479 0 0 0 0 182.78225448824378 183.49820934992363 0 183.49820934992363 -132.59606955958316 0 0 0 0 88.968062751213438 -168.56392920670351 0 -168.56392920670351 97.032077640954412 0 0 0 0 195.15746658062562 -556.87234379750407 0 -556.87234379750407 954.88135427583711 0 0 0 0 14.776042927850256 -13.885874240247453 0 -13.885874240247453 13.303811766837208 0 0 0 0 -443.21934711490758 -762.2727525944465 0 -762.2727525944465 2259.1659689079042 0 0 0 0 955.53247659697081 57.181585961156657 0 57.181585961156657 -82.846218566391599 0 0 0 0 342.0466367577319 -1867.8872009407851 0 -1867.8872009407851 47.87195750805904 0 0 0 0 -842.98653661240678 -3058.939124682473 0 -3058.939124682473 1633.7195620193061 0 0 0 0 77.114951551309787 199.84660698112566 0 199.84660698112566 48.331647185258589 0 0 0 0 7.2322425292077241 59.692784190373459 0 59.692784190373459 189.7983379454754 0 0 0 0 86.272407160387957 93.527818697252769 0 93.527818697252769 122.3982463282855 0 0 0 0 1051.7029868406607 -572.6569872385262 0 -572.6569872385262 598.08953906918759 0 0 0 0 -1.4903618715126719 5.5171020422409782 0 5.5171020422409782 -18.796307434958326 0 0 0 0 403.2386713902888 118.67612974219946 0 118.67612974219946 79.760074542824441 0 0 0 0 351.09495039475587 17.655421771165038 0 17.655421771165038 -115.70014986223578 0 0 0 0 329.1852273249533 30.086708912895119 0 30.086708912895119 428.90269473275112 0 0 0 0 325.27320288488409 160.89899493891335 0 160.89899493891335 130.4358105557485 0 0 0 0 -75.609111487778137 167.91528110806303 0 167.91528110806303 -32.726361683055984 0 0 0 0 209.7267486287019 44.316882249365335 0 44.316882249365335 -5.9087000179606548 0 0 0 0 56.128607231223214 112.73752048093161 0 112.73752048093161 -27.25968339119936 0 0 0 0 0.14642923929100249 -1.001512624128793 0 -1.001512624128793 -0.87376379022418149 0 0 0 0 109.78803453878209 29.356389839113945 0 29.356389839113945 -0.86866404148076981 0 0 0 0 86.850804809175315 40.508374306858968 0 40.508374306858968 -3.0599432235599124 0 0 0 0 18.370714349271523 4.0571565246123811 0 4.0571565246123811 -5.6566814087967749 0 0 0 0 52.333472013706341 29.424036398144381 0 29.424036398144381 6.1603794615057268 0 0 0 0 14.242707485590259 7.7938030470260884 0 7.7938030470260884 -60.880070556710734 0 0 0 0 0.86545493648009142 34.002086360841531 0 34.002086360841531 -170.49918702795367 0 0 0 0 174.42436026781797 60.096780162568393 0 60.096780162568393 -85.350606916204015 0 0 0 0 73.240885872419312 -4.9057771626708515 0 -4.9057771626708515 -24.705099796561512 0 0 0 0 3.9665276520318002 -40.363810441321675 0 -40.363810441321675 11.918222038474596 0 0 0 0 15.22328133862483 7.8731081066842989 0 7.8731081066842989 -9.0428740423075205 0 0 0 0 20.790955453507138 -13.064240244309048 0 -13.064240244309048 -10.283814368441394 0 0 0 0 74.6661595126061 1.38583228251332 0 1.38583228251332 -6.0344605715790749 0 0 0 0 -20.545343853940722 -28.350990720125083 0 -28.350990720125083 9.8017170484781673 0 0 0 0 40.273498303553112 -8.5955570792239584 0 -8.5955570792239584 -34.48495297641378 0 0 0 0 77.921306006126542 15.9303122596923 0 15.9303122596923 -6.0709867131954525 0 0 0 0 64.176847028720658 9.5367069824863506 0 9.5367069824863506 -17.594966133076696 0 0 0 0 68.91903038455348 4.0345130199587516 0 4.0345130199587516 -16.309043702895565 0 0 0 0 47.15788020527765 -5.3314241315003557 0 -5.3314241315003557 -13.620152544880309 0 0 0 0 -35.227681978347618 -44.115595075166432 0 -44.115595075166432 150.06189777024201 0 0 0 0 664.13052929089463 -353.94301930148981 0 -353.94301930148981 -112.40422174723608 0 0 0 0 488.72798154287739 129.0761760203352 0 129.0761760203352 -74.077462804485037 0 0 0 0 -7.0847016054030973 -97.139417726220472 0 -97.139417726220472 -56.586133691222585 0 0 0 0 48.479566829667618 -38.908201862259887 0 -38.908201862259887 13.372567569955187 0 0 0 0 194.41102976026013 -77.02789287313044 0 -77.02789287313044 -336.95358886246868 0 0 0 0 -34.209784928642875 -96.608404151914613 0 -96.608404151914613 24.242935887345084 0 0 0 0 38.604109677980887 -17.014899681956422 0 -17.014899681956422 21.18350271911504 0 0 0 0 -15.662986887939041 -10.376679361368588 0 -10.376679361368588 69.436060669768722 0 0 0 0 250.13204247536487 -285.9664231247466 0 -285.9664231247466 256.5763107452151 0 0 0 0 101.31157943031576 31.365981110906432 0 31.365981110906432 33.571539653320997 0 0 0 0 92.438464806411503 -54.330661340651773 0 -54.330661340651773 -30.633738292310227 0 0 0 0 -2.7360673651564866 -9.185256954668148 0 -9.185256954668148 26.226781815318418 0 0 0 0 74.797639609198086 26.368463697302559 0 26.368463697302559 -21.782244168964098 0 0 0 0 -4.7814148540783208 12.860743100911264 0 12.860743100911264 -12.946192727909875 0 0 0 0 23.25753756875929 3.4043165550951926 0 3.4043165550951926 -23.700535898927228 0 0 0 0 25.815258176695806 6.6641832807171539 0 6.6641832807171539 -25.394106010207906 0 0 0 0 18.829210361058358 1.4924612557761066 0 1.4924612557761066 -21.947626882696113 0 0 0 0 -9.7082921485052793 -46.844492463279948 0 -46.844492463279948 -25.633916094373944 0 0 0 0 37.836940234090434 -14.973875904277975 0 -14.973875904277975 -25.715921951713426 0 0 0 0 62.684431445173686 9.822243506985501 0 9.822243506985501 -25.034454038676074 0 0 0 0 63.371865248904214 12.842348061079662 0 12.842348061079662 -14.362962994911541 0 0 0 0 2.7664102405974731 -12.812818329277832 0 -12.812818329277832 -9.3355704097158014 0 0 0 0 4.6594472504621081 -7.5796007121924731 0 -7.5796007121924731 -18.727463430050193 0 0 0 0 82.329414990585065 -9.2231258372082721 0 -9.2231258372082721 -10.551513121887183 0 0 0 0 59.314988890360837 18.295395699018492 0 18.295395699018492 -21.675048451286671 0 0 0 0 7.1221462475376995 7.1104598557301415 0 7.1104598557301415 -8.0647243101212283 0 0 0 0 -7.3656412458512932 -2.2971167502901153 0 -2.2971167502901153 14.229908450601897 0 0 0 0 11.011492849531351 -2.4469463829891538 0 -2.4469463829891538 -39.088155730428298 0 0 0 0 -8.5359337815607432 -27.635909378880569 0 -27.635909378880569 -22.79587930498451 0 0 0 0 25.513976588972582 12.399389405052901 0 12.399389405052901 -16.63871872157597 0 0 0 0 -0.50739356149210835 -1.2170366343207917 0 -1.2170366343207917 -1.9969185264001901 0 0 0 0 9.3940147082903422 -6.7040437608302454 0 -6.7040437608302454 -7.1729507204045149 0 0 0 0 4.7500125007209135 -10.75580812592824 0 -10.75580812592824 -10.663082981472911 0 0 0 0 21.01665083133414 -5.2729624352748488 0 -5.2729624352748488 -10.939771884423266 0 0 0 0 4.7181171710095668 -11.900820436173959 0 -11.900820436173959 -8.759467087829881 0 0 0 0 5.6844178139581345 -12.02838524888557 0 -12.02838524888557 -4.9899217843039878 0 0 0 0 16.443560637419409 -15.975616912907498 0 -15.975616912907498 -5.1919353866655999 0 0 0 0 8.3689425734345306 -8.3440754517147582 0 -8.3440754517147582 -15.909741549917172 0 0 0 0 16.975792553872452 6.9165955546568831 0 6.9165955546568831 4.4120549271441405 0 0 0 0 3.0046723823497814 -4.3168613635747306 0 -4.3168613635747306 -2.234023788589242 0 0 0 0 47.614488626393722 24.169045252432625 0 24.169045252432625 16.570376811500537 0 0 0 0 38.291447652096394 -57.622834077933931 0 -57.622834077933931 27.128983026927017 0 0 0 0 130.26658327548284 31.420802980654027 0 31.420802980654027 -18.153908294925259 0 0 0 0 45.253392197308131 37.577497124103274 0 37.577497124103274 -29.779742748703939 0 0 0 0 20.276372095826503 -11.148479445995392 0 -11.148479445995392 -0.13645840169423362 0 0 0 0 28.122384999894621 -12.173496010829933 0 -12.173496010829933 -1.8909207229057756 0 0 0 0 28.625756435998483 -41.488517940277688 0 -41.488517940277688 18.859049928782838 0 0 0 0 33.04874204465159 -10.656668673368586 0 -10.656668673368586 -6.2841313636517953 0 0 0 0 35.547758559845533 -10.208156550979794 0 -10.208156550979794 -2.5056859973110477 0 0 0 0 2.8473948050440185 -5.7403144670956863 0 -5.7403144670956863 -0.24778739093823354 0 0 0 0 27.709625957373646 -0.76636293632736852 0 -0.76636293632736852 0.48601116885544116 0 0 0 0 27.567400767862637 -10.42351345727694 0 -10.42351345727694 7.9551575346076788 0 0 0 0 27.255219619399213 -6.3740417587783682 0 -6.3740417587783682 -5.933997017988986 0 0 0 0 41.404733655057498 -6.8695331774853088 0 -6.8695331774853088 -0.51192014005540543 0 0 0 0 15.594820497910575 1.9570581165943679 0 1.9570581165943679 -5.947237782403584 0 0 0 0 16.760253707472174 -6.2393941093457386 0 -6.2393941093457386 -2.6294859117792577 0 0 0 0 17.767647057132535 -5.8697792553113466 0 -5.8697792553113466 -0.52629854892392036 0 0 0 0 24.710930569432094 -3.3480649826817626 0 -3.3480649826817626 -3.8600832402523793 0 0 0 0 26.096689442449133 0.82572365907049061 0 0.82572365907049061 -9.8155673575992637 0 0 0 0 4.1089801124620919 -1.0040296735026004 0 -1.0040296735026004 -1.9140427514992515 0 0 0 0 27.136767538366257 -14.874977577881282 0 -14.874977577881282 -3.7817113463822238 0 0 0 0 22.262352454240045 -6.0283644398688274 0 -6.0283644398688274 -4.1221089978516687 0 0 0 0 37.305075707990909 -14.171538163368723 0 -14.171538163368723 1.4911251091411941 0 0 0 0 51.487926046625944 2.0073082826019117 0 2.0073082826019117 -3.3518829531758456 0 0 0 0 -0.11899252549801531 0.036586230474739523 0 0.036586230474739523 -0.027434068188771477 0 0 0 0 -113.86176689359127 -98.288206135348901 0 -98.288206135348901 35.528127138141372 0 0 0 0 211.4437206240475 54.776395490611385 0 54.776395490611385 40.852909271363387 0 0 0 0 210.91140663827537 81.138561021776468 0 81.138561021776468 -8.5275190807603849 0 0 0 0 4.5308028248628602 -0.50493005141683511 0 -0.50493005141683511 1.2353110526859079 0 0 0 0 229.5676567085975 138.64759014475032 0 138.64759014475032 55.240221581431342 0 0 0 0 393.30136289118673 -287.20293747359983 0 -287.20293747359983 233.01510627243169 0 0 0 0 744.30479070125511 -146.6969400010023 0 -146.6969400010023 -3.6121564179211418 0 0 0 0 663.48674477757595 65.381711232017096 0 65.381711232017096 -67.496878529792866 0 0 0 0 677.43107413580583 -157.09338184661021 0 -157.09338184661021 68.274140904117701 0 0 0 0 3.3544484315383443 0.19554784074894371 0 0.19554784074894371 0.13585143365270624 0 0 0 0 390.3265978762247 -381.12246823888313 0 -381.12246823888313 123.42807032153087 0 0 0 0 635.1892050131064 -124.28459196652619 0 -124.28459196652619 258.68676002000575 0 0 0 0 706.96909015781421 -94.207797648828205 0 -94.207797648828205 226.71621170073695 0 0 0 0 687.51770102248702 -171.48219067503555 0 -171.48219067503555 59.688495130055571 0 0 0 0 297.26812435087049 182.00074580025591 0 182.00074580025591 63.489420108374674 0 0 0 0 520.27442537384195 -40.627090477918273 0 -40.627090477918273 46.343793095799128 0 0 0 0 963.10619544821384 -300.85712397830298 0 -300.85712397830298 14.733914814280297 0 0 0 0 0.71554578566130544 -1.359490264781158 0 -1.359490264781158 3.8287119565065701 0 0 0 0 -94.359768843234633 -33.225655422621003 0 -33.225655422621003 105.99248112135865 0 0 0 0 4.1381261502710629 -4.5145434797393307 0 -4.5145434797393307 8.4445276187953802 0 0 0 0 154.72276031021465 -211.12632664584044 0 -211.12632664584044 222.36707223568374 0 0 0 0 521.31892493493797 -83.953598283148494 0 -83.953598283148494 -38.975179645701587 0 0 0 0 750.19562936944567 -214.14219864011238 0 -214.14219864011238 -2.4420279808655323 0 0 0 0 2277.0868059017594 51.484460697320159 0 51.484460697320159 -18.009983568314141 0 0 0 0 3493.0603412993369 -281.93781106190272 0 -281.93781106190272 -337.8438765113325 0 0 0 0 2691.1211960061701 140.32713398509088 0 140.32713398509088 -145.59874298425433 0 0 0 0 2840.7197604305111 295.23238514721993 0 295.23238514721993 -213.05113626455864 0 0 0 0 2521.1774146775533 545.54608855882339 0 545.54608855882339 -54.300854096543446 0 0 0 0 2461.9668191123637 491.41125106289849 0 491.41125106289849 167.8574721748592 0 0 0 0 2289.3692348921031 370.83756595005866 0 370.83756595005866 102.86671861201309 0 0 0 0 2324.9894789039245 361.49811764476203 0 361.49811764476203 433.69461686606792 0 0 0 0 2277.7591913125652 628.34907028785869 0 628.34907028785869 381.6344532771605 0 0 0 0 2480.1137338786793 543.65545221496473 0 543.65545221496473 104.63099013843134 0 0 0 0 2449.3797351235553 164.38308335555598 0 164.38308335555598 1180.4931432579283 0 0 0 0 2419.1468009259697 331.89151756741131 0 331.89151756741131 294.62092737750976 0 0 0 0 2486.4002228595418 244.80419432311305 0 244.80419432311305 -183.81050749821964 0 0 0 0 2553.4316396346694 34.792036833555869 0 34.792036833555869 363.04540816595875 0 0 0 0 2712.5937923151869 108.75261905461369 0 108.75261905461369 -195.87228201816765 0 0 0 0 2245.2601913305698 391.25121898025094 0 391.25121898025094 99.148090559790944 0 0 0 0 2316.095719529374 426.76109554241162 0 426.76109554241162 200.62180692765824 0 0 0 0 2427.4464059217134 223.79664960002793 0 223.79664960002793 104.50137005463316 0 0 0 0 2386.6669760927398 344.75352083177302 0 344.75352083177302 -253.20475718452377 0 0 0 0 2359.4419035444444 235.18346333022899 0 235.18346333022899 -241.19819183511095 0 0 0 0 2523.8708465587551 352.93570708822432 0 352.93570708822432 -484.80921039932946 0 0 0 0 2722.8976843353739 116.51446599064207 0 116.51446599064207 -216.18940240872539 0 0 0 0 2707.822579300002 68.623185461881008 0 68.623185461881008 -367.99929557285895 0 0 0 0 2848.0610956213823 -106.1240305987626 0 -106.1240305987626 -410.00507652694 0 0 0 0 2462.9666240117513 22.171255294235834 0 22.171255294235834 -370.84951924746042 0 0 0 0 2348.4175140296938 598.40298396037269 0 598.40298396037269 -249.01786203039546 0 0 0 0 3104.028708803351 298.00668169634764 0 298.00668169634764 -534.85296842583921 0 0 0 0 3497.3491130492876 1706.1319745420717 0 1706.1319745420717 183.43470051797624 0 0 0 0 2155.6219803247077 281.72058423440319 0 281.72058423440319 -494.05743567166661 0 0 0 0 1310.1169816892434 291.55395144643785 0 291.55395144643785 61.744988124825227 0 0 0 0 2057.9791466895149 644.71175905255654 0 644.71175905255654 -377.30566675150703 0 0 0 0 11.186002765481874 -3.1665789173501651 0 -3.1665789173501651 -1.2671748924740922 0 0 0 0 1348.6779359830689 -1290.4628547611028 0 -1290.4628547611028 -442.06460814924594 0 0 0 0 2788.719827527555 681.95123330151898 0 681.95123330151898 -574.74635769710005 0 0 0 0 19.869217436201637 -7.4131679664857728 0 -7.4131679664857728 -3.5121237648745707 0 0 0 0 1123.4150172390837 -1039.6642235589134 0 -1039.6642235589134 -898.03389914305387 0 0 0 0 1779.2331323442959 329.60172000428184 0 329.60172000428184 -636.39924378031742 0 0 0 0 2332.6646918651568 -634.56449027150757 0 -634.56449027150757 -923.80037663638609 0 0 0 0 2791.4447483238764 734.28166332946068 0 734.28166332946068 -652.53993477135771 0 0 0 0 3499.0793410839105 298.97439979016576 0 298.97439979016576 -385.47780478547674 0 0 0 0 2650.1899879489647 7.4398971559064933 0 7.4398971559064933 -55.543957784097103 0 0 0 0 3344.7544364031346 220.64332467536093 0 220.64332467536093 1.1397427445924677 0 0 0 0 4436.7826813420616 56.602770271455427 0 56.602770271455427 -425.4732462332492 0 0 0 0 3786.6910215522512 246.50671653694383 0 246.50671653694383 -390.70557210615601 0 0 0 0 3704.8386809335207 6.7609315350781571 0 6.7609315350781571 -313.60992416400018 0 0 0 0 3257.0119931851841 -245.96239278654019 0 -245.96239278654019 -22.877020771561547 0 0 0 0 11.490355056536146 -3.3078598261838437 0 -3.3078598261838437 -2.4972844875253015 0 0 0 0 4644.5519590666954 1666.6816512079604 0 1666.6816512079604 245.79241312418458 0 0 0 0 3937.8827810557559 -297.10756250882241 0 -297.10756250882241 -524.20058909851673 0 0 0 0 3183.5628151321798 206.66613715299394 0 206.66613715299394 -288.93155749477523 0 0 0 0 2435.5136783508788 -439.51722368472679 0 -439.51722368472679 -191.88437451933484 0 0 0 0 2260.8229285702037 -64.203047819893982 0 -64.203047819893982 -283.56261325807918 0 0 0 0 1013.904780159879 -348.13530309627436 0 -348.13530309627436 87.533484183790961 0 0 0 0 1711.5681823268533 -415.95740516141097 0 -415.95740516141097 -67.580032841143748 0 0 0 0 805.24513817584375 -502.3612449535791 0 -502.3612449535791 -32.482384026501677 0 0 0 0 1164.9563773822083 -163.1255200264693 0 -163.1255200264693 83.821065721808736 0 0 0 0 3174.3666924917743 -69.983939837948469 0 -69.983939837948469 -269.12890019732913 0 0 0 0 2360.6540002431575 -784.9430720413834 0 -784.9430720413834 -56.980886788730231 0 0 0 0 1007.0669022991642 -559.42948281995609 0 -559.42948281995609 222.91077225381662 0 0 0 0 27.360404151346302 17.658922334920938 0 17.658922334920938 -4.8699506015791236 0 0 0 0 30.85343176625662 11.879926833925552 0 11.879926833925552 1.5989601727028533 0 0 0 0 1126.9661518345565 -7.8293539841158548 0 -7.8293539841158548 -169.27085192630352 0 0 0 0 20.835143220512691 10.456737691184294 0 10.456737691184294 -3.0573226877152706 0 0 0 0 4035.2099559898652 -1787.2014063785643 0 -1787.2014063785643 550.53572191415742 0 0 0 0 16.569117217896007 2.6316304686733645 0 2.6316304686733645 -0.17398204862452554 0 0 0 0 19.521128682405106 12.573735654331507 0 12.573735654331507 -0.017695156886223015 0 0 0 0 36.212780372276029 14.465357548174872 0 14.465357548174872 0.021195164390646341 0 0 0 0 31.650767990860913 11.290690845692799 0 11.290690845692799 0.38480541240204147 0 0 0 0 26.715020126313902 14.762593621422894 0 14.762593621422894 -0.0020856073026891304 0 0 0 0 27.170131823671909 17.057924489604595 0 17.057924489604595 3.8172444343997434 0 0 0 0 33.742922928269024 15.406220025309651 0 15.406220025309651 3.9529404688046696 0 0 0 0 31.49033317923022 22.174881175553125 0 22.174881175553125 -2.9178039872166082 0 0 0 0 46.692754483654426 295.44412050829044 0 295.44412050829044 -76.612663948326826 0 0 0 0 811.88110183524259 76.201289164538935 0 76.201289164538935 50.624380168819926 0 0 0 0 285.11183314415393 -154.66151282091778 0 -154.66151282091778 31.52552982344082 0 0 0 0 -156.32015956484247 47.444289074213259 0 47.444289074213259 259.96513837508746 0 0 0 0 142.00723983885837 -60.064237779326135 0 -60.064237779326135 73.101982115925239 0 0 0 0 -37.621685164340306 -127.7121879390662 0 -127.7121879390662 101.09256850812983 0 0 0 0 -48.505452597892145 -18.710848607888124 0 -18.710848607888124 145.82037442167183 0 0 0 0 421.43780871735362 109.40130743233006 0 109.40130743233006 75.846722902368668 0 0 0 0 332.07865051034605 235.46415199379481 0 235.46415199379481 227.25969738652665 0 0 0 0 95.116615938430186 -79.205656534109494 0 -79.205656534109494 150.35426625880007 0 0 0 0 467.67552034318214 73.246225630482968 0 73.246225630482968 130.82491668176186 0 0 0 0 453.96316866926281 150.05760698468072 0 150.05760698468072 182.59253936853565 0 0 0 0 187.87562182865804 70.378706352835366 0 70.378706352835366 288.16276642583853 0 0 0 0 533.45975424490462 -94.592450607556543 0 -94.592450607556543 124.93266690836663 0 0 0 0 1213.121066558946 277.40220811156496 0 277.40220811156496 -11.93639775069505 0 0 0 0 1180.5684915179445 53.814311962216493 0 53.814311962216493 54.325868117830851 0 0 0 0 1652.4324620424813 2.3960802987706984 0 2.3960802987706984 -102.98788134686652 0 0 0 0 2410.0237461093202 191.8861299851599 0 191.8861299851599 -353.23904949690086 0 0 0 0 1911.0958037275268 -114.9031538836158 0 -114.9031538836158 -131.66729036665828 0 0 0 0 2509.7015364503168 88.530087704773109 0 88.530087704773109 -341.87333205461647 0 0 0 0 1978.9552174329583 474.74024687259549 0 474.74024687259549 -208.9477496872928 0 0 0 0 2508.1232636870991 120.71596400893094 0 120.71596400893094 -188.80467940422307 0 0 0 0 1765.529278157861 156.01209870370735 0 156.01209870370735 -30.316461812100542 0 0 0 0 1045.4056423832662 363.20311219570647 0 363.20311219570647 82.789203353634605 0 0 0 0 1024.7429709394637 499.86621388970457 0 499.86621388970457 100.40589533871753 0 0 0 0 985.94047565758228 184.65599528252017 0 184.65599528252017 98.182561568947904 0 0 0 0 1302.2766844945581 204.11657700540547 0 204.11657700540547 -667.41842475058047 0 0 0 0 717.48910206049004 167.22933439908098 0 167.22933439908098 29.511703143626931 0 0 0 0 829.13894054330012 512.451835622884 0 512.451835622884 141.74940529456364 0 0 0 0 811.19706167592267 738.41476708511379 0 738.41476708511379 314.85660705505245 0 0 0 0 1928.385326173433 874.18976884921267 0 874.18976884921267 70.678466587677804 0 0 0 0 -1042.9060482269269 775.75428844858652 0 775.75428844858652 1298.6614846407288 0 0 0 0 2696.9988267085428 1054.9666599341451 0 1054.9666599341451 183.98560676139061 0 0 0 0 113.78046538936906 452.90496828029228 0 452.90496828029228 -86.471015382591958 0 0 0 0 2748.0838068498706 -118.86112084151699 0 -118.86112084151699 353.50876600812353 0 0 0 0 2876.9394636899233 510.54218783139726 0 510.54218783139726 -231.12147024461666 0 0 0 0 2324.9171987956506 298.92968221683907 0 298.92968221683907 -149.95217364744082 0 0 0 0 3452.7591670530383 -114.63704954518107 0 -114.63704954518107 257.70060086747094 0 0 0 0 2840.3251071934064 111.71308203179194 0 111.71308203179194 349.121726348653 0 0 0 0 2906.1791984541924 -331.80530872461009 0 -331.80530872461009 1733.1299299545681 0 0 0 0 2891.8183556364675 462.56624808117425 0 462.56624808117425 503.84663875973348 0 0 0 0 3248.4582009958976 1131.1301267584411 0 1131.1301267584411 1747.2917024833978 0 0 0 0 5240.6982194927259 -116.28807091277667 0 -116.28807091277667 -8.640349097901094 0 0 0 0 2263.8727962737175 -2251.5706711951925 0 -2251.5706711951925 1147.3541450383882 0 0 0 0 9.9939849970973 0.44460539671641541 0 0.44460539671641541 -0.77263483912449926 0 0 0 0 3001.9409051336697 -27.420010643972802 0 -27.420010643972802 -36.472474897759668 0 0 0 0 2237.7158579459883 -255.06043917317339 0 -255.06043917317339 158.62640821780406 0 0 0 0 2384.6853663304355 557.365873517262 0 557.365873517262 549.68439913833981 0 0 0 0 13.893917299831969 5.3537155104607903 0 5.3537155104607903 -0.19332037830238852 0 0 0 0 22.541550416935934 12.047421160640624 0 12.047421160640624 -27.103137865366591 0 0 0 0 522.49477173764899 37.614878939211621 0 37.614878939211621 37.180348558358446 0 0 0 0 17.437625923437679 -1.0172311843690949 0 -1.0172311843690949 -1.7475496746201844 0 0 0 0 -38.747689262439962 -850.62671841357781 0 -850.62671841357781 1236.8234833866634 0 0 0 0 216.34481902856351 134.15746116602193 0 134.15746116602193 585.07803916095759 0 0 0 0 858.58286590687931 -470.49212222560084 0 -470.49212222560084 431.76701946067237 0 0 0 0 1059.6736539235862 -359.58279711246564 0 -359.58279711246564 361.82734785007858 0 0 0 0 2188.0103013041917 -969.22742340222101 0 -969.22742340222101 418.697783342202 0 0 0 0 442.9438887173892 -174.48828502505501 0 -174.48828502505501 349.15723652460912 0 0 0 0 -185.01100223358662 -20.960892836379976 0 -20.960892836379976 310.11192503692132 0 0 0 0 260.81980896377354 -361.54526376644486 0 -361.54526376644486 170.99361795818973 0 0 0 0 9.9551675265538506 -2.6961146542581531 0 -2.6961146542581531 -14.377158357982239 0 0 0 0 21.293205139794821 2.6335724363636714 0 2.6335724363636714 -0.63915511309726247 0 0 0 0 21.635883242997807 6.2714858450129896 0 6.2714858450129896 -16.94507226496853 0 0 0 0 17.094618605915457 4.6012244493682601 0 4.6012244493682601 -9.66871107620468 0 0 0 0 24.409851667522446 2.0641633921004097 0 2.0641633921004097 -0.2977751661743715 0 0 0 0 -6.7827377346693538 24.191347023703088 0 24.191347023703088 14.382854305740068 0 0 0 0 24.158044533258362 9.3176421451716109 0 9.3176421451716109 -13.6986077769443 0 0 0 0 124.66624455770943 -143.12542667844096 0 -143.12542667844096 -460.0288233820275 0 0 0 0 41.691838539147284 -34.688014485727535 0 -34.688014485727535 115.3428032520244 0 0 0 0 60.891776451981059 -131.63854053807643 0 -131.63854053807643 -69.907738380948146 0 0 0 0 -27.784623195664608 7.1116213216675277 0 7.1116213216675277 -134.24554678248825 0 0 0 0 114.44057865487412 -106.68251178211773 0 -106.68251178211773 -146.89138737432165 0 0 0 0 -31.659865751280449 96.844749559821878 0 96.844749559821878 183.3327451278488 0 0 0 0 -246.41265082870086 -109.21124079624074 0 -109.21124079624074 56.875530076587097 0 0 0 0 -77.057077437231783 -282.20908913653727 0 -282.20908913653727 -172.6874721223509 0 0 0 0 7.9195963161910186 -48.909991507555915 0 -48.909991507555915 20.349025338814528 0 0 0 0 34.081561993487412 -16.381114714030787 0 -16.381114714030787 -29.969077199602395 0 0 0 0 13.77804396165223 -2.1989374409505729 0 -2.1989374409505729 -0.18758542684770457 0 0 0 0 -14.928853292411077 -57.254836926212761 0 -57.254836926212761 12.977688747672801 0 0 0 0 13.141036542263464 -58.036970391804431 0 -58.036970391804431 -84.938825925200774 0 0 0 0 -16.560945746125071 -66.100400839781116 0 -66.100400839781116 -32.107853118437703 0 0 0 0 -28.130296973191975 -78.277620266859415 0 -78.277620266859415 -37.726054414525578 0 0 0 0 29.528033787733875 -0.44600953941420585 0 -0.44600953941420585 -4.928302702046949 0 0 0 0 31.152382986775137 -0.75336459807800704 0 -0.75336459807800704 -0.6920322343073434 0 0 0 0 28.678968615618942 -2.1590125364611126 0 -2.1590125364611126 -7.2424372591910355 0 0 0 0 40.306896431469795 -33.951261171892043 0 -33.951261171892043 7.9846900808940973 0 0 0 0 31.276484200439882 0.87215031075928096 0 0.87215031075928096 -6.7188983327554368 0 0 0 0 21.631228157794368 -7.4433335612298066 0 -7.4433335612298066 -4.0220266359480217 0 0 0 0 93.641387083393056 -19.511511271690267 0 -19.511511271690267 -26.07073867160517 0 0 0 0 170.40947396273259 28.950685629152304 0 28.950685629152304 -44.552079095397517 0 0 0 0 47.967556217969388 1.8158627366042517 0 1.8158627366042517 -0.9955748201997191 0 0 0 0 66.230947725198348 1.7221503938616252 0 1.7221503938616252 -41.388817177600458 0 0 0 0 49.445481980568729 -12.709248662281595 0 -12.709248662281595 -40.574413437797503 0 0 0 0 43.305767538487714 2.3390147624633517 0 2.3390147624633517 -1.9856337418779795 0 0 0 0 56.223429718411353 19.381995296624268 0 19.381995296624268 -18.799900879537844 0 0 0 0 44.080058361203555 -8.2831767528164377 0 -8.2831767528164377 25.916234264780314 0 0 0 0 14.954723983450094 -27.496029668620338 0 -27.496029668620338 -12.321043773675228 0 0 0 0 43.85124539869139 3.5783506557199303 0 3.5783506557199303 11.088716295186146 0 0 0 0 53.609328892751364 33.562151936408725 0 33.562151936408725 17.247795115604617 0 0 0 0 106.08959028961544 25.528944939962404 0 25.528944939962404 -25.228402020520363 0 0 0 0 9.7196662589417002 1.4890689659327734 0 1.4890689659327734 0.54119139155395612 0 0 0 0 -36.432165529782651 33.954454392727641 0 33.954454392727641 36.640824950206934 0 0 0 0 13.293766182020633 -3.6361639071384673 0 -3.6361639071384673 2.8545969700692266 0 0 0 0 54.560530852031661 4.1862246063360828 0 4.1862246063360828 10.729354656368457 0 0 0 0 36.22787474769089 10.985265673861804 0 10.985265673861804 0.42719709004654954 0 0 0 0 73.322291738324566 11.449548197253534 0 11.449548197253534 2.9512786809010549 0 0 0 0 27.049216383747989 34.484948111172685 0 34.484948111172685 5.2367382577893693 0 0 0 0 33.934505132351376 12.37006089102951 0 12.37006089102951 1.9200393315056277 0 0 0 0 74.578216306734248 7.1893300443708767 0 7.1893300443708767 7.4797747706306836 0 0 0 0 90.828230134720798 2.6561063226981858 0 2.6561063226981858 -13.399169030333582 0 0 0 0 9.3985062082431341 0.38279385608851157 0 0.38279385608851157 1.8592143275726685 0 0 0 0 45.640412659769936 2.8576781185521725 0 2.8576781185521725 6.6958924627027017 0 0 0 0 8.7008983877536394 1.6047324296999363 0 1.6047324296999363 0.054896468051097935 0 0 0 0 37.653498676147137 3.8491394776165748 0 3.8491394776165748 1.0130969774418759 0 0 0 0 42.159797823667759 10.965526675067309 0 10.965526675067309 -3.8317944909054802 0 0 0 0 28.575957513648433 11.927162777321826 0 11.927162777321826 3.8485770166829862 0 0 0 0 -62.775335044556414 53.392704098738136 0 53.392704098738136 -3.161228771756214 0 0 0 0 1.27904853522341 1.0884931962327471 0 1.0884931962327471 13.424059122093695 0 0 0 0 -39.70346682309173 -23.130896855647762 0 -23.130896855647762 29.309505270877025 0 0 0 0 -51.303121865144931 -39.117882122446076 0 -39.117882122446076 62.797108901013644 0 0 0 0 -75.416649699865957 29.011706873777712 0 29.011706873777712 114.29577426456751 0 0 0 0 36.40749682841124 22.043057979244949 0 22.043057979244949 -1.9674271956123057 0 0 0 0 -94.185180924530869 171.46981983032663 0 171.46981983032663 -90.824719688710047 0 0 0 0 31.320613563104359 15.016199400142753 0 15.016199400142753 4.5113769476926926 0 0 0 0 42.626863345099991 3.7471088519170017 0 3.7471088519170017 8.8542258985655451 0 0 0 0 47.904066973322188 7.8296591515079541 0 7.8296591515079541 -3.7074783832881621 0 0 0 0 31.862643952272265 11.986881653506114 0 11.986881653506114 8.9415885789392959 0 0 0 0 53.725986940989969 13.379645186437273 0 13.379645186437273 3.6786028196395693 0 0 0 0 51.555917861438502 -3.4693793307804555 0 -3.4693793307804555 22.588486513593232 0 0 0 0 60.73827722909482 8.8350369294921158 0 8.8350369294921158 -0.047177400105790163 0 0 0 0 46.148718402095255 3.8680570741866656 0 3.8680570741866656 7.7218391162066551 0 0 0 0 163.97274410411046 -57.146780784777917 0 -57.146780784777917 5.6368474463412097 0 0 0 0 106.24168990874023 4.3114474330706951 0 4.3114474330706951 0.21596616101916727 0 0 0 0 90.073647253506351 -11.335941184949579 0 -11.335941184949579 6.4911203289209274 0 0 0 0 138.30532442721596 -56.084319873421983 0 -56.084319873421983 7.7337584842676739 0 0 0 0 66.250794624512309 -28.957514578519927 0 -28.957514578519927 47.689308158712144 0 0 0 0 71.43255324720667 1.1339701743289012 0 1.1339701743289012 3.1475344076800127 0 0 0 0 54.590720599007909 12.04933712423928 0 12.04933712423928 12.566215733358796 0 0 0 0 47.859553945569644 -2.7698244662132256 0 -2.7698244662132256 5.2237004299392709 0 0 0 0 0.023023859786917455 5.6355916877139114 0 5.6355916877139114 30.190827293538504 0 0 0 0 -0.73429906821189661 -0.63959132262999674 0 -0.63959132262999674 0.95284235417583552 0 0 0 0 181.95514339137299 37.49617658725218 0 37.49617658725218 0.54846807953447296 0 0 0 0 69.321877508840771 -17.560622384682322 0 -17.560622384682322 23.588582169020526 0 0 0 0 123.51783254777547 -63.221282971096933 0 -63.221282971096933 62.049485321056807 0 0 0 0 41.579498096936732 -24.297646656345336 0 -24.297646656345336 101.6300957472782 0 0 0 0 119.88719536046847 -76.964984612621336 0 -76.964984612621336 15.519274917088058 0 0 0 0 50.864589501383307 40.842857590847487 0 40.842857590847487 18.891469775570677 0 0 0 0 24.943655462324386 17.230036320024702 0 17.230036320024702 72.08156049625407 0 0 0 0 26.564377384969703 -35.77201515293153 0 -35.77201515293153 27.238976182683022 0 0 0 0 0.63434717779068706 0.053530287279372146 0 0.053530287279372146 -0.0049344734238332324 0 0 0 0 149.70931751224271 -78.009778828900011 0 -78.009778828900011 13.967977886534765 0 0 0 0 15.819652427453548 0.16335503613807389 0 0.16335503613807389 0.035425053404720339 0 0 0 0 114.69793107833539 -20.828539153459435 0 -20.828539153459435 2.1063398008142968 0 0 0 0 114.94291722074558 -20.970769718378342 0 -20.970769718378342 -0.018693043043636913 0 0 0 0 114.35810832076822 -19.749294604719264 0 -19.749294604719264 -0.00025125000918771771 0 0 0 0 0.53140151456574358 0.11595998414199471 0 0.11595998414199471 0.05501466917959015 0 0 0 0 121.77620485925581 -58.328442163016945 0 -58.328442163016945 31.757108746938609 0 0 0 0 150.70130498407525 -16.5518173980232 0 -16.5518173980232 0.77844274022941562 0 0 0 0 111.70100591355003 -29.13756805245923 0 -29.13756805245923 57.405265446099293 0 0 0 0 117.80125649324327 -42.067709069774487 0 -42.067709069774487 28.210419313177738 0 0 0 0 78.614148558743182 -7.7556834006865643 0 -7.7556834006865643 26.961964934432963 0 0 0 0 52.996118133854907 -71.102898007093103 0 -71.102898007093103 56.790158937859132 0 0 0 0 105.24476449060603 -59.65236818529803 0 -59.65236818529803 38.866304249864484 0 0 0 0 108.3951389353897 -64.08580752541863 0 -64.08580752541863 10.3774048290107 0 0 0 0 61.902298583896481 -39.808659403418773 0 -39.808659403418773 160.48153058065074 0 0 0 0 68.723777532130043 -32.458119260109896 0 -32.458119260109896 30.780810714016411 0 0 0 0 76.720654135380755 -7.3301982798170684 0 -7.3301982798170684 15.980386070378017 0 0 0 0 61.708191123208962 36.811147130159611 0 36.811147130159611 22.67345522112177 0 0 0 0 34.838331782288151 0.5671633313435791 0 0.5671633313435791 74.363051675709016 0 0 0 0 10.346077406953555 27.908100093013189 0 27.908100093013189 28.981645117121133 0 0 0 0 15.922584520095171 4.8063305179692009 0 4.8063305179692009 -1.6459862357282213 0 0 0 0 11.102565352601232 31.471865642882392 0 31.471865642882392 10.674233529487381 0 0 0 0 39.450584974722005 6.4646877540778291 0 6.4646877540778291 2.5815334446892848 0 0 0 0 14.756278300337726 16.915507227847655 0 16.915507227847655 18.712286100137192 0 0 0 0 47.777011488826247 -26.26061686471445 0 -26.26061686471445 55.424159761151145 0 0 0 0 58.126996337712626 -30.904935357600948 0 -30.904935357600948 -7.4481195157895854 0 0 0 0 127.26072209981794 -16.292777374050104 0 -16.292777374050104 4.34432140105082 0 0 0 0 2.1679800800726809 -0.70720153683123499 0 -0.70720153683123499 -0.023739062250520915 0 0 0 0 11.601383522327524 -4.0431996888790422 0 -4.0431996888790422 5.318078327418732 0 0 0 0 -2.6489188816922251 4.6352533215305129 0 4.6352533215305129 23.089124364081492 0 0 0 0 2.9741716070932966 0.069368474528005208 0 0.069368474528005208 -0.89776850176660328 0 0 0 0 106.46416215796489 17.421675494839178 0 17.421675494839178 -0.92234244440032853 0 0 0 0 128.8479149992927 -2.1424072986486067 0 -2.1424072986486067 -9.5290546631325697 0 0 0 0 73.401523599924985 3.6140635800198311 0 3.6140635800198311 13.370542176180834 0 0 0 0 70.276255037402734 8.9723352341426335 0 8.9723352341426335 11.178770449212664 0 0 0 0 105.79877916222176 -26.400981101527805 0 -26.400981101527805 18.825904773620323 0 0 0 0 127.21692133767647 -0.39563683041416198 0 -0.39563683041416198 -7.3519579488456657 0 0 0 0 155.13584856229136 -37.846209832003581 0 -37.846209832003581 4.5836678312166441 0 0 0 0 93.389670582051622 14.114362325782338 0 14.114362325782338 23.000877697856822 0 0 0 0 69.549427332880441 -12.154032286769336 0 -12.154032286769336 -5.8656129080616211 0 0 0 0 22.805204793570738 -5.0199925406271433 0 -5.0199925406271433 1.7709697504329824 0 0 0 0 19.637524963651003 -5.2902543862942082 0 -5.2902543862942082 1.194315942821397 0 0 0 0 -8.5182446231337963 -13.828382749165627 0 -13.828382749165627 -14.652511439514114 0 0 0 0 56.784388538450003 -23.227700988130096 0 -23.227700988130096 3.7132320603714959 0 0 0 0 88.59997993199795 36.253109128394669 0 36.253109128394669 8.1166498319669245 0 0 0 0 10.906941040438824 -7.1523689577100527 0 -7.1523689577100527 -3.2059501750611954 0 0 0 0 27.894838196005139 4.3328007600721747 0 4.3328007600721747 -4.6488505140968108 0 0 0 0 53.186262416493264 -4.6044325572501066 0 -4.6044325572501066 10.900453308074702 0 0 0 0 44.541528320092766 -12.1078327714539 0 -12.1078327714539 28.445127574864273 0 0 0 0 33.963600656623726 -16.515897479637545 0 -16.515897479637545 8.8020047901171203 0 0 0 0 49.855592242180137 -22.539877589581465 0 -22.539877589581465 33.059120722011357 0 0 0 0 55.836161892060773 -16.856053392024478 0 -16.856053392024478 17.268375652751274 0 0 0 0 44.283983550332266 8.6412134726162861 0 8.6412134726162861 -1.2962762513636519 0 0 0 0 94.261677437199978 16.451229912195913 0 16.451229912195913 -19.833334905372965 0 0 0 0 76.873483771254541 -16.155543902513614 0 -16.155543902513614 -0.56902800904916262 0 0 0 0 40.433844696119195 0.18935324380829854 0 0.18935324380829854 -3.0319193141126703 0 0 0 0 52.625484696429339 -11.32047874632768 0 -11.32047874632768 -14.674781948891905 0 0 0 0 46.176741272734944 4.3761055173462324 0 4.3761055173462324 -14.017502086970419 0 0 0 0 46.483125965140061 -14.880562690455633 0 -14.880562690455633 2.8781269076729359 0 0 0 0 38.64118072273547 -4.2348885088002675 0 -4.2348885088002675 -8.5830588838339228 0 0 0 0 24.35442460316699 -42.000167502666955 0 -42.000167502666955 -4.6333992869685972 0 0 0 0 0.56767141072066352 -5.9560495353730261 0 -5.9560495353730261 -2.4377763663604983 0 0 0 0 77.820819223779836 54.296133495085996 0 54.296133495085996 49.324109485975129 0 0 0 0 57.011905702296644 -25.073980810279409 0 -25.073980810279409 30.479022135644755 0 0 0 0 65.132514401793742 48.551827368254806 0 48.551827368254806 16.243662136217154 0 0 0 0 29.612085152252916 13.642575020556748 0 13.642575020556748 9.8031324306542107 0 0 0 0 64.84303926708526 -1.3377312472193807 0 -1.3377312472193807 -16.86551810516039 0 0 0 0 100.49729166642646 25.648570175648047 0 25.648570175648047 -18.975485171961736 0 0 0 0 101.65677967687589 -73.988872538305003 0 -73.988872538305003 90.718398478491565 0 0 0 0 78.322319005616009 -72.05750160437492 0 -72.05750160437492 120.88525885895066 0 0 0 0 62.131930158906471 -28.475369120413006 0 -28.475369120413006 79.892990571311202 0 0 0 0 63.556072691542795 -19.044365562498569 0 -19.044365562498569 34.365787308998733 0 0 0 0 99.303121120581636 -44.568294760815434 0 -44.568294760815434 34.47396366451585 0 0 0 0 75.672014448151458 -19.415411429762116 0 -19.415411429762116 9.3806336021925745 0 0 0 0 66.399111946753692 -28.336368634978498 0 -28.336368634978498 23.988570224459181 0 0 0 0 -0.16644798182971954 3.4080599011215913 0 3.4080599011215913 -0.2441848365027669 0 0 0 0 98.986163502151612 -55.481561677005629 0 -55.481561677005629 -16.57537773342861 0 0 0 0 4.245698940626113 -0.42038493601575055 0 -0.42038493601575055 -0.75102822005205416 0 0 0 0 75.451706128165824 -13.610808974761312 0 -13.610808974761312 -33.812497448109525 0 0 0 0 31.060211183630145 0.81376760327324682 0 0.81376760327324682 -1.695379994155179 0 0 0 0 58.292155866016401 -12.590244819043221 0 -12.590244819043221 -11.635875729535314 0 0 0 0 28.761142011880082 2.36943772609105 0 2.36943772609105 -2.3404907568824402 0 0 0 0 81.838510073634097 21.163274459676813 0 21.163274459676813 -67.566681897560215 0 0 0 0 60.32027627772186 -14.301674245368304 0 -14.301674245368304 4.4673238713635328 0 0 0 0 21.820900922405542 9.0660388630836071 0 9.0660388630836071 -1.6741283607196542 0 0 0 0 16.855808124353644 -1.4208953011689118 0 -1.4208953011689118 5.8178136136648391 0 0 0 0 71.978705990768503 0.40781780023485226 0 0.40781780023485226 -44.539131684821825 0 0 0 0 35.982181695188956 39.083141461740809 0 39.083141461740809 -33.438814510479403 0 0 0 0 40.351759818353457 4.4040690232795328 0 4.4040690232795328 -17.37275017632237 0 0 0 0 64.129697910044342 27.42777604525412 0 27.42777604525412 0.70909747188704841 0 0 0 0 37.699265828399803 7.886523004537807 0 7.886523004537807 -11.827254632139329 0 0 0 0 65.179407330229878 -18.716012233377114 0 -18.716012233377114 9.8376498866534803 0 0 0 0 60.629347032491296 -19.190034799246849 0 -19.190034799246849 14.89059492906199 0 0 0 0 28.879306628396307 2.3956047644484784 0 2.3956047644484784 -3.0779428010984029 0 0 0 0 27.699142278966008 6.9553766041102278 0 6.9553766041102278 -1.7648478494775537 0 0 0 0 60.789294086978771 28.058465681770031 0 28.058465681770031 -2.8771670166638899 0 0 0 0 13.132353918888839 9.6549255663592248 0 9.6549255663592248 -8.4588766597057941 0 0 0 0 24.245279249298619 18.648181350319419 0 18.648181350319419 -10.445275729359651 0 0 0 0 12.595151602952683 9.2800115203276619 0 9.2800115203276619 -17.962047580941999 0 0 0 0 24.150166092549114 6.0635544233432608 0 6.0635544233432608 -11.095831156395207 0 0 0 0 41.532528953277506 13.19186259386214 0 13.19186259386214 -9.6497193971093793 0 0 0 0 18.2001955837477 12.430228646305221 0 12.430228646305221 -4.8414970172905658 0 0 0 0 17.596490788026131 33.732861307310714 0 33.732861307310714 12.146108857392914 0 0 0 0 -1.4428766457029099 20.110217477703152 0 20.110217477703152 3.2676059889959106 0 0 0 0 -1.3896193178661633 42.165835294081717 0 42.165835294081717 39.77251470724093 0 0 0 0 32.352853810443776 69.716596583446204 0 69.716596583446204 24.697591450194366 0 0 0 0 -15.440651296434226 17.416974563479471 0 17.416974563479471 13.506768755050643 0 0 0 0 -7.8630677968612872 -0.38104816834220401 0 -0.38104816834220401 -22.33840411501933 0 0 0 0 15.496407660932164 14.86292238168221 0 14.86292238168221 -30.254418775977683 0 0 0 0 -2.1755898267729208 13.714689334777177 0 13.714689334777177 4.2044965968989914 0 0 0 0 13.139725625165738 4.1927315514130896 0 4.1927315514130896 -46.29166239658889 0 0 0 0 130.08937276224606 -96.089585156450084 0 -96.089585156450084 75.302840017087874 0 0 0 0 81.389302398252767 22.758781832101931 0 22.758781832101931 203.62511537725919 0 0 0 0 175.74081331341586 -59.084355354891557 0 -59.084355354891557 77.238092290269833 0 0 0 0 64.311955430050148 -36.344829297978379 0 -36.344829297978379 79.658680877069173 0 0 0 0 120.08846354292473 -11.385771386189958 0 -11.385771386189958 -7.1064400598377233 0 0 0 0 6.3558867138781352 35.912201287999096 0 35.912201287999096 -25.71286714114558 0 0 0 0 -1.9586812310553796 14.761972937140001 0 14.761972937140001 -3.7325716615487181 0 0 0 0 13.909966665876254 9.9164356605822235 0 9.9164356605822235 6.5748770993710099 0 0 0 0 14.006821326969657 34.78099323074116 0 34.78099323074116 -44.497761494660153 0 0 0 0 36.830664857800002 12.799198362863422 0 12.799198362863422 -20.705334857166235 0 0 0 0 23.462080711920862 -5.8211154064856601 0 -5.8211154064856601 -8.4975872245486244 0 0 0 0 61.809237848763587 10.425945146923368 0 10.425945146923368 -18.898238266973749 0 0 0 0 59.645230557347531 12.545919904986363 0 12.545919904986363 -12.587122691339118 0 0 0 0 38.193733590203919 2.9877396663969193 0 2.9877396663969193 -12.846359397753758 0 0 0 0 71.053081906775333 34.363409907006258 0 34.363409907006258 -1.0331981411491142 0 0 0 0 63.573620644983748 31.120911687663124 0 31.120911687663124 6.7453869813080019 0 0 0 0 4.5724296968561617 3.2207777504563921 0 3.2207777504563921 -5.1333205630228109 0 0 0 0 71.897122038033558 16.002205369192438 0 16.002205369192438 -16.872862340329448 0 0 0 0 47.287698959669797 13.621308389634464 0 13.621308389634464 2.6148548677115286 0 0 0 0 59.903918705269461 9.7960938249526635 0 9.7960938249526635 -14.757110330371916 0 0 0 0 54.838791033500456 9.3271631535523056 0 9.3271631535523056 -7.0927765694908658 0 0 0 0 57.630477659753524 11.902420072987525 0 11.902420072987525 -15.435216594991459 0 0 0 0 55.488675974629587 9.4890739177903924 0 9.4890739177903924 -16.500994287263211 0 0 0 0 53.116980074482854 9.8934755481610637 0 9.8934755481610637 -9.2420952087153125 0 0 0 0 42.220564562026993 5.8347754534129876 0 5.8347754534129876 -10.594973783695139 0 0 0 0 41.248934376610123 14.142320136921835 0 14.142320136921835 3.2966060694664066 0 0 0 0 42.004958874953445 8.5105488822595703 0 8.5105488822595703 -2.3733231488849356 0 0 0 0 46.634127760175033 16.130865684333457 0 16.130865684333457 16.459571794393014 0 0 0 0 46.335046107255039 13.440943182877731 0 13.440943182877731 0.80119561498429448 0 0 0 0 40.930902543084812 11.974213140289521 0 11.974213140289521 16.456898055534111 0 0 0 0 54.430417825147742 8.6460325820450237 0 8.6460325820450237 -15.786292751445899 0 0 0 0 53.792417989319802 11.674523124024443 0 11.674523124024443 -7.9163696578378051 0 0 0 0 51.135135392381926 20.825407567926277 0 20.825407567926277 -8.3887243953508062 0 0 0 0 49.983897345417063 38.144690299715904 0 38.144690299715904 -19.639283833178297 0 0 0 0 47.906425608642166 24.157890733310182 0 24.157890733310182 28.379100000704057 0 0 0 0 50.137120292987674 5.7243041515739606 0 5.7243041515739606 31.904583068334432 0 0 0 0 47.085436839508475 14.528043691291998 0 14.528043691291998 22.299562226324724 0 0 0 0 39.455376162822347 8.1130954145401795 0 8.1130954145401795 1.508879392305555 0 0 0 0 38.747909978555981 6.8215878605146827 0 6.8215878605146827 30.440013144811019 0 0 0 0 42.562088955332001 9.7776918920524736 0 9.7776918920524736 14.950309230103358 0 0 0 0 41.918057153510745 9.1633156034531567 0 9.1633156034531567 23.795127836523534 0 0 0 0 46.488550151567324 11.201177882710681 0 11.201177882710681 16.239970552950126 0 0 0 0 42.573410085780779 13.2987095619917 0 13.2987095619917 27.837508345484366 0 0 0 0 41.800699096129392 3.4510926581467629 0 3.4510926581467629 22.943698703112887 0 0 0 0 41.562371745632845 9.2411248324729058 0 9.2411248324729058 16.180521118367324 0 0 0 0 39.740732232254231 8.6153338597262064 0 8.6153338597262064 18.933155774402621 0 0 0 0 40.276524018845521 6.3138900348085372 0 6.3138900348085372 17.070971717507746 0 0 0 0 37.374323525436921 12.933396457238928 0 12.933396457238928 12.684820779112986 0 0 0 0 41.808745629779878 7.2745599144109292 0 7.2745599144109292 12.995924493951179 0 0 0 0 41.887092264805688 9.9422637202901001 0 9.9422637202901001 2.0928889239688715 0 0 0 0 42.126463713793783 11.279331867718952 0 11.279331867718952 1.3873265681684188 0 0 0 0 36.384286923246691 13.659562106253139 0 13.659562106253139 2.6367284353265386 0 0 0 0 31.68501643363561 19.81809001789626 0 19.81809001789626 -2.4621080430765261 0 0 0 0 35.437542566462071 7.4154168644709557 0 7.4154168644709557 -4.4106010519724634 0 0 0 0 20.940507122300914 48.620262933786293 0 48.620262933786293 -14.299882856755675 0 0 0 0 43.739713479415514 24.495687718047748 0 24.495687718047748 -24.160853378314641 0 0 0 0 40.420292352613615 17.651713736684684 0 17.651713736684684 0.14913076397124314 0 0 0 0 31.785896210305509 19.730831402965407 0 19.730831402965407 1.6121671921187044 0 0 0 0 37.567227724663098 17.101656559334174 0 17.101656559334174 2.5136311518990624 0 0 0 0 58.634674648899818 24.610195389486307 0 24.610195389486307 9.1950281543847723 0 0 0 0 41.572378117503831 25.940581132097122 0 25.940581132097122 9.5649617871031296 0 0 0 0 20.783640325091483 -3.3412486261862568 0 -3.3412486261862568 -2.2989333360606885 0 0 0 0 42.991122869600076 10.123519668794188 0 10.123519668794188 8.4297402721661001 0 0 0 0 43.33164338998904 13.440486392175671 0 13.440486392175671 11.24108655083819 0 0 0 0 54.497159321254003 7.8374274785940088 0 7.8374274785940088 13.933742080751017 0 0 0 0 45.370678607563605 24.566924160879722 0 24.566924160879722 7.1253218188826395 0 0 0 0 25.771481692335584 -1.9727534284585211 0 -1.9727534284585211 -4.7049481598448128 0 0 0 0 16.887219211086631 -8.8448458910934278 0 -8.8448458910934278 -33.201231858311871 0 0 0 0 24.083967718661 -8.8635053598617439 0 -8.8635053598617439 -2.4106730319906866 0 0 0 0 36.870202307243915 18.785716108725182 0 18.785716108725182 -5.7903798857520892 0 0 0 0 82.277876162959728 -153.38200232011991 0 -153.38200232011991 -443.23948243898076 0 0 0 0 41.396140762168216 26.109145821636275 0 26.109145821636275 -514.92193541480947 0 0 0 0 88.241366396367084 56.388640234585864 0 56.388640234585864 -497.69135826871218 0 0 0 0 53.805190588005644 -121.14734591047636 0 -121.14734591047636 -479.6880000913967 0 0 0 0 43.67652443429688 6.132122969850343 0 6.132122969850343 20.055223819888852 0 0 0 0 42.755799470982481 8.2868737211493304 0 8.2868737211493304 -0.45243523640537908 0 0 0 0 16.566102426880775 2.7892058187611219 0 2.7892058187611219 0.35445793090782096 0 0 0 0 64.145410063923919 87.520814265901919 0 87.520814265901919 17.322843763762336 0 0 0 0 40.016249458087259 11.690383883764639 0 11.690383883764639 -29.241590157177839 0 0 0 0 1.4046669898816617 -175.76213023622984 0 -175.76213023622984 -385.20957665362056 0 0 0 0 -68.198283540841658 -125.62073396875257 0 -125.62073396875257 -356.43066412127291 0 0 0 0 -41.631232844330953 -86.2039084374467 0 -86.2039084374467 -388.07069679825383 0 0 0 0 277.7957666535367 -72.166727848684445 0 -72.166727848684445 -490.78627233172779 0 0 0 0 207.67520609467465 124.63688896631811 0 124.63688896631811 -510.44113612600108 0 0 0 0 192.51341182504257 -175.56729812826416 0 -175.56729812826416 -440.5785968682369 0 0 0 0 318.3119362789439 -63.90701145204747 0 -63.90701145204747 -367.97428736867255 0 0 0 0 50.055461240597651 -70.436151105711133 0 -70.436151105711133 -339.91956741751841 0 0 0 0 2.6773093202746736 -1.2795041742119508 0 -1.2795041742119508 -0.0765485506181669 0 0 0 0 185.02272251548857 42.836757929401671 0 42.836757929401671 -340.16897622268777 0 0 0 0 17.567810571636073 202.73072851238277 0 202.73072851238277 -301.09259118154102 0 0 0 0 96.613965222877596 42.654131595601683 0 42.654131595601683 -104.6283285800921 0 0 0 0 6.5592994378940546 -2.0090604872587061 0 -2.0090604872587061 0.84216300624564422 0 0 0 0 92.036162626100122 -186.42446485177834 0 -186.42446485177834 272.37148908192137 0 0 0 0 327.6819922832683 -318.10408411737831 0 -318.10408411737831 -78.811683319828262 0 0 0 0 12.108454310648085 -35.65070257320906 0 -35.65070257320906 14.102588822986945 0 0 0 0 -172.07536515960237 -9.4848060800769645 0 -9.4848060800769645 -200.4267488024766 0 0 0 0 -182.05185679212445 -4.6478801132651597 0 -4.6478801132651597 23.023346179324676 0 0 0 0 4.1158086089853896 -302.61658697707082 0 -302.61658697707082 -315.91606042117257 0 0 0 0 161.76893698428466 -605.88173661239227 0 -605.88173661239227 229.72989431325914 0 0 0 0 401.22791165723174 137.78154397821163 0 137.78154397821163 -153.19415386541652 0 0 0 0 4.3194163960468472 -2.6557635378225442 0 -2.6557635378225442 0.58679152667026591 0 0 0 0 -67.348246962501435 -88.554585316218038 0 -88.554585316218038 -263.65205457237857 0 0 0 0 -40.024196936516091 -145.40292384048155 0 -145.40292384048155 -278.74803316624906 0 0 0 0 -75.449353184998472 -76.870566858594358 0 -76.870566858594358 -183.60318857677237 0 0 0 0 168.17480692829122 -81.389060890903977 0 -81.389060890903977 -243.78834381497586 0 0 0 0 -30.425170228680145 -32.597309869630614 0 -32.597309869630614 -252.84841082833145 0 0 0 0 -34.205324186238613 -97.897353852031415 0 -97.897353852031415 -209.78676935455564 0 0 0 0 -31.873991110944189 -87.862050914588281 0 -87.862050914588281 -303.6839088774434 0 0 0 0 -26.354834970567026 -23.001952814437736 0 -23.001952814437736 -318.29924570251291 0 0 0 0 -20.189593600916851 -66.074709503725771 0 -66.074709503725771 -390.77027360024965 0 0 0 0 -68.097437651415987 -113.87753444382872 0 -113.87753444382872 -326.8287684929179 0 0 0 0 -39.601704936590977 -70.057124945919981 0 -70.057124945919981 -339.63265220150936 0 0 0 0 -346.2484295838658 15.694876243825632 0 15.694876243825632 115.47656191953423 0 0 0 0 -284.08220691079623 263.47694789352812 0 263.47694789352812 -267.6155898420887 0 0 0 0 10.410694057226323 -1.0047027809979703 0 -1.0047027809979703 -0.46039376676024474 0 0 0 0 113.2240731940783 -95.28411305357919 0 -95.28411305357919 -59.941450770706894 0 0 0 0 -208.9361011662113 -106.77592819964559 0 -106.77592819964559 224.43977765129424 0 0 0 0 -743.35202721564565 271.42497254860922 0 271.42497254860922 230.19479033509052 0 0 0 0 -63.422258094909921 -556.07009233218685 0 -556.07009233218685 368.65128139364253 0 0 0 0 -866.98933414927887 -340.44725476343763 0 -340.44725476343763 794.39980265122642 0 0 0 0 12.246710622574938 -1.953511375581126 0 -1.953511375581126 -0.23133272712223485 0 0 0 0 596.72988684795564 354.91521033380877 0 354.91521033380877 -242.24566499751387 0 0 0 0 766.38981121505276 164.14142852544649 0 164.14142852544649 -28.04389854776403 0 0 0 0 -99.348347791601554 -38.588292776320344 0 -38.588292776320344 46.732547490429965 0 0 0 0 310.36887791076879 307.37166276542933 0 307.37166276542933 8.1953825570114418 0 0 0 0 143.93122677544306 -154.26499397695264 0 -154.26499397695264 -307.46747368943261 0 0 0 0 4.4128635758048915 -0.15479931079564224 0 -0.15479931079564224 -0.28130980798322719 0 0 0 0 507.64368622233451 -3.5828322669043757 0 -3.5828322669043757 -321.35588177530894 0 0 0 0 149.3612653246073 -36.814308472341203 0 -36.814308472341203 -224.85817167549175 0 0 0 0 142.68195125165221 64.483328536747095 0 64.483328536747095 -125.65553384492674 0 0 0 0 59.802106569004536 73.300570422263121 0 73.300570422263121 -122.94531235338513 0 0 0 0 147.96197198027221 -22.236035114084643 0 -22.236035114084643 -19.196472942769788 0 0 0 0 266.51422723553696 -26.953513569874303 0 -26.953513569874303 -74.614368110504756 0 0 0 0 265.818791629099 -39.147898811385346 0 -39.147898811385346 -240.78485247066538 0 0 0 0 -75.093668731515208 -128.72159651244561 0 -128.72159651244561 -97.704989836801701 0 0 0 0 166.98415902281704 10.616436777075023 0 10.616436777075023 -170.72535065989473 0 0 0 0 1.6039365351668948 -1.4191387218090057 0 -1.4191387218090057 0.64552768033729768 0 0 0 0 2.1391441139720655 -0.87983824274635936 0 -0.87983824274635936 -2.2789544745199675 0 0 0 0 29.119593006980722 -16.970251041727124 0 -16.970251041727124 7.8538128244863366 0 0 0 0 77.891086919796635 -214.64951009445198 0 -214.64951009445198 20.732871223483414 0 0 0 0 35.06765586968686 6.6793477160028942 0 6.6793477160028942 2.2011340391098884 0 0 0 0 116.6311317152431 -48.742803548405732 0 -48.742803548405732 36.227511390358359 0 0 0 0 79.549096215589088 -19.058963351500097 0 -19.058963351500097 -24.13637081683973 0 0 0 0 47.987669350593933 26.087106971210403 0 26.087106971210403 -86.956680614428336 0 0 0 0 -12.792918684834149 32.801617335734363 0 32.801617335734363 -86.409388485628938 0 0 0 0 -13.672859790960501 3.6140828455674807 0 3.6140828455674807 6.9408142413248015 0 0 0 0 27.824160518146527 8.6128901588890869 0 8.6128901588890869 -159.30775171961534 0 0 0 0 -77.3357954594685 -24.692777551374171 0 -24.692777551374171 -156.9887636005559 0 0 0 0 -36.880209960443608 83.51301144253722 0 83.51301144253722 -167.29367753929228 0 0 0 0 75.553464887867449 60.250734775385098 0 60.250734775385098 -162.48789551508403 0 0 0 0 50.010467561089172 -105.89558626596467 0 -105.89558626596467 -489.03378630706646 0 0 0 0 26.926176463614667 -1.959383617808542 0 -1.959383617808542 -1.1814800846820688 0 0 0 0 -282.38233058545666 79.904174908007832 0 79.904174908007832 250.84682324688879 0 0 0 0 422.73226710022573 -340.85101969368236 0 -340.85101969368236 308.71002671229138 0 0 0 0 51.53009106744139 -57.795001804197199 0 -57.795001804197199 378.35522046073316 0 0 0 0 531.50284378780634 -332.68698675424014 0 -332.68698675424014 183.16875016726274 0 0 0 0 958.30933062864642 -212.65325684595439 0 -212.65325684595439 -912.70922781255092 0 0 0 0 -529.50367559907318 -415.46940448980649 0 -415.46940448980649 738.5206858024552 0 0 0 0 151.08178371966642 52.722248942309619 0 52.722248942309619 136.84945393037955 0 0 0 0 9.462545134977745 0.051067029924485752 0 0.051067029924485752 0.30952374149423556 0 0 0 0 61.57288143405458 -284.91921544799311 0 -284.91921544799311 -173.45675553553178 0 0 0 0 -2.5900498134142254 74.547800948665142 0 74.547800948665142 43.872835806836065 0 0 0 0 1473.3950647413294 -175.31390943316444 0 -175.31390943316444 -520.82073448020913 0 0 0 0 28.606514634700403 3.1617043337024029 0 3.1617043337024029 0.050057779676834557 0 0 0 0 7.1838486801425461 15.562519891168677 0 15.562519891168677 98.383345433860313 0 0 0 0 52.643152263299271 16.32282936756053 0 16.32282936756053 -41.844471475841942 0 0 0 0 50.53930904081426 38.463628267421136 0 38.463628267421136 -42.630911380156306 0 0 0 0 -33.756769705691113 -84.760863286455134 0 -84.760863286455134 52.103082563074622 0 0 0 0 86.925769488429069 166.30598519406098 0 166.30598519406098 40.924104266452659 0 0 0 0 86.248421064927243 78.000808637310001 0 78.000808637310001 -21.030156839290555 0 0 0 0 54.368468071384996 10.300432729977587 0 10.300432729977587 -156.91905526674941 0 0 0 0 41.604271422969759 1.9682614231495563 0 1.9682614231495563 -20.188001785190181 0 0 0 0 -48.448772405576165 63.239342924376004 0 63.239342924376004 40.550129936924463 0 0 0 0 -0.445859109358409 0.2021987112507162 0 0.2021987112507162 -2.1982923866738879 0 0 0 0 53.192748652560113 13.444759067788837 0 13.444759067788837 -30.222723575595126 0 0 0 0 56.474843601397879 -48.586360293544914 0 -48.586360293544914 19.122587212223266 0 0 0 0 142.3897814064112 131.70819510836026 0 131.70819510836026 -282.79932624257725 0 0 0 0 1.5439897531326778 -2.6012542138915933 0 -2.6012542138915933 -0.75963200310923651 0 0 0 0 -38.555594352656044 -59.373151822224699 0 -59.373151822224699 -453.25669963850009 0 0 0 0 24.7012246925824 2.1007556745708058 0 2.1007556745708058 -1.6648596746724085 0 0 0 0 30.892290821764618 -0.12099083203364813 0 -0.12099083203364813 -8.6937765587298337 0 0 0 0 89.740145574702183 9.8401013828099195 0 9.8401013828099195 -133.73391516186274 0 0 0 0 137.20211168800597 -171.5977080514358 0 -171.5977080514358 -63.067082367644446 0 0 0 0 -81.694356889202027 154.29671958884273 0 154.29671958884273 -172.26271510758073 0 0 0 0 239.05039738540654 -77.968188425882204 0 -77.968188425882204 -360.51345560901848 0 0 0 0 4.3905499992693535 -0.25705542499717637 0 -0.25705542499717637 -1.9768256301324771 0 0 0 0 437.31551525175746 13.496448663359274 0 13.496448663359274 -53.959117421455147 0 0 0 0 87.250794449792011 150.67009108789705 0 150.67009108789705 244.75713408557561 0 0 0 0 -66.525715036836118 -171.87735999342746 0 -171.87735999342746 -117.28041246849591 0 0 0 0 414.37463914543787 -361.65614523172326 0 -361.65614523172326 -24.563767518253542 0 0 0 0 274.21257927483384 -3.7645337057517025 0 -3.7645337057517025 26.853921817705213 0 0 0 0 97.021739490053733 161.45412686537441 0 161.45412686537441 13.778021882011785 0 0 0 0 82.30220886139432 -18.759022343335744 0 -18.759022343335744 18.618268034443702 0 0 0 0 -6.3365956224643014 207.8632628509626 0 207.8632628509626 -188.78555443899052 0 0 0 0 533.01511270120682 -182.68677044935038 0 -182.68677044935038 68.585800662009945 0 0 0 0 -5.0524443532540317 -110.75376603223853 0 -110.75376603223853 196.46444307724289 0 0 0 0 115.00610354128003 -411.52280857283688 0 -411.52280857283688 212.09481765213036 0 0 0 0 -60.419559461108292 -328.85824839208192 0 -328.85824839208192 189.34555650223012 0 0 0 0 24.464398558258836 -239.6150304638131 0 -239.6150304638131 230.61506590613328 0 0 0 0 -34.139585625423933 -117.83438610536768 0 -117.83438610536768 127.85343968015393 0 0 0 0 109.02392632467672 -176.52607725885838 0 -176.52607725885838 -21.900232833696521 0 0 0 0 -21.516299226539559 -9.6170622843033371 0 -9.6170622843033371 -38.040256785444669 0 0 0 0 58.091842085043027 -118.22969681923385 0 -118.22969681923385 93.578132097461605 0 0 0 0 11.994291302282363 -232.78278859541626 0 -232.78278859541626 284.45346665401229 0 0 0 0 479.79351663362468 -241.86961064970967 0 -241.86961064970967 199.83924545268528 0 0 0 0 274.00492437553476 -103.93392227820374 0 -103.93392227820374 253.89622110514136 0 0 0 0 466.08582985401154 -384.77839646547682 0 -384.77839646547682 309.06221083494864 0 0 0 0 890.11999208209454 -264.11496165634048 0 -264.11496165634048 217.05439818762844 0 0 0 0 925.6652543420787 -483.53631651804307 0 -483.53631651804307 353.62946104461764 0 0 0 0 1803.5361015023518 -298.24647990401098 0 -298.24647990401098 80.935144714468152 0 0 0 0 985.53967998327062 -181.31646150193413 0 -181.31646150193413 146.48027772248508 0 0 0 0 1319.8928995743627 -191.75285181702634 0 -191.75285181702634 31.203842032483863 0 0 0 0 473.39249641206698 -215.7768443163535 0 -215.7768443163535 233.10458376996638 0 0 0 0 996.76566485894364 -226.13504725212704 0 -226.13504725212704 183.3443125541861 0 0 0 0 1736.3517581022898 20.885000035729661 0 20.885000035729661 54.126974243734878 0 0 0 0 1400.6582662717701 184.91755842787893 0 184.91755842787893 21.791483314836 0 0 0 0 2110.7906453514734 57.621627008952544 0 57.621627008952544 -76.464206532842127 0 0 0 0 2208.7516593914224 535.77744384372932 0 535.77744384372932 -13.085062884380932 0 0 0 0 1781.3766580657393 194.07906597684439 0 194.07906597684439 -148.82390804504269 0 0 0 0 1107.5857854075439 268.10950463790539 0 268.10950463790539 -28.441983285042511 0 0 0 0 976.8919147153938 -18.679356995453247 0 -18.679356995453247 112.64995849964282 0 0 0 0 482.03006851229293 -119.34605018632692 0 -119.34605018632692 129.39732508408559 0 0 0 0 45.85553052907926 323.3908400811456 0 323.3908400811456 148.36919433420121 0 0 0 0 115.36793544316379 -466.44414092034049 0 -466.44414092034049 -409.57399556877004 0 0 0 0 1087.6404141571838 318.38175082080562 0 318.38175082080562 -110.57681957243017 0 0 0 0 952.18861478965846 106.9357224027919 0 106.9357224027919 -147.60783636619681 0 0 0 0 1679.8950201150728 321.0801388008274 0 321.0801388008274 -203.93351230023814 0 0 0 0 1061.3849150283932 490.3276217457028 0 490.3276217457028 -117.27194409793913 0 0 0 0 1478.5937874455267 447.36373817454728 0 447.36373817454728 -176.52297182064751 0 0 0 0 798.10994764252246 637.01905637076595 0 637.01905637076595 -92.596800804550995 0 0 0 0 10.172638905611876 -3.2230354601363018 0 -3.2230354601363018 0.40665627603403109 0 0 0 0 1506.4638712662272 328.94811814370337 0 328.94811814370337 -227.88320093471452 0 0 0 0 94.706701677459932 137.96268855144581 0 137.96268855144581 -306.52977767883738 0 0 0 0 16.184316948541152 -5.8757331894716884 0 -5.8757331894716884 0.86388622030899076 0 0 0 0 -79.987252726801671 89.257095380321459 0 89.257095380321459 -52.029634136189486 0 0 0 0 -176.25777740083868 -439.887555353322 0 -439.887555353322 210.00024958927997 0 0 0 0 6.0766411058821745 -2.4857069791871069 0 -2.4857069791871069 0.85459956287807781 0 0 0 0 168.44393547991785 228.9746026599509 0 228.9746026599509 106.14468692134922 0 0 0 0 90.100480529428751 59.991671431970758 0 59.991671431970758 -41.65996078511796 0 0 0 0 85.49986040352087 43.281232285468889 0 43.281232285468889 -559.49767527554604 0 0 0 0 216.47453831096936 281.89273037550112 0 281.89273037550112 -588.82346198655762 0 0 0 0 23.981843774980604 -0.31585297558425829 0 -0.31585297558425829 -1.1055620992827269 0 0 0 0 9.299954736512916 -0.32645891112635539 0 -0.32645891112635539 -0.1211344777621074 0 0 0 0 528.42712699800177 -478.24097055321886 0 -478.24097055321886 -165.32175886935397 0 0 0 0 702.1564886123233 20.157635085935723 0 20.157635085935723 -163.81163096778579 0 0 0 0 653.81888584719536 -558.97424006430595 0 -558.97424006430595 -292.80704118234144 0 0 0 0 -191.4826512557629 -20.417272097901417 0 -20.417272097901417 -132.32961177419634 0 0 0 0 -1.9233873803459574 38.46692176299311 0 38.46692176299311 -76.832141620288439 0 0 0 0 -5.476470059613348 -5.8791606319608434 0 -5.8791606319608434 -36.245644061161727 0 0 0 0 2.1691829955714752 -0.31001731331949145 0 -0.31001731331949145 -1.0219619408596174 0 0 0 0 1046.1983074149746 209.17809145495738 0 209.17809145495738 756.7976863072206 0 0 0 0 1039.6735935430213 -638.50527911699191 0 -638.50527911699191 -599.99604941466157 0 0 0 0 1661.5819019483533 131.69456631190977 0 131.69456631190977 -48.401832057803404 0 0 0 0 447.44295890047215 79.187794909645049 0 79.187794909645049 -8.8703790164187239 0 0 0 0 969.26464644090447 -545.41897739608839 0 -545.41897739608839 232.80412845392982 0 0 0 0 88.258368974755285 -324.28637084918699 0 -324.28637084918699 215.43833206539907 0 0 0 0 352.48410564723599 -33.344458929656525 0 -33.344458929656525 -23.219713134239328 0 0 0 0 948.86147328650259 864.26661630713852 0 864.26661630713852 502.74171311406792 0 0 0 0 414.67048697768769 475.64444953221948 0 475.64444953221948 355.37736217490988 0 0 0 0 439.9613854073832 -852.5313070341075 0 -852.5313070341075 -675.21278225370747 0 0 0 0 -71.872160913590051 -636.33413942403217 0 -636.33413942403217 -398.02390503347948 0 0 0 0 12.019789168258598 -2.4238963422625375 0 -2.4238963422625375 -0.3439217944512894 0 0 0 0 553.64783782303857 -535.4948505281684 0 -535.4948505281684 -381.8003657422849 0 0 0 0 100.66923388644136 88.863469991136085 0 88.863469991136085 -722.36505159523529 0 0 0 0 1313.2632854714684 -324.18866737669549 0 -324.18866737669549 -202.00554282560222 0 0 0 0 609.56044575299256 -5.6767070479346771 0 -5.6767070479346771 -346.14947365764442 0 0 0 0 515.95996556149566 -653.25866053829179 0 -653.25866053829179 -197.86127289766091 0 0 0 0 578.38407569647825 -563.0096184354046 0 -563.0096184354046 -279.72654066969835 0 0 0 0 560.05580935638864 -733.99807278389244 0 -733.99807278389244 -472.26607523917517 0 0 0 0 709.56999905953126 -332.37968825191774 0 -332.37968825191774 -57.085064856316649 0 0 0 0 -14.419609163087443 514.18604540421484 0 514.18604540421484 152.57940018591489 0 0 0 0 633.88371852499404 -518.33425571408884 0 -518.33425571408884 409.12199153881522 0 0 0 0 417.41846878748856 -1044.8777348972349 0 -1044.8777348972349 269.30506376389667 0 0 0 0 1057.5265407989282 1741.7681651811174 0 1741.7681651811174 430.87842529509527 0 0 0 0 809.47843797416135 232.79316715477012 0 232.79316715477012 668.12748356718646 0 0 0 0 -100.92112902225199 2.7533329136431348 0 2.7533329136431348 -233.94484008683673 0 0 0 0 791.4893606484693 651.6457170284217 0 651.6457170284217 197.43432482401164 0 0 0 0 432.45424942698173 340.4800763127966 0 340.4800763127966 -789.8121255207227 0 0 0 0 322.89197933224204 -185.42329435312314 0 -185.42329435312314 -441.98261531327205 0 0 0 0 -108.46455252839951 -13.288455639927179 0 -13.288455639927179 -18.472056024619633 0 0 0 0 15.986479403061225 6.3296699795002098 0 6.3296699795002098 -3.7377832038864707 0 0 0 0 179.84666690562153 21.952316888720247 0 21.952316888720247 -786.59608987925162 0 0 0 0 31.526434344181837 -4.0299127949658882 0 -4.0299127949658882 -2.676179472547541 0 0 0 0 -149.42004916847509 389.24014528150195 0 389.24014528150195 -733.98627793144101 0 0 0 0 3498.5333046960004 -942.61347288157447 0 -942.61347288157447 -73.854828291382049 0 0 0 0 7.1734793696364392 6.0404027027355909 0 6.0404027027355909 9.1519967469834711 0 0 0 0 -488.18117585799337 728.99292263773668 0 728.99292263773668 1288.7924395809341 0 0 0 0 669.52197895593417 -67.509849219859689 0 -67.509849219859689 -354.76132870119716 0 0 0 0 96.621977734714164 -400.57842813749471 0 -400.57842813749471 464.34966779146771 0 0 0 0 -109.48761670142994 -100.58728273126303 0 -100.58728273126303 39.875507640746946 0 0 0 0 1282.8231563758309 102.73168304299253 0 102.73168304299253 -163.4454531525451 0 0 0 0 3493.7324741269331 2309.7123403166138 0 2309.7123403166138 512.77710566556937 0 0 0 0 2025.2967557810916 2377.8425331008548 0 2377.8425331008548 1604.0591328761586 0 0 0 0 2744.3292791453787 1829.9171045968264 0 1829.9171045968264 412.60661527766979 0 0 0 0 3.9875496985769558 5.5401813357147631 0 5.5401813357147631 3.221413128648023 0 0 0 0 3144.1893170595213 1145.560176068268 0 1145.560176068268 333.5380798334977 0 0 0 0 -850.07260990246505 1530.0436620715295 0 1530.0436620715295 409.88983848170119 0 0 0 0 2529.5989376063021 1223.3894994545119 0 1223.3894994545119 188.64388364563706 0 0 0 0 3501.0230978009567 1444.9051534942957 0 1444.9051534942957 -83.262860249191661 0 0 0 0 2551.5760428702051 1599.9365084532269 0 1599.9365084532269 428.17027058202302 0 0 0 0 2749.6702280907484 1093.2381334088466 0 1093.2381334088466 -218.84386448739389 0 0 0 0 3498.5248637658224 810.7031993438186 0 810.7031993438186 -385.06678306752752 0 0 0 0 2743.4564351699373 1116.7677290356742 0 1116.7677290356742 -225.39420240282632 0 0 0 0 2451.9805894680358 1309.2063103866344 0 1309.2063103866344 184.26257486866953 0 0 0 0 1720.0273117458637 781.97035789160759 0 781.97035789160759 68.320988219039407 0 0 0 0 1933.3172814227873 463.91796500081824 0 463.91796500081824 132.13665693586933 0 0 0 0 1705.5251447962801 135.28732536310858 0 135.28732536310858 530.63656506171822 0 0 0 0 1770.9217826044478 73.943951624340571 0 73.943951624340571 -20.327067698607898 0 0 0 0 1569.6904742424304 455.36027806806709 0 455.36027806806709 -22.575833188494027 0 0 0 0 1893.4046255074791 351.9086574229442 0 351.9086574229442 -156.1730288108526 0 0 0 0 1675.4995379959082 496.40210691842788 0 496.40210691842788 -56.336822218449754 0 0 0 0 2641.4908833590744 749.37243277499113 0 749.37243277499113 -85.387373889883463 0 0 0 0 2533.4403652930851 765.65723775314655 0 765.65723775314655 -103.34372363622566 0 0 0 0 2138.4918520411957 507.71838193328426 0 507.71838193328426 -60.772980562913176 0 0 0 0 2303.9737297811334 717.26321746800386 0 717.26321746800386 -37.537743338133851 0 0 0 0 2125.5386831614742 554.26532036881804 0 554.26532036881804 -197.62273405994983 0 0 0 0 1702.6964195744185 422.66790498519248 0 422.66790498519248 -42.636121821102051 0 0 0 0 2179.6877004911148 446.49365201560306 0 446.49365201560306 11.417935225783253 0 0 0 0 2224.563424490334 442.38312452387288 0 442.38312452387288 -134.35611794281567 0 0 0 0 2303.3446619870228 682.75392618944568 0 682.75392618944568 -85.009780574510842 0 0 0 0 2152.2871006336645 524.38684850413279 0 524.38684850413279 123.46863987369426 0 0 0 0 2364.7153736992695 598.31859898016899 0 598.31859898016899 62.348311468439761 0 0 0 0 2379.7781590352315 575.95238196258026 0 575.95238196258026 63.776191673060794 0 0 0 0 2742.2438841350377 549.06317227562351 0 549.06317227562351 -55.185219247819845 0 0 0 0 3501.3096466776842 479.93856028076493 0 479.93856028076493 -368.39557664232962 0 0 0 0 2898.429578131414 749.37776093558864 0 749.37776093558864 -381.50800632137378 0 0 0 0 132.10153148134123 -44.251090485377759 0 -44.251090485377759 26.9448957045215 0 0 0 0 153.07841142376856 -23.962492706303124 0 -23.962492706303124 -13.104445842779398 0 0 0 0 45.615066159982234 -4.8345623418104324 0 -4.8345623418104324 10.588292480957122 0 0 0 0 3074.2607858871816 108.15978429026947 0 108.15978429026947 -84.578431558501237 0 0 0 0 2.5648748685162603 8.6415387316676942 0 8.6415387316676942 0.10428093010078648 0 0 0 0 3501.6695824129492 79.622547485154271 0 79.622547485154271 -250.98813723246715 0 0 0 0 3266.2180583275804 252.3684457767711 0 252.3684457767711 -277.86562097770684 0 0 0 0 5.3013596164488757 13.903685793528403 0 13.903685793528403 0.39379351893152231 0 0 0 0 3495.4541657029149 1011.3437658310374 0 1011.3437658310374 -266.63410801159046 0 0 0 0 1901.7963799750978 661.70865070838227 0 661.70865070838227 330.15028576287034 0 0 0 0 2773.0442825705541 218.09492306768752 0 218.09492306768752 -280.1761792375903 0 0 0 0 4.8583931715292721 -2.6589367229782539 0 -2.6589367229782539 -0.13418016436441227 0 0 0 0 51.96061843719508 22.597105925415931 0 22.597105925415931 60.123050447412965 0 0 0 0 34.451555127678148 18.02898411635752 0 18.02898411635752 9.4700910059031642 0 0 0 0 127.06701522695948 12.952245283411088 0 12.952245283411088 -49.514207077905013 0 0 0 0 113.39284166210018 28.258487324335814 0 28.258487324335814 8.4228469639340062 0 0 0 0 15.248424815326871 -10.217437390066721 0 -10.217437390066721 9.3993244396570503 0 0 0 0 25.869277956982842 -4.3973813675284106 0 -4.3973813675284106 3.8109925594195602 0 0 0 0 6.3352512170353918 -0.42459422141012482 0 -0.42459422141012482 -0.14709654889611856 0 0 0 0 18.484175253212015 2.7430090161703475 0 2.7430090161703475 23.932727377765218 0 0 0 0 6.9321937856002478 12.84442106774255 0 12.84442106774255 20.936007768605052 0 0 0 0 6.1800192548362247 17.233855172823304 0 17.233855172823304 4.7553889194521162 0 0 0 0 18.453194798474442 3.0909922022426493 0 3.0909922022426493 -3.2101027377820217 0 0 0 0 15.263757578963123 5.7099335589683449 0 5.7099335589683449 -4.3757785261837512 0 0 0 0 15.989477179224195 0.7132025032107947 0 0.7132025032107947 9.2435733224513399 0 0 0 0 -28.797943597666745 25.524949103031034 0 25.524949103031034 32.238129973558742 0 0 0 0 12.327077725101844 15.653005278171847 0 15.653005278171847 17.773722111497054 0 0 0 0 1.6785712597302336 55.058654835707991 0 55.058654835707991 -2.33535507410528 0 0 0 0 45.90884182699665 -2.2457935583782174 0 -2.2457935583782174 22.551888963452882 0 0 0 0 12.181219167623027 -4.5897178098975129 0 -4.5897178098975129 41.326474939346895 0 0 0 0 15.102838918479392 14.97291801758135 0 14.97291801758135 31.975743020372306 0 0 0 0 -78.278938563293195 32.929665218319059 0 32.929665218319059 38.564000718035366 0 0 0 0 7.2359263814032602 8.9136102030002746 0 8.9136102030002746 30.009708727147284 0 0 0 0 -27.19185844954518 94.739174210551326 0 94.739174210551326 -35.546473622268422 0 0 0 0 4.7333049595166017 -1.6247273345237403 0 -1.6247273345237403 -2.3397677694702796 0 0 0 0 229.24164720556655 19.774232579383579 0 19.774232579383579 -107.6153338529648 0 0 0 0 43.833316713435835 22.408499517969972 0 22.408499517969972 8.9403490220096113 0 0 0 0 -8.2171675275603775 175.77290430800645 0 175.77290430800645 -156.60961408605817 0 0 0 0 -50.930964069193578 426.10512414866639 0 426.10512414866639 -463.11579997730132 0 0 0 0 -140.60680828275508 66.763704564386444 0 66.763704564386444 67.05107660052181 0 0 0 0 -235.35749400275381 337.10446158491044 0 337.10446158491044 -114.49346421277704 0 0 0 0 34.255152396620318 13.685865469892839 0 13.685865469892839 5.475385598887617 0 0 0 0 16.953869697863411 2.1583792498332599 0 2.1583792498332599 -17.922378456066497 0 0 0 0 786.8317129402094 -268.45765615277782 0 -268.45765615277782 -122.36712478654267 0 0 0 0 -294.39848234388774 -1063.358246206403 0 -1063.358246206403 464.11485538747934 0 0 0 0 40.463852467909419 -47.93269359397005 0 -47.93269359397005 96.736133596358314 0 0 0 0 39.619980639254209 74.409974269829235 0 74.409974269829235 101.417805544229 0 0 0 0 3285.199658715479 -98.510033191807594 0 -98.510033191807594 -48.761305980766537 0 0 0 0 3493.9444388871166 -747.19687977165449 0 -747.19687977165449 4.8976362196325756 0 0 0 0 2.6995588815570222 2.6130055762292059 0 2.6130055762292059 -0.45746360723378093 0 0 0 0 2723.7003228165377 -211.66375624637786 0 -211.66375624637786 -63.062749726906887 0 0 0 0 660.75650469478569 764.62880088671227 0 764.62880088671227 935.31171083179993 0 0 0 0 2088.2122314365697 -665.75473475969557 0 -665.75473475969557 530.33341281101207 0 0 0 0 14.121497505838505 4.8118193880322728 0 4.8118193880322728 3.1759665846962233 0 0 0 0 101.00052534483075 -103.74481626095285 0 -103.74481626095285 -36.169057251208869 0 0 0 0 -8.8070517426458537 178.37029331457143 0 178.37029331457143 -97.580395212585472 0 0 0 0 -130.23955033245875 112.26604915775488 0 112.26604915775488 -247.25189675370211 0 0 0 0 -220.71056221534673 169.89542267410781 0 169.89542267410781 306.07247279040462 0 0 0 0 1554.5381801069452 629.92373897448238 0 629.92373897448238 -1032.9830783845159 0 0 0 0 -75.77124938734778 -186.84955244205423 0 -186.84955244205423 -920.58262506100846 0 0 0 0 584.24848090783053 672.69073459896094 0 672.69073459896094 -25.236589325783143 0 0 0 0 -1001.4701231712461 241.75484677137445 0 241.75484677137445 -109.62835552424417 0 0 0 0 3485.5251448671297 479.79519437365423 0 479.79519437365423 -1143.5652407027139 0 0 0 0 -1279.2905821215245 -183.50795241447145 0 -183.50795241447145 -422.08565594357077 0 0 0 0 3474.5035635861859 11.609141925615949 0 11.609141925615949 -6.0904831815721288 0 0 0 0 566.98469591600588 1734.9590447808271 0 1734.9590447808271 1078.5483348943067 0 0 0 0 6.3503292129329907 3.5469388498391368 0 3.5469388498391368 -1.5043878793185583 0 0 0 0 1.6915557401510455 3.6027303858532278 0 3.6027303858532278 -1.3274485411802459 0 0 0 0 -2.836547709484563 13.222216283714246 0 13.222216283714246 0.074811498016412126 0 0 0 0 1697.3594984117881 -378.13057351336715 0 -378.13057351336715 -813.54240671515072 0 0 0 0 3.8512662782159168 25.572891798379487 0 25.572891798379487 -43.272120899115521 0 0 0 0 22.871338690848006 4.4549195314564969 0 4.4549195314564969 -2.4152931513944917 0 0 0 0 1502.054042774238 436.00411407259116 0 436.00411407259116 -1342.2712625657548 0 0 0 0 50.972899236046942 73.104794177656458 0 73.104794177656458 -26.178917732425361 0 0 0 0 779.89028355655319 103.86985257647984 0 103.86985257647984 -1380.6167052650662 0 0 0 0 -62.626028691804095 3.5702871719041696 0 3.5702871719041696 34.722379408016423 0 0 0 0 67.453348340342927 29.131419105749956 0 29.131419105749956 -1.3569295675292778 0 0 0 0 5.9063704128586494 2.407621625756903 0 2.407621625756903 -4.6792762499910507 0 0 0 0 43.038748255574319 232.66221139449453 0 232.66221139449453 -436.61437201599756 0 0 0 0 160.2514993882487 -86.219491363488942 0 -86.219491363488942 -183.9735385588383 0 0 0 0 39.799563735272386 19.48468198147134 0 19.48468198147134 -4.6759989645139513 0 0 0 0 28.329176037637154 10.098340305056873 0 10.098340305056873 -9.6029289915374285 0 0 0 0 914.8834155360164 499.14618897635694 0 499.14618897635694 291.45307029750057 0 0 0 0 3494.4447418570958 674.38953427021033 0 674.38953427021033 -455.60332829855491 0 0 0 0 15.2561088467818 19.874830300670538 0 19.874830300670538 16.15207891099406 0 0 0 0 1466.7696134481957 -632.04822574244679 0 -632.04822574244679 -118.39742594932818 0 0 0 0 883.30934799546958 -181.8986077994951 0 -181.8986077994951 -194.06646491319637 0 0 0 0 43.058697727086837 26.874969777945637 0 26.874969777945637 -28.658131213803244 0 0 0 0 18.442776216153661 10.206164510694492 0 10.206164510694492 8.0316440416915622 0 0 0 0 -73.933977715612855 83.070552463231991 0 83.070552463231991 62.537589933195022 0 0 0 0 36.311222890918799 7.9320481652128763 0 7.9320481652128763 -11.402804120335103 0 0 0 0 38.963436054909835 3.719498590713556 0 3.719498590713556 -21.867061236949667 0 0 0 0 42.042667412909395 29.319564763988922 0 29.319564763988922 6.4435153749723213 0 0 0 0 38.407130182371475 -11.211532115448392 0 -11.211532115448392 -52.426552552652879 0 0 0 0 52.357052908031619 7.9716378847514306 0 7.9716378847514306 -27.209782155043513 0 0 0 0 -35.281019747664686 44.191171317450994 0 44.191171317450994 14.33506639608845 0 0 0 0 52.411975373266614 8.0446571680370766 0 8.0446571680370766 -41.083072424081934 0 0 0 0 66.112526514538331 -220.5088681361824 0 -220.5088681361824 114.90444748583218 0 0 0 0 -135.98292796582973 304.01601641796253 0 304.01601641796253 -148.17467926703023 0 0 0 0 5.0472507248091745 3.1279168057775557 0 3.1279168057775557 1.3718635006471069 0 0 0 0 -181.71224422253727 350.02671437175525 0 350.02671437175525 -588.51489785130389 0 0 0 0 -417.34856600672356 718.25571322904159 0 718.25571322904159 -707.71006090941978 0 0 0 0 17.721620181742139 5.8677348938517078 0 5.8677348938517078 0.80138164860493699 0 0 0 0 -459.20178883983317 167.6966078562707 0 167.6966078562707 -18.465831822564951 0 0 0 0 -240.4277501307879 195.34152829442519 0 195.34152829442519 52.479241045935396 0 0 0 0 -192.00781050829391 194.80011387663058 0 194.80011387663058 -222.34978632320644 0 0 0 0 -123.04097571429156 276.79690709912541 0 276.79690709912541 -161.22352417678894 0 0 0 0 -179.93550554422836 279.06065021449569 0 279.06065021449569 -135.75480000193625 0 0 0 0 -129.69349552202038 230.51842419518857 0 230.51842419518857 -102.15400939056258 0 0 0 0 -94.208198141117464 265.60335526344272 0 265.60335526344272 -231.71754639614301 0 0 0 0 -134.39048819815798 318.67301709839307 0 318.67301709839307 -197.11282618825726 0 0 0 0 47.442910368874436 129.26107083347461 0 129.26107083347461 53.274043959232188 0 0 0 0 -61.28184909344418 326.63093762384199 0 326.63093762384199 151.37559810374228 0 0 0 0 -28.023839803499868 331.44276195607608 0 331.44276195607608 -222.11131218403898 0 0 0 0 -142.43866613601131 314.6133985431656 0 314.6133985431656 -107.91965525034675 0 0 0 0 -7.2143063468975015 269.82204592685218 0 269.82204592685218 -150.87190150221886 0 0 0 0 4.8343605882602816 4.6900457805061961 0 4.6900457805061961 5.5162397482033834 0 0 0 0 126.06341632464319 566.47116525456431 0 566.47116525456431 14.142364675258705 0 0 0 0 989.84983275530976 -496.60438196866028 0 -496.60438196866028 64.580338232453641 0 0 0 0 1593.1553595209043 -436.58484912417407 0 -436.58484912417407 53.319454918334941 0 0 0 0 687.1335210010875 -574.32661908265072 0 -574.32661908265072 336.38093327149915 0 0 0 0 -476.36324003327172 240.33429238736767 0 240.33429238736767 623.16471339136342 0 0 0 0 712.76547003971314 -447.15918186413421 0 -447.15918186413421 164.95413480586421 0 0 0 0 517.64856912618416 -218.27624848815032 0 -218.27624848815032 -673.45890149137404 0 0 0 0 9.3428389519533681 11.3032289306895 0 11.3032289306895 11.466218817841151 0 0 0 0 -13.368222231452819 210.31044007823903 0 210.31044007823903 -194.13366461833039 0 0 0 0 696.13542261977273 295.13005122606182 0 295.13005122606182 84.049471974284643 0 0 0 0 1377.7520415176987 224.91967449829144 0 224.91967449829144 -170.0520829179211 0 0 0 0 8.9369165590367743 2.6019398594318019 0 2.6019398594318019 -0.69948156515492999 0 0 0 0 436.11693285936781 880.72977886671447 0 880.72977886671447 -973.60970267085474 0 0 0 0 1228.0286622959065 -912.23916500534699 0 -912.23916500534699 356.7733254460527 0 0 0 0 1713.542123524574 -446.46380500746545 0 -446.46380500746545 -95.836858821642636 0 0 0 0 228.25897731479199 178.95947720636451 0 178.95947720636451 -106.01267827050833 0 0 0 0 1062.1624978793552 143.74807187856641 0 143.74807187856641 -106.36415618461609 0 0 0 0 290.02661878502113 -266.23421985685957 0 -266.23421985685957 202.6599071874457 0 0 0 0 41.101090018477407 -86.467682124476596 0 -86.467682124476596 -141.51946954198871 0 0 0 0 759.36425640127709 -220.54657985987302 0 -220.54657985987302 -130.35146462021862 0 0 0 0 286.00666380251641 -277.15094734744292 0 -277.15094734744292 -178.18056305976097 0 0 0 0 -81.497118354702252 503.59453547067631 0 503.59453547067631 -270.17446609816614 0 0 0 0 904.37723240100604 351.90899845839419 0 351.90899845839419 -270.55905056157223 0 0 0 0 40.858516726199014 -162.69132844299577 0 -162.69132844299577 -296.15623936137354 0 0 0 0 136.91070156436035 -18.401263797023262 0 -18.401263797023262 -683.30703997421642 0 0 0 0 -57.715122935223917 -49.786465371949248 0 -49.786465371949248 -67.525951995445894 0 0 0 0 -95.521244253279292 506.00172436768867 0 506.00172436768867 -767.33011486676457 0 0 0 0 20.553417171780978 4.5256908356140713 0 4.5256908356140713 -4.2538159478914395 0 0 0 0 261.63203505815181 68.316847819806071 0 68.316847819806071 339.17111297519409 0 0 0 0 648.10821610667699 253.25440093704424 0 253.25440093704424 446.39006017129805 0 0 0 0 275.09270733370795 -206.91050424045511 0 -206.91050424045511 307.87416326796665 0 0 0 0 113.20533560380863 -199.53037498186461 0 -199.53037498186461 33.062235866640094 0 0 0 0 -8.2901666957477573 -27.165843615021686 0 -27.165843615021686 206.47942104692129 0 0 0 0 140.02279610134974 46.385089627319317 0 46.385089627319317 -420.46198039833462 0 0 0 0 -84.249049105095764 -372.5353890994927 0 -372.5353890994927 -92.647488717833767 0 0 0 0 -204.65813103978871 -161.80462069491023 0 -161.80462069491023 197.30386174126426 0 0 0 0 175.07280424277633 -39.866813811252086 0 -39.866813811252086 -73.329408603497996 0 0 0 0 -325.0746211266478 -298.39333266932937 0 -298.39333266932937 -226.73478773348688 0 0 0 0 22.729844298362526 -1.0786911702062696 0 -1.0786911702062696 -2.9209220806222884 0 0 0 0 10.752658457185987 -9.3695376883482702 0 -9.3695376883482702 -0.4607498259834153 0 0 0 0 739.87816857526195 299.37549785807892 0 299.37549785807892 -328.49032943368513 0 0 0 0 -7.2748766625154531 -134.7897298165085 0 -134.7897298165085 244.87216389032096 0 0 0 0 206.07962511111691 107.58035983292507 0 107.58035983292507 83.553550209371451 0 0 0 0 45.786535875551635 -68.767696315172088 0 -68.767696315172088 128.23055583206406 0 0 0 0 427.01384205809154 -226.46592955538677 0 -226.46592955538677 -604.15101284277671 0 0 0 0 592.55185514445475 -105.20890428574091 0 -105.20890428574091 -374.8628261132103 0 0 0 0 490.70927550049601 28.190988792295059 0 28.190988792295059 -458.42502987501757 0 0 0 0 999.17183584197483 -594.92809032915966 0 -594.92809032915966 1.7754787045373632 0 0 0 0 944.87340645483755 316.15738609966104 0 316.15738609966104 -398.67778823505796 0 0 0 0 647.93013187545876 60.263120063033512 0 60.263120063033512 -1252.0341751293136 0 0 0 0 -207.09017486570519 19.542073712360434 0 19.542073712360434 -474.60991742208012 0 0 0 0 680.83289553783834 -192.1201812401041 0 -192.1201812401041 -553.75293312393478 0 0 0 0 -95.358378012300818 491.09541138388659 0 491.09541138388659 -424.16314051869335 0 0 0 0 -146.12053690265748 458.37258837256377 0 458.37258837256377 -146.6529747410757 0 0 0 0 -51.489893260397366 339.0137692331416 0 339.0137692331416 -227.63753298124175 0 0 0 0 -145.10924038469966 317.30295862287812 0 317.30295862287812 -830.26735527437449 0 0 0 0 -242.02007747162133 573.16913082224983 0 573.16913082224983 -323.82850509218679 0 0 0 0 27.907192295300774 47.993618563691541 0 47.993618563691541 -7.7740423602775337 0 0 0 0 14.129004081041742 9.1214104769304214 0 9.1214104769304214 -0.67561579749913925 0 0 0 0 -39.235723125413642 -89.472035949796009 0 -89.472035949796009 -137.85464836242681 0 0 0 0 -1424.5323379503461 -558.74127994410901 0 -558.74127994410901 -323.04884697870875 0 0 0 0 46.338417004868234 32.795066500977313 0 32.795066500977313 2.0927688997809613 0 0 0 0 64.076354550314136 34.937394136111834 0 34.937394136111834 11.456733685787185 0 0 0 0 -4.4935019177433446 4.4836220781179961 0 4.4836220781179961 4.3296646321079493 0 0 0 0 136.88166540040402 -83.588206685304613 0 -83.588206685304613 -375.41036824082403 0 0 0 0 37.231801597139565 37.488952834681101 0 37.488952834681101 -0.82007871554290546 0 0 0 0 832.9077548632049 570.40292927680412 0 570.40292927680412 481.11504589897766 0 0 0 0 1008.0967786172987 381.10141987177531 0 381.10141987177531 -965.59933433360379 0 0 0 0 1101.8740253548312 -129.92645004106771 0 -129.92645004106771 -1151.4918861655087 0 0 0 0 -406.4870896297798 360.20553619432212 0 360.20553619432212 -931.61211012908279 0 0 0 0 90.870220475218957 -899.22879822740379 0 -899.22879822740379 -527.20340131529156 0 0 0 0 44.823967340926174 81.217069885066849 0 81.217069885066849 -105.84759239192499 0 0 0 0 25.271045516135871 26.279414883583584 0 26.279414883583584 19.700012537686909 0 0 0 0 -15.855901438415458 -217.99451872017607 0 -217.99451872017607 177.44587728665829 0 0 0 0 35.653650572654442 -74.055762452168892 0 -74.055762452168892 -115.23795262865832 0 0 0 0 -159.02303814676998 -159.59123988478541 0 -159.59123988478541 28.630400504025602 0 0 0 0 42.238792188967636 45.895620995116204 0 45.895620995116204 -11.509957712387049 0 0 0 0 12.901893767683109 15.790030701252043 0 15.790030701252043 -19.900758340142023 0 0 0 0 10.635595283689327 19.985512188539175 0 19.985512188539175 -0.081148483444117403 0 0 0 0 23.72244818857871 32.01412862755334 0 32.01412862755334 -2.3459631940433674 0 0 0 0 0.026777001861834293 7.5463968597786533 0 7.5463968597786533 -12.932480081523819 0 0 0 0 91.393196522312792 8.6551266806724243 0 8.6551266806724243 -30.73100818029161 0 0 0 0 -27.873724602846778 -17.46957759462839 0 -17.46957759462839 75.090611087824527 0 0 0 0 13.867779699874518 88.651613071968427 0 88.651613071968427 84.026774630333421 0 0 0 0 6.3725129975504728 4.0010981046212173 0 4.0010981046212173 -2.980117520012183 0 0 0 0 563.06152170998394 -437.7860680629226 0 -437.7860680629226 -85.079658484726906 0 0 0 0 -22.423885490383327 307.01780544660198 0 307.01780544660198 177.15958784605414 0 0 0 0 99.60496768763187 -0.068598559710608242 0 -0.068598559710608242 -213.40274018593686 0 0 0 0 9.8785011963981333 8.3735931520141023 0 8.3735931520141023 8.3184909663833633 0 0 0 0 189.72408002872544 -54.772213029474642 0 -54.772213029474642 -3.8689672102273107 0 0 0 0 2325.9179900218733 2995.7040131812332 0 2995.7040131812332 467.1897548064735 0 0 0 0 -122.90130917555507 93.683939109042285 0 93.683939109042285 165.35740069888061 0 0 0 0 189.07956575399658 -60.578614511882733 0 -60.578614511882733 -29.257005161239249 0 0 0 0 12.894038872028133 -49.230897860130725 0 -49.230897860130725 -17.824564636101382 0 0 0 0 -7.2307441921691122 -6.2958126710570532 0 -6.2958126710570532 4.9062117099368372 0 0 0 0 224.17910081307491 -81.063298297922302 0 -81.063298297922302 -41.36691277632417 0 0 0 0 141.55601309693157 -97.784724622983049 0 -97.784724622983049 -22.594857614840294 0 0 0 0 162.09699500986608 -50.455552581529446 0 -50.455552581529446 -3.6092230887165897 0 0 0 0 164.02174382531075 -80.141994102097698 0 -80.141994102097698 -17.570444265198603 0 0 0 0 140.23881285903008 -95.785555213024509 0 -95.785555213024509 -23.854157147128717 0 0 0 0 127.09745661618945 -60.93411138564079 0 -60.93411138564079 3.9851790071588766 0 0 0 0 24.455454621217537 -47.574678183293891 0 -47.574678183293891 -25.198922526712174 0 0 0 0 17.342993213794216 -25.287588524285098 0 -25.287588524285098 61.766979706094389 0 0 0 0 183.31929096271017 -27.432166554368749 0 -27.432166554368749 -56.549195032475836 0 0 0 0 174.79173963086942 -66.250464185573946 0 -66.250464185573946 -23.608980028457154 0 0 0 0 171.95700069117447 -37.73388050504991 0 -37.73388050504991 -22.678468815451524 0 0 0 0 134.92357555191847 -75.614657699731652 0 -75.614657699731652 -132.43828800642495 0 0 0 0 180.50553723078337 -179.77132992967336 0 -179.77132992967336 89.484665721822125 0 0 0 0 67.759396233872394 -260.48714155597531 0 -260.48714155597531 61.034851505376992 0 0 0 0 206.61685278687219 -366.95360311267564 0 -366.95360311267564 91.932857776829451 0 0 0 0 361.57977287208632 -274.20791980001877 0 -274.20791980001877 -183.17819692292096 0 0 0 0 200.67746112687746 -26.146987317444882 0 -26.146987317444882 -108.00775679518483 0 0 0 0 206.0560917112216 0.70673534621460021 0 0.70673534621460021 -112.28959894739819 0 0 0 0 196.69097730036083 -9.5272759917152143 0 -9.5272759917152143 -91.690312089262989 0 0 0 0 181.67904378844105 21.015832083040095 0 21.015832083040095 -112.6432090520866 0 0 0 0 186.25717660352529 8.9213606877535767 0 8.9213606877535767 -81.468394518226887 0 0 0 0 177.97808167886978 -1.980461730474417 0 -1.980461730474417 -94.409526073292909 0 0 0 0 174.5100257346744 -21.5203596757122 0 -21.5203596757122 -72.534877559450251 0 0 0 0 171.65236950381222 -25.421846955361616 0 -25.421846955361616 -58.817645194405145 0 0 0 0 173.79299469478792 -41.350036892197295 0 -41.350036892197295 -59.299370270203326 0 0 0 0 160.7012517684816 -37.663917621353448 0 -37.663917621353448 -49.414973742193069 0 0 0 0 182.64556235611963 -57.706976856360598 0 -57.706976856360598 -50.501181320236697 0 0 0 0 171.72245348054093 -60.431859944163534 0 -60.431859944163534 -34.562245989792245 0 0 0 0 205.17217392168095 -42.625209825600905 0 -42.625209825600905 -79.191846685632299 0 0 0 0 221.06353155893521 -75.079850887700104 0 -75.079850887700104 -73.262919658645842 0 0 0 0 183.1684799884024 -53.915426833381844 0 -53.915426833381844 -69.72654915772091 0 0 0 0 171.40241793083987 -81.941974263985685 0 -81.941974263985685 -37.709300778360898 0 0 0 0 211.06002290653123 -109.63361922023432 0 -109.63361922023432 -57.13383415305583 0 0 0 0 184.82120721751744 -88.976830069660082 0 -88.976830069660082 -56.26671758456996 0 0 0 0 209.83472173715745 -56.453125606740741 0 -56.453125606740741 -103.29297822670924 0 0 0 0 277.31772380261464 -78.149139180074599 0 -78.149139180074599 -97.799654775158842 0 0 0 0 235.47311547624122 -43.952613293139621 0 -43.952613293139621 -99.551109979102876 0 0 0 0 214.26405464494928 -11.173328785384001 0 -11.173328785384001 -122.78157663397906 0 0 0 0 258.11373384963372 -36.46893619736511 0 -36.46893619736511 -113.98737228482105 0 0 0 0 214.044597946453 18.504407252038163 0 18.504407252038163 -97.847431192006297 0 0 0 0 160.16473798036645 0.29239275593008074 0 0.29239275593008074 -111.46559578584129 0 0 0 0 161.25926357971184 -13.042650458964374 0 -13.042650458964374 -107.44165163715115 0 0 0 0 167.18544544503311 -22.808420190232482 0 -22.808420190232482 -167.27377759243245 0 0 0 0 210.52302403876092 -15.07967084638949 0 -15.07967084638949 -126.80907858568116 0 0 0 0 188.15743366444076 8.7083360360911684 0 8.7083360360911684 -124.60901400238481 0 0 0 0 74.385089171519212 23.517761354682989 0 23.517761354682989 -28.014408017523238 0 0 0 0 75.958945104070153 3.4305550938797751 0 3.4305550938797751 -55.18890138441202 0 0 0 0 106.45724043964947 -45.568863842001065 0 -45.568863842001065 -204.9828584744082 0 0 0 0 117.65772725085117 -11.189669673649405 0 -11.189669673649405 -114.5299813452375 0 0 0 0 -23.398023117269986 -42.337569867885577 0 -42.337569867885577 -61.833584819512907 0 0 0 0 48.982765508593729 -28.925463893347569 0 -28.925463893347569 -310.25672563837907 0 0 0 0 33.115874846973384 -13.776787223866449 0 -13.776787223866449 -200.18825169067168 0 0 0 0 162.66555978765973 25.160931235321186 0 25.160931235321186 -271.10274065414796 0 0 0 0 127.46253587626416 107.47437673196328 0 107.47437673196328 -162.40129225121927 0 0 0 0 101.09964308627241 117.96497165247752 0 117.96497165247752 -38.814687157415392 0 0 0 0 36.57066836704962 -0.40601715719541076 0 -0.40601715719541076 -4.1903254238074243 0 0 0 0 186.04175027626661 -117.53707891817703 0 -117.53707891817703 -253.21066552435332 0 0 0 0 195.87753708758828 16.571362996818607 0 16.571362996818607 -136.99445644107732 0 0 0 0 185.38895983667317 20.644176183681111 0 20.644176183681111 -115.94208171310675 0 0 0 0 182.53761445571217 34.002202778696301 0 34.002202778696301 -177.98110342128393 0 0 0 0 163.89201669426961 43.693182195416256 0 43.693182195416256 -136.87194213694602 0 0 0 0 168.20154318069399 45.897978237734606 0 45.897978237734606 -137.82122280270733 0 0 0 0 168.65244814101607 41.054589525087977 0 41.054589525087977 -93.774423542956356 0 0 0 0 178.81734757457161 37.214154940892513 0 37.214154940892513 -126.90509160845295 0 0 0 0 181.1807332537428 27.917127423656439 0 27.917127423656439 -91.198427701841865 0 0 0 0 166.83238453287777 33.23525439799414 0 33.23525439799414 -74.355652356142855 0 0 0 0 165.07554154394893 37.881906215067943 0 37.881906215067943 -66.5562396973055 0 0 0 0 148.37517817120533 8.9967898522663745 0 8.9967898522663745 -33.673838712642464 0 0 0 0 170.99484582110017 32.368273905902242 0 32.368273905902242 -93.07793905390281 0 0 0 0 159.87407536809769 45.917369944980237 0 45.917369944980237 -90.555523835649637 0 0 0 0 158.91358479667542 38.269144152698573 0 38.269144152698573 -74.90682993558039 0 0 0 0 140.19104762669303 69.489572008288633 0 69.489572008288633 -99.201845111894727 0 0 0 0 140.04722592887993 40.615336063083305 0 40.615336063083305 -63.145789744621652 0 0 0 0 157.07278345438681 33.29685874032635 0 33.29685874032635 -59.246416603011312 0 0 0 0 167.84629863742703 29.266571081105894 0 29.266571081105894 -60.556747601971438 0 0 0 0 165.59365908899781 21.740262415697543 0 21.740262415697543 -56.957224148174646 0 0 0 0 157.00598023233903 24.446505334336287 0 24.446505334336287 -53.134721372378408 0 0 0 0 171.9180248331395 25.196681094486848 0 25.196681094486848 -57.528316809145394 0 0 0 0 184.36743398368708 21.387741952052238 0 21.387741952052238 -57.94063424644969 0 0 0 0 182.7189830889838 29.565741130405513 0 29.565741130405513 -59.691097580451242 0 0 0 0 171.87272680277238 36.848755422030081 0 36.848755422030081 -64.523498391441535 0 0 0 0 176.98535219558107 35.497231204828495 0 35.497231204828495 -64.483381962403655 0 0 0 0 175.25340824737941 37.573230520427387 0 37.573230520427387 -66.55429643383286 0 0 0 0 128.9063449209425 12.680032375791598 0 12.680032375791598 -23.406540554152343 0 0 0 0 130.56800351466359 32.437847674112483 0 32.437847674112483 -10.193397357739475 0 0 0 0 328.92167189920292 134.45251645582448 0 134.45251645582448 -68.352124656483284 0 0 0 0 -64.948835168936057 -83.43838602086953 0 -83.43838602086953 49.35638679653357 0 0 0 0 93.598402878255001 37.060524077103764 0 37.060524077103764 -3.9478418210155724 0 0 0 0 126.77154725357832 63.181096811536918 0 63.181096811536918 -45.106460962040728 0 0 0 0 139.6712069034395 36.061676998201108 0 36.061676998201108 -61.494762604101197 0 0 0 0 -3.0119507551395941 0.73593424055789569 0 0.73593424055789569 3.2450310594998211 0 0 0 0 587.58999815126663 51.679157416610906 0 51.679157416610906 -92.976575608910025 0 0 0 0 -37.399535882272176 -35.728841832109993 0 -35.728841832109993 -17.173478894804248 0 0 0 0 533.64247573517787 -63.799147678914551 0 -63.799147678914551 -196.43376189348419 0 0 0 0 383.66442877714871 -57.21944420274167 0 -57.21944420274167 123.9315916692085 0 0 0 0 377.80597236538597 -112.20963702142808 0 -112.20963702142808 -80.684448150006574 0 0 0 0 -35.804449103336083 101.17020096050078 0 101.17020096050078 -37.677470419059318 0 0 0 0 54.321887735131895 -192.96924304132654 0 -192.96924304132654 -60.875445634572316 0 0 0 0 356.29901257864549 -168.85187661916825 0 -168.85187661916825 -218.25088226349135 0 0 0 0 228.67470064075314 -141.99937571848977 0 -141.99937571848977 -29.34471804207169 0 0 0 0 184.31717567968008 -1.3760221872282727 0 -1.3760221872282727 -129.69628827833003 0 0 0 0 272.10443787509575 -135.47520744560825 0 -135.47520744560825 -41.456669704759406 0 0 0 0 256.87776182015659 -63.436317487405177 0 -63.436317487405177 -83.906170321964964 0 0 0 0 -47.65321947960183 -76.119000947309132 0 -76.119000947309132 30.185958279157603 0 0 0 0 34.828519378086469 -9.7970152893854063 0 -9.7970152893854063 -13.567368394910829 0 0 0 0 181.39652942044631 -129.08120352668357 0 -129.08120352668357 -77.271429257539012 0 0 0 0 181.39652942046814 -129.08120352670085 0 -129.08120352670085 -77.271429257537875 0 0 0 0 116.25115057895164 195.76756016446984 0 195.76756016446984 -336.98995991625452 0 0 0 0 181.39652942045359 -129.08120352668698 0 -129.08120352668698 -77.271429257537761 0 0 0 0 148.6690371249897 19.422193627594197 0 19.422193627594197 -56.030169163219398 0 0 0 0 130.5048130953887 3.4272014362431378 0 3.4272014362431378 -3.1667571094375795 0 0 0 0 158.54220977278965 37.881209437618054 0 37.881209437618054 -49.690701793518201 0 0 0 0 173.43162296985611 24.763479124673268 0 24.763479124673268 -81.576198180948339 0 0 0 0 125.72097263844131 -10.966917228006283 0 -10.966917228006283 -8.6908696706848012 0 0 0 0 147.79435147322874 -38.238991547720161 0 -38.238991547720161 -58.006339189694927 0 0 0 0 126.53827410724625 -12.308274619644635 0 -12.308274619644635 -60.590916255434934 0 0 0 0 118.45946958324203 8.2461944111595358 0 8.2461944111595358 -54.974178951401655 0 0 0 0 147.77858715537877 -42.680870525084629 0 -42.680870525084629 -217.34800061285733 0 0 0 0 -50.193789587996434 377.92652187913211 0 377.92652187913211 -429.65331698937376 0 0 0 0 19.834538926635162 3.676124575131972 0 3.676124575131972 -6.904589708756955 0 0 0 0 56.044597100390092 -270.86752814548004 0 -270.86752814548004 218.88915224293396 0 0 0 0 -191.97336579521652 -63.971385857081941 0 -63.971385857081941 -156.32178976106297 0 0 0 0 196.89402265494573 53.743144467475702 0 53.743144467475702 -181.17768781381409 0 0 0 0 74.308192871612846 -167.7700340784466 0 -167.7700340784466 -100.10683991379241 0 0 0 0 323.35999175807956 -73.082429383501065 0 -73.082429383501065 -86.779187704093829 0 0 0 0 423.54861143685412 -275.19023301991524 0 -275.19023301991524 -74.644090592020945 0 0 0 0 218.04188930982491 120.46878101726531 0 120.46878101726531 -483.96232556085931 0 0 0 0 -179.26615809371833 14.441532628563401 0 14.441532628563401 -180.98056791587987 0 0 0 0 358.24190273370186 -157.61033825677964 0 -157.61033825677964 -343.12358630244768 0 0 0 0 730.66214955280884 -589.25184476804566 0 -589.25184476804566 -89.354424916120649 0 0 0 0 141.80394463492121 -141.43232736225389 0 -141.43232736225389 207.63619812315596 0 0 0 0 273.36356841880479 -683.96840029641544 0 -683.96840029641544 744.55810893857597 0 0 0 0 274.9854969510925 -84.371406352651718 0 -84.371406352651718 499.40914984507026 0 0 0 0 269.73490496452723 -313.25785056779034 0 -313.25785056779034 343.72043495673802 0 0 0 0 307.92755298080738 -384.13102894908911 0 -384.13102894908911 125.61152608699331 0 0 0 0 378.62342941394309 -180.19555969186831 0 -180.19555969186831 120.4994766089635 0 0 0 0 350.54615396130248 -230.08180555255592 0 -230.08180555255592 120.75042997890296 0 0 0 0 357.76083661432494 -75.666135076192404 0 -75.666135076192404 96.587391754987834 0 0 0 0 1.0269896342452398 -0.80672844602206339 0 -0.80672844602206339 -2.392508221226568 0 0 0 0 101.10439167635195 405.90390743730984 0 405.90390743730984 -1012.9972696141639 0 0 0 0 193.87340042604774 -118.49067053695398 0 -118.49067053695398 12.60650714181071 0 0 0 0 -159.31741025552765 252.92230058612881 0 252.92230058612881 -640.8465673962969 0 0 0 0 3.3128540347314583 -1.6117978668072581 0 -1.6117978668072581 -2.8655283925439177 0 0 0 0 329.29902820571442 -200.08646211751162 0 -200.08646211751162 -50.905811472023288 0 0 0 0 97.272639633651124 -192.65099696688867 0 -192.65099696688867 15.957286162032005 0 0 0 0 184.53888859282597 -246.40880202752351 0 -246.40880202752351 -179.39460911470576 0 0 0 0 40.358987928309944 -172.40536486469682 0 -172.40536486469682 -216.4208971562507 0 0 0 0 16.196950142300921 -130.06615774259188 0 -130.06615774259188 -247.15512869201802 0 0 0 0 298.95536895106125 27.950641267539936 0 27.950641267539936 -72.520542965161894 0 0 0 0 184.07676778183668 -169.07798639605107 0 -169.07798639605107 -248.46715357268442 0 0 0 0 8.0460746442176969 -2.1898175508591038 0 -2.1898175508591038 -5.3622579714734684 0 0 0 0 62.174971795953752 83.33335106823256 0 83.33335106823256 -552.80204449176108 0 0 0 0 260.32388894433825 -227.7439531129169 0 -227.7439531129169 -140.11355980738756 0 0 0 0 203.61906727976748 -26.172245735363276 0 -26.172245735363276 -455.44698618846587 0 0 0 0 12.727000229278929 108.79257700212429 0 108.79257700212429 -349.62087512423045 0 0 0 0 0.60758555732900277 -32.741584545297655 0 -32.741584545297655 -98.730076324474794 0 0 0 0 34.767881248946651 1.8449806064563745 0 1.8449806064563745 -191.72903046547185 0 0 0 0 51.322822861693567 -101.57376560543844 0 -101.57376560543844 -302.54252610205913 0 0 0 0 176.35089224294279 -173.68637207189562 0 -173.68637207189562 -261.57098182402251 0 0 0 0 48.352835197147215 -111.91738419239789 0 -111.91738419239789 -158.70543730769805 0 0 0 0 0.51037611358333379 -64.04390448497611 0 -64.04390448497611 -176.84003223525451 0 0 0 0 7.6134859000012511 -42.638009286202987 0 -42.638009286202987 -96.227305641813302 0 0 0 0 19.603571020850723 -11.825465476202993 0 -11.825465476202993 -21.777720918504201 0 0 0 0 14.188735802582386 -1.919105888059029 0 -1.919105888059029 -7.2932479561141994 0 0 0 0 19.162577381692245 -8.6124331475353415 0 -8.6124331475353415 -7.0395337325492164 0 0 0 0 10.764867497549858 2.4879990679287403 0 2.4879990679287403 77.763220451695929 0 0 0 0 262.7924166851808 -377.8967911566167 0 -377.8967911566167 180.38305967708067 0 0 0 0 2.1625618771134043 0.29288640425095025 0 0.29288640425095025 -2.3056310418662527 0 0 0 0 502.70421178660399 -398.93937366531645 0 -398.93937366531645 77.339478153260757 0 0 0 0 209.74778210179647 -63.177069375600922 0 -63.177069375600922 148.70501440199916 0 0 0 0 426.94209380865868 -195.75770559799525 0 -195.75770559799525 -45.527085468755104 0 0 0 0 160.20430130997556 -176.02424571797295 0 -176.02424571797295 18.021568439620296 0 0 0 0 384.60382868738088 -56.199339872651308 0 -56.199339872651308 -46.517730369488163 0 0 0 0 254.040919712701 -133.86027583017039 0 -133.86027583017039 -3.5811684516429523 0 0 0 0 266.15097064882866 -85.83217642824934 0 -85.83217642824934 32.685548751786882 0 0 0 0 245.79984230644186 8.3342489031997502 0 8.3342489031997502 -239.45234695421414 0 0 0 0 19.916659787693789 -3.5363447625784943 0 -3.5363447625784943 -13.81094416147107 0 0 0 0 20.349280233858735 -2.4065543279775738 0 -2.4065543279775738 -11.813445720457821 0 0 0 0 404.36587623970991 -226.6970404640897 0 -226.6970404640897 50.945964178811664 0 0 0 0 7.9622769777618601 -0.20493736700970544 0 -0.20493736700970544 -3.2331128582400188 0 0 0 0 64.841197837318759 1.0004804919271919 0 1.0004804919271919 -4.4013580388455011 0 0 0 0 81.792416447664436 -5.6281987237593967 0 -5.6281987237593967 -11.75794078339004 0 0 0 0 28.256126964977057 -9.7995899781402755 0 -9.7995899781402755 -11.040758681523478 0 0 0 0 14.479388449049324 -11.154705759720869 0 -11.154705759720869 -8.6838429575260196 0 0 0 0 65.78532657990209 13.703875528336695 0 13.703875528336695 -4.3548229758704782 0 0 0 0 55.691463968163589 22.202385626815158 0 22.202385626815158 -4.9960366495160997 0 0 0 0 89.865446677424188 4.1029916987972683 0 4.1029916987972683 -16.04716711821311 0 0 0 0 19.078998813616636 44.275684165843586 0 44.275684165843586 -19.143000000218308 0 0 0 0 35.715286888735136 29.605397606199404 0 29.605397606199404 -5.0002478410625049 0 0 0 0 57.101362186780534 40.098266006530366 0 40.098266006530366 -26.374696904487791 0 0 0 0 54.26282358863682 30.436386477510496 0 30.436386477510496 -11.7855897423442 0 0 0 0 31.914920651499415 30.185466130345048 0 30.185466130345048 -4.5308060476763785 0 0 0 0 41.608231612073723 42.505187902048419 0 42.505187902048419 -21.97210336628541 0 0 0 0 32.663713990015822 44.806967922722805 0 44.806967922722805 -20.084471334983391 0 0 0 0 73.081217214501521 42.861389670347762 0 42.861389670347762 -42.958328959010032 0 0 0 0 11.590166771292402 2.8762531160472093 0 2.8762531160472093 -0.35912274000420652 0 0 0 0 81.316860100210761 29.644488203640321 0 29.644488203640321 -17.846976055206824 0 0 0 0 36.030635369414085 2.1579213417678744 0 2.1579213417678744 -88.498941322001883 0 0 0 0 6.0040242946050597 3.4329687545755405 0 3.4329687545755405 -8.4906559678539608 0 0 0 0 46.449436017706148 2.3707435578564642 0 2.3707435578564642 -14.498383451286417 0 0 0 0 34.688382692824234 -17.038491063048696 0 -17.038491063048696 -98.986873245604329 0 0 0 0 91.778032936437739 -48.132703941414547 0 -48.132703941414547 96.159714514258667 0 0 0 0 -6.8509355348105601 -16.108391604274971 0 -16.108391604274971 -41.473868259266965 0 0 0 0 -26.559409981709905 -57.666292857129974 0 -57.666292857129974 -96.953623879446255 0 0 0 0 -97.23646656308847 -112.93421619416813 0 -112.93421619416813 -75.771398205156515 0 0 0 0 -21.548180733909248 -172.65326471663332 0 -172.65326471663332 -211.25193755959322 0 0 0 0 22.515888597699814 65.952033849058807 0 65.952033849058807 -47.872246141628239 0 0 0 0 -21.562576663171058 189.00259703169218 0 189.00259703169218 -196.30036054771722 0 0 0 0 41.044688625712297 78.221219288503562 0 78.221219288503562 -71.129938984949149 0 0 0 0 60.953942563253804 63.055895066066796 0 63.055895066066796 -59.879106819356821 0 0 0 0 92.48375080410915 68.20382333886846 0 68.20382333886846 -88.996594870138324 0 0 0 0 102.55898263884956 80.269376631630166 0 80.269376631630166 -157.17565747389017 0 0 0 0 -1.8651188741341684 2.0271443766137907 0 2.0271443766137907 -1.9314565397111068 0 0 0 0 -10.831773636193248 134.59666832840298 0 134.59666832840298 -131.56911727148281 0 0 0 0 170.87158020711649 153.46566406396505 0 153.46566406396505 -329.25185984466907 0 0 0 0 -161.78274075238369 164.25376494188919 0 164.25376494188919 -245.77631482912147 0 0 0 0 -197.93499355726817 -178.77252067007885 0 -178.77252067007885 -259.87073202928559 0 0 0 0 -175.06400075840793 -236.95484116473278 0 -236.95484116473278 -251.10578463949196 0 0 0 0 -59.154120195307769 -37.500960898414633 0 -37.500960898414633 -467.61863160710436 0 0 0 0 -47.803058129560668 -110.12096094124718 0 -110.12096094124718 -148.68933524482804 0 0 0 0 98.52237094972952 -67.492981836677927 0 -67.492981836677927 15.585614019838431 0 0 0 0 166.87614998320259 -67.383291631676087 0 -67.383291631676087 -33.548531789509525 0 0 0 0 174.21947167073813 -35.527929605096915 0 -35.527929605096915 -120.25978771522568 0 0 0 0 267.47580444586492 11.846996916270882 0 11.846996916270882 -178.53294855541662 0 0 0 0 201.27457437501289 -50.181591093329644 0 -50.181591093329644 -129.94714803291242 0 0 0 0 137.07082560454728 5.8683175441838102 0 5.8683175441838102 -66.971620155241908 0 0 0 0 146.02335361816222 25.00824850816889 0 25.00824850816889 -88.670073514698743 0 0 0 0 94.587093248555902 53.722785062246658 0 53.722785062246658 -84.929703644003212 0 0 0 0 119.63029024145362 21.655934744428123 0 21.655934744428123 -47.016558656587222 0 0 0 0 124.72346421942348 16.350629068292619 0 16.350629068292619 -74.492263832985373 0 0 0 0 134.68807785687386 -5.2997432044480774 0 -5.2997432044480774 -40.778235471750122 0 0 0 0 121.74713588366285 -19.600127811220773 0 -19.600127811220773 -56.561398905536862 0 0 0 0 114.41046407394606 12.112227390205135 0 12.112227390205135 -43.732328042786321 0 0 0 0 107.73802601307398 16.416513317826684 0 16.416513317826684 -29.204276193686383 0 0 0 0 109.2993744305677 22.4964476369355 0 22.4964476369355 -6.3313341357206809 0 0 0 0 116.50521627084527 4.393059757890569 0 4.393059757890569 -25.419713645271258 0 0 0 0 86.960660095908679 34.848511843757478 0 34.848511843757478 -38.536315834411653 0 0 0 0 88.859508808644023 37.78287475570778 0 37.78287475570778 -46.63280115687752 0 0 0 0 105.8704094187633 23.488539414132447 0 23.488539414132447 -36.197920798857012 0 0 0 0 103.63844475135556 17.963253349907063 0 17.963253349907063 -26.941295848697337 0 0 0 0 90.27917355055979 21.219422260468491 0 21.219422260468491 -20.405796936910974 0 0 0 0 68.368723106151407 13.41574170726695 0 13.41574170726695 -7.6383283489578488 0 0 0 0 56.214725303683736 22.787593603789105 0 22.787593603789105 -18.853831345171784 0 0 0 0 81.87699355991208 28.467309028895215 0 28.467309028895215 -21.275154857689813 0 0 0 0 83.323154223060556 31.127273578329778 0 31.127273578329778 -21.463194549682157 0 0 0 0 99.764655598904938 24.905618713356034 0 24.905618713356034 -27.851000086529893 0 0 0 0 95.356672442329 23.743562437248329 0 23.743562437248329 -27.80460399983167 0 0 0 0 118.3474427931651 22.626948679065208 0 22.626948679065208 -11.586482345067452 0 0 0 0 103.31171443204221 33.232917860682392 0 33.232917860682392 -9.3495889408532094 0 0 0 0 105.07694667766191 29.37476680827649 0 29.37476680827649 -0.93828977700650285 0 0 0 0 90.449679055003799 46.453121055690644 0 46.453121055690644 -11.1794633673926 0 0 0 0 90.00615978852602 57.023893838248227 0 57.023893838248227 -7.065258335263934 0 0 0 0 95.317673179393751 53.857419762271093 0 53.857419762271093 -5.7735239531903062 0 0 0 0 27.521677429314011 6.0399243156120832 0 6.0399243156120832 -2.1678384009414451 0 0 0 0 210.77517809421988 232.44539954387437 0 232.44539954387437 -283.88644414003465 0 0 0 0 88.271776396830489 45.655272122285211 0 45.655272122285211 12.086353388556716 0 0 0 0 -117.66923819559452 256.17219521537481 0 256.17219521537481 52.761624992566794 0 0 0 0 111.76793342809106 186.33568618390927 0 186.33568618390927 -233.84496155945817 0 0 0 0 453.63991949444608 432.86593475629343 0 432.86593475629343 -61.234061636914703 0 0 0 0 56.226077200197324 374.18647286214764 0 374.18647286214764 118.53057165486825 0 0 0 0 36.154846357231506 -16.859843234902733 0 -16.859843234902733 -20.025016191822388 0 0 0 0 -174.34048092657758 475.6874233493254 0 475.6874233493254 524.70422249127296 0 0 0 0 1003.1571649357047 -400.62146435230989 0 -400.62146435230989 -259.84164105172749 0 0 0 0 40.894536752381846 0.66728569744945787 0 0.66728569744945787 -32.034862360725924 0 0 0 0 68.418252082774416 22.880000107023079 0 22.880000107023079 -21.087493658422318 0 0 0 0 6.0587545981325093 -251.40947425928971 0 -251.40947425928971 -208.58822309722746 0 0 0 0 85.498060153999177 11.354371602946458 0 11.354371602946458 -18.234334226314786 0 0 0 0 96.217901032614463 3.2712656477842756 0 3.2712656477842756 -18.094788547124381 0 0 0 0 90.625425190512033 4.6738981798287114 0 4.6738981798287114 -18.191760635014361 0 0 0 0 31.870318294892698 -21.334528946883211 0 -21.334528946883211 -8.6750534766843934 0 0 0 0 172.73228031649705 -55.902563608111905 0 -55.902563608111905 22.665065760480502 0 0 0 0 203.3597328960559 23.744782929834173 0 23.744782929834173 13.829430032579694 0 0 0 0 47.795836277131954 -64.555180702553756 0 -64.555180702553756 5.6880367341654079 0 0 0 0 73.393601791629578 26.445089181094076 0 26.445089181094076 -20.254977914067162 0 0 0 0 140.45730382411057 13.648116901509638 0 13.648116901509638 -35.672526927784929 0 0 0 0 130.86757359153125 -104.15902039655066 0 -104.15902039655066 16.692485184162166 0 0 0 0 86.757533639283793 17.559925400638349 0 17.559925400638349 -9.0342065226786872 0 0 0 0 114.07303889216564 7.7387510795679191 0 7.7387510795679191 -7.3487586370692952 0 0 0 0 317.67583497564374 57.369891499432015 0 57.369891499432015 -46.072946204102095 0 0 0 0 146.28237641220403 4.2898557588814583 0 4.2898557588814583 -59.622100290729577 0 0 0 0 59.593278404327137 30.729075777811801 0 30.729075777811801 -26.179622628774624 0 0 0 0 -73.332158967779833 -181.12710526553383 0 -181.12710526553383 -229.49028713918324 0 0 0 0 182.38824114213458 -30.403654057021868 0 -30.403654057021868 -307.78160685124203 0 0 0 0 175.47153889421315 -156.89185897670473 0 -156.89185897670473 -336.03113395390392 0 0 0 0 0.41172969760129519 0.32597052901333257 0 0.32597052901333257 -1.0277256001150405 0 0 0 0 395.2472043160783 399.46215168493165 0 399.46215168493165 128.48483996248615 0 0 0 0 6.8766474220774825 17.62754332851171 0 17.62754332851171 -36.356222620779668 0 0 0 0 35.251609234470379 43.457017731511769 0 43.457017731511769 -85.470601859316957 0 0 0 0 37.425576211632006 58.094239285454137 0 58.094239285454137 -93.466973247475835 0 0 0 0 10.253326780388704 7.3831054728462462 0 7.3831054728462462 2.2821520549448593 0 0 0 0 460.42052260170203 -99.218778215275961 0 -99.218778215275961 -84.512959914407475 0 0 0 0 102.79592446658353 -122.89846430075704 0 -122.89846430075704 21.056505336093323 0 0 0 0 -372.45965653517851 373.87239799393501 0 373.87239799393501 129.95350437583988 0 0 0 0 3.0986436006160929 5.594568732086902 0 5.594568732086902 8.8934465146242303 0 0 0 0 791.03726939981027 -125.40905713500248 0 -125.40905713500248 -135.8133882251841 0 0 0 0 249.0305451900349 3.5569480155863857 0 3.5569480155863857 -111.54698245119107 0 0 0 0 813.81675851295631 295.38970830078603 0 295.38970830078603 -91.321569187944988 0 0 0 0 341.57530520377259 99.57571901852225 0 99.57571901852225 -84.966816452517378 0 0 0 0 -330.66688932385659 -172.05171041686845 0 -172.05171041686845 206.88972688071954 0 0 0 0 189.03037722620502 144.95926529647568 0 144.95926529647568 -185.56839647384913 0 0 0 0 518.39627911331081 2.2085896677093615 0 2.2085896677093615 -313.71434955973928 0 0 0 0 481.11041643498902 83.564705787081948 0 83.564705787081948 -233.24094249097925 0 0 0 0 -0.57136434966226091 1.1660897616195527 0 1.1660897616195527 4.9774002151993599 0 0 0 0 1010.1366625192059 -281.44520022360302 0 -281.44520022360302 -168.03644917596102 0 0 0 0 -89.003445379736149 155.78598857201268 0 155.78598857201268 -165.46637598873713 0 0 0 0 55.820300932064129 48.148122642092858 0 48.148122642092858 -95.539028593444982 0 0 0 0 53.791430086635955 30.951397649003411 0 30.951397649003411 -81.316976504642753 0 0 0 0 1.3018122702414985 -37.351755811556359 0 -37.351755811556359 -158.81301141035692 0 0 0 0 131.81537456145816 -21.204048563800825 0 -21.204048563800825 -170.0070483845243 0 0 0 0 357.30242781689958 15.639807703580573 0 15.639807703580573 53.43069748554899 0 0 0 0 -2.62988774208522 6.7494434050248735 0 6.7494434050248735 -19.489681031467939 0 0 0 0 -13.676081120974459 -166.93698582308872 0 -166.93698582308872 -159.2970091615698 0 0 0 0 -117.64484166302282 80.450836648021323 0 80.450836648021323 -10.955881383002634 0 0 0 0 122.17091428086133 -172.76380314042035 0 -172.76380314042035 -188.18648001270958 0 0 0 0 94.893881260244598 5.8524304954676154 0 5.8524304954676154 -187.02487519846545 0 0 0 0 -0.33395373322722754 -1.3360448402507537 0 -1.3360448402507537 3.1166518332466318 0 0 0 0 8.34872855546746 96.792604034414353 0 96.792604034414353 -106.05717932950142 0 0 0 0 194.36775490299669 23.25262588004307 0 23.25262588004307 -60.448678488815858 0 0 0 0 450.15127414055132 -48.074296925931321 0 -48.074296925931321 -475.34906686738759 0 0 0 0 260.71093189401836 168.72040705988684 0 168.72040705988684 -60.412264175510025 0 0 0 0 435.29002611116812 -94.128057945716137 0 -94.128057945716137 -77.514546444078462 0 0 0 0 142.2319111907691 6.4197386628870845 0 6.4197386628870845 -107.3233061704841 0 0 0 0 414.13650106603131 79.570875031995939 0 79.570875031995939 -121.31843951032442 0 0 0 0 6.7625165607987583 -25.833120718907026 0 -25.833120718907026 136.25946968618052 0 0 0 0 458.79250992866127 55.138091206985777 0 55.138091206985777 -45.702717684409663 0 0 0 0 459.64211682500354 503.65891869653615 0 503.65891869653615 534.47137856791585 0 0 0 0 444.35333661935147 618.2804915426608 0 618.2804915426608 716.94328172043981 0 0 0 0 420.96210775927329 114.20797773647956 0 114.20797773647956 952.30303093203804 0 0 0 0 421.13796453053874 518.65505080205298 0 518.65505080205298 546.69177968981967 0 0 0 0 484.29100136625812 326.42539533526593 0 326.42539533526593 161.88393923736476 0 0 0 0 459.25386419020651 506.42090325852951 0 506.42090325852951 550.34415527865553 0 0 0 0 422.71807236824679 419.01492974715006 0 419.01492974715006 734.99883196101268 0 0 0 0 431.95468406564396 -75.186241802116683 0 -75.186241802116683 669.08800100601911 0 0 0 0 685.27855688405907 90.361742149496877 0 90.361742149496877 667.24536901309079 0 0 0 0 832.94815891317921 558.42945492547369 0 558.42945492547369 566.58359848816872 0 0 0 0 23.28467295000155 -439.12413293032387 0 -439.12413293032387 448.83434491762227 0 0 0 0 7.0380369535321847 1.9236667118028503 0 1.9236667118028503 0.82268611887467458 0 0 0 0 420.5951736420102 351.3509320928938 0 351.3509320928938 179.33495036938803 0 0 0 0 630.80399574280818 267.60575004518836 0 267.60575004518836 208.7837016473286 0 0 0 0 497.47159877118065 330.89510494084288 0 330.89510494084288 773.6284024365068 0 0 0 0 704.23672969151221 13.196314442854984 0 13.196314442854984 493.99114008319043 0 0 0 0 740.56486878286159 550.9154050679017 0 550.9154050679017 508.37480792417517 0 0 0 0 288.29201510549387 444.76290802099459 0 444.76290802099459 666.31243599238474 0 0 0 0 375.7103257035742 186.19681973534853 0 186.19681973534853 740.1256706935942 0 0 0 0 487.05464067119101 19.895171561499637 0 19.895171561499637 525.24679282096849 0 0 0 0 266.90153542266808 -211.81940198394764 0 -211.81940198394764 309.53604859342772 0 0 0 0 606.5743419258979 -268.19589783965523 0 -268.19589783965523 188.867623413008 0 0 0 0 358.22910441513341 -140.5199562739765 0 -140.5199562739765 244.52608386326301 0 0 0 0 -135.48642351909075 -239.06302320393775 0 -239.06302320393775 386.41793507018929 0 0 0 0 -0.39999460876875048 -0.95758263813208799 0 -0.95758263813208799 5.7034998072377476 0 0 0 0 -0.29157179592428406 0.001045913251687125 0 0.001045913251687125 7.9450034614353413 0 0 0 0 -46.96785262337562 268.37230677583744 0 268.37230677583744 219.33847545602475 0 0 0 0 420.83310561222606 -37.975068507141259 0 -37.975068507141259 -80.185461709722404 0 0 0 0 612.18658387461619 -450.83583518467003 0 -450.83583518467003 622.55311288280075 0 0 0 0 714.48995722236032 332.77256833044248 0 332.77256833044248 388.2756616637962 0 0 0 0 999.6431432809477 -774.29447723600515 0 -774.29447723600515 336.13265956365194 0 0 0 0 192.20216684175102 -845.52888669859203 0 -845.52888669859203 1308.8200661100232 0 0 0 0 7.1286798174607711 1.839012586545584 0 1.839012586545584 1.3004002651105555 0 0 0 0 188.18623476305584 195.54848275792438 0 195.54848275792438 74.467921631216768 0 0 0 0 86.851390592230018 -323.18809980531705 0 -323.18809980531705 572.14836676171035 0 0 0 0 125.77240709106263 -346.76689576306671 0 -346.76689576306671 -61.461300634517102 0 0 0 0 45.69868948073281 -87.873213547778278 0 -87.873213547778278 9.8682865646114806 0 0 0 0 256.5520825329686 -21.199003559718932 0 -21.199003559718932 139.63663905512794 0 0 0 0 447.39173325286174 120.95783041645518 0 120.95783041645518 -14.827169385940039 0 0 0 0 1115.697123011736 -54.767475586614637 0 -54.767475586614637 -71.561010815302325 0 0 0 0 720.19091769195165 -114.61917687449966 0 -114.61917687449966 135.28692014871604 0 0 0 0 374.493307994524 -2.7786892763807032 0 -2.7786892763807032 367.99490029937556 0 0 0 0 499.33088801015037 5.3061628426123661 0 5.3061628426123661 127.23254804308074 0 0 0 0 323.80867078865367 120.43074005091458 0 120.43074005091458 85.820087943976205 0 0 0 0 285.7643316869744 167.09541281815291 0 167.09541281815291 228.8396178621183 0 0 0 0 166.17385884276337 106.60247824392496 0 106.60247824392496 309.31777325212619 0 0 0 0 294.24214780597686 223.11904213021353 0 223.11904213021353 418.49211257411457 0 0 0 0 15.367462163478194 50.714327440743773 0 50.714327440743773 154.56899144443537 0 0 0 0 -218.50474578426127 182.14974920606261 0 182.14974920606261 -116.0047032431479 0 0 0 0 -0.77436876166757806 1.1062986928148364 0 1.1062986928148364 1.005626682486219 0 0 0 0 61.557805642767562 -75.170604705055666 0 -75.170604705055666 48.653907688861153 0 0 0 0 177.00142755864795 127.68889120991055 0 127.68889120991055 41.307175678006047 0 0 0 0 2.0748012508122056 1.0337889892909491 0 1.0337889892909491 -1.4336300362777603 0 0 0 0 26.521038414174654 10.808859715096332 0 10.808859715096332 -16.10651984078504 0 0 0 0 16.557920637889083 5.4904927213399333 0 5.4904927213399333 -4.0779880275649703 0 0 0 0 19.85092737448673 10.553288437162223 0 10.553288437162223 3.5973880274887051 0 0 0 0 -82.080696021109361 -28.946118618692026 0 -28.946118618692026 67.969391512157017 0 0 0 0 93.661844807592388 57.021572092990937 0 57.021572092990937 -32.394332750453941 0 0 0 0 250.06507517024784 23.28186490520693 0 23.28186490520693 -48.745439158600675 0 0 0 0 -1.5566862599357059 1.5140431108611452 0 1.5140431108611452 0.97761127582259988 0 0 0 0 22.78349811678752 1.1464345053842573 0 1.1464345053842573 0.89143044398272053 0 0 0 0 620.69810194987804 -99.874789314055306 0 -99.874789314055306 -6.9391337454135282 0 0 0 0 55.163503063359713 -27.237451573593717 0 -27.237451573593717 -69.077938367028764 0 0 0 0 3.3982807816973946 -59.666965934505242 0 -59.666965934505242 74.014808441042987 0 0 0 0 15.965315869190484 -7.9599562196699516 0 -7.9599562196699516 -3.1966042447153633 0 0 0 0 22.238109157328836 -2.8935376130384611 0 -2.8935376130384611 16.388963599665658 0 0 0 0 27.783486150796307 3.705344929664534 0 3.705344929664534 -11.488689843898101 0 0 0 0 22.561450979335859 -1.2360834294108827 0 -1.2360834294108827 -1.5403337594625555 0 0 0 0 29.021732804227213 0.80187097131874907 0 0.80187097131874907 -17.703884975832352 0 0 0 0 22.927750505410273 -0.84113072287493562 0 -0.84113072287493562 -0.54242881687237876 0 0 0 0 22.682289381035844 -5.6821420711489736 0 -5.6821420711489736 -10.715457083080764 0 0 0 0 27.807931517000085 -8.2721471303745062 0 -8.2721471303745062 -3.7983824372242578 0 0 0 0 54.564969133818522 -3.7102674197558372 0 -3.7102674197558372 8.723082052774771 0 0 0 0 81.353762556640959 -27.129768387554918 0 -27.129768387554918 4.0983935379845207 0 0 0 0 19.712792360998719 -4.0667538269308352 0 -4.0667538269308352 45.782053935507975 0 0 0 0 68.132920371186628 26.932904931791427 0 26.932904931791427 27.602458431407285 0 0 0 0 119.76783005184188 -189.54201230363469 0 -189.54201230363469 282.65326985264983 0 0 0 0 104.52194617286818 -26.564815682242624 0 -26.564815682242624 -34.192848206703275 0 0 0 0 1468.2174858423668 -111.6991891519682 0 -111.6991891519682 -74.570557510916842 0 0 0 0 1.1323417006780225 -0.78257070600328404 0 -0.78257070600328404 3.9840046174114967 0 0 0 0 -15.605841789802071 26.134214780854563 0 26.134214780854563 113.72941053031627 0 0 0 0 1226.0397575276238 25.545439449373134 0 25.545439449373134 -152.32840756429414 0 0 0 0 582.67946239234334 -572.49020961478664 0 -572.49020961478664 331.77793605486841 0 0 0 0 12.39778119811308 -28.848367051946298 0 -28.848367051946298 7.1908067230560846 0 0 0 0 9.3136020581988888 -5.0107248328193634 0 -5.0107248328193634 9.3408844160145073 0 0 0 0 159.0600777357904 -839.29015256795356 0 -839.29015256795356 -62.408935954777455 0 0 0 0 -269.73763957579104 -850.13855256357374 0 -850.13855256357374 80.977537986435891 0 0 0 0 2.9686651324163442 -2.5303577548220098 0 -2.5303577548220098 -0.4167164117528408 0 0 0 0 60.876445208425139 -895.82742429094196 0 -895.82742429094196 475.61103804175082 0 0 0 0 471.50931353229953 -367.58426627986546 0 -367.58426627986546 35.823539848064684 0 0 0 0 -181.63232398373475 -236.4361623170812 0 -236.4361623170812 -168.50149578013588 0 0 0 0 -47.094718843300143 -402.1209322007262 0 -402.1209322007262 34.644747912227103 0 0 0 0 121.71406345225842 252.41594641958227 0 252.41594641958227 -135.46082323504106 0 0 0 0 186.77274148533706 -34.57261077848807 0 -34.57261077848807 142.85453741185484 0 0 0 0 176.02430540175919 -362.73764780239389 0 -362.73764780239389 -288.42392001264488 0 0 0 0 438.93081065450133 207.56795663121511 0 207.56795663121511 -499.69763032812773 0 0 0 0 249.27659980171438 -54.501067341777457 0 -54.501067341777457 -790.31346586654763 0 0 0 0 218.78264765048516 233.45492880393704 0 233.45492880393704 365.05356299032155 0 0 0 0 85.74531206955362 -245.17739714866138 0 -245.17739714866138 -439.65538554792693 0 0 0 0 4.4831444882852729 -3.1913076158508176 0 -3.1913076158508176 -1.4225547555784779 0 0 0 0 97.307809411154267 -16.182616718772806 0 -16.182616718772806 109.33539849881618 0 0 0 0 265.28138564813707 126.97879040709631 0 126.97879040709631 -5.4306817896708708 0 0 0 0 324.45858700473491 2.7664606031639778 0 2.7664606031639778 -72.83792645999165 0 0 0 0 0.94317950739010215 1.0878447151975728 0 1.0878447151975728 -7.0922343227528586 0 0 0 0 -307.03848321804571 -472.15302761302883 0 -472.15302761302883 -445.36905817775732 0 0 0 0 398.37759027874927 90.602368780942925 0 90.602368780942925 78.71176003684559 0 0 0 0 439.04103495466779 348.58199913969827 0 348.58199913969827 87.336918247596259 0 0 0 0 57.17798092508383 21.909602213173457 0 21.909602213173457 -20.436427744796674 0 0 0 0 2.4984508166011636 -0.778991680744479 0 -0.778991680744479 -2.6841955038321252 0 0 0 0 57.862467229471235 43.623390524305449 0 43.623390524305449 -6.1663769914157456 0 0 0 0 275.39260478624419 26.051555950490183 0 26.051555950490183 -77.545135480906538 0 0 0 0 96.796542009768018 74.008694659646608 0 74.008694659646608 -18.187247002509139 0 0 0 0 173.4694659730194 82.834785436709353 0 82.834785436709353 -39.49783387487696 0 0 0 0 135.27761010181712 29.12635886377484 0 29.12635886377484 -44.123219134219653 0 0 0 0 252.2641490618953 3.1794912657514942 0 3.1794912657514942 -93.076580185181228 0 0 0 0 354.02570735415429 -58.111757634797868 0 -58.111757634797868 -109.3508645163929 0 0 0 0 245.97480369884579 -42.46731834882894 0 -42.46731834882894 -110.98744285775047 0 0 0 0 286.38807255023494 -95.857430928646863 0 -95.857430928646863 -103.28370310009996 0 0 0 0 223.20021152335903 -110.2456737223215 0 -110.2456737223215 -87.767468699457822 0 0 0 0 159.9579975771012 -136.53114473860296 0 -136.53114473860296 -30.65174298013153 0 0 0 0 203.51142140349293 -182.1161879768074 0 -182.1161879768074 -43.417589009432959 0 0 0 0 111.55767443378136 -137.21688659626761 0 -137.21688659626761 -30.046203178111682 0 0 0 0 304.04624354738917 -118.01395972038426 0 -118.01395972038426 -87.17579002924424 0 0 0 0 45.983580197469564 -134.02313875464688 0 -134.02313875464688 116.69707360397297 0 0 0 0 251.06738234603472 -202.8362375193492 0 -202.8362375193492 32.87975651542547 0 0 0 0 199.49835834454734 -119.09122418208881 0 -119.09122418208881 -41.337382285662898 0 0 0 0 616.60624991894292 -310.68697215114298 0 -310.68697215114298 60.973720682948624 0 0 0 0 808.59187029658642 90.331215463525041 0 90.331215463525041 -43.985591930910232 0 0 0 0 371.97392370894886 43.714894174263009 0 43.714894174263009 -48.178195648963083 0 0 0 0 540.18866441993305 -132.79457252623251 0 -132.79457252623251 -99.258803307122889 0 0 0 0 122.66176239844935 24.414515889458926 0 24.414515889458926 -69.92110172815228 0 0 0 0 93.113598867985274 -15.127082833033455 0 -15.127082833033455 -41.438496833142381 0 0 0 0 79.854281074258324 -53.33183732818361 0 -53.33183732818361 -144.03575513676424 0 0 0 0 46.028764042095645 -134.46864505273697 0 -134.46864505273697 -139.6135059689168 0 0 0 0 -168.06471113222267 -71.612191039725275 0 -71.612191039725275 17.329110178543488 0 0 0 0 0.21504017329653324 1.1478322401426766 0 1.1478322401426766 -1.4304411962095394 0 0 0 0 40.909158734774678 -91.016102239714286 0 -91.016102239714286 4.6293795954843517 0 0 0 0 18.983481942198843 0.22740488952318572 0 0.22740488952318572 -4.42798225137253 0 0 0 0 108.49925333631336 -107.99863828646346 0 -107.99863828646346 -23.018024269267698 0 0 0 0 88.370623461880314 -118.28108078446985 0 -118.28108078446985 -3.3636064140741837 0 0 0 0 113.67528481857153 -111.30535238547236 0 -111.30535238547236 -21.899910569540225 0 0 0 0 96.848058131537982 -54.81137114865669 0 -54.81137114865669 -14.421624310027255 0 0 0 0 78.506863233129806 -16.949585537147257 0 -16.949585537147257 -11.545053178783244 0 0 0 0 89.08313239954208 -18.45415732568253 0 -18.45415732568253 -22.939922199764624 0 0 0 0 71.8998806267482 6.7240549688701776 0 6.7240549688701776 -12.949737080257819 0 0 0 0 1756.7086837070237 116.49132108213007 0 116.49132108213007 -820.57534582476433 0 0 0 0 8.2977203732678646 10.614160011878951 0 10.614160011878951 7.6912939411461707 0 0 0 0 78.568910765385226 45.46719520714305 0 45.46719520714305 -10.99214062810961 0 0 0 0 58.938799794681756 4.4860328825446345 0 4.4860328825446345 -15.168980022097745 0 0 0 0 83.983314725439413 18.229351578074215 0 18.229351578074215 -52.757794946395364 0 0 0 0 46.129378891619126 -5.0763831882536579 0 -5.0763831882536579 -36.871193566914371 0 0 0 0 56.848815750789072 -12.340886421185587 0 -12.340886421185587 -47.412093586301125 0 0 0 0 34.431350192372236 -2.1893588687011576 0 -2.1893588687011576 -19.488545017916294 0 0 0 0 4.1266424368950538 0.091068377278133994 0 0.091068377278133994 -34.704807765323494 0 0 0 0 38.028705167183944 -36.003866129287076 0 -36.003866129287076 -13.074300875488234 0 0 0 0 69.420224556106405 -7.4418018745227528 0 -7.4418018745227528 -43.159888148835307 0 0 0 0 68.525218261860573 -23.00365693920412 0 -23.00365693920412 -38.665819407440722 0 0 0 0 40.474335871396761 -8.9853002970348825 0 -8.9853002970348825 -26.961744358147371 0 0 0 0 43.15368166162807 -30.47178847397663 0 -30.47178847397663 8.7679058787116446 0 0 0 0 23.885589884820078 -2.0381042995688858 0 -2.0381042995688858 -18.974923101521707 0 0 0 0 -5.8768596031741254 24.06230352606832 0 24.06230352606832 -42.05352899835421 0 0 0 0 74.761190288090802 -41.142773488428247 0 -41.142773488428247 2.7265785252184287 0 0 0 0 107.81946495506509 55.951565614863441 0 55.951565614863441 -17.269962282217129 0 0 0 0 97.982469208429393 -36.908361336164035 0 -36.908361336164035 -58.689821925432028 0 0 0 0 98.844846335347029 -47.485346343848505 0 -47.485346343848505 -14.379866311207479 0 0 0 0 156.74629396413366 -3.1606011073440072 0 -3.1606011073440072 -61.384701501058856 0 0 0 0 -20.39142148803694 2.2903349528528771 0 2.2903349528528771 -8.8764726963460276 0 0 0 0 78.448616869918624 -147.67966732616333 0 -147.67966732616333 72.336790329637779 0 0 0 0 252.81618803871606 -88.195053154593865 0 -88.195053154593865 -49.962253875720258 0 0 0 0 1.7642529760791703 -0.50058589143277121 0 -0.50058589143277121 -0.39555353345058009 0 0 0 0 43.262610953725925 -112.4344637911677 0 -112.4344637911677 152.24063038341245 0 0 0 0 102.47186548191712 -24.571156645796815 0 -24.571156645796815 -31.184354987283022 0 0 0 0 264.34851300965784 60.196664370672885 0 60.196664370672885 9.132262134285142 0 0 0 0 4.2305219449808646 -49.286022400063501 0 -49.286022400063501 44.792928229702568 0 0 0 0 0.72737262089503929 10.642457623500491 0 10.642457623500491 -37.06504628535216 0 0 0 0 3.8983354967189214 2.3072042447363201 0 2.3072042447363201 -5.4118591152302473 0 0 0 0 48.734700097760651 -18.476355687404698 0 -18.476355687404698 8.3120883123289957 0 0 0 0 35.526829332295165 -8.9222503859905373 0 -8.9222503859905373 -16.358215327118842 0 0 0 0 14.20425797629494 5.1862120273113694 0 5.1862120273113694 -14.07231898086491 0 0 0 0 28.422170347679639 -62.312595232012427 0 -62.312595232012427 45.396798878575282 0 0 0 0 16.269082645773175 -3.1782249689618673 0 -3.1782249689618673 -9.5368114983432744 0 0 0 0 11.39093747230072 -4.1916858597569444 0 -4.1916858597569444 -3.1932134115800181 0 0 0 0 23.260695268807318 -8.1015597526792895 0 -8.1015597526792895 -10.336569921940558 0 0 0 0 90.494498303060027 -96.641233115462455 0 -96.641233115462455 -3.3415783968121104 0 0 0 0 6.3210330171532831 -5.1259312676507385 0 -5.1259312676507385 3.3381501504014004 0 0 0 0 32.884666261419625 -38.273999571724744 0 -38.273999571724744 27.269940140725339 0 0 0 0 -21.891673031501341 -114.70916954788936 0 -114.70916954788936 -32.458836127229006 0 0 0 0 105.43161141789278 -23.697856165277699 0 -23.697856165277699 -51.555114786386184 0 0 0 0 -19.896988212167344 50.591081814734935 0 50.591081814734935 -13.524661165053658 0 0 0 0 -92.53790406432563 -16.512793495308642 0 -16.512793495308642 43.342603847473583 0 0 0 0 16.975296847238496 2.9083484738666812 0 2.9083484738666812 16.320812931527144 0 0 0 0 22.228251866585651 -14.40992287656951 0 -14.40992287656951 43.356744502005313 0 0 0 0 10.726042817845155 -9.399520059324459 0 -9.399520059324459 43.331160826175619 0 0 0 0 30.031507990964869 -6.0928089438318587 0 -6.0928089438318587 -7.7233004350609811 0 0 0 0 31.685690657987543 1.0651291921631225 0 1.0651291921631225 -4.0601019470846218 0 0 0 0 36.545476022243747 0.76336248397501549 0 0.76336248397501549 -23.863899719260189 0 0 0 0 25.601477745354259 -3.0017956135745862 0 -3.0017956135745862 -6.9848547322608283 0 0 0 0 43.442461848526364 -9.4148671247085076 0 -9.4148671247085076 -33.695013143191773 0 0 0 0 13.388379944220889 -5.1259086808752059 0 -5.1259086808752059 -11.988216876062213 0 0 0 0 -280.59958138874731 357.47372559789216 0 357.47372559789216 -194.72442961488147 0 0 0 0 9.0385312591620437 -2.8088608506802557 0 -2.8088608506802557 -6.3763794706225863 0 0 0 0 70.034833409543353 -9.6314465522735873 0 -9.6314465522735873 -23.780366916422281 0 0 0 0 30.580523191349073 18.037270203298931 0 18.037270203298931 -3.6041493944867398 0 0 0 0 -658.29810299015003 600.44854262616104 0 600.44854262616104 -94.368917595399012 0 0 0 0 124.57408605275668 -7.4926508055140744 0 -7.4926508055140744 -21.773784156073617 0 0 0 0 -1.5599699592492384 -0.67783236754867981 0 -0.67783236754867981 -1.1879413210999776 0 0 0 0 -262.54482641572292 211.07945139480162 0 211.07945139480162 -206.58304334660028 0 0 0 0 -211.906233015466 354.07077424963893 0 354.07077424963893 98.966223176239509 0 0 0 0 -163.54504530800398 75.507255357249846 0 75.507255357249846 202.47703244566449 0 0 0 0 -405.41171087709267 166.94809504991986 0 166.94809504991986 -81.980621953488566 0 0 0 0 -431.73043641842037 186.76879051612408 0 186.76879051612408 114.38855121576509 0 0 0 0 962.89823686004365 391.09128184036985 0 391.09128184036985 52.150123521136067 0 0 0 0 46.984175638382112 508.62819526253213 0 508.62819526253213 25.07442119278096 0 0 0 0 412.87968527248256 -26.574834332473131 0 -26.574834332473131 -138.04824160950946 0 0 0 0 -97.238360206879861 275.13210889509025 0 275.13210889509025 -137.93275015314268 0 0 0 0 43.671873345887022 1.522126021892092 0 1.522126021892092 -3.4766863954925338 0 0 0 0 57.660894838594686 -37.819579994629635 0 -37.819579994629635 -78.016127853002331 0 0 0 0 -38.336975340476783 -43.04887569732648 0 -43.04887569732648 1.8776675185920908 0 0 0 0 61.510588324105356 324.62404405111681 0 324.62404405111681 -553.27399914513944 0 0 0 0 139.57050979574342 59.069435425920403 0 59.069435425920403 -171.56411330834078 0 0 0 0 168.45909973417292 41.962180226914825 0 41.962180226914825 -181.28718027352215 0 0 0 0 528.37832622031192 180.1321839142183 0 180.1321839142183 -961.4492481021814 0 0 0 0 49.498581820967473 -0.22234270081963681 0 -0.22234270081963681 -1.8543172763726137 0 0 0 0 42.992168482611895 -2.9767173641728331 0 -2.9767173641728331 -1.8254503652230845 0 0 0 0 1307.3338597961508 -586.74001780469086 0 -586.74001780469086 -166.09424813118 0 0 0 0 912.12477175794811 -871.71418736886505 0 -871.71418736886505 -269.47075392059924 0 0 0 0 1454.2298025359437 -1147.0568123268527 0 -1147.0568123268527 43.656029989394654 0 0 0 0 87.241643718482067 -153.7206439823504 0 -153.7206439823504 52.576622288434351 0 0 0 0 1235.095812999878 -674.76885876996005 0 -674.76885876996005 238.42936481320498 0 0 0 0 1266.853256785658 -331.02627709282535 0 -331.02627709282535 -257.12822961602728 0 0 0 0 1867.7125533868918 -408.73446763486925 0 -408.73446763486925 175.38301925657078 0 0 0 0 2167.2638774061579 -1138.1603331100523 0 -1138.1603331100523 316.52697616393897 0 0 0 0 2361.3812705431087 -1808.7817623142248 0 -1808.7817623142248 203.70203513184174 0 0 0 0 2134.7915028460666 -780.93026706735043 0 -780.93026706735043 -42.477978111213432 0 0 0 0 3502.1013090808519 -1178.170423099923 0 -1178.170423099923 -199.47721366588544 0 0 0 0 1380.8330058154645 -1235.7980760679825 0 -1235.7980760679825 232.12533109072302 0 0 0 0 3490.7319499408418 -2933.6584492002507 0 -2933.6584492002507 1569.7295471313776 0 0 0 0 18.400300517300046 -4.2206833397575121 0 -4.2206833397575121 0.51996702906118331 0 0 0 0 300.91169098118007 141.60956972413425 0 141.60956972413425 -156.12403071052654 0 0 0 0 17.242240802239394 -17.323476383388311 0 -17.323476383388311 -241.52166190648063 0 0 0 0 4.6970723146560447 0.38549671745253278 0 0.38549671745253278 -0.70848050522232597 0 0 0 0 8.2576825073286102 -0.12596615705133551 0 -0.12596615705133551 0.62884596374164203 0 0 0 0 3456.5537352713181 -812.50140798759026 0 -812.50140798759026 -155.05236854332097 0 0 0 0 3493.7273508880744 1062.2450414731331 0 1062.2450414731331 -129.70279019729242 0 0 0 0 1720.8307285801202 312.75218130933484 0 312.75218130933484 -218.18301067419569 0 0 0 0 8.3949729797726995 2.066593106811851 0 2.066593106811851 2.4444786517115245 0 0 0 0 17.886410719461544 -3.7085315609947447 0 -3.7085315609947447 -0.17261529083667773 0 0 0 0 26.753149498197672 0.66653413147150786 0 0.66653413147150786 -0.53838092140853178 0 0 0 0 -5.545423853869579 66.202428883526522 0 66.202428883526522 62.437769089517374 0 0 0 0 43.05461709282099 25.854175779346676 0 25.854175779346676 1.0171348783794087 0 0 0 0 -91.992390633708965 -36.554804268320481 0 -36.554804268320481 -6.6884131990884441 0 0 0 0 -55.800545250753203 61.081538727174149 0 61.081538727174149 6.0212273999541281 0 0 0 0 118.26342844390905 35.51816319862462 0 35.51816319862462 9.5849644920888011 0 0 0 0 -1.9022161454049638 -71.58056152270882 0 -71.58056152270882 -123.41471374487983 0 0 0 0 48.112292965459346 46.246636857041466 0 46.246636857041466 -212.20901467928172 0 0 0 0 20.578803617368976 25.469615425556164 0 25.469615425556164 -49.395517072361478 0 0 0 0 -0.12285851262913638 44.336527037401304 0 44.336527037401304 -35.041716531101855 0 0 0 0 99.756359456892824 -74.301560829589747 0 -74.301560829589747 -178.30805756135999 0 0 0 0 0.4077394109857515 0.53424383348858129 0 0.53424383348858129 -0.21704194731172155 0 0 0 0 -15.718229776273802 -17.826122648970323 0 -17.826122648970323 32.561250504418908 0 0 0 0 10.65357007412058 -57.111041140449359 0 -57.111041140449359 30.216398691687743 0 0 0 0 71.432926793353545 -33.558667218331948 0 -33.558667218331948 16.081128057173714 0 0 0 0 4.4692343327320572 -0.82603152407392955 0 -0.82603152407392955 0.20927075942407436 0 0 0 0 37.908088111005782 -51.372749106190945 0 -51.372749106190945 14.335000060948573 0 0 0 0 20.942255958267197 -18.636043066993864 0 -18.636043066993864 20.262302743829196 0 0 0 0 133.45622981859196 -11.358529520680804 0 -11.358529520680804 -43.034960928057444 0 0 0 0 2.5601191776497032 -3.6681740793597957 0 -3.6681740793597957 -0.74915172621151327 0 0 0 0 101.77319605540833 -3.1577154492321142 0 -3.1577154492321142 -10.584454588717556 0 0 0 0 20.769359826385305 -1.3088665427408621 0 -1.3088665427408621 -0.69551726776670986 0 0 0 0 -2.9791987065364083 -1.3882990010888605 0 -1.3882990010888605 51.609679311839606 0 0 0 0 32.183000683202408 7.8222733779343798 0 7.8222733779343798 52.185564279361358 0 0 0 0 -6.2330830881446673 -39.261257713220999 0 -39.261257713220999 7.2667517398992203 0 0 0 0 21.802467137794295 -2.3213995916272623 0 -2.3213995916272623 -1.0305062994826146 0 0 0 0 37.856400974516873 -3.8694583179985003 0 -3.8694583179985003 -2.1107854688640515 0 0 0 0 20.620597163331695 -2.7251852105241596 0 -2.7251852105241596 -6.1086217830065266 0 0 0 0 33.959760655801801 -6.2279025756804813 0 -6.2279025756804813 2.3995489420579021 0 0 0 0 19.64584591890889 -4.1468473686025931 0 -4.1468473686025931 2.2405204005582675 0 0 0 0 17.359399362333377 -3.5417237413856064 0 -3.5417237413856064 -2.4144586370036021 0 0 0 0 108.312056688741 35.832427710707208 0 35.832427710707208 -13.462175986623151 0 0 0 0 65.926084541966702 -23.951420292841362 0 -23.951420292841362 -11.028342269258928 0 0 0 0 132.1625934089534 -68.992360364976321 0 -68.992360364976321 19.535802156410057 0 0 0 0 104.74023865602067 -17.830947001417826 0 -17.830947001417826 -13.599372201678989 0 0 0 0 20.910327359902155 -2.7010082124419057 0 -2.7010082124419057 -2.7327055646241147 0 0 0 0 15.987110033471254 -1.5955753252276281 0 -1.5955753252276281 -6.5534156083516564 0 0 0 0 20.168955148632573 -8.9402384138001203 0 -8.9402384138001203 -2.0781023392136202 0 0 0 0 21.176065032534439 -3.4602245434757801 0 -3.4602245434757801 1.7323240701951268 0 0 0 0 38.549819233398011 -5.6731598110886807 0 -5.6731598110886807 1.8956592147745823 0 0 0 0 20.257065421499632 -3.6865194760116253 0 -3.6865194760116253 -0.54462172515606044 0 0 0 0 25.170620495270875 4.0272615868725552 0 4.0272615868725552 -0.80436731042387422 0 0 0 0 22.738400159061712 -0.26336602151053512 0 -0.26336602151053512 -3.6447308000236944 0 0 0 0 42.547324276412837 9.2269198712761238 0 9.2269198712761238 2.0494967213982136 0 0 0 0 39.968035145120787 -2.2461032983570668 0 -2.2461032983570668 -1.1098121455123184 0 0 0 0 42.707922759019624 14.376451589540057 0 14.376451589540057 -3.3912449919781285 0 0 0 0 73.77836667959761 15.387207896333322 0 15.387207896333322 -24.043460911131312 0 0 0 0 28.353907225682633 8.5712179728807314 0 8.5712179728807314 -15.97708675650847 0 0 0 0 48.095415371474473 9.2030032313462726 0 9.2030032313462726 -14.309182362051828 0 0 0 0 45.88508170991372 3.7380203195857327 0 3.7380203195857327 -4.8339432882321773 0 0 0 0 36.631460531560151 7.7567431473020179 0 7.7567431473020179 -1.9013860506543097 0 0 0 0 15.226869222596633 -1.0712992264836672 0 -1.0712992264836672 -2.8669617950473141 0 0 0 0 41.804623263276881 -1.9610702190892795 0 -1.9610702190892795 1.8617817900536693 0 0 0 0 37.643876418544096 -11.016024419826522 0 -11.016024419826522 6.2978553960774661 0 0 0 0 22.016737251580636 0.52584814812199809 0 0.52584814812199809 -2.1869183092637203 0 0 0 0 17.736015545207295 -2.3630879522472021 0 -2.3630879522472021 -0.20846381992551422 0 0 0 0 22.77911420489545 -17.023474022326354 0 -17.023474022326354 -13.909764754056596 0 0 0 0 19.568952424227973 -4.8290828481130745 0 -4.8290828481130745 -0.57572150638202402 0 0 0 0 83.508715806190594 -27.173269615703262 0 -27.173269615703262 -8.7205832444473117 0 0 0 0 32.976430564908583 -3.5830964114541981 0 -3.5830964114541981 0.27235917324395653 0 0 0 0 26.314772827034176 4.4503805881921608 0 4.4503805881921608 6.5517604672287462 0 0 0 0 23.279803288940457 -0.081700112170835837 0 -0.081700112170835837 4.0451925033586349 0 0 0 0 2469.239856841612 1110.2961095969333 0 1110.2961095969333 326.4314315610228 0 0 0 0 2486.2253858707527 2030.8635395342758 0 2030.8635395342758 741.43053552355468 0 0 0 0 -714.47192644190363 2049.9812200385099 0 2049.9812200385099 3026.5312891044673 0 0 0 0 2.1560879704968698 1.0116510224634805 0 1.0116510224634805 3.2752031715307393 0 0 0 0 3467.1410686237796 2.7992689802083586 0 2.7992689802083586 0.60816494767385054 0 0 0 0 3.6234937847855804 2.3231288520700879 0 2.3231288520700879 3.1281097632158499 0 0 0 0 15.404739854500804 6.81020333321203 0 6.81020333321203 -2.0868348653580142 0 0 0 0 6.2385322052608103 7.7581417584541477 0 7.7581417584541477 1.4917332324069035 0 0 0 0 1803.0625402957849 456.61952248540774 0 456.61952248540774 -64.101692893951281 0 0 0 0 25.451851857836136 3.5783754575079172 0 3.5783754575079172 -0.93141016245013919 0 0 0 0 3496.8353417144112 -892.61420734899116 0 -892.61420734899116 -392.46242458707695 0 0 0 0 996.54747940878337 -456.05724985150448 0 -456.05724985150448 364.05524623462168 0 0 0 0 12.933978917338649 4.1041365703685084 0 4.1041365703685084 1.8186943987379827 0 0 0 0 1899.7537021631288 -427.78075813381571 0 -427.78075813381571 -206.05116177831326 0 0 0 0 561.87191143226664 -2384.0045079127467 0 -2384.0045079127467 1825.0899099154014 0 0 0 0 26.717476836805872 6.1633749133952023 0 6.1633749133952023 0.77251834286922616 0 0 0 0 20.59242892338807 -1.8008429126884948 0 -1.8008429126884948 1.9901534159066614 0 0 0 0 21.657270110945561 2.83972772610859 0 2.83972772610859 -0.54825296577218663 0 0 0 0 36.846555561234709 52.754272206090945 0 52.754272206090945 -46.008934974666161 0 0 0 0 573.69862018933054 167.97705157487917 0 167.97705157487917 147.60383002898197 0 0 0 0 5.5944909731282451 1.1654767335291041 0 1.1654767335291041 -6.0128511421138775 0 0 0 0 350.77099270936742 416.40724242153897 0 416.40724242153897 720.06617867395471 0 0 0 0 544.52690880139198 723.28520850905511 0 723.28520850905511 635.39126991287958 0 0 0 0 -0.61780003654348548 4.9048345706098644 0 4.9048345706098644 -120.21556735427112 0 0 0 0 85.952059582774382 -146.66011649231211 0 -146.66011649231211 -289.16962479841413 0 0 0 0 21.619095580623252 45.636414368942042 0 45.636414368942042 -46.957679955280923 0 0 0 0 34.522999825479928 47.308338008281908 0 47.308338008281908 -94.737054236651602 0 0 0 0 20.022009895983501 64.486159441232758 0 64.486159441232758 -80.295421720175455 0 0 0 0 22.047176387291984 47.511116548378482 0 47.511116548378482 -40.486980935415886 0 0 0 0 15.139156127654132 39.090777842777925 0 39.090777842777925 -34.635551238072821 0 0 0 0 17.083136363602534 41.718851496393313 0 41.718851496393313 -32.782648201165898 0 0 0 0 1.8028693177948298 25.05739576351624 0 25.05739576351624 6.8716616026163138 0 0 0 0 14.962601868457568 23.892204906717552 0 23.892204906717552 24.448653411690429 0 0 0 0 46.824088979104999 25.961539945386221 0 25.961539945386221 -37.461697748071259 0 0 0 0 24.010561827417405 50.493756014930995 0 50.493756014930995 34.349645318806424 0 0 0 0 4.0424618409635116 6.9030908940884217 0 6.9030908940884217 -6.6758036477499356 0 0 0 0 22.549459164105201 20.918377495772695 0 20.918377495772695 27.210858933073723 0 0 0 0 319.91523039282038 418.07294541936494 0 418.07294541936494 479.16355005100559 0 0 0 0 253.26868256795569 422.16573078718602 0 422.16573078718602 701.38191540742741 0 0 0 0 13.206605236002218 0.78082321217673467 0 0.78082321217673467 -1.7340933451779676 0 0 0 0 18.266963815738563 40.230593713897179 0 40.230593713897179 0.9294283903991527 0 0 0 0 500.53665198869567 766.80769552909396 0 766.80769552909396 1145.3953478060464 0 0 0 0 80.189424784503387 -58.236944235197768 0 -58.236944235197768 23.123235861231588 0 0 0 0 4.7521155818893988 0.77216297498816289 0 0.77216297498816289 0.20565661999455553 0 0 0 0 70.558270159902122 -171.30039186458998 0 -171.30039186458998 -72.435874982574205 0 0 0 0 912.18297404009354 284.52648903407089 0 284.52648903407089 529.86114730922588 0 0 0 0 57.7854178628113 0.68332161895045829 0 0.68332161895045829 -80.996449567835953 0 0 0 0 687.74461793529917 768.61832381831368 0 768.61832381831368 672.13329942765813 0 0 0 0 976.10463691416953 543.99681050579738 0 543.99681050579738 133.17655785230636 0 0 0 0 587.1670671198226 686.97276980822721 0 686.97276980822721 689.95851844940353 0 0 0 0 110.34614325964867 -61.641197735974401 0 -61.641197735974401 -21.834877005966518 0 0 0 0 635.91559767206491 649.4491638814502 0 649.4491638814502 402.73913900902335 0 0 0 0 1238.9830116667581 760.41518964009992 0 760.41518964009992 536.6923516298275 0 0 0 0 82.697825836594603 -65.252751304213774 0 -65.252751304213774 26.132527693067829 0 0 0 0 81.481525182072801 -74.421109607907511 0 -74.421109607907511 -22.238618740110269 0 0 0 0 136.86745741602863 -49.059415869099666 0 -49.059415869099666 -38.60307707115544 0 0 0 0 142.59336419610008 -38.323669881737715 0 -38.323669881737715 -65.854107812062011 0 0 0 0 131.94975234066806 -41.390920732038467 0 -41.390920732038467 -34.622392438190673 0 0 0 0 168.30718909569623 -12.454147280603593 0 -12.454147280603593 -41.70096817831157 0 0 0 0 137.58532173395361 -26.882664131559977 0 -26.882664131559977 -39.949500514989893 0 0 0 0 62.771909111246543 4.376270455569446 0 4.376270455569446 -3.3430807918666283 0 0 0 0 117.59233363381281 -13.550909525376028 0 -13.550909525376028 -27.421676826858857 0 0 0 0 81.689446984499227 46.715358642806677 0 46.715358642806677 -76.552256301148205 0 0 0 0 70.479032295512297 -12.986339836731304 0 -12.986339836731304 -28.576443996445505 0 0 0 0 52.931050069332017 2.737284014496673 0 2.737284014496673 -14.658783692265644 0 0 0 0 58.97699757780741 -11.203040975249564 0 -11.203040975249564 -2.2839731268175001 0 0 0 0 78.004299612797894 -16.350611031768402 0 -16.350611031768402 -6.4045904278954087 0 0 0 0 50.399380705726799 -12.066089080685288 0 -12.066089080685288 -23.408309414140319 0 0 0 0 121.35581847797584 -35.003587075833821 0 -35.003587075833821 22.502598388190535 0 0 0 0 66.206277004948788 17.68310865458443 0 17.68310865458443 17.586781431783834 0 0 0 0 50.98335936088499 18.651250008728731 0 18.651250008728731 -11.437177772220316 0 0 0 0 76.590660713984107 -14.851761433509665 0 -14.851761433509665 5.9032688825489004 0 0 0 0 54.131945330533199 10.78948237721761 0 10.78948237721761 -1.1220796268353297 0 0 0 0 58.563370858929517 -3.7339132454012676 0 -3.7339132454012676 0.063446695505972581 0 0 0 0 70.381093146272178 -5.1215022064759523 0 -5.1215022064759523 -41.07834368579779 0 0 0 0 47.844051910826238 9.3752603115772217 0 9.3752603115772217 -7.285221726092459 0 0 0 0 131.32705439416168 150.30526572092413 0 150.30526572092413 51.294447167545513 0 0 0 0 93.557011674565729 20.998874127669751 0 20.998874127669751 -167.9618205533755 0 0 0 0 57.075285455037374 75.50990639003976 0 75.50990639003976 -6.1245367636574883 0 0 0 0 36.76245554570778 12.877323536054064 0 12.877323536054064 33.528739314418999 0 0 0 0 222.80152564799937 -11.481234443469475 0 -11.481234443469475 -9.0686464333697359 0 0 0 0 90.743526234349702 -55.709365454939871 0 -55.709365454939871 109.98917318030544 0 0 0 0 32.314388701119114 -8.937248277811733 0 -8.937248277811733 -6.4992533836412694 0 0 0 0 72.347110614195117 14.075605041645758 0 14.075605041645758 3.6605870593393774 0 0 0 0 77.607011786607416 -19.731524027510218 0 -19.731524027510218 -6.360384075923351 0 0 0 0 58.260502347497095 39.543417361090633 0 39.543417361090633 -5.4775988164449245 0 0 0 0 57.052111490134848 23.088646525814966 0 23.088646525814966 38.289037484146775 0 0 0 0 974.19872774810938 710.68856436005672 0 710.68856436005672 478.03920639989587 0 0 0 0 993.77741447805602 665.46348340993086 0 665.46348340993086 474.29462533296828 0 0 0 0 4.4068053958479823 0.53458650363901938 0 0.53458650363901938 -2.4630526831915365 0 0 0 0 397.09923648930271 -11.411113062385994 0 -11.411113062385994 -305.44368272413919 0 0 0 0 260.17205988751084 65.767640152246713 0 65.767640152246713 -114.0720365698503 0 0 0 0 705.50247072741672 391.15323101353749 0 391.15323101353749 -86.762590774791533 0 0 0 0 699.35793233875302 130.55100490349105 0 130.55100490349105 -252.45418255833283 0 0 0 0 667.80564402787832 451.21620114207457 0 451.21620114207457 48.694940865185345 0 0 0 0 646.67934452834015 284.83911697381336 0 284.83911697381336 203.6960506497835 0 0 0 0 480.84925778067554 197.3843189898098 0 197.3843189898098 -44.086908757484593 0 0 0 0 506.10628164506488 348.09811038460759 0 348.09811038460759 117.09078941122971 0 0 0 0 579.28403770903969 290.26909054634552 0 290.26909054634552 -126.07802655878368 0 0 0 0 548.3442073839251 245.15495624693449 0 245.15495624693449 -241.44822568712698 0 0 0 0 435.09953376297199 201.21389488593559 0 201.21389488593559 -76.639628252877628 0 0 0 0 263.54491179899196 119.64219167116698 0 119.64219167116698 -113.19472906338569 0 0 0 0 443.38878465884773 204.25592118797294 0 204.25592118797294 -194.82397620756456 0 0 0 0 262.37672731227326 70.278702174779454 0 70.278702174779454 -173.95681587977742 0 0 0 0 325.48971205226553 129.16256391890602 0 129.16256391890602 -162.70343215443245 0 0 0 0 538.09308584171231 171.07150404043023 0 171.07150404043023 -145.08624438339666 0 0 0 0 275.47752228625177 158.20651423993786 0 158.20651423993786 -92.783687902140173 0 0 0 0 105.22474536879054 33.269665350746209 0 33.269665350746209 -17.779166872276619 0 0 0 0 111.81891409827949 22.655281155825378 0 22.655281155825378 -1.9526661830550438 0 0 0 0 62.645389287470607 -13.36724148989515 0 -13.36724148989515 41.62512959453602 0 0 0 0 28.765598385880168 -14.75969855276206 0 -14.75969855276206 -7.422795772772135 0 0 0 0 546.65553649549838 205.59296093508146 0 205.59296093508146 -48.026452157658241 0 0 0 0 33.092563601902242 -17.715200030947869 0 -17.715200030947869 -5.9759056122927738 0 0 0 0 101.71080477263604 25.489819614636872 0 25.489819614636872 -2.1608614442465068 0 0 0 0 494.22416677286674 -119.86208016718547 0 -119.86208016718547 -210.32705158191766 0 0 0 0 274.35516590994666 77.812922146972596 0 77.812922146972596 -104.67701825720542 0 0 0 0 449.33495132843746 59.465450208896641 0 59.465450208896641 -193.09293571308626 0 0 0 0 792.16750311595388 317.21892211821978 0 317.21892211821978 -312.5970160344441 0 0 0 0 993.71241198081407 -45.258846153162267 0 -45.258846153162267 -198.64969148159889 0 0 0 0 888.48632132617058 186.84465532776449 0 186.84465532776449 -230.80281067121177 0 0 0 0 1592.2076666114808 -929.67163402074584 0 -929.67163402074584 696.84633634550119 0 0 0 0 2060.1854631596798 42.309740474915998 0 42.309740474915998 -652.15704333555914 0 0 0 0 3991.4903086204431 -1739.2897241683531 0 -1739.2897241683531 -2481.1647393410822 0 0 0 0 867.76177715678932 683.99697972401373 0 683.99697972401373 2370.2398554856481 0 0 0 0 326.15154661015549 125.00444111388333 0 125.00444111388333 488.83383045033406 0 0 0 0 653.94899613718735 -243.61893671969847 0 -243.61893671969847 550.98310552998646 0 0 0 0 811.88799888768699 -103.81167355869729 0 -103.81167355869729 -176.29639974549536 0 0 0 0 575.81832365817536 -358.56408063357458 0 -358.56408063357458 373.60834423934102 0 0 0 0 -146.77994184423733 -57.307818243809834 0 -57.307818243809834 390.74453049135082 0 0 0 0 171.63842264947016 -17.74948289769145 0 -17.74948289769145 446.58913702678274 0 0 0 0 146.25061870693025 86.469208270495983 0 86.469208270495983 110.66345183646808 0 0 0 0 230.49961477638863 232.32629274269584 0 232.32629274269584 -269.76820541561756 0 0 0 0 215.09021873705206 191.59003388064775 0 191.59003388064775 -212.09686222853179 0 0 0 0 155.3409236066218 97.530205966726498 0 97.530205966726498 -282.26244797897743 0 0 0 0 201.83963691216377 72.14782578229881 0 72.14782578229881 -279.08480838541618 0 0 0 0 100.26707608881406 101.94954611668618 0 101.94954611668618 -287.03024799206651 0 0 0 0 269.1006943853572 155.12395581830697 0 155.12395581830697 -197.07820733289827 0 0 0 0 471.57652370264987 280.59456126273562 0 280.59456126273562 -242.57092308756 0 0 0 0 484.45424631569767 258.13771029731925 0 258.13771029731925 -243.66281470678041 0 0 0 0 784.47782415228721 304.11069421817092 0 304.11069421817092 -312.78695619494465 0 0 0 0 415.90678342009778 364.05088007213635 0 364.05088007213635 -255.96766907504389 0 0 0 0 222.9890661337995 225.44456744261151 0 225.44456744261151 -226.72511298344079 0 0 0 0 428.16901327125379 306.07826400807608 0 306.07826400807608 -290.52131736352749 0 0 0 0 132.96641378127015 124.93624382921979 0 124.93624382921979 -337.56046828706894 0 0 0 0 139.43075977773469 316.85430946115599 0 316.85430946115599 -255.27635482376354 0 0 0 0 267.64405631509726 245.85965199400016 0 245.85965199400016 -392.65372851549546 0 0 0 0 1127.10468797863 614.61534459810446 0 614.61534459810446 -799.09737017579209 0 0 0 0 884.17858942918247 458.07563548068902 0 458.07563548068902 -342.57462421284799 0 0 0 0 235.48994538144325 459.977960596907 0 459.977960596907 -286.86317684199821 0 0 0 0 2498.1312199821405 -1649.3978853249264 0 -1649.3978853249264 1099.7754605367045 0 0 0 0 23.279801268186134 3.0771893847796008 0 3.0771893847796008 -2.7892787661302521 0 0 0 0 143.25336253846763 849.40030661715718 0 849.40030661715718 -805.79329480533852 0 0 0 0 -81.379846410323808 -8.0813411158392228 0 -8.0813411158392228 -708.21689897928081 0 0 0 0 -354.98402554896893 242.75564450233287 0 242.75564450233287 -453.57844612304689 0 0 0 0 -5.9698194435704863 33.923547221110027 0 33.923547221110027 -521.18330003390292 0 0 0 0 6.9810705059790052 349.65853853456792 0 349.65853853456792 -432.54196340613271 0 0 0 0 123.80548434244702 137.5478061361373 0 137.5478061361373 -611.92220421241655 0 0 0 0 71.963477955374401 57.871057903565998 0 57.871057903565998 -624.57931582003221 0 0 0 0 94.166173916397383 144.4408357323864 0 144.4408357323864 -524.615896151784 0 0 0 0 93.707992265059147 173.75907643820392 0 173.75907643820392 -379.49517817158085 0 0 0 0 140.04552224309009 142.3754795745881 0 142.3754795745881 -352.02546942788649 0 0 0 0 104.65314656859755 46.551126040484917 0 46.551126040484917 -454.22109612252098 0 0 0 0 102.33174526146831 39.058433629264528 0 39.058433629264528 -381.71853175668366 0 0 0 0 79.995156809367472 126.0246190400976 0 126.0246190400976 -447.32104753709973 0 0 0 0 100.09079972881864 64.165973212914594 0 64.165973212914594 -540.75458462879033 0 0 0 0 94.683348395730718 54.666978296349043 0 54.666978296349043 -469.61015330353405 0 0 0 0 72.331770996097475 111.82267087014952 0 111.82267087014952 -477.85678631158407 0 0 0 0 62.964805301766319 64.007592939017741 0 64.007592939017741 -336.86643579068368 0 0 0 0 46.157042005346739 62.622932126952037 0 62.622932126952037 -369.8226869258142 0 0 0 0 92.272541817917954 28.357722772770103 0 28.357722772770103 -358.53094565903029 0 0 0 0 50.730558314193331 68.449268512824347 0 68.449268512824347 -284.36058920372307 0 0 0 0 61.289852326750406 100.29048584291468 0 100.29048584291468 -408.5512243971134 0 0 0 0 84.594688861630857 44.747563866812925 0 44.747563866812925 -391.17892157400047 0 0 0 0 59.724772325222148 64.036712833605634 0 64.036712833605634 -213.97386841130674 0 0 0 0 66.480381074128672 32.324897071507451 0 32.324897071507451 -268.31665404019168 0 0 0 0 193.4141556264367 108.80197837678406 0 108.80197837678406 -189.6940207560317 0 0 0 0 102.44637988496106 54.318760958912208 0 54.318760958912208 -204.3102202665923 0 0 0 0 108.10789297457086 91.186237633076416 0 91.186237633076416 -276.63743962641911 0 0 0 0 90.900086310284678 15.419730435941347 0 15.419730435941347 -300.48129978558654 0 0 0 0 86.831424682881334 31.874693227860917 0 31.874693227860917 -130.62567257529918 0 0 0 0 175.04543709816062 34.077657454796508 0 34.077657454796508 -110.08118788508546 0 0 0 0 90.18087786254182 75.904702171583722 0 75.904702171583722 -163.32254094998757 0 0 0 0 87.493742073012982 84.219236400438604 0 84.219236400438604 -120.61079555324659 0 0 0 0 93.065093320012238 29.566888806567249 0 29.566888806567249 -186.41678715810849 0 0 0 0 41.646456545357069 56.476325508321224 0 56.476325508321224 -105.4115131328299 0 0 0 0 57.836612026549119 80.841407015729601 0 80.841407015729601 -118.32790336333119 0 0 0 0 29.434806763980305 67.421928597548231 0 67.421928597548231 -101.09602401367454 0 0 0 0 256.19059557765104 76.729181523347506 0 76.729181523347506 -121.97724184457275 0 0 0 0 83.970919873478124 52.782828308605531 0 52.782828308605531 -132.75999553974725 0 0 0 0 64.897612269051024 37.000477455622786 0 37.000477455622786 -106.66462178089887 0 0 0 0 -2.173672216515115 74.786772195317326 0 74.786772195317326 -85.036764444152595 0 0 0 0 14.974286735900932 53.797730768258617 0 53.797730768258617 -111.25987354424024 0 0 0 0 33.963490326925239 57.98590481802853 0 57.98590481802853 -91.852946848510328 0 0 0 0 7.5663640139246127 79.388797818272451 0 79.388797818272451 -106.95020945160059 0 0 0 0 45.147361293093127 65.058911853313703 0 65.058911853313703 -171.57275393966938 0 0 0 0 29.949134544360277 72.707813648399224 0 72.707813648399224 -174.58071927227934 0 0 0 0 -8.2504103254068468 98.459206080623972 0 98.459206080623972 -152.693758586493 0 0 0 0 45.292559151625028 80.894061737682023 0 80.894061737682023 -254.17296176710329 0 0 0 0 41.413318157479807 67.706327599836186 0 67.706327599836186 -250.46529035988533 0 0 0 0 67.159889832746558 63.461619639337869 0 63.461619639337869 -350.21103261429471 0 0 0 0 58.649668410267623 91.446795213360929 0 91.446795213360929 -355.21989272679184 0 0 0 0 37.601308519246231 118.19408768628182 0 118.19408768628182 -342.12432076221648 0 0 0 0 98.741419390171359 90.852697832119247 0 90.852697832119247 -340.81564782274199 0 0 0 0 -45.074722097720951 153.15683122810833 0 153.15683122810833 -321.61833923373069 0 0 0 0 29.942938313160994 96.873540170349429 0 96.873540170349429 -280.8816059314413 0 0 0 0 -30.662601978350722 137.19956655049373 0 137.19956655049373 -212.56320297857292 0 0 0 0 -117.96338916727109 114.30130875040402 0 114.30130875040402 -104.84531565680982 0 0 0 0 -23.862130625915597 136.78451602724226 0 136.78451602724226 -289.49339877136708 0 0 0 0 -74.188435304022278 304.43830844380773 0 304.43830844380773 -584.91085784036693 0 0 0 0 -31.217655286967783 98.934690509617496 0 98.934690509617496 -301.14341123330451 0 0 0 0 -176.33938134912751 156.49931641539376 0 156.49931641539376 -133.93390400083354 0 0 0 0 533.70531779298472 45.650748432742603 0 45.650748432742603 -266.03281610224258 0 0 0 0 79.792808349608094 174.10980654920138 0 174.10980654920138 -63.389190783879712 0 0 0 0 -6.6452521712999442 43.258614996801043 0 43.258614996801043 -183.8483001835375 0 0 0 0 -43.625102890164271 59.51315060755951 0 59.51315060755951 -31.486774578496352 0 0 0 0 -56.857772986219061 91.22642709352624 0 91.22642709352624 -98.980759411207146 0 0 0 0 2.2002220428948647 1.9228953464311189 0 1.9228953464311189 1.7801760645315792 0 0 0 0 9.2983774833774078 18.143260985328425 0 18.143260985328425 -45.028261101588441 0 0 0 0 5.9305097981851276 6.8685960706083762 0 6.8685960706083762 6.3901425671848155 0 0 0 0 -2.4955182781050098 46.489546114113864 0 46.489546114113864 -68.277537692408075 0 0 0 0 1.7539062462892616 76.043205941178542 0 76.043205941178542 -162.68067580877869 0 0 0 0 -13.900939749055397 59.284093497314188 0 59.284093497314188 -126.82478580037332 0 0 0 0 -59.25211269682768 81.136748041687497 0 81.136748041687497 -71.0502272475307 0 0 0 0 114.53552636195673 -12.433329928641342 0 -12.433329928641342 -12.084165608319154 0 0 0 0 -1.1565468492601365 6.0933005588616425 0 6.0933005588616425 -2.8027947351376152 0 0 0 0 114.27064230855467 -12.825498185289348 0 -12.825498185289348 -12.636916334247871 0 0 0 0 68.447134675116104 -8.3501168937687567 0 -8.3501168937687567 -10.165028716429333 0 0 0 0 43.839724432073126 -12.647615154569394 0 -12.647615154569394 -5.6364655594702526 0 0 0 0 242.14983365339867 64.546133913988569 0 64.546133913988569 -47.755821590211781 0 0 0 0 27.935336868287777 -7.0116754480640395 0 -7.0116754480640395 6.4234780706656238 0 0 0 0 -61.65868459999183 -29.868891124441461 0 -29.868891124441461 56.473223678615796 0 0 0 0 373.56117849563088 -94.385597803540691 0 -94.385597803540691 2.3184754777153103 0 0 0 0 368.00833899271674 19.36458257933873 0 19.36458257933873 -5.1997015875257091 0 0 0 0 503.62456635988201 -140.08520944631368 0 -140.08520944631368 -144.55998935725938 0 0 0 0 945.50289303981663 -241.80325935197538 0 -241.80325935197538 5.4542493856274632 0 0 0 0 606.14130135090818 -103.10694632460354 0 -103.10694632460354 31.660037254825056 0 0 0 0 367.31579522250831 -93.839653615935731 0 -93.839653615935731 111.9792427641263 0 0 0 0 385.53604348493536 -37.621376361920284 0 -37.621376361920284 -22.416017783673396 0 0 0 0 222.68606872963937 -84.891744116529935 0 -84.891744116529935 -10.931234011360175 0 0 0 0 120.41316701697724 72.522180292623716 0 72.522180292623716 59.651586936768581 0 0 0 0 99.777675055105647 76.441618732153074 0 76.441618732153074 -1.4777098593854134 0 0 0 0 -57.016181631443033 -39.333535724749709 0 -39.333535724749709 75.189765934751676 0 0 0 0 106.63883663376328 21.822086923833922 0 21.822086923833922 19.684856401374418 0 0 0 0 -2.2367458433417617 5.1048660937739641 0 5.1048660937739641 6.2664191651457379 0 0 0 0 118.73503873418667 5.5373007281705213 0 5.5373007281705213 11.454044746997624 0 0 0 0 153.41910541989637 13.51072143916781 0 13.51072143916781 -12.841048167438203 0 0 0 0 122.9358717991563 16.789740092670399 0 16.789740092670399 -2.671944761893883 0 0 0 0 -122.76037331375119 72.970510135392942 0 72.970510135392942 72.288922899837416 0 0 0 0 22.306863757363573 4.4848459518005015 0 4.4848459518005015 3.0707927383266451 0 0 0 0 65.003433974681343 35.870063400498204 0 35.870063400498204 23.705731838771712 0 0 0 0 -130.49773138095907 161.53058121579534 0 161.53058121579534 -33.089569958785432 0 0 0 0 118.97788293081976 31.03406798578817 0 31.03406798578817 -3.4161752369072929 0 0 0 0 15.166356607825509 10.086110370842974 0 10.086110370842974 14.670535829948317 0 0 0 0 87.004533984195405 41.586968809363952 0 41.586968809363952 9.3973858304034366 0 0 0 0 -27.191583444245225 51.909557848537418 0 51.909557848537418 62.67957415415276 0 0 0 0 93.892999689684075 67.703110674219715 0 67.703110674219715 159.18280971492914 0 0 0 0 55.856589124119964 31.831076543805782 0 31.831076543805782 19.018380319040276 0 0 0 0 93.06798324859119 62.565808307997713 0 62.565808307997713 -7.9830311309592616 0 0 0 0 96.933230393144186 77.90952863184657 0 77.90952863184657 45.350046749816329 0 0 0 0 191.81991116166319 -112.41052551035364 0 -112.41052551035364 92.59210088577538 0 0 0 0 126.05080368557901 -31.650085633388642 0 -31.650085633388642 118.47439706915338 0 0 0 0 382.96620855094807 -8.0059496356266209 0 -8.0059496356266209 61.624576340046588 0 0 0 0 35.598479768344475 19.267448456060634 0 19.267448456060634 10.684316411687142 0 0 0 0 261.38598483966916 -0.14054417984881695 0 -0.14054417984881695 -17.79659019414521 0 0 0 0 7.0041088518628385 35.113297268349925 0 35.113297268349925 -37.692340448290452 0 0 0 0 15.499505158786633 -119.02249347718862 0 -119.02249347718862 103.24873762436982 0 0 0 0 54.666328386826535 54.221415116608455 0 54.221415116608455 -58.259199407541018 0 0 0 0 -131.02381227426667 33.329038529645914 0 33.329038529645914 168.26947616917278 0 0 0 0 -185.21131428890658 48.640964336122124 0 48.640964336122124 9.1742047364991777 0 0 0 0 -240.0253318387513 364.14607856269913 0 364.14607856269913 -230.65419443245582 0 0 0 0 11.279717740674187 14.702291868215177 0 14.702291868215177 16.922651269145369 0 0 0 0 184.43919749679526 438.66720457853899 0 438.66720457853899 -85.844535007019658 0 0 0 0 184.58109628696548 -25.982726332364109 0 -25.982726332364109 -325.53644050532057 0 0 0 0 -461.36949142323647 104.67579361614321 0 104.67579361614321 376.46045585109096 0 0 0 0 18.029218218078313 4.287096810869798 0 4.287096810869798 3.3380128030803853 0 0 0 0 -5.3880453799574752 27.888145032189243 0 27.888145032189243 12.202219648302389 0 0 0 0 11.021895977086388 28.308659189560558 0 28.308659189560558 -26.739860962931289 0 0 0 0 -16.852761517970066 41.87346147406754 0 41.87346147406754 -25.430118801665685 0 0 0 0 -29.398293496542465 36.961125222024748 0 36.961125222024748 1.9324353521415105 0 0 0 0 729.445412833109 -290.29522293549689 0 -290.29522293549689 59.987135312018836 0 0 0 0 474.07651809553499 -216.8530238542271 0 -216.8530238542271 119.6165753349228 0 0 0 0 554.31354159428884 -157.11892452850907 0 -157.11892452850907 23.474316723257743 0 0 0 0 9.0994953984944544 12.272986077005513 0 12.272986077005513 14.014115373490899 0 0 0 0 568.98920164156334 -192.95971340257552 0 -192.95971340257552 -4.168930584404734 0 0 0 0 426.978462612984 -261.51235334607145 0 -261.51235334607145 49.159567426741887 0 0 0 0 251.17637195209204 -250.56534465328463 0 -250.56534465328463 160.39086216692158 0 0 0 0 12.359844393775802 6.5089926844781942 0 6.5089926844781942 4.3327172538882941 0 0 0 0 302.64891129971511 173.1058989073681 0 173.1058989073681 223.13238317136984 0 0 0 0 675.7141904202108 -494.99338997985205 0 -494.99338997985205 299.29601281850637 0 0 0 0 1046.638030821232 -122.39269880912798 0 -122.39269880912798 -10.959360461489268 0 0 0 0 605.97142460887699 327.27070628553201 0 327.27070628553201 302.75154027783356 0 0 0 0 480.59298529278021 -174.63957990933886 0 -174.63957990933886 -185.09655534359445 0 0 0 0 313.11016141836444 172.17384593130237 0 172.17384593130237 140.78425334526037 0 0 0 0 517.24103714892044 92.774729980621487 0 92.774729980621487 -115.76347512102802 0 0 0 0 27.678737909922347 16.683990525351703 0 16.683990525351703 25.584212564819836 0 0 0 0 11.518229135151614 17.990252552325416 0 17.990252552325416 21.468730645654517 0 0 0 0 8.7350978342001326 11.2149956350396 0 11.2149956350396 24.090572325863832 0 0 0 0 8.3238883451704169 35.667921115490572 0 35.667921115490572 13.502790085482104 0 0 0 0 12.415831194535713 25.949225251137022 0 25.949225251137022 37.605373654903531 0 0 0 0 19.202961708653817 13.106081760327548 0 13.106081760327548 -5.6740258807790767 0 0 0 0 4.9226621548956757 1.8147514519524464 0 1.8147514519524464 3.9409051986361803 0 0 0 0 38.793884423459531 11.267236982704162 0 11.267236982704162 40.100073919353235 0 0 0 0 209.84335120928881 379.90091214306267 0 379.90091214306267 840.82335803387105 0 0 0 0 -100.55770297511481 190.75140804791408 0 190.75140804791408 859.88618089835654 0 0 0 0 324.66561081225518 97.865898658912556 0 97.865898658912556 819.75715142541321 0 0 0 0 332.13656316963898 114.93408584730878 0 114.93408584730878 743.54497795486532 0 0 0 0 370.38631553739833 74.436501193074037 0 74.436501193074037 645.94328352604134 0 0 0 0 212.56134657069924 114.96088186827546 0 114.96088186827546 892.51837812412191 0 0 0 0 219.53223988773243 214.40387940891651 0 214.40387940891651 708.66878457104031 0 0 0 0 298.19180543546099 111.19688055049619 0 111.19688055049619 475.71477741339686 0 0 0 0 330.30237324445625 82.35589983951013 0 82.35589983951013 493.69605528759621 0 0 0 0 361.88251753142686 75.038847323821301 0 75.038847323821301 452.04535143211604 0 0 0 0 371.29380126354226 81.827846770911037 0 81.827846770911037 453.73897948348349 0 0 0 0 308.84934513855842 114.42516540079396 0 114.42516540079396 644.31485329340376 0 0 0 0 349.6913672196315 88.311341968592842 0 88.311341968592842 625.32970799404757 0 0 0 0 369.47400367224327 137.95646771780775 0 137.95646771780775 259.67364283486495 0 0 0 0 521.54784585630114 76.525656094236354 0 76.525656094236354 124.45672147005644 0 0 0 0 463.36668024696701 96.566196694095197 0 96.566196694095197 179.76316359178395 0 0 0 0 363.78132572221375 125.4742660118138 0 125.4742660118138 391.15740974413166 0 0 0 0 375.23520475511032 34.617504644671499 0 34.617504644671499 439.70711627511173 0 0 0 0 376.86433647816011 26.420581544108245 0 26.420581544108245 472.37016566495004 0 0 0 0 499.7378192464239 -1.9058028174504216 0 -1.9058028174504216 357.64492593507202 0 0 0 0 595.30128811195027 -130.14657710812389 0 -130.14657710812389 253.35716134686027 0 0 0 0 419.00609901658754 -247.12966442843617 0 -247.12966442843617 599.0711912317056 0 0 0 0 -1.032702068947799 5.528516724999438 0 5.528516724999438 5.0956365102717207 0 0 0 0 193.3093495955909 -332.4028145638772 0 -332.4028145638772 804.03820986536448 0 0 0 0 345.34884536500613 -125.92940232527508 0 -125.92940232527508 577.29081060949466 0 0 0 0 318.71423666988267 34.658951941284613 0 34.658951941284613 631.6344876599037 0 0 0 0 213.94898667722009 -113.51720633582772 0 -113.51720633582772 811.85480186123459 0 0 0 0 210.67704869550653 74.06705403072192 0 74.06705403072192 936.05878188411134 0 0 0 0 195.26659842735535 -0.50266144397778589 0 -0.50266144397778589 794.58203069181764 0 0 0 0 4.4453754205649574 1.6770097979107561 0 1.6770097979107561 -1.5634351212010493 0 0 0 0 24.961736654353444 -99.219818460805072 0 -99.219818460805072 909.36949823999021 0 0 0 0 41.38986771958298 -217.02887395023026 0 -217.02887395023026 792.7200047082697 0 0 0 0 477.72150281936047 -399.94824591280849 0 -399.94824591280849 636.19948817368822 0 0 0 0 -234.85607483415515 -434.48854549430143 0 -434.48854549430143 1354.8015391187218 0 0 0 0 988.713895353314 -470.33358375028365 0 -470.33358375028365 340.84557597226376 0 0 0 0 347.01067679302651 -557.65965237736509 0 -557.65965237736509 675.40146450311659 0 0 0 0 1417.7055661732593 -774.34903820939508 0 -774.34903820939508 340.79533946577067 0 0 0 0 1038.8897214376193 -1085.3758323527672 0 -1085.3758323527672 871.22912630684732 0 0 0 0 1186.9383291004688 50.566947626015121 0 50.566947626015121 140.24087237588174 0 0 0 0 629.8141542996309 176.93554240048843 0 176.93554240048843 155.94722550852566 0 0 0 0 961.67765206744662 -88.41824914276549 0 -88.41824914276549 135.5959598613905 0 0 0 0 685.75317560539406 -245.18761824684407 0 -245.18761824684407 354.78935916992486 0 0 0 0 35.706700891994842 -54.533682902670762 0 -54.533682902670762 219.02670987282909 0 0 0 0 326.16634363064713 151.36757481867744 0 151.36757481867744 71.153826484930505 0 0 0 0 343.6361830670503 72.030285269067463 0 72.030285269067463 176.29368343471197 0 0 0 0 421.22494583308162 125.83240513579398 0 125.83240513579398 -113.42193391052388 0 0 0 0 18.349021304646158 120.80452369269688 0 120.80452369269688 106.93763184656041 0 0 0 0 628.31107086603151 109.20770595477507 0 109.20770595477507 9.3476192295356668 0 0 0 0 427.9919219653093 162.67586760141717 0 162.67586760141717 48.192730715506855 0 0 0 0 616.28381091002666 -67.418346352195385 0 -67.418346352195385 300.13225755405438 0 0 0 0 563.67986668815138 81.726902998801506 0 81.726902998801506 132.44305483384619 0 0 0 0 537.17700157113723 120.32929830782905 0 120.32929830782905 148.76832693314486 0 0 0 0 556.48369644855484 162.61439909753167 0 162.61439909753167 -83.237625153246881 0 0 0 0 507.79358920089726 297.00885120314615 0 297.00885120314615 -106.1237785761933 0 0 0 0 -48.447848735719163 97.080143201021599 0 97.080143201021599 -32.829062170318139 0 0 0 0 542.02813676946789 44.593211522778923 0 44.593211522778923 -242.53366548200722 0 0 0 0 876.87478660460329 257.58679452225067 0 257.58679452225067 -157.03405278669845 0 0 0 0 510.0426229146251 360.42973398923823 0 360.42973398923823 85.003191198065494 0 0 0 0 578.52924473173607 368.79907458143788 0 368.79907458143788 -33.452306541386406 0 0 0 0 277.68327315915667 328.32302317972176 0 328.32302317972176 84.493929728663318 0 0 0 0 341.99868750049791 250.62532573282419 0 250.62532573282419 34.20035868033824 0 0 0 0 334.55575138008862 223.0199025733379 0 223.0199025733379 85.783062080788909 0 0 0 0 215.58848302969091 46.384815379366273 0 46.384815379366273 31.964371162325733 0 0 0 0 69.424819959662287 -36.992875053011183 0 -36.992875053011183 -14.262209468829889 0 0 0 0 140.43903208897245 83.169786627714075 0 83.169786627714075 62.146645216882916 0 0 0 0 262.6103652292586 177.08264404800127 0 177.08264404800127 107.15643248984816 0 0 0 0 394.4976079378539 105.4768566088743 0 105.4768566088743 74.391392873658333 0 0 0 0 371.96985680854414 144.62415168118127 0 144.62415168118127 21.492075092016194 0 0 0 0 315.38540216186084 88.318652388010378 0 88.318652388010378 256.442547526645 0 0 0 0 523.63342181552798 241.41070042555106 0 241.41070042555106 34.507328704841029 0 0 0 0 472.21330788372143 214.44216347770532 0 214.44216347770532 20.38699232902718 0 0 0 0 374.40875817216875 138.88942067757637 0 138.88942067757637 183.89646997138527 0 0 0 0 188.08502946202861 182.12349831295705 0 182.12349831295705 95.729554176346937 0 0 0 0 76.756564389608684 -44.641434315256902 0 -44.641434315256902 -316.45203202295488 0 0 0 0 12.944286123270729 17.365516414966461 0 17.365516414966461 20.281162810141954 0 0 0 0 -295.81973836543148 428.99864769451051 0 428.99864769451051 -229.7721041589466 0 0 0 0 -194.14355710026575 234.02598108356926 0 234.02598108356926 -178.25389341044274 0 0 0 0 -171.60349333647582 23.260868128668221 0 23.260868128668221 108.65732604478035 0 0 0 0 17.28464815303596 89.303932668605512 0 89.303932668605512 -170.10433033096706 0 0 0 0 -140.33578945043701 359.37878091906083 0 359.37878091906083 -140.94654391991125 0 0 0 0 -15.451844927341881 337.7004133849631 0 337.7004133849631 -157.56056447680962 0 0 0 0 10.094010786176625 15.046795465025532 0 15.046795465025532 18.70964622892296 0 0 0 0 -505.29286608162511 506.95133337030143 0 506.95133337030143 -91.589513563282708 0 0 0 0 15.486217640489485 92.992365191596036 0 92.992365191596036 -288.07703538677242 0 0 0 0 -23.987343441756821 193.810841798767 0 193.810841798767 324.14751097209296 0 0 0 0 409.01105231934343 -52.790416401333005 0 -52.790416401333005 99.814820622791785 0 0 0 0 482.92071861107615 184.10320989704633 0 184.10320989704633 -167.99809768386356 0 0 0 0 314.46658021683834 -33.507906191726761 0 -33.507906191726761 -184.56504780964633 0 0 0 0 186.69820146910934 247.20484110478947 0 247.20484110478947 -173.54161991466935 0 0 0 0 3.0134481481393323 5.6033044511578609 0 5.6033044511578609 8.372656318574375 0 0 0 0 626.28404028821842 515.03331305137317 0 515.03331305137317 392.9737845368677 0 0 0 0 925.3126809983878 11.237063984454267 0 11.237063984454267 102.87315832726108 0 0 0 0 -120.09494662812722 320.94116090617126 0 320.94116090617126 1017.733472215376 0 0 0 0 19.401455010178324 -298.29347102519023 0 -298.29347102519023 990.93385931618047 0 0 0 0 -76.330784233970917 67.422801687197534 0 67.422801687197534 442.0502244478364 0 0 0 0 -183.09666394909436 200.90838888806729 0 200.90838888806729 477.93371133775008 0 0 0 0 -451.34588745953079 10.199412618177256 0 10.199412618177256 372.02975123494616 0 0 0 0 -116.40357065451281 218.2922016304247 0 218.2922016304247 426.75815454753831 0 0 0 0 -494.85461557715871 407.66788612804618 0 407.66788612804618 521.75746029238223 0 0 0 0 -115.88557974409377 152.15787595881943 0 152.15787595881943 270.36703625129212 0 0 0 0 -204.33366562881019 256.36252162962739 0 256.36252162962739 368.04414596388142 0 0 0 0 75.875867862858286 165.3189887614933 0 165.3189887614933 242.67841015112663 0 0 0 0 75.952436447791115 91.902055582775574 0 91.902055582775574 3.9276613312420068 0 0 0 0 148.82864683723164 27.911637627060372 0 27.911637627060372 -77.324761758179193 0 0 0 0 26.20998451327614 23.203558973559282 0 23.203558973559282 18.055872765653632 0 0 0 0 -2.7403777477520634 25.142702372668282 0 25.142702372668282 12.570180184488549 0 0 0 0 48.935261579939834 -59.738104526287771 0 -59.738104526287771 100.23149414108775 0 0 0 0 -4.8715434484183788 -39.02315572798534 0 -39.02315572798534 132.37965512032588 0 0 0 0 17.73513516971434 -27.446149461834466 0 -27.446149461834466 74.788564273597331 0 0 0 0 -39.362315412712633 -9.9012737846287564 0 -9.9012737846287564 112.4424106444103 0 0 0 0 12.108256502153637 15.509448937718247 0 15.509448937718247 18.019238478372561 0 0 0 0 -54.764193724040524 26.029488541840692 0 26.029488541840692 303.77628731308323 0 0 0 0 -29.691417415066098 20.883129383110827 0 20.883129383110827 303.70189148986719 0 0 0 0 -20.121594706188262 -7.6133907467756785 0 -7.6133907467756785 258.5924387458881 0 0 0 0 92.130813506366394 -58.836060113429994 0 -58.836060113429994 -174.33760738581964 0 0 0 0 -6.7311346596907242 -63.744516936030323 0 -63.744516936030323 90.950329089682782 0 0 0 0 6.6030252610653406 -48.259070518133058 0 -48.259070518133058 83.350183971896513 0 0 0 0 -25.147657049499685 17.86178477311887 0 17.86178477311887 -18.197626258749551 0 0 0 0 29.976888240438711 17.70982073918367 0 17.70982073918367 -75.734994928926426 0 0 0 0 -9.2440861089344253 -58.303847119594593 0 -58.303847119594593 80.019883827611011 0 0 0 0 51.895171908196062 -91.406154369396972 0 -91.406154369396972 -62.237466912217428 0 0 0 0 48.129730235865281 -76.797435203763257 0 -76.797435203763257 -10.200124681470697 0 0 0 0 -15.470238632697146 -201.24440268704984 0 -201.24440268704984 95.569695506249445 0 0 0 0 60.454308544125524 -186.22472532138181 0 -186.22472532138181 -120.19578358807576 0 0 0 0 3.5243564922238875 -215.90770911896925 0 -215.90770911896925 -17.178503873426962 0 0 0 0 -106.12530764828261 110.07574174606452 0 110.07574174606452 223.55503718566297 0 0 0 0 628.08404511077606 548.42756583801781 0 548.42756583801781 411.24635895224264 0 0 0 0 467.6248093273316 -34.588047065889896 0 -34.588047065889896 42.406937901676656 0 0 0 0 -138.83726683579334 -44.269941208712112 0 -44.269941208712112 57.89583507925181 0 0 0 0 3.5382683901831911 -3.0434081231995798 0 -3.0434081231995798 3.0549005588632681 0 0 0 0 257.05939736271466 407.94674517764031 0 407.94674517764031 118.05009250995491 0 0 0 0 -121.41433678599424 -86.564625152938646 0 -86.564625152938646 -7.6667360729966276 0 0 0 0 -120.47287214677999 -113.10388808520065 0 -113.10388808520065 -80.612793219166349 0 0 0 0 232.80884938772124 119.06744242565884 0 119.06744242565884 70.188050673786165 0 0 0 0 -158.1811858931178 -163.25870456758264 0 -163.25870456758264 -68.720880298428014 0 0 0 0 10.977513140954393 -10.196693966125725 0 -10.196693966125725 9.0438699296889364 0 0 0 0 265.97871744876829 -6.8103388743302276 0 -6.8103388743302276 51.979231957550951 0 0 0 0 323.42588957272528 244.1716880397139 0 244.1716880397139 99.088235383458425 0 0 0 0 67.962357654126151 -34.843762649812568 0 -34.843762649812568 -15.990928459735478 0 0 0 0 76.779558135014668 38.963452198069149 0 38.963452198069149 253.66172339314244 0 0 0 0 -122.26226189357112 155.76563423226889 0 155.76563423226889 796.36966062466729 0 0 0 0 707.53718422165548 732.8205975882754 0 732.8205975882754 464.7260854535217 0 0 0 0 2.4225559545659507 5.8273289861747415 0 5.8273289861747415 9.8868994786680116 0 0 0 0 845.67621332851922 4.5238095463075751 0 4.5238095463075751 -122.60243310377064 0 0 0 0 174.04593044135254 669.0057156199241 0 669.0057156199241 578.43563645095219 0 0 0 0 70.024555616102589 10.827334284474091 0 10.827334284474091 28.848888746741977 0 0 0 0 138.35989344707195 -11.429443500576326 0 -11.429443500576326 -42.364202628470821 0 0 0 0 62.169855335059239 -33.195773418331385 0 -33.195773418331385 -21.496798986423052 0 0 0 0 94.543736181978602 -57.500584990164725 0 -57.500584990164725 -17.331074036644623 0 0 0 0 25.447172707555893 3.1411073381452184 0 3.1411073381452184 -2.3357836343087968 0 0 0 0 483.17414779934916 -291.72504603801326 0 -291.72504603801326 27.674758208807361 0 0 0 0 265.81656744310749 339.45114418296998 0 339.45114418296998 52.037669395634566 0 0 0 0 118.51904248336359 -36.343987554875639 0 -36.343987554875639 -8.3168139615650034 0 0 0 0 191.34462826007439 93.690006236604859 0 93.690006236604859 -6.0744455200438097 0 0 0 0 39.779704539120047 -20.205449613450774 0 -20.205449613450774 -23.858152782241646 0 0 0 0 47.316596407246834 10.677759328082175 0 10.677759328082175 -15.763119639938395 0 0 0 0 50.964645949636179 -5.4810135955758597 0 -5.4810135955758597 -7.1278424594083845 0 0 0 0 39.802648877175244 -7.8727578165377956 0 -7.8727578165377956 -26.104884908493197 0 0 0 0 52.072183292148566 -16.700167767212889 0 -16.700167767212889 -16.879331835567427 0 0 0 0 102.8150091847092 6.4316953277298126 0 6.4316953277298126 -21.012942144177032 0 0 0 0 1.6751765332010109 87.707154055298702 0 87.707154055298702 -45.218909700724907 0 0 0 0 21.517207100369284 -8.8880865033432102 0 -8.8880865033432102 -17.18352706634753 0 0 0 0 32.709175731150026 42.226997474814198 0 42.226997474814198 9.8071183875813404 0 0 0 0 -190.25457457326229 -58.288251220793541 0 -58.288251220793541 -16.452104080647587 0 0 0 0 -163.9754034794023 -200.4012409220511 0 -200.4012409220511 -77.338079547998404 0 0 0 0 39.365152366906841 -100.85959416689252 0 -100.85959416689252 -135.75915978147805 0 0 0 0 36.29490048551088 -111.51354170058357 0 -111.51354170058357 -42.296176254266356 0 0 0 0 33.432579021417041 -344.87329280705853 0 -344.87329280705853 -174.91631302884252 0 0 0 0 99.604337551390927 -100.52887433943579 0 -100.52887433943579 -165.17573985401577 0 0 0 0 508.50088265071099 -56.995370000241564 0 -56.995370000241564 -261.92588094276357 0 0 0 0 344.43206852061121 -290.990185012138 0 -290.990185012138 -279.59293271079014 0 0 0 0 -197.10691658994301 -102.2520673583425 0 -102.2520673583425 101.78825063253953 0 0 0 0 -104.37239657197642 -153.04901454806395 0 -153.04901454806395 -90.06471589022226 0 0 0 0 -191.82725609531985 -151.80661324197413 0 -151.80661324197413 16.456712362861253 0 0 0 0 139.65066064147777 92.679676097497463 0 92.679676097497463 42.326881931693151 0 0 0 0 11.551797145679302 -13.269251823736113 0 -13.269251823736113 -70.978184576307513 0 0 0 0 8.6144613585948804 -9.3834963187853422 0 -9.3834963187853422 6.579763264756787 0 0 0 0 2.5277941519970923 -1.854187636584868 0 -1.854187636584868 -2.3483844065739046 0 0 0 0 158.12600997825575 85.168625875700712 0 85.168625875700712 -51.814099840114523 0 0 0 0 151.42460093446607 65.862940686540355 0 65.862940686540355 -15.897097383646496 0 0 0 0 5.6431415324043002 -4.2939524017965383 0 -4.2939524017965383 4.0609548218138425 0 0 0 0 106.65957256158072 161.18209051451208 0 161.18209051451208 147.76989314915372 0 0 0 0 130.4193127941744 101.64142374953981 0 101.64142374953981 31.754354339179912 0 0 0 0 -32.122757243361775 -98.562514127681084 0 -98.562514127681084 -53.860651419091255 0 0 0 0 -22.793550831715038 -14.805555208867297 0 -14.805555208867297 -6.1634266880146242 0 0 0 0 160.99719586924039 79.618502216788755 0 79.618502216788755 -7.0814315276967221 0 0 0 0 48.139058550650589 -13.61836738298507 0 -13.61836738298507 -64.602910489474766 0 0 0 0 54.606587350070185 118.88090509151209 0 118.88090509151209 29.063564956850712 0 0 0 0 90.092099167536617 82.209955634871307 0 82.209955634871307 134.48679333434569 0 0 0 0 105.68085311440905 -57.063311257423528 0 -57.063311257423528 45.55227564918664 0 0 0 0 210.65237141905845 -4.1487358271358552 0 -4.1487358271358552 260.60433308737458 0 0 0 0 1.2421701526507434 -1.3539821558508383 0 -1.3539821558508383 1.9687182805915493 0 0 0 0 244.9198860411318 142.1604579366614 0 142.1604579366614 156.41591077116121 0 0 0 0 -43.702825330641645 -167.40292721137905 0 -167.40292721137905 114.92550862778648 0 0 0 0 -21.106489160336423 7.6062795302036221 0 7.6062795302036221 139.06585245063491 0 0 0 0 57.739135139458085 14.316595514450398 0 14.316595514450398 276.68377283752204 0 0 0 0 -89.687538241232687 -71.356725538074215 0 -71.356725538074215 -12.116038307826736 0 0 0 0 -70.654714485970544 -98.321662348284249 0 -98.321662348284249 -62.635460481833391 0 0 0 0 -128.56129447763851 -112.88074917507049 0 -112.88074917507049 -31.868194455764979 0 0 0 0 -39.022305910318664 -59.283339496587871 0 -59.283339496587871 -30.580729477847939 0 0 0 0 -43.204262816452683 -144.06164147763866 0 -144.06164147763866 -66.003257713282323 0 0 0 0 -124.58521214787106 -124.48122669628606 0 -124.48122669628606 28.277475116076019 0 0 0 0 -108.59698601812761 -115.78512776143407 0 -115.78512776143407 -115.82970970737028 0 0 0 0 -168.80159722362077 -104.67283328610171 0 -104.67283328610171 -36.123388536846335 0 0 0 0 -150.14362733789312 -216.80728501144085 0 -216.80728501144085 -90.549084544219738 0 0 0 0 157.5710649321627 1.5091930936669087 0 1.5091930936669087 37.91554636609817 0 0 0 0 18.277899377918779 -17.522850318048114 0 -17.522850318048114 15.531420782968127 0 0 0 0 65.993585235773935 48.657641302059801 0 48.657641302059801 58.880437800622758 0 0 0 0 148.98268005383579 62.353588476791401 0 62.353588476791401 267.64301823566802 0 0 0 0 225.33370590625054 -58.941267624378384 0 -58.941267624378384 -2.5625814437617009 0 0 0 0 69.414666666108019 -36.360309564940053 0 -36.360309564940053 -9.613429863421322 0 0 0 0 77.207649913404566 -22.261020657683787 0 -22.261020657683787 35.816197855376231 0 0 0 0 -27.383152617008818 -167.33814711244963 0 -167.33814711244963 -136.08639039523899 0 0 0 0 24.112694180188775 -23.306908211458971 0 -23.306908211458971 22.635295575643319 0 0 0 0 -13.075525909807766 -148.09277958835855 0 -148.09277958835855 -141.4573541146824 0 0 0 0 -147.05655813787354 -138.2148943821081 0 -138.2148943821081 -46.589682441070863 0 0 0 0 96.543214005558184 -217.85571852585792 0 -217.85571852585792 -45.729534860064859 0 0 0 0 -15.039766685409631 -131.92087934536386 0 -131.92087934536386 -111.44694637718794 0 0 0 0 221.90801884598613 -4.9872044002460996 0 -4.9872044002460996 -17.498139577821803 0 0 0 0 1.8866997898785485 -177.95490517273299 0 -177.95490517273299 -103.05376380808798 0 0 0 0 218.42995492492173 -36.540382596651639 0 -36.540382596651639 -826.78441557373606 0 0 0 0 30.009836268283543 -3.1928712830045853 0 -3.1928712830045853 2.1313848329871785 0 0 0 0 -31.1614133319963 -154.09842112132401 0 -154.09842112132401 -120.6588681246734 0 0 0 0 71.431894620374806 -112.51541475328077 0 -112.51541475328077 -337.60960651527739 0 0 0 0 4.9445466730177614 3.1090804209947436 0 3.1090804209947436 3.9609091377142929 0 0 0 0 -58.968886656537506 -106.80270799236871 0 -106.80270799236871 252.83439746715055 0 0 0 0 155.80106508040444 -59.342539140113104 0 -59.342539140113104 46.095191233965721 0 0 0 0 66.570282549520925 -125.01575079453215 0 -125.01575079453215 200.85371263443437 0 0 0 0 54.241886815789258 -99.548481630365302 0 -99.548481630365302 168.50220115448246 0 0 0 0 122.82485471189466 -64.113954610134101 0 -64.113954610134101 -4.74945845778484 0 0 0 0 97.698364770312764 -66.811813319508246 0 -66.811813319508246 167.39748400447681 0 0 0 0 140.43590494185628 -89.194046936017912 0 -89.194046936017912 -20.525965379079707 0 0 0 0 177.43032968063562 -13.004483138402975 0 -13.004483138402975 -116.71945480105342 0 0 0 0 298.147970068836 268.36187852273679 0 268.36187852273679 397.37269253051409 0 0 0 0 261.05685152638034 361.47928837507334 0 361.47928837507334 558.23795151868853 0 0 0 0 252.28196847905929 389.30111319008529 0 389.30111319008529 695.11479353508912 0 0 0 0 223.59204825732286 183.05598103323882 0 183.05598103323882 663.3326812447558 0 0 0 0 260.91305239815847 234.50756356483089 0 234.50756356483089 521.71296114018878 0 0 0 0 262.36586588119098 309.42639840615402 0 309.42639840615402 622.12136451808328 0 0 0 0 263.23032360008801 219.28317720653558 0 219.28317720653558 491.26614398489983 0 0 0 0 240.9169960730942 195.14936564936579 0 195.14936564936579 504.73853194966296 0 0 0 0 276.37794308343291 237.25391682417421 0 237.25391682417421 314.41059559900259 0 0 0 0 244.07186211716908 210.52083500189156 0 210.52083500189156 525.75491009073301 0 0 0 0 323.63068626727181 81.226681123788012 0 81.226681123788012 230.46363973721418 0 0 0 0 12.901450460894836 -26.449536177673494 0 -26.449536177673494 -4.3059603466622738 0 0 0 0 262.52816267433809 208.88352645547639 0 208.88352645547639 453.85072309184284 0 0 0 0 71.290561012946156 -48.449304893978869 0 -48.449304893978869 16.805662412722306 0 0 0 0 -49.464726586673351 -124.51263520011651 0 -124.51263520011651 20.909899923907119 0 0 0 0 9.818498543854048 -13.673994791570692 0 -13.673994791570692 9.4751722838978676 0 0 0 0 20.752692312191357 241.35189779046686 0 241.35189779046686 -99.103225729773499 0 0 0 0 335.96107173753899 179.55019607558972 0 179.55019607558972 101.36414425836153 0 0 0 0 161.13134761267793 34.449619110152412 0 34.449619110152412 -14.909183963608712 0 0 0 0 22.894695840588611 207.53735028071355 0 207.53735028071355 80.447214267383515 0 0 0 0 8.6519748066493776 122.69561840678853 0 122.69561840678853 -141.6803999719067 0 0 0 0 34.453434872539219 165.42648259875716 0 165.42648259875716 -146.00961292872506 0 0 0 0 -122.36135195187398 146.10847442344547 0 146.10847442344547 21.976564125308641 0 0 0 0 37.189368774797458 -2.3051508099213578 0 -2.3051508099213578 -12.39688608077131 0 0 0 0 44.031482789028232 -3.9381459441616471 0 -3.9381459441616471 -6.7302523691586043 0 0 0 0 28.502532252959632 6.5052202213234303 0 6.5052202213234303 -4.8045500103332905 0 0 0 0 40.10187480089553 53.114693374317994 0 53.114693374317994 -20.925485373307765 0 0 0 0 63.703246047686207 29.043604652678951 0 29.043604652678951 -405.99259367176751 0 0 0 0 11.14052267840168 9.4221749150006673 0 9.4221749150006673 -6.2147848855643879 0 0 0 0 287.31739342564833 25.006288712886771 0 25.006288712886771 -249.96938319433934 0 0 0 0 49.427317894808766 68.754149569671995 0 68.754149569671995 -88.350483414042174 0 0 0 0 205.03790865440533 -60.726345834435506 0 -60.726345834435506 -73.5834167999069 0 0 0 0 207.56455529300729 -93.786288841391865 0 -93.786288841391865 -32.249952738085085 0 0 0 0 209.92696256320869 -112.85413054105962 0 -112.85413054105962 -51.490360469034158 0 0 0 0 186.99374368050849 -172.57642872619283 0 -172.57642872619283 122.59844049982985 0 0 0 0 360.99622559865384 -42.438395295170153 0 -42.438395295170153 -63.055917199127975 0 0 0 0 205.44485240242102 -182.66459610659456 0 -182.66459610659456 -181.77730912526317 0 0 0 0 287.03613670012419 -263.20820478206105 0 -263.20820478206105 131.94538714175326 0 0 0 0 405.41397142187634 -294.86078637304092 0 -294.86078637304092 122.08017052394248 0 0 0 0 564.63067892671461 -264.25972010356156 0 -264.25972010356156 42.332152006641934 0 0 0 0 358.77262858083486 -559.48282560449707 0 -559.48282560449707 823.38103049124697 0 0 0 0 364.85564247458387 -258.44268110524922 0 -258.44268110524922 385.17695702379092 0 0 0 0 746.52099736472883 463.38411444824243 0 463.38411444824243 -932.10493815514656 0 0 0 0 9.963694989586628 0.099021102818904083 0 0.099021102818904083 -0.5541500169285607 0 0 0 0 1037.6504102526342 -513.79485909293066 0 -513.79485909293066 279.15991554536214 0 0 0 0 23.910752058199492 -0.9098250271146977 0 -0.9098250271146977 -2.5610546993466627 0 0 0 0 93.269636091787106 -154.92785740709223 0 -154.92785740709223 223.90908176490183 0 0 0 0 85.984312787892122 -181.72143353732332 0 -181.72143353732332 510.25149644009457 0 0 0 0 -17.845463588299026 -410.18595446903481 0 -410.18595446903481 165.63561238763873 0 0 0 0 313.26977631363843 353.38401275229194 0 353.38401275229194 -7.7497945681479905 0 0 0 0 9.1531864089878852 0.60922399458545717 0 0.60922399458545717 0.1449049574954035 0 0 0 0 548.9996351466998 824.73309495551246 0 824.73309495551246 -371.68272177163669 0 0 0 0 -222.56869765641022 91.26119065588864 0 91.26119065588864 -7.7579409445111196 0 0 0 0 -78.081132345687365 -343.93410698337721 0 -343.93410698337721 -62.496905041627315 0 0 0 0 132.62029808791704 -328.03057108278551 0 -328.03057108278551 -62.820418801172337 0 0 0 0 197.9152373690813 127.99547458681286 0 127.99547458681286 -6.1168658885712546 0 0 0 0 1017.5855556971073 -182.89568240115113 0 -182.89568240115113 55.655909870713998 0 0 0 0 502.2158862331562 -22.217182808339771 0 -22.217182808339771 216.35465075670879 0 0 0 0 1318.2498439110932 466.34141372093819 0 466.34141372093819 373.71220039627917 0 0 0 0 -63.781816550006624 199.04420600002794 0 199.04420600002794 903.05258369473677 0 0 0 0 -60.224933894081914 -334.12982969552411 0 -334.12982969552411 241.75567716456618 0 0 0 0 187.96505322863231 120.42066146374492 0 120.42066146374492 417.62401484976363 0 0 0 0 34.093669142894214 -15.357765348056773 0 -15.357765348056773 297.91396343967654 0 0 0 0 116.00183670005936 181.98223998358611 0 181.98223998358611 271.60968393836026 0 0 0 0 277.704114788281 15.214900529707961 0 15.214900529707961 249.92722550577071 0 0 0 0 -35.548679127550713 70.654503368187648 0 70.654503368187648 -20.185268938718224 0 0 0 0 83.054359798185033 95.2905691612591 0 95.2905691612591 46.660057757925074 0 0 0 0 -16.391153820673935 33.951163836417436 0 33.951163836417436 177.86525527237075 0 0 0 0 14.586487132139155 -21.953477175377202 0 -21.953477175377202 105.61090502621528 0 0 0 0 33.5915196365263 -25.37600266004948 0 -25.37600266004948 103.83411235300582 0 0 0 0 -38.192838357716028 93.796524348901286 0 93.796524348901286 56.855053344222142 0 0 0 0 76.158726431269315 -22.948565111971334 0 -22.948565111971334 15.188160678584069 0 0 0 0 23.263706779703206 -0.075015184676647362 0 -0.075015184676647362 -0.21294126789850609 0 0 0 0 -49.030074406156928 27.649638114194033 0 27.649638114194033 20.784073497632335 0 0 0 0 101.68724833101078 -100.80924075798683 0 -100.80924075798683 53.538306153483944 0 0 0 0 107.29153850686271 -136.25030114631272 0 -136.25030114631272 -263.21716044390769 0 0 0 0 -3.2363661787553539 -0.21145822086612753 0 -0.21145822086612753 0.35814901611880712 0 0 0 0 -65.762151253005868 -253.95078816159446 0 -253.95078816159446 168.40654889419352 0 0 0 0 130.04176359575649 1.6632036599885396 0 1.6632036599885396 -7.0684944132160012 0 0 0 0 85.053353418530605 -98.04052476753759 0 -98.04052476753759 69.543214504384281 0 0 0 0 -3.3118945345195243 311.43899153861389 0 311.43899153861389 123.35611393939644 0 0 0 0 71.9439079896365 -27.486349343224674 0 -27.486349343224674 -35.364490334425 0 0 0 0 15.363899781990767 14.302357457954145 0 14.302357457954145 -18.710651217198347 0 0 0 0 65.624383208993095 -31.882223545318993 0 -31.882223545318993 12.880787334046772 0 0 0 0 27.082270315325786 -47.077009575665031 0 -47.077009575665031 9.0794194318405061 0 0 0 0 47.902294784118567 -0.51335035122542649 0 -0.51335035122542649 14.272274389044924 0 0 0 0 20.895707831949039 -18.818703793512327 0 -18.818703793512327 69.565580499385078 0 0 0 0 23.714055230198937 -58.897030307402929 0 -58.897030307402929 123.2224465274179 0 0 0 0 75.919981426344748 -69.835191998859727 0 -69.835191998859727 29.574510848542587 0 0 0 0 80.571852781646157 -94.779162081789707 0 -94.779162081789707 40.237699873887777 0 0 0 0 152.01834490901638 -163.27452452813242 0 -163.27452452813242 98.782780864704449 0 0 0 0 181.32504470349522 -141.02916737105068 0 -141.02916737105068 41.145943738706151 0 0 0 0 84.860238821420893 -70.966985626872045 0 -70.966985626872045 31.220963368191121 0 0 0 0 60.504177546195933 -36.472741755445242 0 -36.472741755445242 12.99350238561783 0 0 0 0 92.811545381229735 -85.185642483911494 0 -85.185642483911494 33.891307645365117 0 0 0 0 408.22930166202423 -1.4379279507809599 0 -1.4379279507809599 109.20770745234567 0 0 0 0 738.22310908483632 26.23698011036771 0 26.23698011036771 53.573111442423851 0 0 0 0 246.50517298845443 326.49170478020977 0 326.49170478020977 487.26281221303088 0 0 0 0 418.75256222088137 -295.01710150462714 0 -295.01710150462714 260.76749288620181 0 0 0 0 78.957982793233896 -135.60017643640893 0 -135.60017643640893 204.4982144226251 0 0 0 0 353.13474300070447 -270.16376446511242 0 -270.16376446511242 124.24828243208852 0 0 0 0 173.08683621717228 -149.43816893652249 0 -149.43816893652249 65.025906693006306 0 0 0 0 206.04424267968716 -189.93820894502124 0 -189.93820894502124 56.801197895371601 0 0 0 0 219.4547698741826 -89.554070520222155 0 -89.554070520222155 68.174747285010568 0 0 0 0 275.37331039066612 30.413610637811232 0 30.413610637811232 82.206576684524634 0 0 0 0 193.71948844369581 -126.09658968455074 0 -126.09658968455074 11.907535588054202 0 0 0 0 284.49569833653823 -128.13546989257446 0 -128.13546989257446 9.4000602721699806 0 0 0 0 138.61174626872344 -162.04901468232129 0 -162.04901468232129 -8.6929692348273875 0 0 0 0 105.70873159781513 5.5619971475169905 0 5.5619971475169905 -64.464420311869503 0 0 0 0 113.05418816116799 -64.434316478884625 0 -64.434316478884625 10.404583067880026 0 0 0 0 244.20111509014896 -73.636494453512285 0 -73.636494453512285 8.9310918764950529 0 0 0 0 222.46340150212745 -149.71785225402959 0 -149.71785225402959 7.4098793813170118 0 0 0 0 179.61070321694751 -153.95668557515961 0 -153.95668557515961 8.6220132825523592 0 0 0 0 203.0042693713508 -197.06128150716259 0 -197.06128150716259 -60.772933290706078 0 0 0 0 358.82707175956983 145.95603209344668 0 145.95603209344668 132.42656944953728 0 0 0 0 157.12605407477713 -255.31709518430443 0 -255.31709518430443 5.938269550488485 0 0 0 0 397.78360668004461 -160.45133605637136 0 -160.45133605637136 -66.975346878430742 0 0 0 0 5.0801276160899995 -0.59663285451360792 0 -0.59663285451360792 -0.0083797980571004849 0 0 0 0 304.31286258378759 202.30559304527884 0 202.30559304527884 2.6103722837185614 0 0 0 0 322.52613974704673 -165.87006905720193 0 -165.87006905720193 86.245261696342141 0 0 0 0 537.72264491588066 72.008978362200594 0 72.008978362200594 -153.76902282596075 0 0 0 0 106.47899104178941 -42.214246802896241 0 -42.214246802896241 -319.40484418405731 0 0 0 0 3.5092397775079007 -32.389258732267422 0 -32.389258732267422 -79.431706262841772 0 0 0 0 13.24859997375097 76.947407087267834 0 76.947407087267834 -17.829403454253907 0 0 0 0 -11.874804931764629 9.7047032913354769 0 9.7047032913354769 -123.5217748663224 0 0 0 0 12.76709148549601 -0.89992671892836373 0 -0.89992671892836373 -0.53132125057934387 0 0 0 0 -13.851718883584908 107.06286069386863 0 107.06286069386863 -317.58574086608701 0 0 0 0 -117.6708882370458 72.770652516519249 0 72.770652516519249 -62.866695949234668 0 0 0 0 88.625430033486737 73.093491308853288 0 73.093491308853288 -130.35042732886086 0 0 0 0 11.945460319894529 5.5242766996507431 0 5.5242766996507431 1.4878850763585025 0 0 0 0 170.65940204373237 -70.535525293480532 0 -70.535525293480532 -419.20474373459137 0 0 0 0 -362.23227138162332 290.1417869732818 0 290.1417869732818 -71.420398051214761 0 0 0 0 128.93785712280538 -139.81878352660124 0 -139.81878352660124 10.473391705469112 0 0 0 0 408.11751059186645 106.70857289475703 0 106.70857289475703 -110.77980037752889 0 0 0 0 403.16087742756645 89.84690695588381 0 89.84690695588381 -147.17227440845909 0 0 0 0 26.796961009355982 2.7407500634234339 0 2.7407500634234339 -137.97064285130591 0 0 0 0 561.29373091704679 336.2688644074633 0 336.2688644074633 35.359570190270006 0 0 0 0 698.4152041485977 -75.763818113822254 0 -75.763818113822254 -191.33421177106129 0 0 0 0 1151.8521769259532 27.972785471773022 0 27.972785471773022 -168.97122509149381 0 0 0 0 -209.5544507893951 -941.18571680472621 0 -941.18571680472621 261.4490110247516 0 0 0 0 746.51149551373601 363.32224513517269 0 363.32224513517269 37.252226811640867 0 0 0 0 -72.817935786824819 13.268799701349963 0 13.268799701349963 78.205886828524854 0 0 0 0 268.56002274785715 107.56501475278191 0 107.56501475278191 29.06672792417794 0 0 0 0 265.83488208450035 129.18587071608658 0 129.18587071608658 -92.28513859867644 0 0 0 0 213.88425448947419 234.73994866619591 0 234.73994866619591 134.76841147685104 0 0 0 0 8.4692363923658434 3.4496590354851584 0 3.4496590354851584 0.43562170782381759 0 0 0 0 1345.7815378927216 31.880636615959702 0 31.880636615959702 -911.08077947150059 0 0 0 0 -808.40750408499207 -81.135990426931585 0 -81.135990426931585 497.40756298046472 0 0 0 0 570.24800546756126 -127.24414145101112 0 -127.24414145101112 169.11501572549605 0 0 0 0 592.14681053734103 337.996257829108 0 337.996257829108 99.612825152629739 0 0 0 0 -303.96354528865868 172.98028527178303 0 172.98028527178303 309.76725351876564 0 0 0 0 935.5072451608703 552.52348349420799 0 552.52348349420799 16.851403701130039 0 0 0 0 836.72079417961913 311.87197000736705 0 311.87197000736705 -203.48522643579872 0 0 0 0 727.8993133491781 606.10364355533102 0 606.10364355533102 376.96143270039602 0 0 0 0 8.4731677648064387 3.2487346139361053 0 3.2487346139361053 -0.12199636661125801 0 0 0 0 680.86573367026904 496.51927001213335 0 496.51927001213335 -302.47994744035941 0 0 0 0 27.262216335843732 599.51837029926992 0 599.51837029926992 -268.61612694079849 0 0 0 0 1008.1869290552768 149.58120289207682 0 149.58120289207682 -361.37158530105194 0 0 0 0 -172.45000866742248 -106.12123413740471 0 -106.12123413740471 -29.972849656174731 0 0 0 0 182.10459191739574 -294.64508818412196 0 -294.64508818412196 -71.178504358065084 0 0 0 0 178.42122613319407 -39.467888019075872 0 -39.467888019075872 -19.219282653263235 0 0 0 0 121.67936015756732 -20.601902429066968 0 -20.601902429066968 -117.86298561647345 0 0 0 0 165.82037273214348 -233.91925410525488 0 -233.91925410525488 115.82595753075202 0 0 0 0 178.78968738996065 -139.98684288556828 0 -139.98684288556828 140.35374063399922 0 0 0 0 265.05881239822975 -116.07898416321223 0 -116.07898416321223 134.53628864137886 0 0 0 0 244.61037071076839 -205.93219304866841 0 -205.93219304866841 115.66045838044374 0 0 0 0 843.66946407491878 -101.95009495991462 0 -101.95009495991462 95.484132272373358 0 0 0 0 245.62781844944971 -245.14790406319753 0 -245.14790406319753 438.83373234603596 0 0 0 0 -8.3440478477136821 -41.024634929033482 0 -41.024634929033482 92.623924586486282 0 0 0 0 16.076029301647889 -0.8434035783027678 0 -0.8434035783027678 0.276977260274899 0 0 0 0 200.52680679461986 -570.2813722877745 0 -570.2813722877745 363.89005192578998 0 0 0 0 265.98797525352734 533.65527835354033 0 533.65527835354033 713.08640717495246 0 0 0 0 100.42199541763125 63.294333672105324 0 63.294333672105324 20.992957724724874 0 0 0 0 76.31965225026417 153.91290001220653 0 153.91290001220653 211.95114847797595 0 0 0 0 177.69509117191683 338.39813998340878 0 338.39813998340878 227.24450944208505 0 0 0 0 167.67686490077995 226.72494703854068 0 226.72494703854068 -1.2266812755416368 0 0 0 0 180.47461337027516 39.325653531725493 0 39.325653531725493 -73.836288286446091 0 0 0 0 390.42205233913387 379.72552290610838 0 379.72552290610838 69.301022377686877 0 0 0 0 960.94483600831359 439.58968056202821 0 439.58968056202821 55.776087036347235 0 0 0 0 31.84904903882898 -81.043423726255241 0 -81.043423726255241 26.799496913640041 0 0 0 0 50.77646209220427 -169.91706261428376 0 -169.91706261428376 -159.55394709659231 0 0 0 0 113.22341078869272 180.23592575505108 0 180.23592575505108 889.94292681192837 0 0 0 0 -69.318675517302836 -186.32212013173807 0 -186.32212013173807 296.60177273481713 0 0 0 0 599.41619562029246 -486.99290552307457 0 -486.99290552307457 314.84319394378599 0 0 0 0 70.868044016431668 16.60448697329025 0 16.60448697329025 -76.919779616870073 0 0 0 0 12.541076926949334 -6.8556035579189967 0 -6.8556035579189967 -13.428192025184661 0 0 0 0 13.295188614406751 -7.8097246892038665 0 -7.8097246892038665 -7.0734912310607809 0 0 0 0 13.366598588746456 -6.4010805683436161 0 -6.4010805683436161 -15.744618578114114 0 0 0 0 10.728981674870212 -8.0959450399603732 0 -8.0959450399603732 -13.499885460082346 0 0 0 0 17.758577284022977 -29.626134190377797 0 -29.626134190377797 -10.436818813837817 0 0 0 0 26.427057855016756 -32.363409108266751 0 -32.363409108266751 -11.864058099835347 0 0 0 0 33.31448567259622 -12.555423196583888 0 -12.555423196583888 -20.382348384692705 0 0 0 0 36.662381869267847 -25.261012608439842 0 -25.261012608439842 -46.062088766123679 0 0 0 0 36.523571551505228 1.9279646165611304 0 1.9279646165611304 -26.824700826145609 0 0 0 0 118.9038945086304 -162.67779961761198 0 -162.67779961761198 -260.70303314799452 0 0 0 0 51.912031618706969 -8.0861715531489438 0 -8.0861715531489438 -6.2759751450429091 0 0 0 0 62.085994235111798 -26.862653951398443 0 -26.862653951398443 -83.481879251036844 0 0 0 0 -41.319293827177717 -136.59905158646831 0 -136.59905158646831 89.269101216820445 0 0 0 0 274.4373053710201 270.75362734800387 0 270.75362734800387 -116.164637507527 0 0 0 0 221.90705063469795 115.04129841278018 0 115.04129841278018 -209.46781491336219 0 0 0 0 144.33369432888594 216.44826073504123 0 216.44826073504123 0.20690406499738856 0 0 0 0 6.0477289712414137 -0.35032725570028589 0 -0.35032725570028589 0.51769788164676267 0 0 0 0 112.50718973894254 -69.577449377235098 0 -69.577449377235098 -222.7596296779659 0 0 0 0 40.360140772884918 -3.3785392157367493 0 -3.3785392157367493 0.51789485569545501 0 0 0 0 -139.6661926926073 435.89015031490646 0 435.89015031490646 197.36739388289243 0 0 0 0 18.764840404231258 -1.3360753775436631 0 -1.3360753775436631 -1.554548928988984 0 0 0 0 5.2678580354108817 65.305966818867546 0 65.305966818867546 27.236890509201658 0 0 0 0 2.1915519286317249 -42.710356927482735 0 -42.710356927482735 101.90724328159376 0 0 0 0 65.2835744851036 -10.913132169826895 0 -10.913132169826895 -5.4244563744874199 0 0 0 0 157.55698181053049 -144.40788066618097 0 -144.40788066618097 77.604531231615852 0 0 0 0 95.396563329386481 -175.55043611558449 0 -175.55043611558449 269.18359951317274 0 0 0 0 164.54631156797586 -131.14546042179973 0 -131.14546042179973 -11.814850483999265 0 0 0 0 168.71906670903172 -165.63221721085847 0 -165.63221721085847 -12.440050180233811 0 0 0 0 104.04557557350745 -87.990494461501385 0 -87.990494461501385 22.732602946474344 0 0 0 0 -52.415527785548875 -61.2864533281886 0 -61.2864533281886 1.1427027707859452 0 0 0 0 -0.94436156329967069 1.126455630523779 0 1.126455630523779 0.89911808352653466 0 0 0 0 150.21554334564462 -29.81112504212615 0 -29.81112504212615 -5.4481518032569056 0 0 0 0 4.0509330049322827 0.72063902100350674 0 0.72063902100350674 -0.55512585433837813 0 0 0 0 1.1056855100378016 -25.043943853813289 0 -25.043943853813289 -21.785806638858048 0 0 0 0 17.45673870488281 -7.2240928855221682 0 -7.2240928855221682 12.52530779344761 0 0 0 0 14.290771950461931 -22.960469649555762 0 -22.960469649555762 -27.305904554179961 0 0 0 0 24.793845510312167 -16.158551426818121 0 -16.158551426818121 -26.116189712046435 0 0 0 0 13.315177550881344 -17.800854624819749 0 -17.800854624819749 -20.017209169952366 0 0 0 0 5.0589231007343187 -20.823213971385712 0 -20.823213971385712 -26.628035310796804 0 0 0 0 40.486423984639259 -39.201987504326553 0 -39.201987504326553 -18.866165335365167 0 0 0 0 31.611979740393508 -45.275132918641702 0 -45.275132918641702 -22.934113640989835 0 0 0 0 81.260002436187278 -32.714043097091007 0 -32.714043097091007 79.958610295578637 0 0 0 0 42.462249350883212 -87.388859856584872 0 -87.388859856584872 7.2638183141435206 0 0 0 0 -70.012098707998121 -89.227959841639404 0 -89.227959841639404 63.689220069682307 0 0 0 0 234.81564149188853 -54.677512263837571 0 -54.677512263837571 14.53370245957376 0 0 0 0 199.57195785578278 -139.55593460296899 0 -139.55593460296899 -0.9450564880296497 0 0 0 0 4.5170173073672792 -0.27539083188578672 0 -0.27539083188578672 -0.49513151786850962 0 0 0 0 153.86570438958461 -153.25701012303466 0 -153.25701012303466 5.260164079219976 0 0 0 0 198.82509222785666 -149.54667206051431 0 -149.54667206051431 -12.246801498523382 0 0 0 0 112.68677714761543 -83.280423445634142 0 -83.280423445634142 0.11137925747652844 0 0 0 0 207.32078669146813 -90.784972614169419 0 -90.784972614169419 -11.143824514723974 0 0 0 0 37.939068333174873 52.767976500953921 0 52.767976500953921 57.288996272623081 0 0 0 0 323.86303385117481 -23.245689704761617 0 -23.245689704761617 -13.893713972876412 0 0 0 0 304.49950415602143 -207.14639829822227 0 -207.14639829822227 22.914137555526395 0 0 0 0 -118.72457554810273 69.967238791419405 0 69.967238791419405 -9.3868074278486802 0 0 0 0 4.7685070883785414 1.6359765656723009 0 1.6359765656723009 0.28611543200805922 0 0 0 0 -78.030169497296811 223.94189374905329 0 223.94189374905329 -55.619637559670764 0 0 0 0 13.406744871520189 -1.3851237906292493 0 -1.3851237906292493 -0.60364275761205455 0 0 0 0 366.3324178283242 -219.58676179999424 0 -219.58676179999424 -438.36433750938522 0 0 0 0 95.750659180836919 10.729930229605429 0 10.729930229605429 -326.37255688350228 0 0 0 0 8.145027150563692 -86.24094110331032 0 -86.24094110331032 -115.80975847147891 0 0 0 0 2.8771680625578142 61.146583458532803 0 61.146583458532803 -130.79559606813541 0 0 0 0 236.13961595532237 176.39656312193756 0 176.39656312193756 -105.63368246921959 0 0 0 0 5.7161006328712958 -1.113138974575925 0 -1.113138974575925 -0.046362304457732428 0 0 0 0 205.34002356046767 -260.59055498977489 0 -260.59055498977489 13.88605811699972 0 0 0 0 -1.1109724747648215 -195.20804692271048 0 -195.20804692271048 -3.0597234210088686 0 0 0 0 36.625756948740218 123.88230230899812 0 123.88230230899812 -32.711428380462166 0 0 0 0 5.3123785967982258 -14.968653838310956 0 -14.968653838310956 -107.96894607747595 0 0 0 0 146.76527159961006 151.78447788752067 0 151.78447788752067 -111.8975397718491 0 0 0 0 196.83560431917249 -61.373489785340951 0 -61.373489785340951 -254.16860077962724 0 0 0 0 251.5938294467378 44.392303948728966 0 44.392303948728966 -50.480208376467544 0 0 0 0 110.91991416050223 -58.784822335373178 0 -58.784822335373178 -15.060730027038261 0 0 0 0 23.163878326569829 -49.098029371763005 0 -49.098029371763005 43.358746656895164 0 0 0 0 -3.9419192329610624 -1.2704105356521218 0 -1.2704105356521218 2.6086596063957499 0 0 0 0 7.200052358008179 -15.672463476032021 0 -15.672463476032021 24.163349735846168 0 0 0 0 -3.0015152973837509 -9.4466258248225508 0 -9.4466258248225508 6.8457615211056062 0 0 0 0 39.095832264338242 -11.316998712457689 0 -11.316998712457689 -12.904702063152399 0 0 0 0 630.30434256467197 84.342883046037514 0 84.342883046037514 -352.93948706092556 0 0 0 0 258.39931328643434 264.6715157577471 0 264.6715157577471 792.16838612133733 0 0 0 0 20.004688970819956 -2.5407346811925411 0 -2.5407346811925411 -5.351399153991955 0 0 0 0 23.128183822693245 -13.374684479620328 0 -13.374684479620328 -4.4442639988910742 0 0 0 0 20.933708804419439 1.6804621404755835 0 1.6804621404755835 -15.40530499488716 0 0 0 0 49.832272628460487 -26.267564518760537 0 -26.267564518760537 1.5275730124362781 0 0 0 0 201.57348412681677 -341.48815414125488 0 -341.48815414125488 -451.93450941816809 0 0 0 0 -3.2359972657032863 -8.1777713405223196 0 -8.1777713405223196 6.9267974884905739 0 0 0 0 32.320165246739634 -17.632413353207539 0 -17.632413353207539 -7.80000489390045 0 0 0 0 5.2436543123554102 -3.6956777853248148 0 -3.6956777853248148 0.084183450751060818 0 0 0 0 12.943246483480834 0.090842411246399024 0 0.090842411246399024 -0.11331533940256122 0 0 0 0 104.36548986501293 -0.36497922131820815 0 -0.36497922131820815 1.6590979421217185 0 0 0 0 44.184057392521026 -7.2415336927221574 0 -7.2415336927221574 1.1909400835220367 0 0 0 0 25.619643104699207 -109.73090948242998 0 -109.73090948242998 -32.427994989282524 0 0 0 0 76.12715631575702 41.592023293021612 0 41.592023293021612 16.27666417204 0 0 0 0 29.003835964744212 -11.073172408703158 0 -11.073172408703158 77.159152705289671 0 0 0 0 35.260008386659592 -120.77337467167126 0 -120.77337467167126 -96.121381176639261 0 0 0 0 24.395354848203169 -37.889102920939877 0 -37.889102920939877 -76.518109445862137 0 0 0 0 -3.2770058357027665 -29.196293376892527 0 -29.196293376892527 6.2547484523752246 0 0 0 0 11.339176631193588 -15.141638734347438 0 -15.141638734347438 -25.85115436530829 0 0 0 0 111.54910925738113 -62.68955011499429 0 -62.68955011499429 -115.18684738773277 0 0 0 0 82.725285370132042 5.5439585861695377 0 5.5439585861695377 -22.655866590733012 0 0 0 0 73.16073296135437 -7.7704809177921561 0 -7.7704809177921561 -31.500212838608604 0 0 0 0 61.230045277534373 -4.2687815241179123 0 -4.2687815241179123 -18.543827379156028 0 0 0 0 64.091978197779099 -5.9224354319940176 0 -5.9224354319940176 -23.219019118578217 0 0 0 0 62.816675677394642 20.683367501078635 0 20.683367501078635 -86.165092616383845 0 0 0 0 42.38127051911033 -16.594850786997085 0 -16.594850786997085 -29.688126478595223 0 0 0 0 44.709928065352059 -3.4687470271353291 0 -3.4687470271353291 -7.4160211765515074 0 0 0 0 11.521304320815124 -4.7644616273333718 0 -4.7644616273333718 -1.7412813023270282 0 0 0 0 48.145558599822834 -17.497539188367227 0 -17.497539188367227 -23.862160836618386 0 0 0 0 27.838013980316049 -16.017420088857961 0 -16.017420088857961 -17.564652635655627 0 0 0 0 36.629094655369045 -49.5670193728497 0 -49.5670193728497 -97.542242983976394 0 0 0 0 33.948269913077638 8.2090244966739476 0 8.2090244966739476 -20.055877728380437 0 0 0 0 35.812673076716237 30.868465060194467 0 30.868465060194467 -48.972422586682114 0 0 0 0 49.812704970750929 37.288100076599221 0 37.288100076599221 -71.640074646747962 0 0 0 0 84.139057393977055 -28.003642881817086 0 -28.003642881817086 -108.94396763480836 0 0 0 0 20.952336221017504 -13.869819330860992 0 -13.869819330860992 -62.553362087088317 0 0 0 0 79.000259278011072 -39.916843818986763 0 -39.916843818986763 -8.4939825518486032 0 0 0 0 127.51589885697103 -14.918335719459719 0 -14.918335719459719 -62.758248632665868 0 0 0 0 147.02531361118236 -15.554041741872425 0 -15.554041741872425 -5.1429341368296946 0 0 0 0 65.596059867751137 48.621189497350997 0 48.621189497350997 -39.65558821198465 0 0 0 0 0.46220837134387693 65.432630754473848 0 65.432630754473848 -43.731731968824874 0 0 0 0 44.727779284819007 10.480906257298557 0 10.480906257298557 -35.733899371776261 0 0 0 0 54.306562394589491 -9.6251364816889691 0 -9.6251364816889691 -40.514272535538169 0 0 0 0 3.0313270920209519 4.5050644799978947 0 4.5050644799978947 -32.553439202676401 0 0 0 0 35.408166551966133 13.781365108454111 0 13.781365108454111 -62.438622706972183 0 0 0 0 -7.4361252953922303 28.057418530121822 0 28.057418530121822 -30.197014396002942 0 0 0 0 1.5695905284266516 -2.8793754001689802 0 -2.8793754001689802 -0.045433402968120706 0 0 0 0 9.8191875050451927 7.8349508249317523 0 7.8349508249317523 -18.520595061392669 0 0 0 0 36.49272411122729 3.1501229980997323 0 3.1501229980997323 -27.111648597458043 0 0 0 0 63.818976896477579 -22.620885669009567 0 -22.620885669009567 -69.223951095143093 0 0 0 0 9.7831385244128306 -0.78013774811855541 0 -0.78013774811855541 -30.538721482960959 0 0 0 0 25.009065176765944 13.109556562517128 0 13.109556562517128 -35.541768151721953 0 0 0 0 226.70290189138905 -108.68081091028853 0 -108.68081091028853 -96.432211722905777 0 0 0 0 238.23319899159105 -109.71194818009189 0 -109.71194818009189 -42.261095820913397 0 0 0 0 245.48160169665789 -89.033948600936128 0 -89.033948600936128 -104.97022626983744 0 0 0 0 215.40045374170677 -62.189068522359548 0 -62.189068522359548 -154.36513128989827 0 0 0 0 173.24234773260832 -107.2709132488917 0 -107.2709132488917 -94.762458340210287 0 0 0 0 300.66087265399256 -102.85252003111918 0 -102.85252003111918 -58.049848425449454 0 0 0 0 302.23723430604878 -112.09984889359293 0 -112.09984889359293 -117.33670808834722 0 0 0 0 323.00292697471741 -118.88977863752461 0 -118.88977863752461 -66.103643718470266 0 0 0 0 307.54119941576937 -139.95306892931967 0 -139.95306892931967 -0.34788857365856529 0 0 0 0 289.07467990067744 -115.1547608821902 0 -115.1547608821902 16.085156861965515 0 0 0 0 304.57384026414729 -106.82590007888666 0 -106.82590007888666 -51.14274094884604 0 0 0 0 187.50085807860887 -100.29042225438752 0 -100.29042225438752 -5.6963437678259652 0 0 0 0 236.88891573186629 -64.376087300383006 0 -64.376087300383006 20.416252021568653 0 0 0 0 189.10777918090025 -118.37021576195548 0 -118.37021576195548 48.117714755351699 0 0 0 0 92.72458414225548 -112.01453562168081 0 -112.01453562168081 333.78051134367888 0 0 0 0 313.41140746948076 8.5861581925455539 0 8.5861581925455539 176.63751814417265 0 0 0 0 -982.05400794564412 -206.17845606695255 0 -206.17845606695255 705.20425606102799 0 0 0 0 322.62533733876808 154.52936659424358 0 154.52936659424358 510.83967370168102 0 0 0 0 417.12440638309636 -141.64444231158177 0 -141.64444231158177 117.62165635099882 0 0 0 0 494.62145380198854 -71.346374324156386 0 -71.346374324156386 109.12468457569048 0 0 0 0 328.15523403356201 -178.86681088825253 0 -178.86681088825253 107.86220596364728 0 0 0 0 408.97560732900456 -85.012416575178577 0 -85.012416575178577 121.73098950583426 0 0 0 0 329.20904269465973 -137.7095187995601 0 -137.7095187995601 97.448657010019815 0 0 0 0 385.25925632024155 -113.00490517425169 0 -113.00490517425169 15.791803987779531 0 0 0 0 346.71433430675279 -167.01572232946955 0 -167.01572232946955 37.238776394933666 0 0 0 0 5.620710101124871 2.6157685351031326 0 2.6157685351031326 0.78488445337634438 0 0 0 0 1.278335453622276 -232.31789957972796 0 -232.31789957972796 -259.50470085456254 0 0 0 0 12.175774673230706 3.2094041489734959 0 3.2094041489734959 0.43018157207733543 0 0 0 0 250.31173938653956 -176.55718688504021 0 -176.55718688504021 149.68106406870629 0 0 0 0 710.71895093982312 326.39452636364649 0 326.39452636364649 -253.42442274809036 0 0 0 0 202.9136979545292 -148.22667574941443 0 -148.22667574941443 70.928247097680469 0 0 0 0 267.56715696023866 -166.13992298788207 0 -166.13992298788207 75.558755416042914 0 0 0 0 266.565544319521 -155.0197079343834 0 -155.0197079343834 98.677743113281394 0 0 0 0 125.64053178933682 -161.86850714579487 0 -161.86850714579487 148.52375782495824 0 0 0 0 -11.102394973870105 -80.793113372174048 0 -80.793113372174048 133.94260986217523 0 0 0 0 197.82115861476632 -126.48695145597412 0 -126.48695145597412 77.20081098344599 0 0 0 0 29.116028346383246 -119.87901479962966 0 -119.87901479962966 134.78132481504872 0 0 0 0 76.599986067307327 -33.537662419247226 0 -33.537662419247226 36.011046119073399 0 0 0 0 215.02459333417119 -79.172924391360993 0 -79.172924391360993 37.512232941966431 0 0 0 0 80.598138234316139 -63.405676781274451 0 -63.405676781274451 50.465675841624034 0 0 0 0 234.31841577785235 -123.60395916398556 0 -123.60395916398556 13.139107258783497 0 0 0 0 282.94515340228827 -149.57897710278667 0 -149.57897710278667 21.695904689637246 0 0 0 0 278.4381313688209 -130.12519360497572 0 -130.12519360497572 17.861342353104192 0 0 0 0 280.91652739941128 -101.76876755230433 0 -101.76876755230433 -55.105913017310741 0 0 0 0 303.57783610588922 -106.05164807075153 0 -106.05164807075153 -61.229522279201774 0 0 0 0 12.91096178679431 -6.8202008248686354 0 -6.8202008248686354 8.3269296698775506 0 0 0 0 78.720089040583844 -24.496986061509233 0 -24.496986061509233 27.802600993613851 0 0 0 0 4.6236411533338355 2.7794862320692211 0 2.7794862320692211 0.76186662630516011 0 0 0 0 48.497926892850955 -130.641084384024 0 -130.641084384024 163.36059118284174 0 0 0 0 20.299245168114368 3.6805715835313926 0 3.6805715835313926 3.2059965793713072 0 0 0 0 13.290078320025941 44.700016014895567 0 44.700016014895567 -9.7032390721378761 0 0 0 0 -92.507561010491372 240.56529813441142 0 240.56529813441142 21.107274215954931 0 0 0 0 -106.17387987379334 146.613360620192 0 146.613360620192 -70.254447832296137 0 0 0 0 1011.3732545046951 -337.75380699889138 0 -337.75380699889138 -385.90057949980655 0 0 0 0 13.180965669846401 -3.9001108074831592 0 -3.9001108074831592 -10.349047534076053 0 0 0 0 989.09112182055833 -854.77537592010776 0 -854.77537592010776 571.59918108531565 0 0 0 0 30.739216578511666 7.4915750547813289 0 7.4915750547813289 -5.3155749899584848 0 0 0 0 36.923094827812747 9.5795333607111388 0 9.5795333607111388 -25.274835296220772 0 0 0 0 29.010537943390318 -43.217796302615056 0 -43.217796302615056 -77.838600127478458 0 0 0 0 59.879443424724741 -37.406606688405418 0 -37.406606688405418 -62.158400046178031 0 0 0 0 53.909462784130483 -25.703296617968135 0 -25.703296617968135 -84.166582985341847 0 0 0 0 98.001395236187818 -49.819908646577005 0 -49.819908646577005 -59.091447069173228 0 0 0 0 17.492811983163847 -41.352980791140453 0 -41.352980791140453 17.570622414522404 0 0 0 0 14.64116346668925 -23.424664848021621 0 -23.424664848021621 -23.817865126871766 0 0 0 0 -11.23382223909357 -8.6942914996839136 0 -8.6942914996839136 -32.197524769002939 0 0 0 0 550.45775827343095 200.65505115272617 0 200.65505115272617 -55.02026260066873 0 0 0 0 273.32386630625842 49.993935208848143 0 49.993935208848143 47.265524146110693 0 0 0 0 366.04708119287534 -57.96113457581032 0 -57.96113457581032 -110.12985831102424 0 0 0 0 -41.039809183438365 -175.97178659757265 0 -175.97178659757265 30.532778753832645 0 0 0 0 1.7380616375282969 -3.0839752439664618 0 -3.0839752439664618 3.7482498231427801 0 0 0 0 159.10551300225779 -242.03174201202955 0 -242.03174201202955 34.33642462367709 0 0 0 0 591.64189827596329 -101.98420391329688 0 -101.98420391329688 -176.19907942795908 0 0 0 0 9.9271770789523543 220.16710746959561 0 220.16710746959561 -8.9073239908366304 0 0 0 0 -6.7884136976335867 97.543274841469383 0 97.543274841469383 445.00443689385293 0 0 0 0 350.47354878801343 -72.355030071369583 0 -72.355030071369583 -212.76281977945928 0 0 0 0 150.26444575809683 -39.752774182387952 0 -39.752774182387952 -135.20355718191422 0 0 0 0 320.12887251460052 27.713719695118016 0 27.713719695118016 -111.95345595155231 0 0 0 0 313.8399301919635 -106.54124047616369 0 -106.54124047616369 -97.412410874148918 0 0 0 0 291.35859742674438 -60.826936146742355 0 -60.826936146742355 -157.8495465605065 0 0 0 0 204.93144252699858 -118.14244151714138 0 -118.14244151714138 -147.652003817489 0 0 0 0 80.190841148993059 124.40659835965835 0 124.40659835965835 -229.83561711126822 0 0 0 0 13.386669140908126 2.4797386274804434 0 2.4797386274804434 -6.062788726252097 0 0 0 0 60.618645664830183 40.163848669677463 0 40.163848669677463 -22.258905776968732 0 0 0 0 34.562183613454181 42.061278197287038 0 42.061278197287038 5.7669371875558681 0 0 0 0 23.306335499712077 29.243365283328103 0 29.243365283328103 -6.8863211251177745 0 0 0 0 289.04902495764691 -69.247331803695943 0 -69.247331803695943 -175.07828564833471 0 0 0 0 49.561025377814076 82.560776028140481 0 82.560776028140481 -268.44245257099055 0 0 0 0 36.426046359250904 -177.05850637110552 0 -177.05850637110552 -79.176015481411412 0 0 0 0 162.18387570614323 -240.34747847908193 0 -240.34747847908193 -88.603220865037201 0 0 0 0 233.31978147083282 -266.08111174189037 0 -266.08111174189037 -71.031713973449769 0 0 0 0 61.619232430713964 46.540270774501323 0 46.540270774501323 16.196173579800188 0 0 0 0 4.3852831883129326 -1.7756376067896582 0 -1.7756376067896582 0.74482863287305867 0 0 0 0 77.901752237143228 196.76577922575188 0 196.76577922575188 196.66575894570622 0 0 0 0 508.58430001286069 -122.40348053882474 0 -122.40348053882474 -194.57582627029979 0 0 0 0 -155.27221770485812 -247.92133512552527 0 -247.92133512552527 -123.6104407047784 0 0 0 0 264.13528486016094 30.472652454918716 0 30.472652454918716 -31.807338562104633 0 0 0 0 189.49396711180088 -219.36784740324674 0 -219.36784740324674 -72.560592826177526 0 0 0 0 0.18225914074310623 -0.48291210517361627 0 -0.48291210517361627 0.73337133725257431 0 0 0 0 -213.88259815968195 123.36792411705778 0 123.36792411705778 256.61867373308405 0 0 0 0 -318.52342644873715 -251.87313738953372 0 -251.87313738953372 22.575238703852847 0 0 0 0 78.710260728777939 -86.369566492512604 0 -86.369566492512604 50.637160569108346 0 0 0 0 114.29219992985963 64.242434808979851 0 64.242434808979851 28.600682718427663 0 0 0 0 74.099635620919798 42.523665048346857 0 42.523665048346857 45.856016499704765 0 0 0 0 56.561844217292673 77.497663432536683 0 77.497663432536683 27.931675423179968 0 0 0 0 -0.73176732318603399 -0.20639436136193368 0 -0.20639436136193368 -0.58113144756464052 0 0 0 0 125.37276983368247 33.810830033876414 0 33.810830033876414 -39.987260847601647 0 0 0 0 25.929033982118085 -23.430263595479346 0 -23.430263595479346 -53.489139829822307 0 0 0 0 20.554632892430732 38.224275131351277 0 38.224275131351277 5.3626402497629897 0 0 0 0 58.044942057650395 -12.01010035097992 0 -12.01010035097992 -2.8079092686059717 0 0 0 0 11.729322472580996 3.5098978669371732 0 3.5098978669371732 -9.4224125929931688 0 0 0 0 78.677398964016902 43.195435424492672 0 43.195435424492672 -83.444033819384686 0 0 0 0 189.7548307311381 52.383545975467769 0 52.383545975467769 -100.6795466822764 0 0 0 0 84.161479733666056 9.4161112313713602 0 9.4161112313713602 -50.455582138128193 0 0 0 0 47.125561250999453 -51.253196948769755 0 -51.253196948769755 -125.39258847032426 0 0 0 0 46.878541578604199 10.597983092816776 0 10.597983092816776 -37.630551555709189 0 0 0 0 71.516467119186927 6.1732835735367644 0 6.1732835735367644 -49.293771076078883 0 0 0 0 48.539427803278912 -6.6841227979579454 0 -6.6841227979579454 -4.2091883937802663 0 0 0 0 64.238704097688242 17.490868638689335 0 17.490868638689335 -36.85537232833849 0 0 0 0 48.81587693777692 26.343738883582319 0 26.343738883582319 -37.217727418635604 0 0 0 0 1.4599171410189662 1.3613034396911079 0 1.3613034396911079 -5.7862074858332786 0 0 0 0 -11.178946260451994 -27.172671808447831 0 -27.172671808447831 -4.5298982192643962 0 0 0 0 3.6287950498117425 21.449082654063659 0 21.449082654063659 1.7535809801984215 0 0 0 0 4.4735405949961873 -2.2628188859335063 0 -2.2628188859335063 -2.2275578711784036 0 0 0 0 2.686285136587685 -9.8815081117218142 0 -9.8815081117218142 -28.77722565518053 0 0 0 0 9.5371992110930677 -4.9917607839598039 0 -4.9917607839598039 -16.768953183944923 0 0 0 0 6.0389796740977069 -4.3581766423994139 0 -4.3581766423994139 -8.6810281460838095 0 0 0 0 23.467178939295991 -13.58083693363551 0 -13.58083693363551 -29.096531114097161 0 0 0 0 4.1396017573556492 -1.1066865305974449 0 -1.1066865305974449 -9.2924349428983817 0 0 0 0 7.9200678131950681 -4.4495013341800087 0 -4.4495013341800087 -12.443578973147417 0 0 0 0 32.89418276713559 -19.398884260327861 0 -19.398884260327861 -36.606700553958945 0 0 0 0 35.144099837500107 -14.51027239784753 0 -14.51027239784753 -32.62449996045666 0 0 0 0 14.032131474690686 19.475124742369417 0 19.475124742369417 -51.39603704802721 0 0 0 0 -14.027116473158458 0.22692227515381092 0 0.22692227515381092 -23.829487477229577 0 0 0 0 5.3374966310627467 1.673755711477849 0 1.673755711477849 -30.896674362951941 0 0 0 0 1.4953940092073239 -0.32044775917038137 0 -0.32044775917038137 -0.82502045282181058 0 0 0 0 177.52603236272989 -14.550149158908425 0 -14.550149158908425 6.8379796020371941 0 0 0 0 205.80905866621833 -51.818668117896777 0 -51.818668117896777 -9.6619648644418703 0 0 0 0 22.80234278379794 -47.70794889653871 0 -47.70794889653871 20.907856908690974 0 0 0 0 322.56861865544306 -80.403839219567999 0 -80.403839219567999 -19.821833079353837 0 0 0 0 150.39065239604315 -48.483878256923163 0 -48.483878256923163 67.412074031904012 0 0 0 0 204.22591415392162 -94.173926868428225 0 -94.173926868428225 55.194129427048438 0 0 0 0 342.60845043546033 28.161843708158358 0 28.161843708158358 33.368591334375196 0 0 0 0 198.11445813507635 -65.369752289504959 0 -65.369752289504959 131.44277675795661 0 0 0 0 248.179748282535 -102.96774355160028 0 -102.96774355160028 46.501280423472053 0 0 0 0 72.00787530222442 36.909558324137834 0 36.909558324137834 -38.442010954739544 0 0 0 0 1.5864877990720743 -1.6249264355709778 0 -1.6249264355709778 0.04775061317301299 0 0 0 0 262.2318953236263 -45.861765417754668 0 -45.861765417754668 -36.306391091676915 0 0 0 0 27.08959559084542 -109.87675291304504 0 -109.87675291304504 321.156859547409 0 0 0 0 283.32505766832037 -167.98180509337203 0 -167.98180509337203 76.59255339819947 0 0 0 0 73.346369258164486 -34.137494908769895 0 -34.137494908769895 24.351058595779818 0 0 0 0 124.42113749170403 -105.76622416055744 0 -105.76622416055744 -13.769450438204785 0 0 0 0 208.69091935386314 59.047336972965923 0 59.047336972965923 52.627940628264128 0 0 0 0 98.223787610080763 -5.8189202625442249 0 -5.8189202625442249 17.118693978605847 0 0 0 0 114.25212630469832 -38.36361059592366 0 -38.36361059592366 -156.89335421454962 0 0 0 0 138.74369554515943 32.184548422316155 0 32.184548422316155 -223.43093088241122 0 0 0 0 135.34041094660279 64.646349602110263 0 64.646349602110263 -70.348574230239592 0 0 0 0 111.14003618727838 -102.4789371117964 0 -102.4789371117964 -131.55191113371552 0 0 0 0 60.568873811065714 -8.3985881327404286 0 -8.3985881327404286 -80.876633678936628 0 0 0 0 175.97016279475065 -79.788538933699755 0 -79.788538933699755 -39.057604972538684 0 0 0 0 -26.251563227819133 -32.634894093208338 0 -32.634894093208338 -87.284819778438091 0 0 0 0 26.112592061046598 -113.84542994867695 0 -113.84542994867695 -128.94920501753444 0 0 0 0 57.865296617029855 -17.467906525518263 0 -17.467906525518263 4.168561073335046 0 0 0 0 101.28501417216648 -100.45804576709571 0 -100.45804576709571 -200.91426649378087 0 0 0 0 5.2222277304172167 -38.378802588664712 0 -38.378802588664712 -10.904668484620743 0 0 0 0 69.735528661491117 -37.565793208196737 0 -37.565793208196737 -156.80127764976407 0 0 0 0 62.415808125324475 -76.115215270348244 0 -76.115215270348244 -17.408166127404456 0 0 0 0 16.820476008342666 -78.593714790383046 0 -78.593714790383046 98.784854197846471 0 0 0 0 8.3167424436178408 -46.029384484034836 0 -46.029384484034836 91.214162984505649 0 0 0 0 14.12481123714133 -51.058490080158663 0 -51.058490080158663 64.47130703584844 0 0 0 0 26.442026671909844 -64.129006971923445 0 -64.129006971923445 -7.3077694644996996 0 0 0 0 23.049199922756088 -39.052492820673024 0 -39.052492820673024 91.532667882273927 0 0 0 0 17.826432619734987 -24.875537545038014 0 -24.875537545038014 11.96161444469908 0 0 0 0 16.509265790991776 -23.015837714926874 0 -23.015837714926874 40.531139215324401 0 0 0 0 37.545129228310543 -43.525071614905301 0 -43.525071614905301 64.726489269010926 0 0 0 0 11.433877643034066 -4.6612116124365457 0 -4.6612116124365457 9.7902265376648856 0 0 0 0 1.608235837440132 -1.399648805429063 0 -1.399648805429063 0.66993802898221944 0 0 0 0 26.878043608858206 -61.168394589217542 0 -61.168394589217542 20.396054611756767 0 0 0 0 45.237451920271269 -50.402250903901631 0 -50.402250903901631 -10.850522270412966 0 0 0 0 28.063499858220894 -61.29072218297847 0 -61.29072218297847 -18.240847489288853 0 0 0 0 28.382735836443317 -44.931459183755692 0 -44.931459183755692 -43.010815457994113 0 0 0 0 53.091285379678204 -19.526579375373572 0 -19.526579375373572 0.32551752105835341 0 0 0 0 44.637586211034431 -68.78114094215789 0 -68.78114094215789 -71.126427513451176 0 0 0 0 10.200105313870836 -75.945777269926054 0 -75.945777269926054 -19.675678141298704 0 0 0 0 100.80674266040114 -8.925645551289108 0 -8.925645551289108 -85.818681441099216 0 0 0 0 41.677184799847964 -5.1607665447037903 0 -5.1607665447037903 -29.142880263860206 0 0 0 0 77.590446347432135 58.594874118943892 0 58.594874118943892 -28.642127527432422 0 0 0 0 4.9691270400546461 -6.5300444997339859 0 -6.5300444997339859 -10.893573439662248 0 0 0 0 134.47420735642027 38.883119873775058 0 38.883119873775058 -28.720748012306558 0 0 0 0 63.703982527627886 32.950182092500654 0 32.950182092500654 -79.506348498496408 0 0 0 0 56.356515365469249 8.4923976315142227 0 8.4923976315142227 -18.602051413204208 0 0 0 0 43.572903233014586 -12.196693071874506 0 -12.196693071874506 -78.062246736922134 0 0 0 0 89.095050251315115 -25.678047253553814 0 -25.678047253553814 -192.1493322158376 0 0 0 0 56.475509645909142 -46.271654272705746 0 -46.271654272705746 -142.50612024059046 0 0 0 0 28.384113609587075 -65.531072187615791 0 -65.531072187615791 -215.59902006621633 0 0 0 0 57.668954315318842 18.152582495298702 0 18.152582495298702 -174.55914054622008 0 0 0 0 5.8478624621063773 14.099727778350251 0 14.099727778350251 -7.4020591043513768 0 0 0 0 16.357990127209632 -2.9743834419687118 0 -2.9743834419687118 -158.95478877452479 0 0 0 0 46.426960410561151 1.4919918662817508 0 1.4919918662817508 -121.45553760087387 0 0 0 0 56.475114616478095 17.657814391495776 0 17.657814391495776 -154.56902088612151 0 0 0 0 71.791737380768609 4.5454076263449679 0 4.5454076263449679 -169.2351444042115 0 0 0 0 60.396042379754526 -12.418248971762052 0 -12.418248971762052 -0.63883023007499817 0 0 0 0 72.887918920401717 8.3693130405954435 0 8.3693130405954435 -260.96140348224162 0 0 0 0 98.177354332518007 -3.8429324060398358 0 -3.8429324060398358 -263.75950181044209 0 0 0 0 76.532088593568005 36.061411362002218 0 36.061411362002218 -207.51493556365949 0 0 0 0 30.675095364376375 -35.169109372885714 0 -35.169109372885714 -178.98355214309049 0 0 0 0 52.72582383194333 -20.887323989973595 0 -20.887323989973595 -182.23326991413524 0 0 0 0 63.560988964522039 14.465523863176713 0 14.465523863176713 -143.25692915548007 0 0 0 0 64.598473530904329 -15.957935619541516 0 -15.957935619541516 -141.32952639024188 0 0 0 0 89.220274915121536 8.1808993022671075 0 8.1808993022671075 -131.06952603943864 0 0 0 0 64.773367899651021 -2.2441391123388712 0 -2.2441391123388712 -130.41148934333432 0 0 0 0 66.201041066287871 23.684981699080708 0 23.684981699080708 -69.946818351840193 0 0 0 0 65.640432791160492 2.7275840547026746 0 2.7275840547026746 -48.922472432739596 0 0 0 0 49.135373480065027 13.453449971633972 0 13.453449971633972 -55.323222291212005 0 0 0 0 48.576467077972666 14.547250557690631 0 14.547250557690631 -72.961624046785801 0 0 0 0 63.073900266484998 17.780754116010939 0 17.780754116010939 -116.95327158904092 0 0 0 0 53.146363215111705 42.131204487289779 0 42.131204487289779 -27.025326177178158 0 0 0 0 79.098316663466903 27.045617616891832 0 27.045617616891832 -70.046479731751901 0 0 0 0 73.621469689870537 28.892138870780627 0 28.892138870780627 -19.676292149936671 0 0 0 0 81.972490528944945 42.151425722668137 0 42.151425722668137 0.8038227906058637 0 0 0 0 90.67532621942064 27.145928053686475 0 27.145928053686475 -29.620058570973015 0 0 0 0 116.58401547562516 -9.3407481284261848 0 -9.3407481284261848 -4.9243276190270535 0 0 0 0 100.106449244131 -10.286246934533892 0 -10.286246934533892 28.715319272922443 0 0 0 0 187.9124412119827 29.245247788168115 0 29.245247788168115 -37.882157611340631 0 0 0 0 189.32252854035596 -75.165981066514746 0 -75.165981066514746 38.123279455384932 0 0 0 0 168.48631978965932 -54.252261378380808 0 -54.252261378380808 17.586315182493763 0 0 0 0 115.76359554269402 14.445801950812665 0 14.445801950812665 10.259814139970416 0 0 0 0 109.23611940800447 60.659644789588555 0 60.659644789588555 -15.436925452856485 0 0 0 0 45.286522390995742 77.724047618598661 0 77.724047618598661 2.1867932933528209 0 0 0 0 77.625688973968863 74.904784891919576 0 74.904784891919576 -14.752379388646659 0 0 0 0 68.06478078757209 55.629415177600094 0 55.629415177600094 4.7942423850731757 0 0 0 0 28.07001389357265 60.194586180226338 0 60.194586180226338 19.769538654613825 0 0 0 0 7.962444106437772 -11.161890327386597 0 -11.161890327386597 2.6684660977279862 0 0 0 0 -50.734055248734876 11.030649425570004 0 11.030649425570004 69.270406986373473 0 0 0 0 58.99822809266152 35.438237419302595 0 35.438237419302595 31.425583603811901 0 0 0 0 57.463813334742554 57.316270829283553 0 57.316270829283553 4.5582250439920244 0 0 0 0 55.895469256440265 48.871501508650908 0 48.871501508650908 -17.744000973131442 0 0 0 0 130.93307074487166 -81.639700772083302 0 -81.639700772083302 -102.60041215631281 0 0 0 0 116.51439992312794 -123.06216299277048 0 -123.06216299277048 -98.94445861733027 0 0 0 0 187.77811763964337 -124.7372282708202 0 -124.7372282708202 -105.40513078249251 0 0 0 0 194.13742073147733 -68.719265578788082 0 -68.719265578788082 -100.92506345665242 0 0 0 0 38.73364550383576 -8.9142212517385815 0 -8.9142212517385815 -4.4090812684214029 0 0 0 0 228.17248334953365 -52.805021417736498 0 -52.805021417736498 -15.40311666182879 0 0 0 0 421.59078917603233 -179.49794564837339 0 -179.49794564837339 38.982661217374698 0 0 0 0 8.134591986805809 0.32266706314031879 0 0.32266706314031879 0.15607778950104745 0 0 0 0 9.6432451035419398 2.4215349710882252 0 2.4215349710882252 -2.7997945185410416 0 0 0 0 -29.227847857538791 -196.75474450319689 0 -196.75474450319689 -140.2814965181733 0 0 0 0 147.26992065933223 -179.51339546709505 0 -179.51339546709505 -171.74928030714273 0 0 0 0 154.45788684675244 -91.344284159691142 0 -91.344284159691142 -93.604797526941638 0 0 0 0 143.3577708925859 -48.498185990366892 0 -48.498185990366892 -155.27119875849257 0 0 0 0 114.31201588243221 -66.585429530865895 0 -66.585429530865895 -92.414477385259488 0 0 0 0 182.4528425048502 -103.54899742193084 0 -103.54899742193084 -60.27004633615752 0 0 0 0 130.07486315986921 -14.82036626395211 0 -14.82036626395211 -22.87383182071062 0 0 0 0 61.210294208991854 -58.88347054367182 0 -58.88347054367182 -75.718779676622944 0 0 0 0 91.421480556337428 -40.321373619185124 0 -40.321373619185124 -204.38431289273916 0 0 0 0 15.482991167642126 -36.563753457366715 0 -36.563753457366715 -156.07267531655361 0 0 0 0 29.66753912894319 -15.40026684529812 0 -15.40026684529812 -146.52469349968305 0 0 0 0 108.26502195855289 4.0208668836453398 0 4.0208668836453398 -85.241471136125256 0 0 0 0 70.253989928238298 -4.8695088560634758 0 -4.8695088560634758 -62.162039052394903 0 0 0 0 111.16176511802587 -21.939578065228488 0 -21.939578065228488 -148.69906424999772 0 0 0 0 126.85579385330766 -43.040165108360725 0 -43.040165108360725 -36.25768511993283 0 0 0 0 105.48789608973402 11.920185584493083 0 11.920185584493083 -54.570553877365228 0 0 0 0 90.079889198809937 -21.181986591601618 0 -21.181986591601618 5.061907510974379 0 0 0 0 121.13698818607054 -11.457680135322335 0 -11.457680135322335 26.254802428525181 0 0 0 0 175.2499933085478 -75.361318034664237 0 -75.361318034664237 55.076726076641535 0 0 0 0 120.24681680911408 -36.596960544703279 0 -36.596960544703279 77.456526731588383 0 0 0 0 144.35478985187092 -25.222393363698757 0 -25.222393363698757 1.8922412355695997 0 0 0 0 147.88137354957735 -74.585270013037416 0 -74.585270013037416 73.638177377573811 0 0 0 0 200.22313987008329 -131.6122930979771 0 -131.6122930979771 82.385635913066238 0 0 0 0 178.71719051429045 -102.40245676112738 0 -102.40245676112738 135.90031602165982 0 0 0 0 183.835647419618 -100.58018588747882 0 -100.58018588747882 71.755712587791876 0 0 0 0 246.23296258019127 -154.44001813721025 0 -154.44001813721025 125.65871752291514 0 0 0 0 345.46174222559603 -223.0932800696234 0 -223.0932800696234 137.27836872149908 0 0 0 0 26.993960404875118 20.94823945993204 0 20.94823945993204 -9.3880569723712401 0 0 0 0 263.8295516246335 -122.07677975374645 0 -122.07677975374645 82.435514274385469 0 0 0 0 174.79871041273896 -170.24762455883933 0 -170.24762455883933 250.14618337033244 0 0 0 0 185.68963427456401 -54.799437713119914 0 -54.799437713119914 265.03955010790378 0 0 0 0 169.91675311261315 -87.344812282754901 0 -87.344812282754901 245.80526675746114 0 0 0 0 235.3028577726709 -63.079273959659076 0 -63.079273959659076 131.83644916941739 0 0 0 0 193.70541871695377 -103.67798659896425 0 -103.67798659896425 115.50364169591558 0 0 0 0 150.41743286173187 -69.730722016354775 0 -69.730722016354775 125.87320916002032 0 0 0 0 174.86546355891073 -75.8149239663137 0 -75.8149239663137 19.28237466052633 0 0 0 0 190.17529398197257 -23.658950524399188 0 -23.658950524399188 71.028736500241848 0 0 0 0 173.35014925583982 -72.892840779158064 0 -72.892840779158064 131.8774714177016 0 0 0 0 59.106891843515875 2.2917521297862655 0 2.2917521297862655 -5.0354957740727713 0 0 0 0 108.22473353583155 2.3572320454604778 0 2.3572320454604778 -61.326773701889124 0 0 0 0 128.20719982569608 -204.24078251159472 0 -204.24078251159472 171.57937387964694 0 0 0 0 175.04172806018605 -178.03991314209011 0 -178.03991314209011 65.07128988824843 0 0 0 0 163.9114869880384 -69.76559628224777 0 -69.76559628224777 30.989848808619172 0 0 0 0 239.84084579029877 -120.95962944289022 0 -120.95962944289022 64.182064708415965 0 0 0 0 269.22591562268099 -149.01178794603084 0 -149.01178794603084 66.317446176272369 0 0 0 0 310.24241365253147 -62.233642268803578 0 -62.233642268803578 110.40072786168002 0 0 0 0 249.51440301065122 -25.589537022539616 0 -25.589537022539616 228.44204242136584 0 0 0 0 38.028925416887432 55.29764943938676 0 55.29764943938676 -3.8528019685700201 0 0 0 0 23.286336073518214 -4.1226793019823162 0 -4.1226793019823162 -18.494681914391549 0 0 0 0 2.4533660005308775 52.562781839669356 0 52.562781839669356 9.4683664215026511 0 0 0 0 122.13246649993016 20.605326686912576 0 20.605326686912576 -22.147037743842702 0 0 0 0 68.80864309338358 16.877501347058569 0 16.877501347058569 8.9336195929754467 0 0 0 0 87.463414471280885 -48.894168774356217 0 -48.894168774356217 92.965013403631929 0 0 0 0 89.376560277086242 -114.27922736689391 0 -114.27922736689391 98.392502278827124 0 0 0 0 6.0739217044992984 67.064830717387736 0 67.064830717387736 -160.78000215142038 0 0 0 0 13.629515109770182 -8.4755132135028362 0 -8.4755132135028362 -0.28982437798549654 0 0 0 0 -33.674215393552004 72.414272987788081 0 72.414272987788081 2.5844264151946845 0 0 0 0 -55.486516653760646 170.33170417344709 0 170.33170417344709 -145.88557334279039 0 0 0 0 -83.689667926003494 68.954944229332824 0 68.954944229332824 -57.210610662115414 0 0 0 0 13.541279324584096 9.3531831225428661 0 9.3531831225428661 6.2941814464152621 0 0 0 0 154.92243361449073 -142.1675812477547 0 -142.1675812477547 96.182881143195928 0 0 0 0 193.62246513011632 -14.979184042277893 0 -14.979184042277893 -24.386537422065885 0 0 0 0 -111.30003045318153 49.178999989019303 0 49.178999989019303 -64.515207212426503 0 0 0 0 65.985750619089231 67.665067468853522 0 67.665067468853522 -62.807105794654717 0 0 0 0 -127.56790478325593 156.96778885214439 0 156.96778885214439 -25.846954741230547 0 0 0 0 346.61183583518869 -305.50629019837015 0 -305.50629019837015 -1.4553688355379109 0 0 0 0 -116.30830323248665 168.02420205876388 0 168.02420205876388 -22.902400500023759 0 0 0 0 3.6669917266659695 3.1827234693324762 0 3.1827234693324762 2.992557604003081 0 0 0 0 25.363427661045225 19.379290228343081 0 19.379290228343081 -12.992544356186034 0 0 0 0 12.883708637709788 22.135227965954073 0 22.135227965954073 78.822751426233481 0 0 0 0 205.61684512688953 -122.9818232330183 0 -122.9818232330183 96.184887245786399 0 0 0 0 174.13060927077731 -146.07134046616829 0 -146.07134046616829 86.731802678829609 0 0 0 0 195.1251705620989 -172.87311780080285 0 -172.87311780080285 120.66671144950305 0 0 0 0 27.642492754392855 15.52510896182504 0 15.52510896182504 -18.545712299959547 0 0 0 0 -124.53302606488251 302.09802148833955 0 302.09802148833955 119.34473322565736 0 0 0 0 62.292776864157531 -13.694324740774647 0 -13.694324740774647 88.123084056327457 0 0 0 0 19.732541006052685 20.770442742520327 0 20.770442742520327 -8.9276640455406806 0 0 0 0 22.751225045944011 9.6087203102872536 0 9.6087203102872536 11.110391958005948 0 0 0 0 29.867849085261696 12.125303437958337 0 12.125303437958337 -0.65450137824518606 0 0 0 0 -9.8421017378277611 129.30166302879115 0 129.30166302879115 239.91858999064061 0 0 0 0 23.886539851332145 -5.149012907735937 0 -5.149012907735937 113.20357599130512 0 0 0 0 19.780136735644192 51.847910954082181 0 51.847910954082181 51.415061329038963 0 0 0 0 1.3935208706898266 95.913482629020109 0 95.913482629020109 -3.6818871931473041 0 0 0 0 20.652499135718244 12.184417489722819 0 12.184417489722819 31.201109279740194 0 0 0 0 26.058010199092678 25.254726487020889 0 25.254726487020889 9.6490067423235359 0 0 0 0 36.832629077041929 39.261397991307604 0 39.261397991307604 -23.764140604625027 0 0 0 0 19.813800393545534 48.458181126592535 0 48.458181126592535 -4.5137835031609939 0 0 0 0 27.152275263910269 26.727652394604064 0 26.727652394604064 -5.4492082045862844 0 0 0 0 397.72835752596438 -360.9797035978745 0 -360.9797035978745 -251.02128834028463 0 0 0 0 25.062346887214517 23.524020984690878 0 23.524020984690878 6.7687252892378638 0 0 0 0 -136.08409105390092 237.75468480832774 0 237.75468480832774 4.251656117235143 0 0 0 0 -94.011154580424773 215.94201475073169 0 215.94201475073169 -119.77101483078695 0 0 0 0 38.234775879012886 22.374225953588962 0 22.374225953588962 -4.5948519924538687 0 0 0 0 3.2822862481189077 121.73147369863545 0 121.73147369863545 -221.31285140736873 0 0 0 0 39.057647410461485 13.336773074735234 0 13.336773074735234 -7.5167537443574428 0 0 0 0 -68.285576866284828 167.18078373356548 0 167.18078373356548 -27.803561346558126 0 0 0 0 -52.103275013563689 172.81266062356372 0 172.81266062356372 -52.524794313516395 0 0 0 0 -43.882788108947352 127.13696200477534 0 127.13696200477534 -6.2420866584889154 0 0 0 0 -12.037355403648689 119.82679500030827 0 119.82679500030827 -88.070548960854467 0 0 0 0 108.42653371603228 19.435627844946794 0 19.435627844946794 4.6825005564387538 0 0 0 0 37.579676894340082 32.246997439915503 0 32.246997439915503 41.811967752063538 0 0 0 0 51.506875634964672 23.96800579743558 0 23.96800579743558 -45.438249528952383 0 0 0 0 45.913718661127859 2.540040036503342 0 2.540040036503342 18.662773059708343 0 0 0 0 27.505351700221325 19.500477825833265 0 19.500477825833265 6.2638442188662928 0 0 0 0 77.503272599133197 14.841887926012987 0 14.841887926012987 -13.403974932532606 0 0 0 0 39.086857196336496 26.994151513467386 0 26.994151513467386 -12.560561690906979 0 0 0 0 46.097537785142777 38.030334229095388 0 38.030334229095388 -27.737790912905893 0 0 0 0 53.852457483266335 31.057706498346249 0 31.057706498346249 -30.405671319608928 0 0 0 0 73.201980780704616 11.123916873096732 0 11.123916873096732 11.377146670227376 0 0 0 0 53.275443668964613 18.480507722723917 0 18.480507722723917 1.4574452527168704 0 0 0 0 43.27182152554451 22.998704573509812 0 22.998704573509812 -11.647228355070069 0 0 0 0 41.19168936744245 32.504198429244752 0 32.504198429244752 -13.294919793037025 0 0 0 0 29.050690409516392 22.45697898736347 0 22.45697898736347 -26.131924672593186 0 0 0 0 9.5849608110356144 -2.2754824311323034 0 -2.2754824311323034 -8.1603589056909716 0 0 0 0 21.850724763838855 21.355944854935029 0 21.355944854935029 -5.3028287392950961 0 0 0 0 17.235776021843776 21.468148925216155 0 21.468148925216155 -25.964404869338182 0 0 0 0 17.844927243197162 9.7054995277494527 0 9.7054995277494527 -1.1449055196981135 0 0 0 0 64.376219559775819 24.832776288341321 0 24.832776288341321 -22.355269809418694 0 0 0 0 26.25150743198563 -9.1982765342624049 0 -9.1982765342624049 -1.1745078882594591 0 0 0 0 79.558746085327584 20.956083518851301 0 20.956083518851301 16.194850550122283 0 0 0 0 57.716821468988201 12.586356190021888 0 12.586356190021888 2.2671580748026372 0 0 0 0 25.001857309660409 4.0921359501935513 0 4.0921359501935513 -30.267985570615565 0 0 0 0 40.544369548514197 9.7819635500934012 0 9.7819635500934012 -13.006696335823516 0 0 0 0 26.1275887751151 -5.5504994284748683 0 -5.5504994284748683 -1.895572779475053 0 0 0 0 47.922733059356688 11.85862972062796 0 11.85862972062796 3.1336828890713662 0 0 0 0 34.639080578342146 16.901251513554122 0 16.901251513554122 1.9236884158446825 0 0 0 0 53.717773899290478 10.304035088376168 0 10.304035088376168 3.2978466399299577 0 0 0 0 31.473034247072064 21.338642493395383 0 21.338642493395383 -7.4910334105063185 0 0 0 0 34.035376423322262 14.067395493826837 0 14.067395493826837 -1.9113424701078818 0 0 0 0 40.840335366359795 62.472760498882053 0 62.472760498882053 22.850895663639676 0 0 0 0 11.765581208155211 1.9453773105056555 0 1.9453773105056555 -1.3741533303241642 0 0 0 0 110.24541382412281 53.447190951463199 0 53.447190951463199 60.363630192506662 0 0 0 0 105.02129867115218 67.45898245448052 0 67.45898245448052 24.426711626234464 0 0 0 0 78.418049364828221 53.08177590529715 0 53.08177590529715 28.910700352486856 0 0 0 0 80.140357667140051 63.59725559761057 0 63.59725559761057 57.635821579903677 0 0 0 0 10.072725339610171 -16.108208644272533 0 -16.108208644272533 15.463912904985868 0 0 0 0 -393.1463309559249 231.96038718965622 0 231.96038718965622 12.628005971282953 0 0 0 0 130.18334200030768 71.642723018770411 0 71.642723018770411 -14.59850434342667 0 0 0 0 126.14075131981804 58.180157386337626 0 58.180157386337626 -50.911935916074867 0 0 0 0 412.42747162235537 -32.602961800407854 0 -32.602961800407854 -221.84830299149922 0 0 0 0 225.68551931709317 -164.97180008218825 0 -164.97180008218825 24.541588569819623 0 0 0 0 342.57244001210518 -282.58787172944307 0 -282.58787172944307 131.76278549772215 0 0 0 0 182.45282150573848 -95.009614974841014 0 -95.009614974841014 7.6426298279722005 0 0 0 0 227.50293942234384 -286.5725712872927 0 -286.5725712872927 445.46716179228861 0 0 0 0 104.85009352247198 -113.4985677994483 0 -113.4985677994483 228.13239539294779 0 0 0 0 828.09390003504541 -333.38741748701307 0 -333.38741748701307 -13.543296098035796 0 0 0 0 646.23249813006078 354.16980021261878 0 354.16980021261878 -471.45580351281433 0 0 0 0 -641.07143922150863 -845.00081502247349 0 -845.00081502247349 1228.4763685465323 0 0 0 0 547.29377463603305 572.27043470018407 0 572.27043470018407 -492.13241957812988 0 0 0 0 368.64334556389076 437.09931858942264 0 437.09931858942264 337.5701538505478 0 0 0 0 19.631550607523788 0.090381434522633697 0 0.090381434522633697 -1.169566573453348 0 0 0 0 556.83351400465835 222.40154472323638 0 222.40154472323638 -119.68971956068708 0 0 0 0 677.24078887524774 45.775771771718155 0 45.775771771718155 -33.426247890584364 0 0 0 0 2.9726122708204663 2.4221656261937667 0 2.4221656261937667 9.5292358839995579 0 0 0 0 49.348503370801907 -12.051875068571533 0 -12.051875068571533 11.830201338907877 0 0 0 0 -306.09317096124141 -372.59255465910337 0 -372.59255465910337 34.693908473347619 0 0 0 0 275.77561715657794 -236.78882531250338 0 -236.78882531250338 -594.93681443221374 0 0 0 0 -184.51064632507951 -8.9792791191157448 0 -8.9792791191157448 369.11071899759554 0 0 0 0 117.18551733577988 11.666608393289607 0 11.666608393289607 34.51560138381268 0 0 0 0 191.26417772790046 47.008670044562223 0 47.008670044562223 -6.3543029513994043 0 0 0 0 169.3584302815334 75.135083710288427 0 75.135083710288427 37.540348368346713 0 0 0 0 8.1608042728763923 -21.965662882231914 0 -21.965662882231914 19.720501701039034 0 0 0 0 136.003678495239 34.298318492495127 0 34.298318492495127 26.567485648176444 0 0 0 0 132.52683474260448 45.698227264698289 0 45.698227264698289 -10.806283750519469 0 0 0 0 110.52814404082528 30.442845636941911 0 30.442845636941911 4.3361246659324024 0 0 0 0 128.99678024088644 3.1360419924071721 0 3.1360419924071721 -50.193286515316686 0 0 0 0 112.42997809066037 -3.9909741435162687 0 -3.9909741435162687 -71.654744247734925 0 0 0 0 139.36408910671162 -7.5988334256885537 0 -7.5988334256885537 -95.473468968653833 0 0 0 0 110.06648130138063 -3.3339628680113016 0 -3.3339628680113016 -7.1670750460926502 0 0 0 0 313.76319616440742 -34.274514426972019 0 -34.274514426972019 -111.16046179001796 0 0 0 0 90.570424089310109 49.001358996968065 0 49.001358996968065 34.523049450896451 0 0 0 0 74.754726780899716 11.563666221374376 0 11.563666221374376 4.8533761915806259 0 0 0 0 108.12415836391301 24.702996620667818 0 24.702996620667818 -4.4599029523419631 0 0 0 0 156.82515874947421 -28.200918802791421 0 -28.200918802791421 -110.39810850787762 0 0 0 0 26.992264248366581 -25.506182095839222 0 -25.506182095839222 -1.9430793497710226 0 0 0 0 136.25821291308966 60.589246741441457 0 60.589246741441457 -14.399079278631689 0 0 0 0 16.899053958301693 20.14851720916144 0 20.14851720916144 -4.7187308711628848 0 0 0 0 123.81060606912797 -13.470769660831138 0 -13.470769660831138 -96.659526895617091 0 0 0 0 124.31455129954065 -28.482732837876483 0 -28.482732837876483 -130.2518213947842 0 0 0 0 19.614360564039089 -64.648427783875377 0 -64.648427783875377 -182.96660899801736 0 0 0 0 78.495533165764613 11.407879137807161 0 11.407879137807161 -7.1094162111354882 0 0 0 0 134.7574351188523 -23.092343402661754 0 -23.092343402661754 -136.76142805450218 0 0 0 0 171.124785532229 18.001732611131047 0 18.001732611131047 -106.25864418289962 0 0 0 0 210.51488619965949 35.011037098342513 0 35.011037098342513 -135.16901885785592 0 0 0 0 129.26084647474636 23.525131562145361 0 23.525131562145361 -38.217628481484098 0 0 0 0 159.56755249973139 77.821326987184875 0 77.821326987184875 -46.788048615204275 0 0 0 0 112.94246827861298 79.199566012983269 0 79.199566012983269 23.591585114304507 0 0 0 0 126.23303170285726 101.64500164537776 0 101.64500164537776 37.926277692665508 0 0 0 0 126.4368710549079 104.96898687755129 0 104.96898687755129 88.336999292735982 0 0 0 0 155.91434888486401 72.046620917940345 0 72.046620917940345 -54.61080899242188 0 0 0 0 199.5910823712893 137.53524484131458 0 137.53524484131458 -6.4852731409537228 0 0 0 0 205.11156012455672 105.36567091762618 0 105.36567091762618 -112.37891593164932 0 0 0 0 173.69325848378753 107.50402800633097 0 107.50402800633097 61.122218199909184 0 0 0 0 175.79362121897429 61.141636436403132 0 61.141636436403132 86.703189447677232 0 0 0 0 169.94344983617862 82.531659911376664 0 82.531659911376664 141.87955484494705 0 0 0 0 61.354324054400422 87.358166612473951 0 87.358166612473951 87.514598381847918 0 0 0 0 9.6679127611546676 -5.1746595420664985 0 -5.1746595420664985 3.0418616058357255 0 0 0 0 381.699266504771 92.439737078424514 0 92.439737078424514 -10.448318819677297 0 0 0 0 519.77799731426967 -93.927205059611879 0 -93.927205059611879 60.41440701066108 0 0 0 0 91.052980725569796 95.613140681137338 0 95.613140681137338 68.995174859050167 0 0 0 0 370.96266083558112 69.843460109710122 0 69.843460109710122 12.782690058032017 0 0 0 0 283.7724250223182 4.0153118017933593 0 4.0153118017933593 148.04620275895877 0 0 0 0 269.10604074850562 58.850825255462951 0 58.850825255462951 69.259203833484207 0 0 0 0 228.07599598857814 45.813961714758079 0 45.813961714758079 145.79734610228661 0 0 0 0 329.89687113866239 -144.47755002387066 0 -144.47755002387066 644.82777178004108 0 0 0 0 254.40362993608505 61.3709000089857 0 61.3709000089857 128.37534922766827 0 0 0 0 293.61467723759415 243.47782938902355 0 243.47782938902355 -273.49519598079496 0 0 0 0 320.2018727382474 631.55540803208987 0 631.55540803208987 701.75224618889661 0 0 0 0 238.61684086288733 231.16054850271121 0 231.16054850271121 152.02643745313179 0 0 0 0 483.48807213616237 -31.991980823099766 0 -31.991980823099766 -458.00062835688004 0 0 0 0 356.06754689708032 109.35348908064134 0 109.35348908064134 -179.20720265195632 0 0 0 0 210.54473643765959 -512.30813640446468 0 -512.30813640446468 -1073.1053807420039 0 0 0 0 -205.87280162902971 -33.084867212903191 0 -33.084867212903191 895.27592309501279 0 0 0 0 -676.94518493833675 -1327.3059566702793 0 -1327.3059566702793 202.01499473965305 0 0 0 0 1343.4491026638243 826.39888430269184 0 826.39888430269184 -1069.2760485722029 0 0 0 0 274.15391708725292 -136.18808770945361 0 -136.18808770945361 -615.82876802485316 0 0 0 0 15.182473014485822 103.24647767839821 0 103.24647767839821 -270.54418905439161 0 0 0 0 18.861152287350489 -1.6902017875039554 0 -1.6902017875039554 -14.961828650350606 0 0 0 0 -346.07050596082991 -293.13601062988482 0 -293.13601062988482 -193.39823986808551 0 0 0 0 -162.35257058581919 -99.482490888650318 0 -99.482490888650318 -78.320097411600727 0 0 0 0 46.684241947463306 23.575975119793839 0 23.575975119793839 -6.734854167645608 0 0 0 0 24.219019943126114 9.141022904720387 0 9.141022904720387 70.94997687572959 0 0 0 0 255.67204913808018 75.821963326192417 0 75.821963326192417 -98.35392295232532 0 0 0 0 248.58487246720756 -24.736511464066041 0 -24.736511464066041 -325.48403747130578 0 0 0 0 250.83430337869868 -71.007247712545905 0 -71.007247712545905 -212.56964392287045 0 0 0 0 109.49535721083521 -277.18375611950796 0 -277.18375611950796 -462.46699646948559 0 0 0 0 130.75851625172072 -144.51744702894484 0 -144.51744702894484 -193.44134296919196 0 0 0 0 105.55280560285973 -24.360135046846153 0 -24.360135046846153 -111.38382567275949 0 0 0 0 127.29883853360025 -109.65434362259953 0 -109.65434362259953 -94.086168163368711 0 0 0 0 111.02346416934304 24.448290078965531 0 24.448290078965531 -1.5550196773689793 0 0 0 0 61.00148116977158 -2.195707228297934 0 -2.195707228297934 -5.8753547017827374 0 0 0 0 155.02113474904036 2.6882680310664 0 2.6882680310664 -2.9122323990122823 0 0 0 0 74.43812636647894 7.3565639012990029 0 7.3565639012990029 -8.3054012855322341 0 0 0 0 50.848471658217022 -9.6976340784021886 0 -9.6976340784021886 -24.743231009220381 0 0 0 0 87.386655260124826 11.362060016087071 0 11.362060016087071 14.680305847157001 0 0 0 0 20.761414281849898 15.9071777565457 0 15.9071777565457 1.1384285881005436 0 0 0 0 86.896677916285753 56.301603845445008 0 56.301603845445008 -3.6507795032377075 0 0 0 0 47.644481388982967 -4.8442319503983526 0 -4.8442319503983526 -26.072151441710503 0 0 0 0 96.253062159488763 20.520986339539988 0 20.520986339539988 -2.1609939458708141 0 0 0 0 100.28341252496466 164.44403667608549 0 164.44403667608549 170.0982266966912 0 0 0 0 4.2674848256212385 8.8457887620317415 0 8.8457887620317415 6.3054635331555255 0 0 0 0 82.713332892313275 -1.0106281099175618 0 -1.0106281099175618 6.5594211392688386 0 0 0 0 55.762107724990528 63.44010359170943 0 63.44010359170943 69.493696001711214 0 0 0 0 63.784226970260711 28.573692545775216 0 28.573692545775216 23.728354941951913 0 0 0 0 89.672908079967186 27.155756997890144 0 27.155756997890144 2.5421295042651 0 0 0 0 65.056118705193512 6.0385639865442045 0 6.0385639865442045 9.356569162939536 0 0 0 0 67.883516406567651 18.648571336436362 0 18.648571336436362 10.2875367573684 0 0 0 0 185.36117619127617 75.362959656813928 0 75.362959656813928 -88.908921046149771 0 0 0 0 205.37538759089512 155.32610763709408 0 155.32610763709408 -8.4722617921797791 0 0 0 0 75.073718067276786 -24.761867716517827 0 -24.761867716517827 85.629530729933322 0 0 0 0 66.618247051161973 2.8074068473730236 0 2.8074068473730236 -5.3590041398219084 0 0 0 0 55.831359537570023 0.14045545394851189 0 0.14045545394851189 -2.9192554620221318 0 0 0 0 157.01003634587687 -21.436108890179639 0 -21.436108890179639 -129.09213536773211 0 0 0 0 40.54836562301216 -9.1821980228055526 0 -9.1821980228055526 1.5915210291367226 0 0 0 0 94.838821366024604 -87.17267732295727 0 -87.17267732295727 -121.70180595833153 0 0 0 0 58.933102231759165 -7.6615111027463882 0 -7.6615111027463882 0.78300451774461255 0 0 0 0 110.06471839140431 57.233868160974907 0 57.233868160974907 50.17860338347873 0 0 0 0 146.76322354718286 -11.00539265022644 0 -11.00539265022644 90.100254225961407 0 0 0 0 241.23630020140263 599.20754085949193 0 599.20754085949193 448.59555010387373 0 0 0 0 153.81458163443313 62.424337361768039 0 62.424337361768039 20.33714185631834 0 0 0 0 76.214380515675657 64.811420440729307 0 64.811420440729307 338.84858159079704 0 0 0 0 73.946415016802348 -8.0890646528932848 0 -8.0890646528932848 -70.713291768930048 0 0 0 0 197.01355910384154 84.726761545185582 0 84.726761545185582 92.568489522824166 0 0 0 0 41.498632975573493 -16.228451332106051 0 -16.228451332106051 3.9009508940186719 0 0 0 0 165.06271362050211 91.126127327338963 0 91.126127327338963 127.46566864020133 0 0 0 0 161.71964197298075 -84.484829358571233 0 -84.484829358571233 -99.412401818095759 0 0 0 0 94.090061754852286 16.888543215495019 0 16.888543215495019 -42.681524259517573 0 0 0 0 90.958589446697601 0.064258392456970626 0 0.064258392456970626 -0.8296742629906908 0 0 0 0 45.342432178978925 -15.609796269061462 0 -15.609796269061462 5.751530263406039 0 0 0 0 38.705829580688842 6.7601234474699226 0 6.7601234474699226 9.6957316535456464 0 0 0 0 32.564984354839851 -13.946180433421958 0 -13.946180433421958 -1.8049866510716921 0 0 0 0 42.209764871999937 -12.0349251131694 0 -12.0349251131694 9.3601926938117028 0 0 0 0 25.183840103825787 -13.469497315687477 0 -13.469497315687477 -5.5108104569396801 0 0 0 0 35.883157442382071 -16.158706399625771 0 -16.158706399625771 8.4738956806754686 0 0 0 0 74.12946003682751 6.0460449651598367 0 6.0460449651598367 4.0220187137436305 0 0 0 0 -12.803704490364908 -185.4145201221969 0 -185.4145201221969 -93.01192606380846 0 0 0 0 84.217320946816471 1.681834050888483 0 1.681834050888483 18.26661260594301 0 0 0 0 27.103000744683413 -13.627304152306671 0 -13.627304152306671 4.9681115032478989 0 0 0 0 -16.664321252981608 -9.0801855026397789 0 -9.0801855026397789 11.154973854731452 0 0 0 0 94.446552277411683 84.530185927160801 0 84.530185927160801 -3.5847141964145521 0 0 0 0 3.219907861249709 -2.8698567235067358 0 -2.8698567235067358 2.7644575948768972 0 0 0 0 95.989845489009895 18.13231374963334 0 18.13231374963334 3.0569021812825667 0 0 0 0 73.652907368727028 14.861884058631404 0 14.861884058631404 39.576032541151108 0 0 0 0 17.983409291882708 33.08973478923599 0 33.08973478923599 -13.987142165349724 0 0 0 0 15.922174265458608 -16.444821891570058 0 -16.444821891570058 -1.0515743056692521 0 0 0 0 7.2833946439024828 -14.982542713707126 0 -14.982542713707126 -0.39901450744643796 0 0 0 0 -295.12661684906197 127.0005005943276 0 127.0005005943276 1382.9885165828591 0 0 0 0 572.30440951195442 26.028845016519256 0 26.028845016519256 -323.02327420045913 0 0 0 0 1117.6863247358633 595.43330554898785 0 595.43330554898785 -1033.6565175629539 0 0 0 0 529.01789958420386 -341.17592314715836 0 -341.17592314715836 -365.50441617772958 0 0 0 0 180.50049639099234 -0.73336109700358065 0 -0.73336109700358065 -251.23984495876948 0 0 0 0 161.05320669335197 -181.62610776841757 0 -181.62610776841757 -159.74467555750743 0 0 0 0 -141.01874356659391 -349.61087801315716 0 -349.61087801315716 -241.21624510541278 0 0 0 0 110.5302498626188 -4.2768351395466198 0 -4.2768351395466198 -21.491607960173496 0 0 0 0 21.769574277944166 -17.769983140637386 0 -17.769983140637386 0.82211419042459788 0 0 0 0 20.802437927826347 -8.6864823769368655 0 -8.6864823769368655 -15.014698520197861 0 0 0 0 98.822467337460694 -143.77573702395784 0 -143.77573702395784 -125.75884119405953 0 0 0 0 198.60627410193774 -188.43189241065375 0 -188.43189241065375 -130.02960355264759 0 0 0 0 141.72895215409471 -137.69709396403056 0 -137.69709396403056 -174.93205333242531 0 0 0 0 149.43477143027576 -106.3457977531898 0 -106.3457977531898 -69.89053992980007 0 0 0 0 12.340065299729133 -5.8254004885150259 0 -5.8254004885150259 3.7933580315616746 0 0 0 0 -224.67700498591876 -18.700879989332861 0 -18.700879989332861 243.76704046530358 0 0 0 0 -427.25852170080907 -157.68137033321182 0 -157.68137033321182 235.62284406732141 0 0 0 0 -77.016408856165071 -281.57000359655285 0 -281.57000359655285 -169.85971837712987 0 0 0 0 -62.169550775262906 -59.487169130805341 0 -59.487169130805341 -7.0523575060824442 0 0 0 0 33.711741193126727 -16.177023169277312 0 -16.177023169277312 6.4800227581435941 0 0 0 0 65.616712456278037 -28.173311543699128 0 -28.173311543699128 -246.77283187671878 0 0 0 0 12.216593576288844 -4.8328195799229512 0 -4.8328195799229512 -3.4780018023751538 0 0 0 0 -236.27837824601284 -120.18738572642701 0 -120.18738572642701 -27.486225909862696 0 0 0 0 28.559570536071689 -16.168892376809939 0 -16.168892376809939 5.5752912517732103 0 0 0 0 72.610997420480999 -90.369151816428257 0 -90.369151816428257 20.743920384988087 0 0 0 0 25.625642291333861 -66.442426213012368 0 -66.442426213012368 2.6557346134479758 0 0 0 0 5.1447169876688932 -7.2547139202394488 0 -7.2547139202394488 6.4296908744175703 0 0 0 0 18.236379111092901 -8.0787814613977389 0 -8.0787814613977389 47.37028662545481 0 0 0 0 197.00831607361761 -62.68938695342581 0 -62.68938695342581 -5.5302787328400882 0 0 0 0 37.114188070924683 -16.443137948381263 0 -16.443137948381263 2.3489425084571849 0 0 0 0 32.690210422509153 -13.227695742877131 0 -13.227695742877131 9.9963082976355508 0 0 0 0 38.533434402139392 -6.3613420473866427 0 -6.3613420473866427 11.492604489839891 0 0 0 0 26.771794315811675 -1.7928549464322714 0 -1.7928549464322714 2.0289429787411128 0 0 0 0 -0.84472418884049816 1.0338140147907318 0 1.0338140147907318 13.862810012181855 0 0 0 0 113.26924347241766 6.9882395407012154 0 6.9882395407012154 48.188308686082564 0 0 0 0 24.460986006483836 -8.8148024958104543 0 -8.8148024958104543 21.352898593166174 0 0 0 0 62.786002685636049 -23.276471133917539 0 -23.276471133917539 -9.8420769517178996 0 0 0 0 110.91852489079622 14.204441176098619 0 14.204441176098619 -4.637815131399293 0 0 0 0 90.033929450975847 -21.109080626092691 0 -21.109080626092691 -32.847979839038999 0 0 0 0 55.564031296875328 -12.529712548483076 0 -12.529712548483076 12.167123302835535 0 0 0 0 22.329896298993845 -29.004443264260772 0 -29.004443264260772 -43.144994473987026 0 0 0 0 54.987858867787324 -19.229815063594732 0 -19.229815063594732 -18.197572934013863 0 0 0 0 45.532315590209365 -20.531546525298587 0 -20.531546525298587 -9.7350588305994528 0 0 0 0 48.855682916904456 -9.0466302952287734 0 -9.0466302952287734 -4.4640005018611326 0 0 0 0 16.956779546162579 -21.246298495414521 0 -21.246298495414521 -23.451215602882257 0 0 0 0 33.588071569970154 -14.524052523118304 0 -14.524052523118304 -10.216645425464687 0 0 0 0 41.110682404548442 -37.001558867685155 0 -37.001558867685155 -5.7107463304602231 0 0 0 0 4.7093424399010217 -8.157499213576191 0 -8.157499213576191 -2.8848956414296723 0 0 0 0 16.511515227568452 -53.243155127795944 0 -53.243155127795944 26.557214959706471 0 0 0 0 37.823550397522027 -20.756228950645475 0 -20.756228950645475 5.0561563935298874 0 0 0 0 61.076717178450053 3.5126304293671637 0 3.5126304293671637 -68.073752360767685 0 0 0 0 36.833787093091814 -16.905452976289325 0 -16.905452976289325 -1.6241896054922904 0 0 0 0 35.362387997167389 -14.954622146323345 0 -14.954622146323345 5.3016025845772674 0 0 0 0 54.927053429368108 -2.7405158853193843 0 -2.7405158853193843 -4.8961559694054593 0 0 0 0 48.038646475042697 -13.573615459543817 0 -13.573615459543817 -5.5146464010604177 0 0 0 0 82.84067164273074 -27.052338452946742 0 -27.052338452946742 -113.46131629481039 0 0 0 0 41.916207166921595 -12.294581817328435 0 -12.294581817328435 2.7436897592779133 0 0 0 0 70.731738961061637 -22.742516995744154 0 -22.742516995744154 -1.8134982331960714 0 0 0 0 33.599504815305409 -0.20103721159557608 0 -0.20103721159557608 -8.827266154802146 0 0 0 0 38.69120390166286 2.5956118217049848 0 2.5956118217049848 -13.562573892580279 0 0 0 0 85.824870233025649 15.455091541170304 0 15.455091541170304 -47.610455677220671 0 0 0 0 29.527025014430663 -29.350786613552458 0 -29.350786613552458 -5.6690339419513771 0 0 0 0 42.351669996072815 -96.056604315687821 0 -96.056604315687821 61.046040760719734 0 0 0 0 -0.65750379489932342 -7.0677763608480886 0 -7.0677763608480886 0.62263581715152327 0 0 0 0 45.757223370470001 -44.959554301895935 0 -44.959554301895935 -3.8438494266404177 0 0 0 0 80.435825958800706 -82.310963955770518 0 -82.310963955770518 -60.489259116023931 0 0 0 0 91.622609740590008 -147.11799634163583 0 -147.11799634163583 108.79475262032798 0 0 0 0 -2.6280985434920754 2.3145897468448053 0 2.3145897468448053 1.1005211808943764 0 0 0 0 385.73268045661553 224.26362457646405 0 224.26362457646405 -620.23747512270597 0 0 0 0 94.954609003757696 -248.54620614916445 0 -248.54620614916445 -127.71088153622031 0 0 0 0 23.442494614724637 -129.96590821512956 0 -129.96590821512956 -312.71668834929739 0 0 0 0 108.52854624681049 19.50319620140499 0 19.50319620140499 -176.94992161897156 0 0 0 0 137.51149460997482 90.512322461625985 0 90.512322461625985 -62.747009888016123 0 0 0 0 153.17588982550956 332.7897776258763 0 332.7897776258763 214.7112498286192 0 0 0 0 69.970353562006494 121.61429971030077 0 121.61429971030077 -73.905766646984603 0 0 0 0 609.09561928123003 342.19988275623513 0 342.19988275623513 17.722858765191972 0 0 0 0 2.4344717030934753 0.71720651356022458 0 0.71720651356022458 6.9203360626254344 0 0 0 0 826.00394534349653 -114.57611195664185 0 -114.57611195664185 31.222038126878033 0 0 0 0 -104.30930755767577 111.54242947888494 0 111.54242947888494 107.81328038685736 0 0 0 0 883.46847429013815 87.128618931360052 0 87.128618931360052 17.68261664071224 0 0 0 0 484.85900289460733 364.52241616310374 0 364.52241616310374 256.9563605818596 0 0 0 0 293.88831750920235 58.834877764570706 0 58.834877764570706 116.60187528359893 0 0 0 0 198.69419625397677 -74.86025986431595 0 -74.86025986431595 461.11622653803772 0 0 0 0 229.5440102559769 31.360217203265847 0 31.360217203265847 -0.16530541207839633 0 0 0 0 73.32685346879407 -129.19311269697232 0 -129.19311269697232 119.87915723272909 0 0 0 0 -7.1511693178999849 -14.518334641471597 0 -14.518334641471597 -37.49587256959785 0 0 0 0 16.399907065058336 -1.3289497271129491 0 -1.3289497271129491 -27.287900229179307 0 0 0 0 -104.7187149447991 -151.18474744452388 0 -151.18474744452388 -12.514373155082694 0 0 0 0 7.3891081207821117 65.867033548776817 0 65.867033548776817 -11.553902155347435 0 0 0 0 -143.36940673825211 -61.072137732872875 0 -61.072137732872875 54.983595478974621 0 0 0 0 155.56686787834769 149.04696187149625 0 149.04696187149625 154.78661531000768 0 0 0 0 22.803366301699498 18.84858629402936 0 18.84858629402936 129.79224853448136 0 0 0 0 176.15608851286197 148.4038400680206 0 148.4038400680206 60.592214117324374 0 0 0 0 210.67829277786404 89.064825461568276 0 89.064825461568276 17.531791964525837 0 0 0 0 213.18027988376798 97.478873026919018 0 97.478873026919018 41.691912249955294 0 0 0 0 41.964892654019422 84.551267696725063 0 84.551267696725063 7.4241215718071203 0 0 0 0 135.75215947989091 111.43764163618562 0 111.43764163618562 51.103383448686145 0 0 0 0 66.739908156728234 44.600370658551242 0 44.600370658551242 67.62909085152387 0 0 0 0 193.31504547942041 87.508663401678746 0 87.508663401678746 64.295640881809049 0 0 0 0 338.7019212348132 84.528824094077891 0 84.528824094077891 24.123216514724163 0 0 0 0 349.030183009334 59.458458065292234 0 59.458458065292234 -17.584439932362784 0 0 0 0 429.4842546148775 99.546902184415757 0 99.546902184415757 -8.8119120491755893 0 0 0 0 419.77834895009437 7.5827072039141967 0 7.5827072039141967 7.5422135724779764 0 0 0 0 346.6000796412809 32.315445234510889 0 32.315445234510889 -25.841842123895276 0 0 0 0 277.76333245407113 49.946136258934075 0 49.946136258934075 -8.1539796373826903 0 0 0 0 413.62986873771592 -4.2095483449386677 0 -4.2095483449386677 -64.880425940359601 0 0 0 0 571.284257456462 60.400142453964236 0 60.400142453964236 -38.500611548895904 0 0 0 0 350.23240681141942 -246.38084659528738 0 -246.38084659528738 82.747302533000493 0 0 0 0 0.077049702777038931 1.6483339633887391 0 1.6483339633887391 5.078075254014994 0 0 0 0 454.2285339888931 120.63993138458432 0 120.63993138458432 69.32514163205451 0 0 0 0 399.75350540284671 149.75130122393921 0 149.75130122393921 40.939042854611671 0 0 0 0 420.93157943224469 75.990428085286794 0 75.990428085286794 10.276341412444253 0 0 0 0 217.6852037521312 154.37548919865753 0 154.37548919865753 138.03818792409777 0 0 0 0 1632.501678725379 225.53675060076412 0 225.53675060076412 -359.56158220048172 0 0 0 0 2197.4848478021067 1144.3654375016913 0 1144.3654375016913 -12.388950874391156 0 0 0 0 2902.8942472848194 1531.575999334915 0 1531.575999334915 164.62060471279386 0 0 0 0 1943.6122422793815 1139.3385185680804 0 1139.3385185680804 679.65437098533255 0 0 0 0 3495.6344201665979 2101.9880138047251 0 2101.9880138047251 384.76075993252408 0 0 0 0 -8.4078870232327176 19.348883386135988 0 19.348883386135988 -14.93525037814142 0 0 0 0 49.002801015238219 63.506490620298791 0 63.506490620298791 77.478249526816398 0 0 0 0 440.27106191320854 -20.181093190427873 0 -20.181093190427873 -39.988295448619965 0 0 0 0 561.34979296072015 -686.87713752905483 0 -686.87713752905483 439.80744580900728 0 0 0 0 1246.8266239913955 -35.622356186541026 0 -35.622356186541026 -495.3265873178733 0 0 0 0 565.3071753435288 90.292565966623783 0 90.292565966623783 25.810657992747053 0 0 0 0 -4.8691554733764164 5.2317028894831203 0 5.2317028894831203 -3.887772868913423 0 0 0 0 575.2867001887571 -243.0722800151147 0 -243.0722800151147 130.98947755300537 0 0 0 0 1709.3540493230503 -409.19519912316764 0 -409.19519912316764 -450.71953619251934 0 0 0 0 1511.8489441905258 -418.93537373462107 0 -418.93537373462107 4.3698442214055149 0 0 0 0 2110.9816009842407 -375.85447892783134 0 -375.85447892783134 7.0065961631462983 0 0 0 0 1298.5721863343938 99.154859613463969 0 99.154859613463969 96.544485905274172 0 0 0 0 2406.8897114775027 728.20254708981179 0 728.20254708981179 -327.34182694029744 0 0 0 0 3500.371940360943 958.80758842658281 0 958.80758842658281 -561.48200803459417 0 0 0 0 2463.0107779389086 626.99279828522526 0 626.99279828522526 -392.50756847807611 0 0 0 0 2621.1623155890748 126.98736339302661 0 126.98736339302661 -47.567983096888575 0 0 0 0 3498.9244980207404 309.58080815346858 0 309.58080815346858 -307.94387207731432 0 0 0 0 2598.4271316887025 -12.753139975021559 0 -12.753139975021559 305.80963467616908 0 0 0 0 3499.6518811550791 -299.30554214960881 0 -299.30554214960881 148.67974569313552 0 0 0 0 2599.1073154586247 -827.20026819448071 0 -827.20026819448071 286.92772265988134 0 0 0 0 2612.9742747372179 -598.14790227190338 0 -598.14790227190338 195.73578314296813 0 0 0 0 3498.726477887938 -1176.3084679930519 0 -1176.3084679930519 -199.18877078254977 0 0 0 0 2143.8147624553044 -1014.6789280976965 0 -1014.6789280976965 741.87055637502738 0 0 0 0 2211.5533914840425 -441.12561721609717 0 -441.12561721609717 732.97249614425982 0 0 0 0 2221.8672593848569 -323.88381603932828 0 -323.88381603932828 1364.4744289757427 0 0 0 0 2811.8154045416932 110.70469103127994 0 110.70469103127994 797.50085791736603 0 0 0 0 2349.7266314789968 42.980486461055818 0 42.980486461055818 650.49670774053902 0 0 0 0 2475.0334780894586 -224.77602611108898 0 -224.77602611108898 463.3709050871276 0 0 0 0 2345.2309639832201 213.69653698347335 0 213.69653698347335 106.73365131500394 0 0 0 0 1755.5582386469723 -214.60308727646057 0 -214.60308727646057 463.32970104577032 0 0 0 0 1770.8338277988587 -814.47039087144594 0 -814.47039087144594 294.35080507202559 0 0 0 0 1124.3346540572311 -689.21572988289961 0 -689.21572988289961 601.28346481156791 0 0 0 0 1126.4324315488716 -681.3373919872181 0 -681.3373919872181 555.48743823979657 0 0 0 0 41.700494272060155 24.14002602674076 0 24.14002602674076 13.436570722545166 0 0 0 0 16.295999357061987 7.8553747550351627 0 7.8553747550351627 5.7391822391716349 0 0 0 0 2907.3091832716527 -1389.4210468047725 0 -1389.4210468047725 873.07541084948821 0 0 0 0 7.5133321100588546 299.18958984798087 0 299.18958984798087 818.44384872996534 0 0 0 0 56.756818195024323 -125.75831964981182 0 -125.75831964981182 224.2900997278166 0 0 0 0 419.7731695971919 349.02273129982882 0 349.02273129982882 269.34699331668617 0 0 0 0 432.08114927515817 -31.942558692714783 0 -31.942558692714783 413.57680843461247 0 0 0 0 2310.9927858586525 563.65183747872152 0 563.65183747872152 309.2935873404208 0 0 0 0 -665.46440792971021 152.66951302041002 0 152.66951302041002 444.57870007189115 0 0 0 0 -315.14992095051122 70.149229937752125 0 70.149229937752125 629.61624078466002 0 0 0 0 -277.1306557302928 146.5308689787297 0 146.5308689787297 352.94830153502426 0 0 0 0 -159.39753651531601 173.64843965217506 0 173.64843965217506 264.81777170263763 0 0 0 0 -97.865340799010028 85.858201049014724 0 85.858201049014724 41.612933727259588 0 0 0 0 -155.76831008539602 184.79755301646446 0 184.79755301646446 266.40337891451327 0 0 0 0 -127.28581185049455 145.81627095116164 0 145.81627095116164 59.064118411607069 0 0 0 0 -23.79969502008953 263.08473979405517 0 263.08473979405517 -97.200698784221458 0 0 0 0 60.681807347503273 37.410851587407777 0 37.410851587407777 20.415162562430286 0 0 0 0 -171.60700385942391 252.48715817953826 0 252.48715817953826 -96.23373486059063 0 0 0 0 403.1740287784778 -275.24615733953283 0 -275.24615733953283 410.25802885737903 0 0 0 0 354.01659724906858 -198.50573977803947 0 -198.50573977803947 334.6019251845446 0 0 0 0 736.55726574471191 -264.83580601965025 0 -264.83580601965025 66.591864075215085 0 0 0 0 971.1161309408235 -337.53891474099282 0 -337.53891474099282 45.117339080656166 0 0 0 0 530.32367614131726 -317.8810115856889 0 -317.8810115856889 397.21741059675384 0 0 0 0 579.54985875726197 -483.13315301757666 0 -483.13315301757666 493.97686399784919 0 0 0 0 1178.9917023734124 -477.64150063034924 0 -477.64150063034924 109.42151287014093 0 0 0 0 1161.8904892696373 -511.91593881668541 0 -511.91593881668541 209.03852008263516 0 0 0 0 1520.1878554525501 -394.35580845011486 0 -394.35580845011486 -286.03737722425478 0 0 0 0 1643.1935023321439 -610.48517122389785 0 -610.48517122389785 -159.26240130298527 0 0 0 0 1258.6455874095054 -112.68890539038671 0 -112.68890539038671 -322.95451458033222 0 0 0 0 1798.3250680068013 -164.97785103631725 0 -164.97785103631725 -319.4019000186554 0 0 0 0 1423.8631718087145 -468.91184052932374 0 -468.91184052932374 -336.30916960874174 0 0 0 0 1876.0112729317298 -558.05079720070125 0 -558.05079720070125 -325.39663964324768 0 0 0 0 1680.933450426699 -272.0154087882695 0 -272.0154087882695 -341.95345981969513 0 0 0 0 746.31244141303068 -104.33679952804641 0 -104.33679952804641 -161.36241809363264 0 0 0 0 858.05186443980347 241.54830957879585 0 241.54830957879585 154.60184438976694 0 0 0 0 -64.021243460259939 203.10571982549573 0 203.10571982549573 321.92611261181628 0 0 0 0 24.718013292460093 -12.561141327210144 0 -12.561141327210144 -3.6338441833897583 0 0 0 0 -2.5320735107797603 1.7427277112412725 0 1.7427277112412725 -2.5283976819806018 0 0 0 0 319.57210205827687 -282.30765304799661 0 -282.30765304799661 245.58539093091485 0 0 0 0 337.41149642491746 195.35635621407926 0 195.35635621407926 13.397936220540032 0 0 0 0 1279.0178826337506 353.90928258561826 0 353.90928258561826 813.59313231831129 0 0 0 0 33.945143895507499 -424.56494876880811 0 -424.56494876880811 565.98816397395694 0 0 0 0 94.151913027360351 58.781573444739081 0 58.781573444739081 33.127528526513757 0 0 0 0 69.577078494632019 352.83640483627966 0 352.83640483627966 -202.22950549607231 0 0 0 0 307.08513895402939 -259.3376349377736 0 -259.3376349377736 210.66142904503999 0 0 0 0 50.668436138741527 -356.6645354017005 0 -356.6645354017005 266.25175092050131 0 0 0 0 63.742064827678405 -6.5924149478987601 0 -6.5924149478987601 89.709784248963388 0 0 0 0 149.90541408795252 -70.465370328164227 0 -70.465370328164227 5.8124732362248324 0 0 0 0 -29.130202300162637 -68.972085058164794 0 -68.972085058164794 621.46774021328542 0 0 0 0 1.1084577373475497 -3.6369390746876817 0 -3.6369390746876817 7.9876335609223315 0 0 0 0 1746.3438354504033 498.00365869301868 0 498.00365869301868 -179.67304019766925 0 0 0 0 1040.2027499059041 283.41672076275472 0 283.41672076275472 132.29021997211021 0 0 0 0 -99.377767488520476 -288.07271208964437 0 -288.07271208964437 125.77841228761554 0 0 0 0 44.02428562323621 -29.65409243707677 0 -29.65409243707677 99.27461448755912 0 0 0 0 526.27501122358808 -725.81154355557612 0 -725.81154355557612 -144.53060105765326 0 0 0 0 1857.7197040416681 -598.80505275340624 0 -598.80505275340624 -492.66537922121643 0 0 0 0 -356.92980613828149 445.37936337685869 0 445.37936337685869 -181.10414917426829 0 0 0 0 266.98142439732237 174.71634273799737 0 174.71634273799737 -110.14906605540318 0 0 0 0 26.395706825544874 3.1481156804043771 0 3.1481156804043771 -15.582607072389379 0 0 0 0 93.429841537209086 65.65629568568626 0 65.65629568568626 35.875762373811369 0 0 0 0 -1074.1370315809072 521.33325213215744 0 521.33325213215744 123.89386433107757 0 0 0 0 -2.3255079533693515 -0.68169814018784081 0 -0.68169814018784081 -2.6117384102723733 0 0 0 0 775.69508224421043 -2.8339074072036965 0 -2.8339074072036965 -282.78215502696003 0 0 0 0 -7.0122223494709033 -111.69255047402294 0 -111.69255047402294 29.762623412079847 0 0 0 0 164.64475038394539 289.09471263496835 0 289.09471263496835 -273.78407853441422 0 0 0 0 -97.202898399950072 326.44525811780738 0 326.44525811780738 -202.88878413804014 0 0 0 0 -210.66563602177848 -59.304242647261162 0 -59.304242647261162 47.681310928134735 0 0 0 0 133.93537954840394 279.35120106048544 0 279.35120106048544 -379.60098851231578 0 0 0 0 29.365029295150407 -16.020539140970413 0 -16.020539140970413 29.347911643100815 0 0 0 0 268.58957686071881 -53.294210996833499 0 -53.294210996833499 -29.952261555158657 0 0 0 0 -12.021038601439614 184.73451763191497 0 184.73451763191497 -41.95649978815436 0 0 0 0 86.577658876482019 191.03522823890762 0 191.03522823890762 -54.154406249936983 0 0 0 0 37.125589863947425 228.92163551647263 0 228.92163551647263 -174.2113336804523 0 0 0 0 -129.08249981696827 204.83737672845655 0 204.83737672845655 -168.20420595429005 0 0 0 0 52.048769161792734 163.13625329665865 0 163.13625329665865 -248.45801270920242 0 0 0 0 77.93138205908204 49.273590919806018 0 49.273590919806018 27.469396799089118 0 0 0 0 309.743355861694 -323.61158900252894 0 -323.61158900252894 266.78296445670321 0 0 0 0 -90.949226964875379 343.36787276609448 0 343.36787276609448 -239.48364810156454 0 0 0 0 -28.999220411536498 204.9576825045101 0 204.9576825045101 -229.65744286758672 0 0 0 0 -83.250207448092624 248.61003639537739 0 248.61003639537739 -32.300846980878759 0 0 0 0 -99.053047165212774 127.23925534927821 0 127.23925534927821 -32.170647613752948 0 0 0 0 -33.760998633804775 229.02320774844975 0 229.02320774844975 74.063062402566175 0 0 0 0 121.98883696376652 197.22123970756547 0 197.22123970756547 74.578584255690572 0 0 0 0 -156.59184230027131 188.4180506405919 0 188.4180506405919 279.02875454547757 0 0 0 0 -158.93172562809104 178.43660920662705 0 178.43660920662705 279.58095043302706 0 0 0 0 136.93506063116274 389.39574272386221 0 389.39574272386221 429.54953620954257 0 0 0 0 59.827294145463611 253.9040577978825 0 253.9040577978825 360.92578459837068 0 0 0 0 163.08350291050806 274.28907176295513 0 274.28907176295513 364.84945210849583 0 0 0 0 306.04302284074583 248.12599817169826 0 248.12599817169826 103.79188341045523 0 0 0 0 444.99159917702082 408.88991851283276 0 408.88991851283276 252.689901124073 0 0 0 0 -0.018002868616092016 -0.32894808840759993 0 -0.32894808840759993 0.4747861623911831 0 0 0 0 -809.51687372762399 -53.145815485669345 0 -53.145815485669345 190.99298286406531 0 0 0 0 488.90249149583741 180.29266175479307 0 180.29266175479307 328.93058743288339 0 0 0 0 275.13939210284389 236.27247920078071 0 236.27247920078071 409.25860573885438 0 0 0 0 275.85444641951472 243.94187441616987 0 243.94187441616987 310.04084858575925 0 0 0 0 154.48473892133416 252.54833409383662 0 252.54833409383662 356.5714970838817 0 0 0 0 127.16683478331015 168.50506295390642 0 168.50506295390642 274.9974748878667 0 0 0 0 561.58173985436406 255.25932164555525 0 255.25932164555525 206.79783030671933 0 0 0 0 242.58102077496915 125.37353307621152 0 125.37353307621152 154.10497434524586 0 0 0 0 537.35251489348138 44.098527612567068 0 44.098527612567068 -5.9205607307658283 0 0 0 0 39.922098812917284 129.47010933941806 0 129.47010933941806 145.06840525934331 0 0 0 0 279.34885771607242 222.78284206244462 0 222.78284206244462 181.40993991389041 0 0 0 0 73.218071518491797 97.148676367779672 0 97.148676367779672 18.316450831425755 0 0 0 0 165.88571242806574 179.91984112089267 0 179.91984112089267 89.382449533120052 0 0 0 0 309.08019329384388 -15.697470216013926 0 -15.697470216013926 -20.832711402829773 0 0 0 0 308.17416571329204 -9.3712856414767884 0 -9.3712856414767884 5.2370540902720677 0 0 0 0 567.15124898924205 -148.66399376581694 0 -148.66399376581694 -62.819069257558112 0 0 0 0 430.98703409992766 -13.281301828467605 0 -13.281301828467605 -69.875402187770305 0 0 0 0 428.5133006160795 -41.176401859896487 0 -41.176401859896487 -91.735440549910436 0 0 0 0 634.96426866026377 -26.971426955209608 0 -26.971426955209608 -135.25322230188704 0 0 0 0 593.05907993187611 -82.196658741117517 0 -82.196658741117517 -86.471317172054114 0 0 0 0 515.77120314269632 20.844367737877292 0 20.844367737877292 -21.123488529543465 0 0 0 0 544.27079865766314 148.79622215387246 0 148.79622215387246 151.9658840334323 0 0 0 0 794.18207481073659 118.4162051615458 0 118.4162051615458 -0.096423765912390991 0 0 0 0 399.44461422478707 -66.006186957244381 0 -66.006186957244381 41.889794937489569 0 0 0 0 592.71345730785288 -195.03004801344855 0 -195.03004801344855 64.791292742514088 0 0 0 0 401.83793688642288 -103.98347670542418 0 -103.98347670542418 2.3539041906878992 0 0 0 0 1353.5519891684644 -233.59507297273109 0 -233.59507297273109 56.004527387011876 0 0 0 0 2.6764974982020746 2.9461933645292255 0 2.9461933645292255 3.1852057744903277 0 0 0 0 -392.02718664782878 891.13124087074539 0 891.13124087074539 487.33082471766227 0 0 0 0 1117.9951216406625 405.72496904114814 0 405.72496904114814 261.7865890737171 0 0 0 0 325.4694558119154 -548.93410911031287 0 -548.93410911031287 210.56260642479538 0 0 0 0 272.39725959492762 -242.12259217508051 0 -242.12259217508051 -63.190513856759935 0 0 0 0 129.93185534135409 -236.90947330347808 0 -236.90947330347808 112.63895921759649 0 0 0 0 107.75217508700007 -167.92612631041175 0 -167.92612631041175 3.3354357878251903 0 0 0 0 71.613614320852321 -250.68365788611436 0 -250.68365788611436 109.72522242891955 0 0 0 0 144.30698817593657 -86.947222476361276 0 -86.947222476361276 181.1375530051622 0 0 0 0 40.08831315257703 -206.01294664413308 0 -206.01294664413308 169.08528893099253 0 0 0 0 301.34496388010666 284.34848107441803 0 284.34848107441803 -377.02600883383229 0 0 0 0 -149.13732292558507 -177.15434466653403 0 -177.15434466653403 18.06154429372782 0 0 0 0 -356.54105612539206 440.00242923518999 0 440.00242923518999 -228.1783394551976 0 0 0 0 8.3935312088867136 6.8090664383148365 0 6.8090664383148365 2.4282393740752806 0 0 0 0 53.359710778171575 25.058677260596141 0 25.058677260596141 -227.88476841962438 0 0 0 0 35.319359041277494 39.785636418941067 0 39.785636418941067 -157.82722851738254 0 0 0 0 192.11517507456301 -87.205003781046798 0 -87.205003781046798 -220.69137003592186 0 0 0 0 121.85695283687528 -128.70321485930072 0 -128.70321485930072 19.366508705486012 0 0 0 0 191.07587687567866 -96.048718480139541 0 -96.048718480139541 -108.94389838942516 0 0 0 0 131.80794874692219 -48.629611877609932 0 -48.629611877609932 -76.852995174638636 0 0 0 0 136.60100029448949 -66.653556556833792 0 -66.653556556833792 -168.98752591330594 0 0 0 0 116.02139246358274 -88.344187768426309 0 -88.344187768426309 -137.87255149721022 0 0 0 0 -236.95867047275533 227.69088150692733 0 227.69088150692733 -205.91517591753654 0 0 0 0 135.64706035744166 -34.516481738030052 0 -34.516481738030052 -166.2906208203367 0 0 0 0 35.579565685424313 17.099423614450643 0 17.099423614450643 -135.9027480877844 0 0 0 0 33.308513126663456 6.4651123457933863 0 6.4651123457933863 -162.19940561595467 0 0 0 0 -59.165091004948408 176.13652330906166 0 176.13652330906166 -304.05895520968079 0 0 0 0 -124.59233382206003 104.34055454534428 0 104.34055454534428 -191.80289076251393 0 0 0 0 -202.84620342151902 245.4958486050275 0 245.4958486050275 -207.73396613043406 0 0 0 0 -282.76093501751529 96.635433421167818 0 96.635433421167818 -109.0029318918605 0 0 0 0 -208.92109704358154 2.5660214247345721 0 2.5660214247345721 -117.15574168971943 0 0 0 0 -251.27302087291901 82.573992663092213 0 82.573992663092213 -193.49036429155967 0 0 0 0 153.78610583847376 -71.52887183734606 0 -71.52887183734606 -199.28315125198424 0 0 0 0 -99.054337502777344 -132.85293892455957 0 -132.85293892455957 -115.01186969728951 0 0 0 0 -13.342215344688157 -78.440446539113509 0 -78.440446539113509 -130.1242881918788 0 0 0 0 -13.333502531246328 26.17301865084325 0 26.17301865084325 -199.05455880470618 0 0 0 0 7.0139280743695487 6.9015920250282718 0 6.9015920250282718 -2.3048907673326688 0 0 0 0 158.17053776353168 -70.725855861459422 0 -70.725855861459422 25.411117969139923 0 0 0 0 145.18815451082617 47.6896163505142 0 47.6896163505142 -8.4179565639606153 0 0 0 0 222.75750894962721 58.491441673887522 0 58.491441673887522 -15.642394748692823 0 0 0 0 225.62101108445495 16.219064996802445 0 16.219064996802445 -44.054672910061527 0 0 0 0 -331.91725018552097 13.65223274697928 0 13.65223274697928 -99.864875018928615 0 0 0 0 1.1380022174489568 -106.58086869729959 0 -106.58086869729959 -56.970499063667376 0 0 0 0 36.449468818198511 -39.314736635100417 0 -39.314736635100417 -17.953692378550272 0 0 0 0 -625.17433024580532 208.20571920828661 0 208.20571920828661 -143.62090107132553 0 0 0 0 1.1986511127337742 -0.65512942009233655 0 -0.65512942009233655 -0.032722968809796527 0 0 0 0 4.80271934644664 6.9818988661834638 0 6.9818988661834638 -9.2623262820692887 0 0 0 0 -63.493930378224832 35.994420874218577 0 35.994420874218577 57.623044464438863 0 0 0 0 -1.4739572636854916 0.57986993416621146 0 0.57986993416621146 -1.816411642217215 0 0 0 0 -19.924517747891514 11.685825743656551 0 11.685825743656551 -17.449781982364584 0 0 0 0 27.604525352589917 19.801532047536057 0 19.801532047536057 -50.642050275870133 0 0 0 0 -40.21629583206095 -9.8921287615730762 0 -9.8921287615730762 4.9739005159590306 0 0 0 0 -31.349947528822668 -3.9518200923357654 0 -3.9518200923357654 -31.015973881550963 0 0 0 0 10.43308038526367 6.2742715498922799 0 6.2742715498922799 -18.829680319430274 0 0 0 0 58.487756183694728 -20.468204680412782 0 -20.468204680412782 -71.311173155133019 0 0 0 0 12.311780186687747 16.374323086938396 0 16.374323086938396 -25.6863049066014 0 0 0 0 63.156810582529715 -24.206887250474892 0 -24.206887250474892 31.222705706728448 0 0 0 0 123.45127201366267 -42.827662007912295 0 -42.827662007912295 -20.202329164537559 0 0 0 0 29.528514774135374 -0.0085521097906422483 0 -0.0085521097906422483 -7.197258788707253 0 0 0 0 30.360978890393199 -35.148954766306815 0 -35.148954766306815 73.855192198561781 0 0 0 0 19.119955832671621 -30.555425632402603 0 -30.555425632402603 45.956892454749322 0 0 0 0 39.738536702505371 -12.32252831939968 0 -12.32252831939968 18.552373054009422 0 0 0 0 427.05007512948396 44.195043065014943 0 44.195043065014943 -59.09003426056006 0 0 0 0 188.119057373131 118.80830492014229 0 118.80830492014229 66.102003826232249 0 0 0 0 1072.5027579300731 99.924501009097185 0 99.924501009097185 -121.21647281479727 0 0 0 0 439.08426174337501 62.63500602893123 0 62.63500602893123 -120.74813567358797 0 0 0 0 225.11064087214163 -144.31286420610058 0 -144.31286420610058 -2.6813768909269129 0 0 0 0 -7.5741145683750801 100.76137540937088 0 100.76137540937088 696.6090209451886 0 0 0 0 878.00545042612248 -426.01232281407101 0 -426.01232281407101 91.121269114946699 0 0 0 0 10.318405779487275 -2.1804029515595893 0 -2.1804029515595893 1.1689664217353322 0 0 0 0 184.44949130473287 -376.52528918014923 0 -376.52528918014923 597.33905037070781 0 0 0 0 386.67798951745135 341.73713615195447 0 341.73713615195447 207.90009618283148 0 0 0 0 897.63583366573857 -483.39527451917854 0 -483.39527451917854 78.499110588994881 0 0 0 0 700.26226850348758 -20.658913591796136 0 -20.658913591796136 -233.26732962180267 0 0 0 0 274.45431194369121 -187.19572396977128 0 -187.19572396977128 -26.925428346088665 0 0 0 0 126.35749797819153 212.51942669743312 0 212.51942669743312 -104.51010260315161 0 0 0 0 1139.7549135442855 286.42083213961132 0 286.42083213961132 -164.51686702410552 0 0 0 0 181.99607750193991 244.45478175101471 0 244.45478175101471 -292.16261511301946 0 0 0 0 143.94218662069215 137.06815829088555 0 137.06815829088555 -197.34245985331745 0 0 0 0 120.16968980212914 117.21024466602012 0 117.21024466602012 -206.3999652459263 0 0 0 0 324.06418965261946 1.8324194936549247 0 1.8324194936549247 -174.32069610303006 0 0 0 0 243.13639941852125 -147.00661819747438 0 -147.00661819747438 -24.212388471834856 0 0 0 0 280.43068665921669 -135.44630164924195 0 -135.44630164924195 -23.645220028263793 0 0 0 0 250.06766316631183 -167.60184772327193 0 -167.60184772327193 20.598259544865869 0 0 0 0 264.80364690443093 -88.912790243688505 0 -88.912790243688505 7.2654314894009531 0 0 0 0 10.254209760830747 16.413194151522028 0 16.413194151522028 -18.189778753571744 0 0 0 0 297.50787913306885 -143.84155584218661 0 -143.84155584218661 20.392052416818842 0 0 0 0 227.8513563728693 57.306995577883754 0 57.306995577883754 -0.53260385789536713 0 0 0 0 267.60000046251844 -67.016315376862622 0 -67.016315376862622 114.36656572751281 0 0 0 0 449.46999577263705 -254.44984250016387 0 -254.44984250016387 185.51900337523625 0 0 0 0 0.10531632262029333 5.8589666312023567 0 5.8589666312023567 -0.58782518561949271 0 0 0 0 252.44497368261 -149.93111232517549 0 -149.93111232517549 79.346776918032901 0 0 0 0 170.46123371139856 -53.059591120530968 0 -53.059591120530968 -43.628437722904891 0 0 0 0 171.31399230520668 -185.177228760264 0 -185.177228760264 139.34768687234282 0 0 0 0 293.01774973030479 -224.89763281899468 0 -224.89763281899468 2.5939188312272563 0 0 0 0 73.37292182062447 57.352321487366225 0 57.352321487366225 -150.75046815416181 0 0 0 0 148.07005021003624 98.659061428859786 0 98.659061428859786 -221.54792946945918 0 0 0 0 230.55887045405143 -19.267437806043745 0 -19.267437806043745 -127.26962794731594 0 0 0 0 34.118330021239672 35.339016507979068 0 35.339016507979068 -116.44645541851401 0 0 0 0 225.33484755496193 6.7326272958398476 0 6.7326272958398476 -59.80924435993802 0 0 0 0 278.35449510973194 -95.743352832165328 0 -95.743352832165328 -6.4402674117800416 0 0 0 0 424.91347293252147 -197.39394131315748 0 -197.39394131315748 -9.3669637563389188 0 0 0 0 224.87986929522776 -143.64853641146692 0 -143.64853641146692 20.015628743587513 0 0 0 0 312.20405314208028 -59.343312063354915 0 -59.343312063354915 30.339825190432748 0 0 0 0 508.61995340994531 -88.477361741221785 0 -88.477361741221785 17.910521346766473 0 0 0 0 225.14204756270829 -97.365238820599188 0 -97.365238820599188 17.828687782023735 0 0 0 0 239.03070278785981 -0.56178969228039932 0 -0.56178969228039932 -65.32133617560612 0 0 0 0 144.37012598509682 -8.9258297904898427 0 -8.9258297904898427 -39.561503763725341 0 0 0 0 167.77097108062321 74.639891307285893 0 74.639891307285893 -173.60015177994319 0 0 0 0 199.59649265066764 -32.615492721302871 0 -32.615492721302871 -98.68051528453816 0 0 0 0 202.7692413771756 -24.184018951219514 0 -24.184018951219514 -85.10314540789841 0 0 0 0 89.04283146310172 73.031309668972426 0 73.031309668972426 -179.77570674161143 0 0 0 0 130.2847698479618 109.77110665385317 0 109.77110665385317 -160.09039219098952 0 0 0 0 69.105169422627114 34.345823614451092 0 34.345823614451092 -10.68478622053226 0 0 0 0 -49.474622124691905 254.09542101999477 0 254.09542101999477 -234.82778071215125 0 0 0 0 45.936477688359652 30.687183824601576 0 30.687183824601576 8.4901656801562559 0 0 0 0 33.778684035694823 36.16190836622809 0 36.16190836622809 5.8991756458678992 0 0 0 0 51.722273627337934 23.359534385214804 0 23.359534385214804 8.5030357409904269 0 0 0 0 83.049855351993756 -5.62686890462885 0 -5.62686890462885 -45.44558983011683 0 0 0 0 59.360746349115288 180.93896337047499 0 180.93896337047499 -229.53985963149671 0 0 0 0 67.342835769323869 19.344425083843426 0 19.344425083843426 1.6035026798779484 0 0 0 0 96.845534546202543 3.0780020943046225 0 3.0780020943046225 -63.938687567625834 0 0 0 0 95.330334409129136 -9.9799368919738214 0 -9.9799368919738214 -86.981937084278343 0 0 0 0 232.52498100289085 -49.096173584888618 0 -49.096173584888618 14.416871810180737 0 0 0 0 87.434547408538492 -9.9879628080267935 0 -9.9879628080267935 -57.951501406442389 0 0 0 0 5.8599039269281157 -0.67025327835794002 0 -0.67025327835794002 -2.0431123146367205 0 0 0 0 249.17028974899586 -53.198187644402395 0 -53.198187644402395 -0.13295978616409343 0 0 0 0 156.71362587149451 -10.61051004914907 0 -10.61051004914907 -7.3970774941778927 0 0 0 0 -0.39136426938642188 -0.092098994677463963 0 -0.092098994677463963 0.45747416977480948 0 0 0 0 176.65309933471872 -38.777610966107005 0 -38.777610966107005 -2.5533203816117975 0 0 0 0 189.35987756832765 47.595412162238858 0 47.595412162238858 193.82276871207569 0 0 0 0 201.29576588126838 178.13056899740104 0 178.13056899740104 -26.309771449754294 0 0 0 0 328.29609550994064 -50.503930014873561 0 -50.503930014873561 -79.934797170808196 0 0 0 0 56.092354863802029 69.517161658883964 0 69.517161658883964 -96.579230544212578 0 0 0 0 19.887680603271292 18.976900791184562 0 18.976900791184562 24.360511727130245 0 0 0 0 16.496956981620315 -1.4457603038265461 0 -1.4457603038265461 -79.277734774066857 0 0 0 0 -88.792173703965091 111.43227775923953 0 111.43227775923953 -36.301224824737687 0 0 0 0 67.391344468001236 12.11296177565063 0 12.11296177565063 1.9914267204207823 0 0 0 0 82.832533351208667 145.31381182912077 0 145.31381182912077 -89.204174191891298 0 0 0 0 85.036446193258598 -23.798317033158582 0 -23.798317033158582 19.878770893431465 0 0 0 0 39.72758222634134 17.19635410994751 0 17.19635410994751 13.835644907998965 0 0 0 0 66.976309488458625 1.5757859408817394 0 1.5757859408817394 -3.58367524930381 0 0 0 0 174.14965302375731 -64.230957562514959 0 -64.230957562514959 -129.65803800784079 0 0 0 0 72.802096084586083 17.480691482256589 0 17.480691482256589 2.2077279470745452 0 0 0 0 92.185008695498709 -61.797334739222549 0 -61.797334739222549 40.118377553832943 0 0 0 0 -84.368771256551554 125.11911251016363 0 125.11911251016363 -113.97898741350866 0 0 0 0 20.568429951886699 16.484156160919152 0 16.484156160919152 11.441506805906238 0 0 0 0 2.9754285257404263 -15.687322968036824 0 -15.687322968036824 -7.2681578332695267 0 0 0 0 -12.376162184562418 83.331232707413847 0 83.331232707413847 -141.99644039771886 0 0 0 0 -45.175440607516066 87.176608101951501 0 87.176608101951501 -34.984912346671081 0 0 0 0 6.9187047852158159 -0.29405931388978246 0 -0.29405931388978246 -1.7217241286547642 0 0 0 0 3.5439172686082969 -0.33933824395759871 0 -0.33933824395759871 2.3489214599543429 0 0 0 0 183.30611115670035 -66.416781216960203 0 -66.416781216960203 26.508377110385936 0 0 0 0 22.936283788574698 -11.773811383851978 0 -11.773811383851978 4.969706545932965 0 0 0 0 44.120746880578736 -3.6876800270619015 0 -3.6876800270619015 3.9706143918238013 0 0 0 0 44.056619168659381 -3.0901684740365454 0 -3.0901684740365454 8.7820071501955681 0 0 0 0 29.738428411372269 9.0286134639729596 0 9.0286134639729596 -0.79249064760380961 0 0 0 0 36.284948043583427 73.121959088520953 0 73.121959088520953 -87.556013352864738 0 0 0 0 41.07902822181174 7.1544786638662643 0 7.1544786638662643 -0.16248509703189828 0 0 0 0 50.939279426784196 4.0349539400643835 0 4.0349539400643835 6.7976656380105851 0 0 0 0 41.933388111316162 5.4649466732403198 0 5.4649466732403198 7.0603651834421726 0 0 0 0 45.639261622811318 2.154556111414422 0 2.154556111414422 6.6000837958388274 0 0 0 0 114.7368067651114 18.89293283547795 0 18.89293283547795 -63.239610266200998 0 0 0 0 49.26883022677643 8.1425387443807473 0 8.1425387443807473 -1.1079333023295757 0 0 0 0 45.758294312559883 1.461826309976459 0 1.461826309976459 2.4155346112521556 0 0 0 0 61.283422726264689 -56.715093239608564 0 -56.715093239608564 -20.644931117458327 0 0 0 0 190.8436168831031 -0.8061739295726511 0 -0.8061739295726511 -58.284438730622014 0 0 0 0 168.54921136089069 -91.258262976536002 0 -91.258262976536002 -10.465382027160558 0 0 0 0 4.7124065950483782 -3.6303539646087302 0 -3.6303539646087302 154.67358084725356 0 0 0 0 42.450772304044222 75.137290006309513 0 75.137290006309513 47.524561453501519 0 0 0 0 36.65207248389197 -23.006912206954894 0 -23.006912206954894 46.773657107223244 0 0 0 0 4.4043632337408667 3.1547142881726522 0 3.1547142881726522 -0.39317502713966324 0 0 0 0 214.660428587551 4.6643785060109622 0 4.6643785060109622 32.489804409892258 0 0 0 0 187.6934563800387 10.387256907906249 0 10.387256907906249 31.644503095446225 0 0 0 0 -0.77903290043468587 -27.626084522832684 0 -27.626084522832684 50.828122766331944 0 0 0 0 59.444614148130483 -31.491012910634666 0 -31.491012910634666 0.18199325109639375 0 0 0 0 233.15133854919623 30.985470904803606 0 30.985470904803606 20.164976166405722 0 0 0 0 195.89145008433115 36.101668987650555 0 36.101668987650555 22.497461855192341 0 0 0 0 30.71172256563689 -35.80063934256718 0 -35.80063934256718 2.7076720330465456 0 0 0 0 229.96944896306377 29.539199696872402 0 29.539199696872402 -2.7910649174914397 0 0 0 0 226.43975182536451 -13.076426176809719 0 -13.076426176809719 35.185246201632253 0 0 0 0 199.27723215068545 56.240070091663483 0 56.240070091663483 -24.316223207445546 0 0 0 0 206.11538567782372 19.348272253537516 0 19.348272253537516 16.007210076938463 0 0 0 0 161.94627649432732 19.604519275041866 0 19.604519275041866 16.150444506090025 0 0 0 0 189.78050479504236 8.0068930919636614 0 8.0068930919636614 -9.642528951776967 0 0 0 0 127.67101199364424 0.19034961192076594 0 0.19034961192076594 -6.2676069863941848 0 0 0 0 92.046434096346275 -30.07102895870122 0 -30.07102895870122 -13.765364486656381 0 0 0 0 177.00100358277632 16.61087971223651 0 16.61087971223651 -24.306619615817908 0 0 0 0 442.77564695745968 0.63146862226494704 0 0.63146862226494704 -42.000944107990563 0 0 0 0 25.914092651539249 55.647982016689753 0 55.647982016689753 14.740492394057242 0 0 0 0 0.28659888539532119 -0.10714578011755549 0 -0.10714578011755549 0.59142957684451058 0 0 0 0 347.80966225900784 -73.029420264613094 0 -73.029420264613094 -12.760255764292651 0 0 0 0 430.32954952599539 18.094207771944184 0 18.094207771944184 -40.932283003173325 0 0 0 0 307.94113621547149 145.49868278232157 0 145.49868278232157 -31.488947252549906 0 0 0 0 16.17771305541801 -12.154628559923989 0 -12.154628559923989 -6.1557542654091932 0 0 0 0 146.73393372357532 77.109496370514535 0 77.109496370514535 -25.112500792812256 0 0 0 0 307.32526441980735 -126.55413051453854 0 -126.55413051453854 51.17602902216413 0 0 0 0 317.33408441088977 -133.46806897909403 0 -133.46806897909403 -61.891200191800635 0 0 0 0 176.05719441241672 -18.78153880810612 0 -18.78153880810612 -28.986172252605684 0 0 0 0 175.29093472182058 -8.8650073646159271 0 -8.8650073646159271 -22.101059143300517 0 0 0 0 233.46668345863327 -4.049966365215397 0 -4.049966365215397 -34.263740667183015 0 0 0 0 215.31383694464239 12.262398841907384 0 12.262398841907384 -27.929996482198021 0 0 0 0 271.62002838574153 4.3924097149420334 0 4.3924097149420334 -36.659450919585765 0 0 0 0 259.75422965930193 20.185593234648252 0 20.185593234648252 -32.322523844559498 0 0 0 0 218.76998033931159 10.467584589240346 0 10.467584589240346 -8.3349291345887195 0 0 0 0 225.9950626011414 -9.8813620833823279 0 -9.8813620833823279 -15.215790037142597 0 0 0 0 196.14830300938047 -13.352128522580642 0 -13.352128522580642 -28.137749432222577 0 0 0 0 187.4776802545166 12.364680960409714 0 12.364680960409714 14.628309634081234 0 0 0 0 425.44383630822995 9.6396354138830702 0 9.6396354138830702 0.79525898729480105 0 0 0 0 80.040800542753033 78.668823139960239 0 78.668823139960239 -31.754066933708152 0 0 0 0 444.77593421092024 73.484743289657217 0 73.484743289657217 -2.8242447467637248 0 0 0 0 262.42372980165965 6.0179944953297309 0 6.0179944953297309 -13.732798230085336 0 0 0 0 219.95022778492421 -196.41348682570424 0 -196.41348682570424 -180.96582853738437 0 0 0 0 -32.058900492988812 29.745058765273097 0 29.745058765273097 15.922030390769208 0 0 0 0 550.56076111507718 -40.507456616400304 0 -40.507456616400304 -433.78000108582091 0 0 0 0 539.53096936613292 21.513602374146615 0 21.513602374146615 -35.79180470321262 0 0 0 0 453.04314421105664 -18.706417300410067 0 -18.706417300410067 -97.525046832452063 0 0 0 0 135.78207747774832 228.39115584624597 0 228.39115584624597 -168.83246307792797 0 0 0 0 339.13243872721796 287.81839726603357 0 287.81839726603357 -456.3805678166591 0 0 0 0 172.58193462895844 40.106088910630632 0 40.106088910630632 -17.062711210811045 0 0 0 0 201.41534379870427 15.970776097158932 0 15.970776097158932 10.862148463575068 0 0 0 0 194.13239442790655 8.4773746724396233 0 8.4773746724396233 13.092039255782311 0 0 0 0 555.32037860063429 -42.154461290745076 0 -42.154461290745076 100.96770736353596 0 0 0 0 571.76680555969506 -129.95873326885976 0 -129.95873326885976 58.252426904138702 0 0 0 0 636.43112780215597 -157.19666986632046 0 -157.19666986632046 -114.07459106427268 0 0 0 0 601.03737392243056 -54.731353770843725 0 -54.731353770843725 -49.654076310676828 0 0 0 0 531.99039059282222 37.084840468178299 0 37.084840468178299 -42.641769622227912 0 0 0 0 515.91078941537126 -119.6870962827079 0 -119.6870962827079 69.249009829403803 0 0 0 0 481.68752416692587 -55.26658749670014 0 -55.26658749670014 -36.262883871169834 0 0 0 0 477.47770852839494 -112.8585797367565 0 -112.8585797367565 -58.710226447656169 0 0 0 0 495.64987544654286 -44.513892784410018 0 -44.513892784410018 -27.697665100291488 0 0 0 0 493.17655669283704 -56.743881970706752 0 -56.743881970706752 -18.422835920599937 0 0 0 0 580.31141734460834 -85.832578834434571 0 -85.832578834434571 -64.037206994862572 0 0 0 0 66.419393754968084 77.924646754317678 0 77.924646754317678 -47.680060005808485 0 0 0 0 460.35275784704572 -33.529480922290531 0 -33.529480922290531 -35.286846037981377 0 0 0 0 500.53055093500006 -180.87971972020364 0 -180.87971972020364 -40.945123348406923 0 0 0 0 241.46601984742301 34.035418722343572 0 34.035418722343572 -46.979921903413526 0 0 0 0 277.13397026093298 -6.2297374347468804 0 -6.2297374347468804 -76.637257305954279 0 0 0 0 62.800177105201101 72.924748842363798 0 72.924748842363798 -60.470917651037283 0 0 0 0 259.11934836004366 8.5487995976128843 0 8.5487995976128843 -36.956248641716194 0 0 0 0 262.39867364337715 12.382795773538557 0 12.382795773538557 -33.190164476521431 0 0 0 0 271.12230636558161 -10.989033014997219 0 -10.989033014997219 -28.91150103724884 0 0 0 0 231.20254922557797 -12.523300210119686 0 -12.523300210119686 -25.603317066908318 0 0 0 0 229.46538298729865 1.5739368138804366 0 1.5739368138804366 -29.38835134172939 0 0 0 0 244.54980470624287 -18.006549580229091 0 -18.006549580229091 -18.605499636144202 0 0 0 0 319.07546965432994 -36.948140075025435 0 -36.948140075025435 -13.857694649154269 0 0 0 0 282.64963642790826 -9.6750464552486051 0 -9.6750464552486051 18.703832715945055 0 0 0 0 290.62276012906659 -14.440068702816234 0 -14.440068702816234 -32.277207452364607 0 0 0 0 271.84175635577049 -11.935672489168383 0 -11.935672489168383 -0.10083329612598391 0 0 0 0 289.96990610663124 -68.655948509564382 0 -68.655948509564382 67.972238341286129 0 0 0 0 302.75506525815945 -48.764473244551198 0 -48.764473244551198 -15.702845619437312 0 0 0 0 248.70686264995311 -74.738852495120454 0 -74.738852495120454 35.555891847906423 0 0 0 0 460.70851184404455 -125.41419837279318 0 -125.41419837279318 35.298725984107932 0 0 0 0 281.50648633732635 -39.094483450503503 0 -39.094483450503503 15.216182131592603 0 0 0 0 252.53180112393602 -56.6776438956324 0 -56.6776438956324 100.98993408269575 0 0 0 0 286.3395324025405 -3.24264223222292 0 -3.24264223222292 106.77979297736738 0 0 0 0 -3.8353770672889027 7.8838987058362928 0 7.8838987058362928 3.6159997623809792 0 0 0 0 240.16433435896761 -41.85763571487837 0 -41.85763571487837 96.64993534217183 0 0 0 0 51.676156087842358 33.5247386808269 0 33.5247386808269 14.815901815868292 0 0 0 0 294.41499345485499 -49.592328913788037 0 -49.592328913788037 72.942500575326903 0 0 0 0 276.99588797955585 86.315776870290165 0 86.315776870290165 34.426536581682512 0 0 0 0 257.67348213128207 -73.688841406768091 0 -73.688841406768091 77.635482456512818 0 0 0 0 169.30715598869574 -102.91325847707003 0 -102.91325847707003 84.587913871950548 0 0 0 0 312.19430773412751 -245.46992803073897 0 -245.46992803073897 103.38554781981475 0 0 0 0 492.25918422264658 -58.584072853452824 0 -58.584072853452824 -18.263198533745026 0 0 0 0 326.17883436088596 4.6481735415650292 0 4.6481735415650292 47.040134232778712 0 0 0 0 329.63546957442031 6.4932930093031018 0 6.4932930093031018 -19.558918683675984 0 0 0 0 34.985835504539537 -7.8362092226450208 0 -7.8362092226450208 2.7133296267491325 0 0 0 0 79.733335447329495 57.015857178209984 0 57.015857178209984 -66.163507265433608 0 0 0 0 204.74626533291848 78.131293361720765 0 78.131293361720765 -10.440407906777637 0 0 0 0 338.69974876205015 -204.32779554731087 0 -204.32779554731087 -34.594809033502315 0 0 0 0 269.28464657527365 -29.447922136789771 0 -29.447922136789771 -5.6044459542007985 0 0 0 0 261.10984583411118 -40.852444486183344 0 -40.852444486183344 -20.536975711245987 0 0 0 0 632.37730453194945 283.60507546773653 0 283.60507546773653 -16.583976913998868 0 0 0 0 139.86851885316389 -103.41934591535065 0 -103.41934591535065 57.507382616947659 0 0 0 0 122.01081628209977 -456.13982588280999 0 -456.13982588280999 115.26908231962898 0 0 0 0 2141.0407857004884 660.80152444334271 0 660.80152444334271 203.10105871653195 0 0 0 0 23.401779662103451 -0.16099447547054879 0 -0.16099447547054879 -0.4797834166369741 0 0 0 0 1820.7370874731687 -1477.595020810244 0 -1477.595020810244 820.26565175551332 0 0 0 0 3068.2614994264586 -402.54121591829971 0 -402.54121591829971 -332.55353349369352 0 0 0 0 1028.3764212226724 1538.2435360292316 0 1538.2435360292316 -719.4032601707122 0 0 0 0 2647.8786401235975 349.90796651510055 0 349.90796651510055 -502.04050408376406 0 0 0 0 1061.9129393988478 -393.27521775181117 0 -393.27521775181117 1007.8905381097321 0 0 0 0 1231.5726836805588 592.24445686029014 0 592.24445686029014 111.91873908156037 0 0 0 0 1368.4716695549814 741.34949750858448 0 741.34949750858448 -601.17720865564615 0 0 0 0 1236.9522257611789 824.54820458901668 0 824.54820458901668 68.851352587831059 0 0 0 0 129.08186529124941 -258.17909580096739 0 -258.17909580096739 -91.844801242568792 0 0 0 0 36.656509092666965 -133.47373516003154 0 -133.47373516003154 -7.7511718904447662 0 0 0 0 122.18765638843982 -95.527716306977837 0 -95.527716306977837 57.290000126066126 0 0 0 0 863.68058122970251 -456.0731053772605 0 -456.0731053772605 12.05192317888091 0 0 0 0 250.1352536540071 -41.696903118537193 0 -41.696903118537193 18.495336248963895 0 0 0 0 301.07285672830767 -94.113138522679492 0 -94.113138522679492 -0.96866175429204304 0 0 0 0 319.41364429387613 -145.70232213286818 0 -145.70232213286818 -97.255853943151124 0 0 0 0 54.912075413769344 -171.42515048085488 0 -171.42515048085488 35.269931061986426 0 0 0 0 279.67270136521984 -179.77401272456927 0 -179.77401272456927 113.28462416913771 0 0 0 0 263.80695683896192 -133.28942990346241 0 -133.28942990346241 -22.830336752209405 0 0 0 0 574.9037343148957 -253.73176728900989 0 -253.73176728900989 125.72008546927736 0 0 0 0 23.861410033008724 -73.705633103011678 0 -73.705633103011678 -57.932220143334234 0 0 0 0 10.518419923137117 -52.64882699455552 0 -52.64882699455552 211.80246930406201 0 0 0 0 -47.991552823026723 -90.983530988319217 0 -90.983530988319217 -2.9547934912936853 0 0 0 0 92.795875297167953 -67.27786703568475 0 -67.27786703568475 36.159869376303327 0 0 0 0 -83.536779968479095 -293.71581391330869 0 -293.71581391330869 -93.135447537779328 0 0 0 0 42.680315610919934 -129.74068416651698 0 -129.74068416651698 -90.170803825410985 0 0 0 0 -30.961960970760629 -324.54616235969934 0 -324.54616235969934 -110.66133240053023 0 0 0 0 111.54411896277014 -82.077768415008904 0 -82.077768415008904 43.966330020540468 0 0 0 0 1212.9396931111658 576.05213135985514 0 576.05213135985514 502.07619385374807 0 0 0 0 1414.1415287113123 1028.7142079450364 0 1028.7142079450364 816.45816877854213 0 0 0 0 1910.785128848991 1154.689102391693 0 1154.689102391693 882.06052491776063 0 0 0 0 1351.3369560409337 813.57533632751097 0 813.57533632751097 483.32896397951583 0 0 0 0 1376.997554463811 730.36039396096032 0 730.36039396096032 545.68310904349278 0 0 0 0 1770.1051559820517 1091.5542412021973 0 1091.5542412021973 888.31918693572982 0 0 0 0 -139.28768936858978 -294.84795313981022 0 -294.84795313981022 -187.86956663731053 0 0 0 0 73.899516817139158 -52.999371611527032 0 -52.999371611527032 28.980567878262715 0 0 0 0 122.8932676791519 -85.029941469160804 0 -85.029941469160804 -168.88618024342856 0 0 0 0 3500.2132413073959 1627.4696460062453 0 1627.4696460062453 679.60976862443886 0 0 0 0 2433.982211792325 1490.0108257412367 0 1490.0108257412367 1068.792765516544 0 0 0 0 2273.0274455309482 1516.3594017285764 0 1516.3594017285764 1068.142249921259 0 0 0 0 2695.1811420149243 1083.227007759938 0 1083.227007759938 350.86141798294744 0 0 0 0 2261.9001699363725 409.14108197842341 0 409.14108197842341 -23.008528597647548 0 0 0 0 3498.1346471744218 1166.2895795321856 0 1166.2895795321856 259.46957696072445 0 0 0 0 2499.6461575666908 542.48195477706759 0 542.48195477706759 -16.559640310497791 0 0 0 0 1716.8847618336222 -611.76578724540082 0 -611.76578724540082 -764.47291618050099 0 0 0 0 3501.148180966275 93.115370815679711 0 93.115370815679711 -543.603750421521 0 0 0 0 1743.0970746192652 232.22097256634191 0 232.22097256634191 -304.95330644374724 0 0 0 0 1860.9125935441734 64.451387984518362 0 64.451387984518362 -194.08219142351641 0 0 0 0 1308.1930605558719 595.44374634349992 0 595.44374634349992 14.774665811358773 0 0 0 0 1166.3534288382361 862.7101582272968 0 862.7101582272968 172.91210450991957 0 0 0 0 845.06698430076722 913.0115214757011 0 913.0115214757011 -194.72286246261046 0 0 0 0 1005.8270898963715 -419.28773060059751 0 -419.28773060059751 -830.82927763580165 0 0 0 0 231.98822232804014 55.197828147911878 0 55.197828147911878 -912.60460126385874 0 0 0 0 793.68771754155023 420.95969180605516 0 420.95969180605516 -2310.3243268127053 0 0 0 0 359.4560835296561 -125.9068273133505 0 -125.9068273133505 -177.15074650325641 0 0 0 0 56.648207247241103 -3.1651070180306924 0 -3.1651070180306924 -2.9247090704044436 0 0 0 0 65.946698645098849 -6.3313791598632641 0 -6.3313791598632641 -5.6753028201439406 0 0 0 0 1150.4454121707167 -329.72371347430271 0 -329.72371347430271 -1997.3849564402674 0 0 0 0 79.784389725423353 97.206639105189765 0 97.206639105189765 -76.819458570402276 0 0 0 0 1705.8741393268756 2781.9656504100171 0 2781.9656504100171 2700.3938175044009 0 0 0 0 4.1699899178449726 9.2590044712984323 0 9.2590044712984323 -5.4566921941529012 0 0 0 0 3484.4654343721631 20.97380153304988 0 20.97380153304988 -11.072350658194271 0 0 0 0 16.719141235236741 0.048416707880036824 0 0.048416707880036824 -0.91823696525944354 0 0 0 0 3492.1600911826185 -1490.6521618404363 0 -1490.6521618404363 -1232.2539374998128 0 0 0 0 -563.18285503970037 -1173.4146853709071 0 -1173.4146853709071 -475.28966720144905 0 0 0 0 -361.92716436997398 -74.028335859696313 0 -74.028335859696313 -753.45628538263418 0 0 0 0 3498.6762658607113 -814.52146949088171 0 -814.52146949088171 -434.19898831208002 0 0 0 0 3499.673343882554 -423.01781753824707 0 -423.01781753824707 -536.34130837885937 0 0 0 0 2550.7385748436791 -563.86963462183985 0 -563.86963462183985 -483.35724011946195 0 0 0 0 2486.8380947346686 -447.65864878294968 0 -447.65864878294968 -134.96079764454464 0 0 0 0 2059.4249281436641 -667.62254540699814 0 -667.62254540699814 209.06677424811073 0 0 0 0 1738.0219708767181 -410.07610922532695 0 -410.07610922532695 172.45969288893235 0 0 0 0 1603.3529656422179 -396.43493976292081 0 -396.43493976292081 989.6749569106878 0 0 0 0 1848.5014089287433 -973.38819672177544 0 -973.38819672177544 338.8180420765857 0 0 0 0 1894.0219110551279 -699.75786435965676 0 -699.75786435965676 -51.549703275821969 0 0 0 0 1819.5623279128631 -834.62653277227628 0 -834.62653277227628 149.66274674264466 0 0 0 0 1121.1890090765082 -634.07052548544914 0 -634.07052548544914 167.8313825217439 0 0 0 0 344.01356091382331 -522.15176519940405 0 -522.15176519940405 397.9721003799504 0 0 0 0 1270.4866845846809 -532.17048647401191 0 -532.17048647401191 52.603101185748571 0 0 0 0 1648.7423106635288 -1073.1821083367552 0 -1073.1821083367552 272.12727164011187 0 0 0 0 2603.99031133682 -1624.202528535521 0 -1624.202528535521 158.73394931376433 0 0 0 0 1855.9851427947287 -967.9538877223498 0 -967.9538877223498 24.184693300432116 0 0 0 0 2530.230130387572 -1033.0711330096372 0 -1033.0711330096372 -29.308031879794697 0 0 0 0 2510.5303529382891 -1112.5279403192817 0 -1112.5279403192817 -332.07230487982349 0 0 0 0 3501.5557139294979 -1278.7068604559518 0 -1278.7068604559518 -304.82827331652504 0 0 0 0 1698.3776875347612 -1573.2975638249154 0 -1573.2975638249154 211.25058644768026 0 0 0 0 1734.4334470089343 -1412.0330735980654 0 -1412.0330735980654 795.94705432758849 0 0 0 0 3491.0287760191495 -2584.6540220742218 0 -2584.6540220742218 707.18660656927295 0 0 0 0 91.628472691756542 -45.62682415803198 0 -45.62682415803198 430.23198170748674 0 0 0 0 19.975487869520677 -12.091479936433387 0 -12.091479936433387 11.532756521367725 0 0 0 0 -124.4140813405902 -1497.5192662180298 0 -1497.5192662180298 2698.1296276114967 0 0 0 0 3497.9801875929807 2260.8374459887655 0 2260.8374459887655 1511.6780726072864 0 0 0 0 51.738259110775431 -36.344464654468744 0 -36.344464654468744 21.871829975212883 0 0 0 0 2494.7854124581972 1742.5562450650757 0 1742.5562450650757 1263.5855979352173 0 0 0 0 -202.44119985833095 -360.927516096614 0 -360.927516096614 -138.62117278348342 0 0 0 0 432.09239797660848 -176.43997872898035 0 -176.43997872898035 -137.00666558737046 0 0 0 0 9.5458750445177429 23.679356252739694 0 23.679356252739694 255.23637526834455 0 0 0 0 610.76009148525191 -171.30516376378012 0 -171.30516376378012 186.94588224598184 0 0 0 0 86.265202139526082 101.28441127870599 0 101.28441127870599 117.93320587079359 0 0 0 0 229.0677479745209 -593.20889541646602 0 -593.20889541646602 1214.4234383347862 0 0 0 0 963.74289707055141 -756.63624722843667 0 -756.63624722843667 321.42562503458868 0 0 0 0 2.8426556995107148 -2.7064903021485733 0 -2.7064903021485733 -1.2892444926148376 0 0 0 0 999.32108046174835 -695.50588709639055 0 -695.50588709639055 373.46807556440433 0 0 0 0 0.31574226544717021 -3.2425315124537448 0 -3.2425315124537448 -2.7786710612464889 0 0 0 0 17.210487935757556 8.7137556766584794 0 8.7137556766584794 11.327685832284317 0 0 0 0 1.0472370352217695 -13.604197599647989 0 -13.604197599647989 74.917885002822914 0 0 0 0 -5.1131730475062795 -37.755909875582688 0 -37.755909875582688 152.77171059833745 0 0 0 0 90.058760851188708 55.993252093160436 0 55.993252093160436 72.133852075414325 0 0 0 0 -0.74366204782563727 65.32729058106861 0 65.32729058106861 177.288452455075 0 0 0 0 -3.8526614378297381 54.067800509374422 0 54.067800509374422 147.42311091379452 0 0 0 0 -24.411585769110388 -33.095720072835547 0 -33.095720072835547 79.962055795443121 0 0 0 0 96.325699770830397 -164.38444083128707 0 -164.38444083128707 456.7103627897859 0 0 0 0 -2.1601334484294057 91.693433407374869 0 91.693433407374869 218.71586683482747 0 0 0 0 62.235126910811232 -8.5774664923565069 0 -8.5774664923565069 121.54856446642316 0 0 0 0 44.881768530496629 -8.5931105209506313 0 -8.5931105209506313 96.396435652332457 0 0 0 0 56.37808931881591 48.922048997466163 0 48.922048997466163 88.948794640318738 0 0 0 0 39.666712724585523 15.446107373603354 0 15.446107373603354 46.814639374865692 0 0 0 0 11.182554372498998 -38.276791715349646 0 -38.276791715349646 30.719533648065152 0 0 0 0 34.344483071778086 -19.671431450111115 0 -19.671431450111115 0.010865626244992654 0 0 0 0 5.9419939772105863 -36.578591294913551 0 -36.578591294913551 1.1324596183564495 0 0 0 0 0.0047860032500466332 -22.295142153902205 0 -22.295142153902205 8.5898717795880373 0 0 0 0 8.8427559230314046 -16.881630598807163 0 -16.881630598807163 17.957952305061909 0 0 0 0 -62.801501803682186 4.9938247561922253 0 4.9938247561922253 20.517457488244418 0 0 0 0 -42.755445988259453 -148.84470098462566 0 -148.84470098462566 -289.13840799203535 0 0 0 0 -143.19546248417464 -53.756703974853735 0 -53.756703974853735 51.24533851648539 0 0 0 0 2.7827821987595485 -7.2740776255465107 0 -7.2740776255465107 4.6652902193978179 0 0 0 0 -71.337808796626632 -137.41754217351331 0 -137.41754217351331 -162.51304605566656 0 0 0 0 1.6550178564721136 -72.309427366605632 0 -72.309427366605632 -173.63718794753504 0 0 0 0 -86.847487175778951 -120.91688131388628 0 -120.91688131388628 -147.49560496768356 0 0 0 0 -70.849625375878531 -472.3980764165899 0 -472.3980764165899 -212.9014258873749 0 0 0 0 1.093906337631239 -2.8305396229661142 0 -2.8305396229661142 2.951255482005088 0 0 0 0 18.245925376701678 -17.54693068504757 0 -17.54693068504757 13.180668607207284 0 0 0 0 -5.3956434189460083 -9.3671702755258579 0 -9.3671702755258579 1.8774896048231977 0 0 0 0 11.408724022086972 -13.859214868865067 0 -13.859214868865067 -0.96631107062978572 0 0 0 0 -84.021984649123624 -25.620019378951383 0 -25.620019378951383 26.418812217248387 0 0 0 0 68.907042921491666 -91.133280915948134 0 -91.133280915948134 185.06976173740986 0 0 0 0 272.58312525942893 66.325433963124112 0 66.325433963124112 -25.965677930870484 0 0 0 0 980.69150936402002 -47.924721659921801 0 -47.924721659921801 -53.450547392526204 0 0 0 0 -34.572502475275542 58.882322168320108 0 58.882322168320108 43.203390877797375 0 0 0 0 89.098069669009419 -295.6982203653821 0 -295.6982203653821 -8.195673721270083 0 0 0 0 15.992288874726455 -13.777135845406832 0 -13.777135845406832 11.409987403492551 0 0 0 0 -31.587655948562315 -235.04983179673741 0 -235.04983179673741 -176.92973917216068 0 0 0 0 116.0902535423229 -191.95025311821223 0 -191.95025311821223 -182.06981176855879 0 0 0 0 6.7496431039672302 -5.8375837579324781 0 -5.8375837579324781 5.5456711758423607 0 0 0 0 46.445984852269703 123.74911691363275 0 123.74911691363275 93.289107655140754 0 0 0 0 1887.498178087073 -48.912416225517376 0 -48.912416225517376 -148.30683822699939 0 0 0 0 83.205349857329566 -663.11431531208336 0 -663.11431531208336 952.36237642989181 0 0 0 0 2241.1023113568517 -627.5116700288454 0 -627.5116700288454 106.67426673670622 0 0 0 0 -61.365992354847549 -6.6022647519815649 0 -6.6022647519815649 450.30807650122847 0 0 0 0 -222.07073318645416 -268.25931349016093 0 -268.25931349016093 378.94591164175239 0 0 0 0 -334.10131572363025 -273.05059752724583 0 -273.05059752724583 378.90639399657044 0 0 0 0 -57.61159564407717 -84.888204645967789 0 -84.888204645967789 -138.3624355877887 0 0 0 0 68.253457654354861 -432.32087232934646 0 -432.32087232934646 -255.64834563263184 0 0 0 0 -64.227970303923939 -89.364635060140472 0 -89.364635060140472 -110.80548047805587 0 0 0 0 -0.78392201597691269 -1.6316640494308103 0 -1.6316640494308103 3.1713485244316617 0 0 0 0 72.398096328179236 -51.867714133930349 0 -51.867714133930349 -122.66060324668706 0 0 0 0 661.4724988626549 -76.555984285756949 0 -76.555984285756949 -176.27313041477419 0 0 0 0 512.92457076432765 -40.0340490878433 0 -40.0340490878433 -34.928565998010981 0 0 0 0 565.78867570967122 14.286327014152903 0 14.286327014152903 -261.87674468995192 0 0 0 0 251.80493399828265 -127.0982104938962 0 -127.0982104938962 -192.64775660676241 0 0 0 0 337.21660753941978 -187.77131812893685 0 -187.77131812893685 -171.20465583843719 0 0 0 0 665.34948088019155 -114.48909143039373 0 -114.48909143039373 -170.15904369103012 0 0 0 0 616.8421139154525 -583.29109709335989 0 -583.29109709335989 361.66884513463674 0 0 0 0 74.51344114136009 -308.11448006485398 0 -308.11448006485398 237.66790386426828 0 0 0 0 820.38462935540883 -63.058900133615225 0 -63.058900133615225 -33.281901349193248 0 0 0 0 614.46422629382141 -6.9088337373600552 0 -6.9088337373600552 113.30615433751507 0 0 0 0 658.24769769205886 -91.498577191036247 0 -91.498577191036247 -48.41671932228428 0 0 0 0 541.83339617549791 -82.990711217245007 0 -82.990711217245007 -9.0102606069760895 0 0 0 0 632.8474638996413 -117.67234105733883 0 -117.67234105733883 -131.8168680768008 0 0 0 0 658.25435495194597 -92.370557723971928 0 -92.370557723971928 -125.34893341372526 0 0 0 0 673.14278915112664 -17.052637095471255 0 -17.052637095471255 -186.03569250510782 0 0 0 0 759.07521926080517 -90.404080016621265 0 -90.404080016621265 -263.17494344533361 0 0 0 0 733.52966325670423 -122.38318749509381 0 -122.38318749509381 -209.10261085439197 0 0 0 0 716.24765601048057 -158.74281403395139 0 -158.74281403395139 -200.68461520818164 0 0 0 0 855.71566094034642 -205.96055847638081 0 -205.96055847638081 -191.03409173736645 0 0 0 0 768.245542427685 -239.16182001688117 0 -239.16182001688117 -58.314849782479541 0 0 0 0 597.09161943603976 -271.16125410215409 0 -271.16125410215409 -26.224576306145082 0 0 0 0 1258.9835329426714 -239.61590489748141 0 -239.61590489748141 -169.16480837786912 0 0 0 0 798.06307451601606 -91.42733629940858 0 -91.42733629940858 -195.35313019865725 0 0 0 0 343.4907252494304 256.62959200832029 0 256.62959200832029 -536.98659127557403 0 0 0 0 373.36034670866684 140.71211845125566 0 140.71211845125566 -282.62529725573768 0 0 0 0 4.0493130199866556 1.6132513727062872 0 1.6132513727062872 -2.5164234505371539 0 0 0 0 69.899158424756024 177.640058934443 0 177.640058934443 129.90879844777373 0 0 0 0 1306.0229699210468 -461.18842688290624 0 -461.18842688290624 -33.986511834649718 0 0 0 0 -60.155813476769254 -170.30121199505083 0 -170.30121199505083 -169.0742356355031 0 0 0 0 714.0681764178662 5.02932258319521 0 5.02932258319521 -434.4001049771814 0 0 0 0 454.77341307852475 -95.141495600733833 0 -95.141495600733833 -283.05274373933935 0 0 0 0 320.90099965003901 14.654032948933718 0 14.654032948933718 -276.08050937311782 0 0 0 0 -174.3055645445711 -161.42757557835057 0 -161.42757557835057 -161.22167755617488 0 0 0 0 -222.19640096568037 -236.46206647899089 0 -236.46206647899089 -151.81916200954083 0 0 0 0 -157.33900564534997 -129.30242150173626 0 -129.30242150173626 -320.08414596832336 0 0 0 0 -120.81189706805162 -211.18330795624024 0 -211.18330795624024 -138.49743104321715 0 0 0 0 0.35992134855197833 -1.1912965946756628 0 -1.1912965946756628 1.4999590260778923 0 0 0 0 -222.10733098568744 -197.15206712994677 0 -197.15206712994677 -34.546079332758381 0 0 0 0 -25.369918641226832 -122.0372910777005 0 -122.0372910777005 -53.742934560857066 0 0 0 0 -6.7254390461857838 -33.077517589263834 0 -33.077517589263834 16.406684868477441 0 0 0 0 -100.42748638761987 -156.86231333051001 0 -156.86231333051001 -38.045838015113986 0 0 0 0 8.6613528059976943 -13.237529804272 0 -13.237529804272 16.705810907079439 0 0 0 0 -30.245493998023449 -50.921743990157665 0 -50.921743990157665 -55.799314597668854 0 0 0 0 1007.7513683248835 -353.11208922605965 0 -353.11208922605965 239.30735923835505 0 0 0 0 -86.676864411565475 -128.2075121374537 0 -128.2075121374537 -104.69826531547915 0 0 0 0 10.014356169267558 -125.62040784931469 0 -125.62040784931469 -170.46241073193596 0 0 0 0 945.87231500618509 -212.44674098092401 0 -212.44674098092401 124.97841568833246 0 0 0 0 7.3482978046789782 -1.5583545820357187 0 -1.5583545820357187 -0.710163461134524 0 0 0 0 977.45770925993565 -264.96206135420198 0 -264.96206135420198 211.59502881786193 0 0 0 0 859.84218449132095 -250.76977173536613 0 -250.76977173536613 285.49055609869993 0 0 0 0 761.72910008687177 -332.66230796459467 0 -332.66230796459467 217.96268299649137 0 0 0 0 882.97674694678426 -290.36554855639497 0 -290.36554855639497 165.37755801289313 0 0 0 0 12.932807867979136 -35.794184605900455 0 -35.794184605900455 -0.29401939768195007 0 0 0 0 2.7522209492263414 1.7047246310170863 0 1.7047246310170863 11.643754242606887 0 0 0 0 -45.898150529465056 -15.668437412552521 0 -15.668437412552521 26.116287750699712 0 0 0 0 17.183540327518131 89.815354429885701 0 89.815354429885701 71.017337248774311 0 0 0 0 1.7348152970681952 1.616706430572151 0 1.616706430572151 3.7113777387525211 0 0 0 0 770.08372185000917 -439.56171544557492 0 -439.56171544557492 310.38821219684814 0 0 0 0 798.17558465557522 -335.91191481263922 0 -335.91191481263922 236.61314802716151 0 0 0 0 833.7980564117679 -235.06355270800259 0 -235.06355270800259 519.82506879303583 0 0 0 0 743.71523063920904 -443.08741830198687 0 -443.08741830198687 408.12365364549078 0 0 0 0 777.3809742644371 -425.77865158646409 0 -425.77865158646409 331.1214595729798 0 0 0 0 700.94964410178363 -459.74240136578192 0 -459.74240136578192 320.82250753727254 0 0 0 0 600.93561043869704 -312.71086240773366 0 -312.71086240773366 316.77023099001235 0 0 0 0 887.51690751663045 -589.95750963942555 0 -589.95750963942555 353.70794214849411 0 0 0 0 609.88036310387361 -324.80997440650503 0 -324.80997440650503 498.69048549764193 0 0 0 0 577.92593546840362 108.63762296882123 0 108.63762296882123 14.320783556646347 0 0 0 0 662.52423288219143 -23.350010251839194 0 -23.350010251839194 75.969773866852847 0 0 0 0 509.495733007534 297.64820063218076 0 297.64820063218076 117.68385851247149 0 0 0 0 208.69111766142305 145.08083557675491 0 145.08083557675491 99.711270956169756 0 0 0 0 -15.097686715016607 99.211305662789528 0 99.211305662789528 221.53115188070296 0 0 0 0 203.89653037520566 234.95908173453751 0 234.95908173453751 55.78650861265487 0 0 0 0 221.70301756222034 45.303294993485906 0 45.303294993485906 -297.91057948326761 0 0 0 0 -8.5537094210158102 154.80997077547272 0 154.80997077547272 32.19404170726375 0 0 0 0 306.11939502813038 191.94354160622606 0 191.94354160622606 -47.21857683435519 0 0 0 0 464.48019065638073 167.49720661024912 0 167.49720661024912 -64.535539861499274 0 0 0 0 586.83275117655285 97.633549647529435 0 97.633549647529435 -86.760075659338327 0 0 0 0 443.60938183110557 42.442260695390132 0 42.442260695390132 -12.495575165470655 0 0 0 0 378.64967920196796 16.954358787076671 0 16.954358787076671 -118.02478611846527 0 0 0 0 483.11474516621092 87.148168349132902 0 87.148168349132902 -220.50240721309638 0 0 0 0 388.7360075943725 15.65131377970647 0 15.65131377970647 -36.278014441384585 0 0 0 0 449.26358885952504 -73.073371112608584 0 -73.073371112608584 24.245405489251425 0 0 0 0 595.15570870504598 -186.83423938730448 0 -186.83423938730448 -54.63880513680806 0 0 0 0 589.33665786515758 -124.53624912002584 0 -124.53624912002584 42.002816617445205 0 0 0 0 686.61530144285643 -338.19892449937106 0 -338.19892449937106 180.32544846548626 0 0 0 0 723.46930777924717 -283.33843028147021 0 -283.33843028147021 235.07146292487232 0 0 0 0 693.14131424564857 -107.81611884379387 0 -107.81611884379387 54.25872568685736 0 0 0 0 1043.9089624044718 -305.6926287256756 0 -305.6926287256756 124.8109878819314 0 0 0 0 722.91638835374033 -121.12110430954999 0 -121.12110430954999 -16.731714358398676 0 0 0 0 925.74618932530575 81.489013116373371 0 81.489013116373371 77.966127874893573 0 0 0 0 864.68867487451644 -311.910037496531 0 -311.910037496531 408.64194458364454 0 0 0 0 789.07091723461053 -427.66067221119374 0 -427.66067221119374 347.87063254665918 0 0 0 0 1038.8227417967573 37.886785727927418 0 37.886785727927418 712.34190114731166 0 0 0 0 1076.307544939511 -611.24554396791973 0 -611.24554396791973 774.18616547617057 0 0 0 0 6.3599805657836441 -0.78264050489637071 0 -0.78264050489637071 -0.67986251121282804 0 0 0 0 460.97373359039193 -518.36366723934225 0 -518.36366723934225 463.2889675965348 0 0 0 0 855.67808835922915 476.42305627768656 0 476.42305627768656 395.0718563941482 0 0 0 0 1703.2106550895114 -26.932205769106986 0 -26.932205769106986 150.88655665392071 0 0 0 0 813.78738947332022 235.02359455529722 0 235.02359455529722 125.62020240564379 0 0 0 0 751.41021455870941 85.602832618067623 0 85.602832618067623 150.7615436469091 0 0 0 0 44.797381874232087 67.422578305457137 0 67.422578305457137 171.31732316890339 0 0 0 0 113.2846125937358 347.9963198894784 0 347.9963198894784 413.19945005234695 0 0 0 0 -18.470441039069556 66.816280578459555 0 66.816280578459555 222.09201837479486 0 0 0 0 74.055019566440023 202.8126016050519 0 202.8126016050519 641.51397026957056 0 0 0 0 -71.67541629866173 -232.56289056720743 0 -232.56289056720743 460.33291626602659 0 0 0 0 2.0053790423000351 -1.3401099644519547 0 -1.3401099644519547 -2.0992388243986326 0 0 0 0 633.53907618989615 -343.03109550477393 0 -343.03109550477393 197.68858463872311 0 0 0 0 768.54241598593944 -380.88484954264413 0 -380.88484954264413 119.88505673012173 0 0 0 0 1386.2068824855232 -398.59038423179391 0 -398.59038423179391 126.02903594004329 0 0 0 0 667.3304332204425 -256.85660820605426 0 -256.85660820605426 181.7811718748053 0 0 0 0 220.01255487138405 -214.47055402773185 0 -214.47055402773185 192.85349057471649 0 0 0 0 921.45835254871054 -241.41815276474517 0 -241.41815276474517 227.02524706904387 0 0 0 0 944.31770805057022 -172.69559620120799 0 -172.69559620120799 263.64444996647944 0 0 0 0 984.5459510856308 -191.03278940618566 0 -191.03278940618566 173.36373060125061 0 0 0 0 969.69159251701785 -223.06727287760896 0 -223.06727287760896 124.9479669210923 0 0 0 0 1040.7062769015211 -282.49397263267952 0 -282.49397263267952 -7.2769946835951487 0 0 0 0 778.58395552530419 -273.48045149855034 0 -273.48045149855034 44.317219328991087 0 0 0 0 987.36746969720116 -167.80778882079017 0 -167.80778882079017 72.538714098852324 0 0 0 0 1011.8212706390041 -231.47295488615327 0 -231.47295488615327 97.055004466037644 0 0 0 0 1050.4657808509073 -323.41362449081225 0 -323.41362449081225 158.5134664327984 0 0 0 0 378.70797069651599 -229.8823681053741 0 -229.8823681053741 100.37842654963879 0 0 0 0 646.4233613444012 -220.97346820166331 0 -220.97346820166331 50.398089449310646 0 0 0 0 386.11042507803359 -160.53080715178885 0 -160.53080715178885 18.26365023906601 0 0 0 0 156.33660972601865 -43.392294988056051 0 -43.392294988056051 -25.740332776988907 0 0 0 0 145.57203895390558 -47.665698235494801 0 -47.665698235494801 26.022221269093961 0 0 0 0 6.097172956120545 3.1535943113808287 0 3.1535943113808287 0.12845698610599499 0 0 0 0 72.537935029740765 36.339250653507975 0 36.339250653507975 -8.2826299068101434 0 0 0 0 57.703387206362095 13.758142608709932 0 13.758142608709932 -2.9703387183494669 0 0 0 0 36.056462294831931 14.424409850742492 0 14.424409850742492 2.6015378655512009 0 0 0 0 27.491774994472507 9.9605502484555473 0 9.9605502484555473 -1.5145234074743712 0 0 0 0 102.48652002055314 89.482292796657021 0 89.482292796657021 57.122442518508251 0 0 0 0 270.71897449111566 -157.39367851682891 0 -157.39367851682891 39.140337257362262 0 0 0 0 18.270893593755318 -100.58907037514291 0 -100.58907037514291 105.92760630374596 0 0 0 0 13.532576267782133 16.416676315418954 0 16.416676315418954 -17.342655030657625 0 0 0 0 -3.5246174831515305 11.287171178589496 0 11.287171178589496 4.0483719039793504 0 0 0 0 19.347106078696271 6.1216739032297909 0 6.1216739032297909 0.13772243730183931 0 0 0 0 7.696841218334157 25.919577651762665 0 25.919577651762665 -12.94587957677777 0 0 0 0 12.652112356125144 37.9909045734762 0 37.9909045734762 61.02600538916704 0 0 0 0 -4.0739016234583687 109.95338633455867 0 109.95338633455867 120.9321102092199 0 0 0 0 23.216840468448936 20.741195590154348 0 20.741195590154348 -23.786421953529498 0 0 0 0 23.7077216961261 3.8975783342771138 0 3.8975783342771138 -28.21045081993725 0 0 0 0 2.296193018829598 3.8657084802056829 0 3.8657084802056829 2.659017992344701 0 0 0 0 49.983567197993807 6.3824122973280524 0 6.3824122973280524 -5.6287173769903109 0 0 0 0 37.172105971432757 9.5502181530828238 0 9.5502181530828238 -26.938005684491145 0 0 0 0 84.469995930208825 24.438593783521355 0 24.438593783521355 -34.854883245136079 0 0 0 0 52.33357632800471 0.36645063770720299 0 0.36645063770720299 -21.455604025859429 0 0 0 0 28.941329194611171 14.345766529041612 0 14.345766529041612 15.53196658222987 0 0 0 0 99.379594144862494 8.3977712193818661 0 8.3977712193818661 -19.077344487925075 0 0 0 0 58.760010850094147 9.8030339258702526 0 9.8030339258702526 0.51097240159368962 0 0 0 0 66.729753102881659 -9.9251495017597335 0 -9.9251495017597335 23.452596212071512 0 0 0 0 75.47940694350109 54.506159898106489 0 54.506159898106489 -55.094985206431375 0 0 0 0 36.095295749677462 256.97390811795685 0 256.97390811795685 -132.5506095429364 0 0 0 0 183.54611231898664 36.029204924115227 0 36.029204924115227 -12.511313552550778 0 0 0 0 29.832397563885024 89.457836692627552 0 89.457836692627552 1.404965961302878 0 0 0 0 19.960466480013196 31.628432698917862 0 31.628432698917862 -10.2514175723081 0 0 0 0 125.66307815457913 -57.968873274951648 0 -57.968873274951648 1.5273533283534562 0 0 0 0 95.510512891618419 -37.410855520956829 0 -37.410855520956829 -10.399589686799573 0 0 0 0 39.564571869227422 -10.67340422934528 0 -10.67340422934528 7.8146425567088755 0 0 0 0 168.0280152264495 -26.872559868440703 0 -26.872559868440703 -45.06500720668646 0 0 0 0 82.440468566739582 81.906993213916394 0 81.906993213916394 48.704867992277286 0 0 0 0 120.37929066389916 1.6197755068224069 0 1.6197755068224069 -53.957143060206818 0 0 0 0 60.513604637927131 -2.641628003863886 0 -2.641628003863886 -1.8791787327227905 0 0 0 0 61.928548263847915 -16.946288611101863 0 -16.946288611101863 -37.910498609164279 0 0 0 0 52.481489951152781 6.9227845439388886 0 6.9227845439388886 -0.78847321339243992 0 0 0 0 87.410168160218745 9.8778309277249718 0 9.8778309277249718 -23.225738796261794 0 0 0 0 52.692236009367207 7.86444278388052 0 7.86444278388052 6.5677533823854901 0 0 0 0 79.956071409559797 6.8031738564842712 0 6.8031738564842712 -8.2480504015772418 0 0 0 0 77.781195032352116 23.802348826287925 0 23.802348826287925 -1.8414685903026111 0 0 0 0 121.06005670961895 -9.3898606097912989 0 -9.3898606097912989 -47.842309336746439 0 0 0 0 8.0418355788751796 65.493454078215109 0 65.493454078215109 -123.75532828114501 0 0 0 0 120.73396583776776 -6.3991848237221802 0 -6.3991848237221802 -18.049992522091998 0 0 0 0 47.882549619071966 -18.138933886550149 0 -18.138933886550149 -4.7314617629352931 0 0 0 0 114.61433980472793 -21.507730136229839 0 -21.507730136229839 -7.6399219521408668 0 0 0 0 61.523762688316481 -29.684303258431932 0 -29.684303258431932 -1.8505886695053704 0 0 0 0 44.363204584951745 -14.745996619347352 0 -14.745996619347352 -57.368781726261659 0 0 0 0 122.69930224881864 26.977432288449563 0 26.977432288449563 -25.505780578795882 0 0 0 0 78.793983286501032 -9.56324280762691 0 -9.56324280762691 -16.223612179950429 0 0 0 0 129.63226840003335 -24.867170139226573 0 -24.867170139226573 -39.480072303237648 0 0 0 0 74.164085207885364 -14.561547138771857 0 -14.561547138771857 -17.900114586993368 0 0 0 0 108.85910278544179 -41.428202905254693 0 -41.428202905254693 -9.9323070402651865 0 0 0 0 29.497901551744349 -14.506201555843035 0 -14.506201555843035 -9.9221052096991293 0 0 0 0 59.484956995860557 -36.87853866423211 0 -36.87853866423211 0.7195094925336889 0 0 0 0 70.905010118018254 31.828659346932 0 31.828659346932 5.9179285109238435 0 0 0 0 3.2370626128467848 -71.103019334746477 0 -71.103019334746477 -97.202207798336531 0 0 0 0 33.433620428462746 -4.9499663862047782 0 -4.9499663862047782 -109.37385935386101 0 0 0 0 7.7257342702632172 -3.8952323995804505 0 -3.8952323995804505 -3.7697544591740151 0 0 0 0 74.77593805451761 -37.535708129768864 0 -37.535708129768864 0.022859563537622307 0 0 0 0 178.1423116299411 -118.62197768241799 0 -118.62197768241799 54.468707367887873 0 0 0 0 75.684920773550402 -35.955583539373947 0 -35.955583539373947 -9.4982187107248137 0 0 0 0 0.65795351118686085 -0.0046928819739235905 0 -0.0046928819739235905 -0.14079446608944579 0 0 0 0 172.82766647146491 49.590556413680588 0 49.590556413680588 -98.66242256015903 0 0 0 0 42.690901893299326 125.42259714844397 0 125.42259714844397 -141.26727724889133 0 0 0 0 150.97312120526476 64.837969364705714 0 64.837969364705714 -4.5228709447828805 0 0 0 0 175.22865368601924 34.777415696145454 0 34.777415696145454 -23.579296900087286 0 0 0 0 88.978627453630907 42.222427689855749 0 42.222427689855749 -23.81720029663029 0 0 0 0 217.48848908024956 -66.156286250607536 0 -66.156286250607536 -8.9753000116841122 0 0 0 0 120.88515854783509 -70.885116344048356 0 -70.885116344048356 -99.640976605827746 0 0 0 0 137.29982206285058 34.21127782405847 0 34.21127782405847 -83.384271932068259 0 0 0 0 43.683396368910053 -12.858385759364353 0 -12.858385759364353 -103.31820188146048 0 0 0 0 470.31004548638884 -139.53418002928765 0 -139.53418002928765 -90.071753343710043 0 0 0 0 417.99468340308522 -216.07309656799907 0 -216.07309656799907 -87.778647880697577 0 0 0 0 536.19087966516963 -207.26759893322378 0 -207.26759893322378 -80.838918749113247 0 0 0 0 458.92194695143553 -98.276343084173732 0 -98.276343084173732 -61.659861075155504 0 0 0 0 204.40086277735827 -157.05990216721898 0 -157.05990216721898 -18.164526894460323 0 0 0 0 186.16184138567769 -13.759830391310743 0 -13.759830391310743 -50.381453353078541 0 0 0 0 364.58588186497582 -21.331141738337664 0 -21.331141738337664 -32.902657663958053 0 0 0 0 352.53902160438884 -99.02260803363356 0 -99.02260803363356 -32.789991361708189 0 0 0 0 546.92842529850896 -51.096501345326715 0 -51.096501345326715 -48.107324775988673 0 0 0 0 307.76240968090133 -15.822515068423399 0 -15.822515068423399 10.762033190965886 0 0 0 0 257.1915553821309 21.440200704725157 0 21.440200704725157 10.995745979531526 0 0 0 0 184.37409639572434 25.759238638323609 0 25.759238638323609 19.569279050079786 0 0 0 0 184.61192952323472 63.615704630466098 0 63.615704630466098 6.7631200574428476 0 0 0 0 231.8822115642979 3.592571510054654 0 3.592571510054654 11.864858806885877 0 0 0 0 175.01363392686471 43.142124321202346 0 43.142124321202346 -3.3704169838824782 0 0 0 0 393.59677968312462 -34.192786392034918 0 -34.192786392034918 22.371366588439386 0 0 0 0 339.95266595362773 74.962088295968556 0 74.962088295968556 13.241508230810211 0 0 0 0 258.11255725072988 69.203626023740185 0 69.203626023740185 15.846671931064975 0 0 0 0 210.66384981946976 14.914873436790131 0 14.914873436790131 39.341911068616355 0 0 0 0 394.13637961648055 36.13916929548941 0 36.13916929548941 5.0715259077758219 0 0 0 0 415.81923220173667 -58.026800141913228 0 -58.026800141913228 8.0114861479103183 0 0 0 0 590.44728405502246 -83.299325637012757 0 -83.299325637012757 17.702787143548221 0 0 0 0 602.04306673977408 -36.459129922513654 0 -36.459129922513654 -20.130789181953133 0 0 0 0 441.52412836424628 16.656002975172001 0 16.656002975172001 54.047089204713558 0 0 0 0 541.97712129361025 -46.87236198912251 0 -46.87236198912251 27.038563808950585 0 0 0 0 621.81668117521622 34.075243851706048 0 34.075243851706048 103.73934391642143 0 0 0 0 588.14777568869067 -97.37671315409564 0 -97.37671315409564 151.02536063319423 0 0 0 0 552.24846223992063 -0.99284293227276521 0 -0.99284293227276521 64.491628240391947 0 0 0 0 380.83560040360317 -88.349177318823422 0 -88.349177318823422 41.693243578874409 0 0 0 0 384.81796796155686 -9.0421264919217492 0 -9.0421264919217492 129.25701536345514 0 0 0 0 390.4993786129744 52.358452010804378 0 52.358452010804378 17.226965831754285 0 0 0 0 234.20188262612464 35.272906956218705 0 35.272906956218705 -18.255331725848009 0 0 0 0 232.05738547048531 3.896029926270657 0 3.896029926270657 67.968184392553866 0 0 0 0 230.28367600595539 46.204846775980123 0 46.204846775980123 -39.886957731693201 0 0 0 0 235.01956695033005 -26.311602813685255 0 -26.311602813685255 137.5323749907871 0 0 0 0 406.07660094110906 -25.893447936502184 0 -25.893447936502184 172.37579693174058 0 0 0 0 494.82541053879504 -156.34463485856475 0 -156.34463485856475 124.40411172707832 0 0 0 0 482.31088216677745 -61.466704604432294 0 -61.466704604432294 -56.630616302438057 0 0 0 0 680.94962854829646 -106.41477949702774 0 -106.41477949702774 -12.957785564300082 0 0 0 0 304.76716145520913 -6.1489160135205054 0 -6.1489160135205054 6.7269185647080576 0 0 0 0 587.09446007272709 -171.56595988012654 0 -171.56595988012654 0.095135416845114174 0 0 0 0 1.2191375798063575 -0.58150534591985092 0 -0.58150534591985092 1.1947321194701952 0 0 0 0 812.15530736572691 -282.4841874533472 0 -282.4841874533472 39.454361417341488 0 0 0 0 634.07139503656799 -250.17609309635912 0 -250.17609309635912 57.632962842051199 0 0 0 0 721.77568494775915 -200.61998684795216 0 -200.61998684795216 0.037785093076231312 0 0 0 0 621.26432838922483 -164.28973171815176 0 -164.28973171815176 14.18055490692484 0 0 0 0 808.15766034506669 -237.05595008561386 0 -237.05595008561386 25.990772507410725 0 0 0 0 682.30976121807907 -275.89272593718977 0 -275.89272593718977 152.16805756019653 0 0 0 0 588.32754645784735 -152.60725228955619 0 -152.60725228955619 129.60609899489322 0 0 0 0 583.19404050787853 -167.7553749593115 0 -167.7553749593115 84.972876699640722 0 0 0 0 686.39049730401166 -310.12988589127411 0 -310.12988589127411 380.86914745529043 0 0 0 0 773.61487104841217 42.042024811729391 0 42.042024811729391 254.57128466652463 0 0 0 0 1118.8643134790473 255.6107079883472 0 255.6107079883472 645.66390181228064 0 0 0 0 1012.2345222683216 -592.7733568328789 0 -592.7733568328789 660.73067207998974 0 0 0 0 1595.1781350263846 -221.33524518647803 0 -221.33524518647803 -235.86004944334593 0 0 0 0 881.91540091902425 -305.52627790149745 0 -305.52627790149745 77.025889428987909 0 0 0 0 830.68764475337593 -276.38696557528658 0 -276.38696557528658 62.870945916501569 0 0 0 0 727.73831817737664 -59.42003175054009 0 -59.42003175054009 -80.248701920063468 0 0 0 0 925.24199656328892 -93.358096978573428 0 -93.358096978573428 -112.9532402070011 0 0 0 0 861.62999107856012 -220.36692984105466 0 -220.36692984105466 -0.1091235149359184 0 0 0 0 972.7722395158853 -266.19072349845055 0 -266.19072349845055 -3.7406645226737334 0 0 0 0 451.74343701845646 54.46888743661556 0 54.46888743661556 -9.1910989534464704 0 0 0 0 190.68299752285384 -152.94943833051292 0 -152.94943833051292 0.13582791276010875 0 0 0 0 711.64317469768866 -158.69117330826123 0 -158.69117330826123 -0.15549063019706147 0 0 0 0 754.31684061688429 28.137773553960983 0 28.137773553960983 -65.709477746885511 0 0 0 0 17.037164986264543 -16.945200644277065 0 -16.945200644277065 64.583810375559437 0 0 0 0 884.70220655285812 419.41583088680062 0 419.41583088680062 -212.64370149556294 0 0 0 0 11.455992132490451 -2.2367310033392442 0 -2.2367310033392442 0.63941977949908058 0 0 0 0 1255.0951973956835 -932.96824123841975 0 -932.96824123841975 980.75599483475287 0 0 0 0 186.50792802015712 -302.97768720869215 0 -302.97768720869215 480.44369957800745 0 0 0 0 327.47191766712422 -145.67552801621014 0 -145.67552801621014 314.42345842693163 0 0 0 0 584.90319557045586 -442.17119811924925 0 -442.17119811924925 311.94175438014281 0 0 0 0 184.66757357158349 -198.09038770075932 0 -198.09038770075932 169.97315395309568 0 0 0 0 858.00393720078864 -123.40304828570788 0 -123.40304828570788 160.1007086606171 0 0 0 0 885.87315648194635 -6.5116314907460406 0 -6.5116314907460406 133.59655352444375 0 0 0 0 768.36877962447761 -110.27574304214085 0 -110.27574304214085 44.292634660935917 0 0 0 0 1253.7064691621999 -262.4252293304927 0 -262.4252293304927 -81.200481577316268 0 0 0 0 889.40143680872279 -229.62955280793739 0 -229.62955280793739 -11.107606357605619 0 0 0 0 810.44326458103023 -296.95539182951171 0 -296.95539182951171 -62.1889127495389 0 0 0 0 735.77348859087215 -47.457471053843619 0 -47.457471053843619 8.7666229810033656 0 0 0 0 694.77343206916703 -110.07492112603734 0 -110.07492112603734 -33.72010048631563 0 0 0 0 693.28923829075939 -296.08694114237619 0 -296.08694114237619 226.49045361023605 0 0 0 0 649.09893793219089 -182.31429708704161 0 -182.31429708704161 -19.481077618558402 0 0 0 0 -190.32762688698131 -207.51901645632995 0 -207.51901645632995 835.00390933423955 0 0 0 0 514.38430286177027 -182.18131959401398 0 -182.18131959401398 -597.18080149445723 0 0 0 0 3.7449820410791403 -5.1372948826833351 0 -5.1372948826833351 3.824237060325955 0 0 0 0 642.15041576843942 -447.20910813668081 0 -447.20910813668081 -61.070357769026657 0 0 0 0 857.22487402414845 -304.67289618298969 0 -304.67289618298969 -198.11621586806723 0 0 0 0 -127.59715608532133 -379.17404050681017 0 -379.17404050681017 -140.29626362270159 0 0 0 0 -26.68109005613951 -620.21049795838712 0 -620.21049795838712 -151.58578735935384 0 0 0 0 9.6817087039316903 -9.9176190342076538 0 -9.9176190342076538 6.2013139030826956 0 0 0 0 -240.08614866621792 -215.58028884783857 0 -215.58028884783857 118.51515040842847 0 0 0 0 -214.4855392378704 -77.995089519266799 0 -77.995089519266799 142.13270945488551 0 0 0 0 944.19812295660086 -352.61796033176904 0 -352.61796033176904 43.428560451940143 0 0 0 0 -179.4713623444768 -62.809330366339637 0 -62.809330366339637 560.98170250798034 0 0 0 0 1001.0234527517205 -490.10302199446284 0 -490.10302199446284 94.762197605865026 0 0 0 0 1882.8409120597789 -721.72083058512339 0 -721.72083058512339 -377.82977559350184 0 0 0 0 1512.2372759423888 -202.97251929616107 0 -202.97251929616107 -570.13944401470735 0 0 0 0 1674.173568978018 -613.59850796655087 0 -613.59850796655087 -428.7381108943207 0 0 0 0 -349.537182735643 151.57757357940272 0 151.57757357940272 -130.54019601128357 0 0 0 0 -355.25677949127567 -11.83527071143078 0 -11.83527071143078 1079.8072135945947 0 0 0 0 5.379980449716868 -5.0833282110623657 0 -5.0833282110623657 3.584806360340103 0 0 0 0 340.99921659575193 -335.78832149407867 0 -335.78832149407867 851.34743408605482 0 0 0 0 2837.9677946703741 392.8973002032385 0 392.8973002032385 1039.1709604635823 0 0 0 0 2843.8681907091568 151.93405295165607 0 151.93405295165607 -657.83086151975249 0 0 0 0 3937.6808881033212 385.08455816845935 0 385.08455816845935 -617.54443046954498 0 0 0 0 588.88345604503411 144.74450198169029 0 144.74450198169029 206.36035228061246 0 0 0 0 1806.3108302447945 -1148.7853838948045 0 -1148.7853838948045 1480.037804378208 0 0 0 0 1335.2546633054226 -1051.5621063840208 0 -1051.5621063840208 496.90956610043622 0 0 0 0 2030.156172873325 975.48292787314165 0 975.48292787314165 -280.1644117774274 0 0 0 0 -987.87089963647304 -367.39320145889405 0 -367.39320145889405 631.52267148933856 0 0 0 0 286.29709535802249 -691.99940111818387 0 -691.99940111818387 672.24804710419221 0 0 0 0 731.42942148765724 -130.24594383916519 0 -130.24594383916519 -862.19045115770723 0 0 0 0 -136.96778557055222 -452.82225214978894 0 -452.82225214978894 416.31738158315073 0 0 0 0 -454.76179733453318 -944.04208785750552 0 -944.04208785750552 -247.24726635750676 0 0 0 0 -351.71798941228553 -174.86705727233229 0 -174.86705727233229 215.82702929272162 0 0 0 0 213.93941672127403 -282.70353930577687 0 -282.70353930577687 87.726878319603031 0 0 0 0 -182.9651233543409 -357.72338792908721 0 -357.72338792908721 226.52798653785578 0 0 0 0 100.34921876886801 -105.20533855860276 0 -105.20533855860276 111.04218184969079 0 0 0 0 30.279309462426227 -5.7481297293476796 0 -5.7481297293476796 1.0164527252340352 0 0 0 0 44.790978642053403 -7.5927165313265883 0 -7.5927165313265883 -2.665543052446933 0 0 0 0 7.6328941356841824 -193.49897232057197 0 -193.49897232057197 96.208561831285806 0 0 0 0 -39.429562232617172 -69.543796036781885 0 -69.543796036781885 -16.444872974739951 0 0 0 0 2.9155833041659207 -88.112687306111155 0 -88.112687306111155 -92.655055899246463 0 0 0 0 124.71769472601227 -97.775920279641412 0 -97.775920279641412 -242.20785175891501 0 0 0 0 17.876636966546357 -125.8211348399727 0 -125.8211348399727 1.7797360596620138 0 0 0 0 -27.421305156705785 -72.144439150650186 0 -72.144439150650186 47.304705842781885 0 0 0 0 -27.010185959723458 -75.256875686489437 0 -75.256875686489437 -14.028571929029454 0 0 0 0 -32.550999247228901 -141.79166457491044 0 -141.79166457491044 -0.093859037067950679 0 0 0 0 -237.05501881167584 -53.051473480332973 0 -53.051473480332973 44.641800283753639 0 0 0 0 101.51370006332581 -24.694941497024057 0 -24.694941497024057 -24.654207391605024 0 0 0 0 527.61311188594846 133.5412431490459 0 133.5412431490459 0.1062495671548998 0 0 0 0 -1.3717859537408117 -0.10434752485008403 0 -0.10434752485008403 -1.8262985429861285 0 0 0 0 -77.629309583990562 -75.266047901818993 0 -75.266047901818993 123.16194501515832 0 0 0 0 -1.7355495365918614 183.40936671636811 0 183.40936671636811 150.79088781154729 0 0 0 0 271.91320813730999 221.78528992796149 0 221.78528992796149 -75.368706044262353 0 0 0 0 125.33113934245193 71.371694380383019 0 71.371694380383019 -229.70344033660353 0 0 0 0 11.007665661237432 -1.6437979882917375 0 -1.6437979882917375 -6.6603179077736865 0 0 0 0 -119.24706543175853 67.721051965380411 0 67.721051965380411 37.110863007600074 0 0 0 0 269.13955142139457 -88.200517705869515 0 -88.200517705869515 -488.12747194804638 0 0 0 0 -1226.9546535035133 -652.87216645229955 0 -652.87216645229955 -536.90901213800203 0 0 0 0 -113.75734438470681 -1090.0059829977358 0 -1090.0059829977358 -651.77024801294203 0 0 0 0 16.552384405588729 -3.5669840261692798 0 -3.5669840261692798 -8.3223932474193525 0 0 0 0 48.223995430887101 -2.1316658232765633 0 -2.1316658232765633 -4.0505031930163433 0 0 0 0 267.62876094505191 -491.16359813490328 0 -491.16359813490328 -1033.66035250292 0 0 0 0 1183.1406621481146 -596.87073179216782 0 -596.87073179216782 -1234.7050821233618 0 0 0 0 177.59121749385667 107.30979527536357 0 107.30979527536357 -175.70583800544091 0 0 0 0 880.3808839590165 1445.181871824002 0 1445.181871824002 410.01193895778124 0 0 0 0 1033.2528260540857 1449.2746711164846 0 1449.2746711164846 303.84855810697638 0 0 0 0 20.202647877569973 1.7291566212050373 0 1.7291566212050373 0.20754870995796021 0 0 0 0 1901.8174720178067 264.84768014748448 0 264.84768014748448 -88.132358007266873 0 0 0 0 1291.5529768049018 348.73734566188574 0 348.73734566188574 -634.76930005503596 0 0 0 0 40.125953108379008 -12.714373305248813 0 -12.714373305248813 -1.9683044753727255 0 0 0 0 1803.9884657809889 -1319.7461938215467 0 -1319.7461938215467 -364.30134210960125 0 0 0 0 1066.3841149706786 1038.0239438290428 0 1038.0239438290428 -156.57844504026639 0 0 0 0 453.66834435371857 -442.63312123509132 0 -442.63312123509132 52.871685180998902 0 0 0 0 1032.2276723974283 -92.698918389710514 0 -92.698918389710514 -109.09681682788761 0 0 0 0 3488.747696037768 -543.81203360535335 0 -543.81203360535335 -178.16059477947744 0 0 0 0 2262.0317268975341 -100.36172464814054 0 -100.36172464814054 0.59603535157886411 0 0 0 0 918.78772221445979 -223.3328282710809 0 -223.3328282710809 540.99590140179703 0 0 0 0 2345.0815472674585 -837.59294427410282 0 -837.59294427410282 468.77408836684589 0 0 0 0 19.833069063080586 -5.2945969252098593 0 -5.2945969252098593 2.1046806358057575 0 0 0 0 -388.39560657981201 -702.55661223380082 0 -702.55661223380082 610.81557233417925 0 0 0 0 1247.6155555129008 308.81250364817708 0 308.81250364817708 -167.13186808370517 0 0 0 0 3494.6173874895321 2153.020207893564 0 2153.020207893564 850.41737114901287 0 0 0 0 1635.973343467529 829.19548930517317 0 829.19548930517317 13.33119637665817 0 0 0 0 3500.7469270093088 1422.1991863323669 0 1422.1991863323669 -544.10188353605884 0 0 0 0 2466.4799002342188 644.77415106549574 0 644.77415106549574 -787.32696650212961 0 0 0 0 2348.180105817446 640.70836194917706 0 640.70836194917706 -778.50150205253829 0 0 0 0 1788.7412957123306 378.44070111995643 0 378.44070111995643 -407.87224754638828 0 0 0 0 1914.7208060771227 289.16472142722438 0 289.16472142722438 -499.39309912513386 0 0 0 0 1471.4179733136189 379.95113844079066 0 379.95113844079066 -624.4238548264575 0 0 0 0 1701.2499310025887 922.66836218204799 0 922.66836218204799 -327.92543504504295 0 0 0 0 727.52747107844334 800.9951031430212 0 800.9951031430212 -540.19023144981111 0 0 0 0 -313.72503482665343 263.14272806996564 0 263.14272806996564 -114.13522174363288 0 0 0 0 871.16613803082146 -1393.6790151566265 0 -1393.6790151566265 -1405.8430625879732 0 0 0 0 -162.57236021000426 -767.62109366492814 0 -767.62109366492814 -273.90784990892462 0 0 0 0 22.05493953014178 -5.456409197923378 0 -5.456409197923378 -1.9550330125996309 0 0 0 0 2262.8922037596931 2399.7305005651901 0 2399.7305005651901 597.50008301838966 0 0 0 0 1165.3139363519876 -591.1212326819599 0 -591.1212326819599 -420.7513392185582 0 0 0 0 1190.6882480355998 -491.19638674277957 0 -491.19638674277957 -189.32071970001857 0 0 0 0 1479.85622054548 -860.01294580615934 0 -860.01294580615934 -125.35207704213281 0 0 0 0 1277.1601954091602 660.52104646520388 0 660.52104646520388 -487.3758447088664 0 0 0 0 1076.3723155344633 -47.960816810889014 0 -47.960816810889014 -379.07019672712431 0 0 0 0 1028.2555011042132 77.111006252491052 0 77.111006252491052 -239.88082583873904 0 0 0 0 1899.6770289012202 -86.997884591530635 0 -86.997884591530635 -189.03316763423459 0 0 0 0 1569.8366853580155 -104.10380259870485 0 -104.10380259870485 -231.95825784101862 0 0 0 0 1769.6187240131694 -14.526578446558574 0 -14.526578446558574 -194.99765501512371 0 0 0 0 1711.3377115365292 -518.53813732174604 0 -518.53813732174604 -189.17918630486452 0 0 0 0 1490.9569615174551 -384.70401633465906 0 -384.70401633465906 -168.02383195684342 0 0 0 0 1813.6248758601869 -399.3783243990319 0 -399.3783243990319 -411.91003325694663 0 0 0 0 1790.6551698827061 -176.25923156597156 0 -176.25923156597156 -61.153815176668786 0 0 0 0 2015.9557186735037 -140.4428082477738 0 -140.4428082477738 -204.79166372677776 0 0 0 0 1841.8228731584823 -360.9820258407085 0 -360.9820258407085 192.16096603615443 0 0 0 0 2387.6263468802936 -400.35949297683055 0 -400.35949297683055 -112.52165440821682 0 0 0 0 2646.020977549224 -8.6069068877941906 0 -8.6069068877941906 -569.57238403481483 0 0 0 0 2519.6415511640553 113.36492146949409 0 113.36492146949409 -572.14112325684562 0 0 0 0 3498.9899768429459 459.58583842040991 0 459.58583842040991 -848.14368448259609 0 0 0 0 2411.2857940478425 247.79142681668799 0 247.79142681668799 -411.07301268411572 0 0 0 0 39.505932971020229 -37.465223470109322 0 -37.465223470109322 70.19188580998042 0 0 0 0 17.938389332659426 -4.4078292472014482 0 -4.4078292472014482 34.771476398586572 0 0 0 0 18.909751320581563 -13.643245244986971 0 -13.643245244986971 75.295110483252301 0 0 0 0 37.169244098207855 -26.225264744318963 0 -26.225264744318963 24.985254027486462 0 0 0 0 8.415133138129022 -21.781900315312669 0 -21.781900315312669 48.016306610682705 0 0 0 0 2.9177684214082547 -10.397856662798063 0 -10.397856662798063 25.201719770899217 0 0 0 0 6.4274617000264698 -5.6312862825021739 0 -5.6312862825021739 12.677191595355453 0 0 0 0 -15.128278018162746 22.052381926390041 0 22.052381926390041 20.55105835335803 0 0 0 0 -11.640971162125425 0.97045768029931168 0 0.97045768029931168 46.618531725195908 0 0 0 0 24.092593810884864 18.831019838491017 0 18.831019838491017 10.985061184929947 0 0 0 0 18.471078764283448 20.981865298788364 0 20.981865298788364 82.517745918492537 0 0 0 0 110.96804197662277 -3.4133214841398818 0 -3.4133214841398818 33.369478170715574 0 0 0 0 61.716605823166901 -26.833372342982784 0 -26.833372342982784 70.282920020717256 0 0 0 0 112.98747903999174 8.7567178796419327 0 8.7567178796419327 98.229321867724224 0 0 0 0 291.45091479202165 80.501144038466435 0 80.501144038466435 107.29110233011056 0 0 0 0 236.31908284933888 -13.010650682388587 0 -13.010650682388587 57.785422560997745 0 0 0 0 209.11545497483166 23.519952762654668 0 23.519952762654668 76.644820186845891 0 0 0 0 225.29708064881561 -3.0833096366931727 0 -3.0833096366931727 120.05675603669454 0 0 0 0 100.94119405609672 -22.224688999958971 0 -22.224688999958971 87.304540275066245 0 0 0 0 64.54465662225266 -6.1166529008149837 0 -6.1166529008149837 63.635339366969447 0 0 0 0 90.501256283925613 -5.8041212834210683 0 -5.8041212834210683 114.12034030515542 0 0 0 0 91.086155393029912 -14.253563834469674 0 -14.253563834469674 53.385514460232116 0 0 0 0 79.679840507124027 -47.471111796788847 0 -47.471111796788847 31.790760985589714 0 0 0 0 87.510512678978557 -1.6644255641576819 0 -1.6644255641576819 56.875410857317547 0 0 0 0 129.37146728763764 -21.52518737483615 0 -21.52518737483615 14.894176291301164 0 0 0 0 137.99146072851727 -37.860652140690718 0 -37.860652140690718 45.828842030424312 0 0 0 0 206.0770995659077 100.64365209943753 0 100.64365209943753 54.274308023535013 0 0 0 0 58.957358677740558 -61.811181099157466 0 -61.811181099157466 -144.81517044671818 0 0 0 0 -81.738963597337715 53.168762187459379 0 53.168762187459379 42.072099850381164 0 0 0 0 43.478192566821235 -35.650076237326402 0 -35.650076237326402 -25.618997738977669 0 0 0 0 63.000710922449798 -64.526281287630923 0 -64.526281287630923 -9.881039323893674 0 0 0 0 58.486109414254315 -7.738816881310413 0 -7.738816881310413 14.992642441163298 0 0 0 0 23.908555107249413 -43.485381638006857 0 -43.485381638006857 -4.2205307120902944 0 0 0 0 68.886912170128198 -49.288165229688502 0 -49.288165229688502 -90.63284085610394 0 0 0 0 45.818345484469319 -21.951976575672234 0 -21.951976575672234 -52.560740727965367 0 0 0 0 37.579208973736968 -37.601114309572949 0 -37.601114309572949 -7.6471696728642655 0 0 0 0 50.661957925825845 -51.371463945968117 0 -51.371463945968117 -24.773545544531771 0 0 0 0 45.09926372069458 -37.769202545409144 0 -37.769202545409144 31.019412590984984 0 0 0 0 45.28826476445829 -50.695632796513564 0 -50.695632796513564 6.9864140479196521 0 0 0 0 27.555191080711666 -38.197040614657681 0 -38.197040614657681 33.73808952954073 0 0 0 0 -5.1582565019998583 -26.546951587939304 0 -26.546951587939304 7.1430907542039677 0 0 0 0 8.5575818658107892 -31.585815479266785 0 -31.585815479266785 22.122578928828716 0 0 0 0 24.159703495766735 -27.150360017828802 0 -27.150360017828802 -0.68522964335352299 0 0 0 0 34.788720996271877 -42.215377402969978 0 -42.215377402969978 7.7926737939192208 0 0 0 0 -3.9590960093046306 -21.677522051490541 0 -21.677522051490541 15.726741567582394 0 0 0 0 12.013873751582736 -18.57590873391851 0 -18.57590873391851 -11.307179269855405 0 0 0 0 41.316948213090654 -31.721505091692052 0 -31.721505091692052 -16.979951368229877 0 0 0 0 25.245782385303755 -25.153273775185539 0 -25.153273775185539 -19.571689420846724 0 0 0 0 81.38859995927487 3.329063470497502 0 3.329063470497502 -3.4219207902423818 0 0 0 0 81.192954338039272 2.6290827551873193 0 2.6290827551873193 -4.597550438641079 0 0 0 0 81.328000008463277 2.5110767743146454 0 2.5110767743146454 -4.8826327805329583 0 0 0 0 81.904920239496278 1.7645149774863 0 1.7645149774863 -4.8851831448823262 0 0 0 0 81.922422535411897 -2.3132541487219953 0 -2.3132541487219953 -3.5068324938096112 0 0 0 0 88.269298341445392 1.4501888901926634 0 1.4501888901926634 -5.0204405137089623 0 0 0 0 75.60236364674347 -8.0372761852814136 0 -8.0372761852814136 5.5931967859355893 0 0 0 0 97.706413805808552 9.081127622063935 0 9.081127622063935 -4.3725907041085179 0 0 0 0 94.615809424432882 -7.2385394579441478 0 -7.2385394579441478 -1.6618093287436864 0 0 0 0 18.863925256599373 -16.924983599016997 0 -16.924983599016997 -7.1881201720341057 0 0 0 0 65.310094980275608 12.60509247541691 0 12.60509247541691 -0.70831460143287472 0 0 0 0 73.153025980413076 1.0009205935643593 0 1.0009205935643593 -0.29384297563183281 0 0 0 0 79.752481636271114 0.79772085059819631 0 0.79772085059819631 -1.9768799382365785 0 0 0 0 80.565062286862485 -0.3071517096651224 0 -0.3071517096651224 -3.9957078598750968 0 0 0 0 80.571446844856837 -0.3847299346184343 0 -0.3847299346184343 -3.0654705297209688 0 0 0 0 81.577269016692298 -1.6407574907372577 0 -1.6407574907372577 -2.1782845465414056 0 0 0 0 78.684092137293192 -0.21571585668675652 0 -0.21571585668675652 1.1774269170259117 0 0 0 0 75.148981427264516 1.8732743495733359 0 1.8732743495733359 -0.0036577739966219269 0 0 0 0 78.846216805213771 2.0010848775238941 0 2.0010848775238941 -1.2347537493816958 0 0 0 0 78.537719777818893 1.131700882013881 0 1.131700882013881 -2.0192906562459996 0 0 0 0 78.105998988336069 2.2663800314755065 0 2.2663800314755065 -0.74790229500442251 0 0 0 0 75.159238169100718 4.8536692303359104 0 4.8536692303359104 -1.8734477322742293 0 0 0 0 65.109047144753845 -12.078675006634043 0 -12.078675006634043 -11.5425638536294 0 0 0 0 76.55558607148123 -2.5055476569510802 0 -2.5055476569510802 -7.6279935485523112 0 0 0 0 77.811145835061325 1.3444279797215017 0 1.3444279797215017 3.9787647142270259 0 0 0 0 66.610435263657564 -5.9662378112703269 0 -5.9662378112703269 -2.637473411209271 0 0 0 0 45.657959464997077 8.1654180477343772 0 8.1654180477343772 4.1923661362626952 0 0 0 0 27.311674522687099 0.31112245889789847 0 0.31112245889789847 -5.2820508747709027 0 0 0 0 3.7216378822631668 2.2751192429714138 0 2.2751192429714138 24.584504719063091 0 0 0 0 19.993699524744869 5.0504066115549904 0 5.0504066115549904 5.7763983798040641 0 0 0 0 -3.9487820861273235 -2.4006280931988755 0 -2.4006280931988755 2.1505739107244457 0 0 0 0 32.611743106296558 -8.9244420528297468 0 -8.9244420528297468 -6.4198000970088085 0 0 0 0 79.339342581748497 14.800244114803718 0 14.800244114803718 13.037413896829094 0 0 0 0 16.971039602303051 -3.3044334875817185 0 -3.3044334875817185 -5.5337742087483228 0 0 0 0 68.254555701416393 -18.647185150117735 0 -18.647185150117735 -11.041527923016673 0 0 0 0 61.96106859259163 -7.6769115502010266 0 -7.6769115502010266 -11.102240360540993 0 0 0 0 104.31508863414638 -4.5575538450166988 0 -4.5575538450166988 -6.697529263662517 0 0 0 0 88.702352227686788 20.202899821052597 0 20.202899821052597 8.4996022216794245 0 0 0 0 51.8844574639661 19.89211701930617 0 19.89211701930617 0.44109535284951562 0 0 0 0 11.29877604012465 -2.2235359391242184 0 -2.2235359391242184 4.7375266986131965 0 0 0 0 20.062419159273588 14.76887262367093 0 14.76887262367093 12.336347953686793 0 0 0 0 63.768597896996653 7.6149766873417093 0 7.6149766873417093 2.4280019789623566 0 0 0 0 43.865715363303025 3.8661633089864154 0 3.8661633089864154 7.6097947014150122 0 0 0 0 87.964425061389193 29.792530855833547 0 29.792530855833547 5.4311157112624642 0 0 0 0 84.906208695298119 22.60017188919096 0 22.60017188919096 13.512459729158309 0 0 0 0 1.7030215732714566 -5.8915591172602433 0 -5.8915591172602433 5.5362209455638638 0 0 0 0 89.74020659942471 28.652180489639477 0 28.652180489639477 2.3809922278283011 0 0 0 0 47.830765868595336 2.913386604812672 0 2.913386604812672 14.745516291964577 0 0 0 0 61.177481816863292 19.763432759998523 0 19.763432759998523 19.140568635533782 0 0 0 0 69.307708493159851 -14.647785889330606 0 -14.647785889330606 -9.600599399004734 0 0 0 0 87.462517533622304 -21.968307543929114 0 -21.968307543929114 -121.06509508209319 0 0 0 0 102.96838433526864 37.655054657087021 0 37.655054657087021 -1.0068462588581042 0 0 0 0 86.907418677146779 3.1044739900764853 0 3.1044739900764853 -29.938342858096803 0 0 0 0 40.738161370449234 36.208633120947979 0 36.208633120947979 50.08355458265919 0 0 0 0 87.317398506254904 19.941185856962875 0 19.941185856962875 36.097300776581051 0 0 0 0 182.30780500543187 126.24424503902287 0 126.24424503902287 -26.81191114670446 0 0 0 0 30.956960014831566 33.249382174885682 0 33.249382174885682 60.080388701997435 0 0 0 0 22.128210618873709 43.681540404671978 0 43.681540404671978 104.87867563445548 0 0 0 0 77.963436726466171 141.15834155289519 0 141.15834155289519 267.15743338237417 0 0 0 0 10.868005173989843 -1.5056975625365379 0 -1.5056975625365379 1.129335179289316 0 0 0 0 36.292620458174497 28.563208527565394 0 28.563208527565394 64.077989445295088 0 0 0 0 47.895385685682413 31.292731839999533 0 31.292731839999533 52.747289972115141 0 0 0 0 9.326797485258254 -0.74012148104057474 0 -0.74012148104057474 -1.0582531421303978 0 0 0 0 76.65937143475503 5.586988517021453 0 5.586988517021453 6.8416655070950583 0 0 0 0 76.473046316408727 1.8044352215165418 0 1.8044352215165418 11.640281067385843 0 0 0 0 27.829455704827538 -14.240647809378345 0 -14.240647809378345 2.726472696202789 0 0 0 0 28.026005278690718 -28.715216247541434 0 -28.715216247541434 15.948713643222618 0 0 0 0 31.30718960593731 -24.902653673723762 0 -24.902653673723762 14.619378376239183 0 0 0 0 49.207506721691004 10.395127268092928 0 10.395127268092928 1.3686670611132385 0 0 0 0 55.444188570352708 11.753094200971894 0 11.753094200971894 9.4835132091515106 0 0 0 0 66.075749300143798 -3.9792999212929772 0 -3.9792999212929772 56.564126044976092 0 0 0 0 16.453506802301675 -3.4112354318297946 0 -3.4112354318297946 7.8082860625704464 0 0 0 0 81.182035650883336 5.0179231853676356 0 5.0179231853676356 -12.559340695507672 0 0 0 0 48.541224372702743 -5.3845181523029444 0 -5.3845181523029444 0.2123668258929397 0 0 0 0 28.302651333686683 -8.7361541079372245 0 -8.7361541079372245 7.3871554368241092 0 0 0 0 81.142868687150155 18.217975404718743 0 18.217975404718743 12.843455595850742 0 0 0 0 81.19222189233551 7.8180015702587298 0 7.8180015702587298 19.58807156545231 0 0 0 0 64.628490311639325 10.550313624880118 0 10.550313624880118 14.049866773620124 0 0 0 0 77.814059046839247 25.752440634390496 0 25.752440634390496 14.163006590672467 0 0 0 0 39.316318994679023 19.598870077639731 0 19.598870077639731 21.803478672056372 0 0 0 0 48.704342603590192 1.4313943691742992 0 1.4313943691742992 -5.650027440736908 0 0 0 0 40.706631887340883 36.015406512144637 0 36.015406512144637 25.72064252776817 0 0 0 0 88.153060045180609 79.184045424794931 0 79.184045424794931 37.826778729332091 0 0 0 0 68.20432532747509 88.298891552406076 0 88.298891552406076 55.278541523157401 0 0 0 0 155.0629870870689 116.0047357882886 0 116.0047357882886 -153.42950463856687 0 0 0 0 -33.448775225850113 26.373437085164369 0 26.373437085164369 -29.5832487633852 0 0 0 0 126.45836312015308 247.78246959881199 0 247.78246959881199 17.887790584263712 0 0 0 0 55.870327730357531 65.896582229141814 0 65.896582229141814 151.91863913863108 0 0 0 0 425.39482188789407 277.10845717078018 0 277.10845717078018 18.453724907580181 0 0 0 0 2.4325933127519761 5.8357000571758642 0 5.8357000571758642 4.0715212308045938 0 0 0 0 11.792482178556384 235.44577288034725 0 235.44577288034725 421.31194924390684 0 0 0 0 106.66783369240875 30.117660806436334 0 30.117660806436334 17.830768495130542 0 0 0 0 10.259111954772379 12.306715047519099 0 12.306715047519099 12.42765342676563 0 0 0 0 -1.9708555997248993 4.2821803091329258 0 4.2821803091329258 3.0370890105091872 0 0 0 0 25.640282174799722 3.6638057473633765 0 3.6638057473633765 15.799792527173054 0 0 0 0 11.319219025013084 -0.05584240550854247 0 -0.05584240550854247 0.084887369693313453 0 0 0 0 24.789624662742426 19.402607752400655 0 19.402607752400655 4.4036431012905268 0 0 0 0 35.437506446735703 5.7734325565598255 0 5.7734325565598255 9.6988277642104936 0 0 0 0 6.0982922600982761 19.360175821834176 0 19.360175821834176 9.2068430098773586 0 0 0 0 19.241289441776473 16.129340876824262 0 16.129340876824262 4.9685773441531627 0 0 0 0 9.4484450912132161 14.569581465031661 0 14.569581465031661 12.369324360773062 0 0 0 0 56.733094287879794 21.049889633220175 0 21.049889633220175 -4.1354842974133135 0 0 0 0 0.93780071868968662 14.062855326709268 0 14.062855326709268 28.292605517949937 0 0 0 0 16.409104349600966 54.252693652156267 0 54.252693652156267 -25.507814296548396 0 0 0 0 -5.8911975237897423 28.555156402902682 0 28.555156402902682 12.178966534032156 0 0 0 0 14.570685790248916 11.465273685991335 0 11.465273685991335 6.6940715849935941 0 0 0 0 -33.677830383225228 56.567613090858401 0 56.567613090858401 25.919743899548109 0 0 0 0 35.461067468568217 22.708163685539304 0 22.708163685539304 -29.252106531277406 0 0 0 0 10.84629760144162 34.459507052066215 0 34.459507052066215 1.4201073333827026 0 0 0 0 16.719237157497446 14.185798539384223 0 14.185798539384223 8.8745900937396556 0 0 0 0 48.734897750167875 -128.60617910332331 0 -128.60617910332331 -6.1189377449896369 0 0 0 0 413.32044458042219 -50.789057246472119 0 -50.789057246472119 -25.5648806463048 0 0 0 0 497.76875775468579 182.88191730412277 0 182.88191730412277 100.73450444372475 0 0 0 0 90.210113931869273 49.795584472425617 0 49.795584472425617 -33.288488101694725 0 0 0 0 24.348594742477871 32.260335316854906 0 32.260335316854906 59.046853055136708 0 0 0 0 28.944607139608706 -4.3922094378368683 0 -4.3922094378368683 -76.978243962525596 0 0 0 0 11.216559754028538 -0.34013295903703522 0 -0.34013295903703522 -0.33584974274873614 0 0 0 0 351.97265809302917 309.03962987479827 0 309.03962987479827 173.60228932024847 0 0 0 0 351.82430475519504 233.6666009377991 0 233.6666009377991 194.23288420149504 0 0 0 0 3.5899067304243886 -0.29143818545705358 0 -0.29143818545705358 -0.26164184819020508 0 0 0 0 597.27709502089419 614.92759006593531 0 614.92759006593531 452.33977544657898 0 0 0 0 350.5098764479917 34.483141896573443 0 34.483141896573443 -177.24360429231638 0 0 0 0 206.80369784893264 267.54258179070291 0 267.54258179070291 193.40365426101107 0 0 0 0 283.1323334293993 86.637761262163849 0 86.637761262163849 -119.63736029892016 0 0 0 0 612.31310021493118 327.87159556229744 0 327.87159556229744 167.27709135519217 0 0 0 0 81.227637523203157 392.35004230163759 0 392.35004230163759 436.15470163685859 0 0 0 0 -0.29492515550322196 -0.23344357401843752 0 -0.23344357401843752 2.3424859783068519 0 0 0 0 212.5220078646089 150.06198215822997 0 150.06198215822997 396.39118512790083 0 0 0 0 432.19659685748047 298.98846900744411 0 298.98846900744411 200.70173864466415 0 0 0 0 87.830885902210241 8.2231969140588639 0 8.2231969140588639 -4.52291476132174 0 0 0 0 330.0547969769832 -47.611840392505428 0 -47.611840392505428 -472.19612342635537 0 0 0 0 230.59527003995026 -31.333594498387356 0 -31.333594498387356 80.305393971530521 0 0 0 0 194.51619298421429 150.66579259578339 0 150.66579259578339 -221.84447350829123 0 0 0 0 3.4866367853464908 -17.205429173653329 0 -17.205429173653329 -23.806493191877735 0 0 0 0 -48.550671723249252 -75.589668239894308 0 -75.589668239894308 17.454376164571613 0 0 0 0 29.224994741813418 7.9019291405204228 0 7.9019291405204228 2.0546010146788074 0 0 0 0 128.6403671507403 7.496547439388773 0 7.496547439388773 -2.3132118230318106 0 0 0 0 146.20491669527837 -236.5935384219772 0 -236.5935384219772 -484.87910690366925 0 0 0 0 226.45469195464102 167.86691632241195 0 167.86691632241195 -93.45307063587876 0 0 0 0 365.93658154760487 23.393255640851748 0 23.393255640851748 -137.08832878598514 0 0 0 0 112.20818298848924 0.51215060053320371 0 0.51215060053320371 -5.4674656803784938 0 0 0 0 -157.57214435983042 -53.014642269117417 0 -53.014642269117417 215.55160113328884 0 0 0 0 -49.031614369770978 -493.0607034284634 0 -493.0607034284634 -237.91609695564739 0 0 0 0 -247.95822548543219 -5.2913877519948755 0 -5.2913877519948755 41.526208372592691 0 0 0 0 45.937977454334032 169.91618980391968 0 169.91618980391968 -230.710495343194 0 0 0 0 545.9295649323758 400.77784338337551 0 400.77784338337551 224.74040981029339 0 0 0 0 4.1810334070588624 -2.9725099664023276 0 -2.9725099664023276 -1.0721422395780698 0 0 0 0 808.49613180671076 -214.27002970121453 0 -214.27002970121453 -97.853538795024178 0 0 0 0 -46.710691942294943 -52.540777099933393 0 -52.540777099933393 -56.091514440905712 0 0 0 0 136.2951104328088 -4.1781415165062903 0 -4.1781415165062903 -13.127507173805988 0 0 0 0 111.78856809272787 3.6558463540832769 0 3.6558463540832769 -2.1690999918150409 0 0 0 0 526.90920711183571 -75.31431363099432 0 -75.31431363099432 -318.34818060727002 0 0 0 0 95.953874567872845 -19.747946090508776 0 -19.747946090508776 -84.740008704065986 0 0 0 0 34.688597514586945 -43.095894209105381 0 -43.095894209105381 -113.08460130113417 0 0 0 0 339.29954218626528 38.237366450279382 0 38.237366450279382 -34.175935694253049 0 0 0 0 251.52031527654162 452.98968306895256 0 452.98968306895256 10.092261403782686 0 0 0 0 579.39014483076971 -447.73210707981616 0 -447.73210707981616 -608.66234225064727 0 0 0 0 56.091053348134778 -26.651653955431893 0 -26.651653955431893 -0.8357952570353433 0 0 0 0 96.81293490026583 -14.967144947823048 0 -14.967144947823048 -5.6686402955493502 0 0 0 0 108.2131458266449 -0.39456335575653156 0 -0.39456335575653156 -23.59445610991861 0 0 0 0 104.06233959671954 -3.2880779792491239 0 -3.2880779792491239 -12.491971006182041 0 0 0 0 76.129076566398254 4.5632028426574536 0 4.5632028426574536 -9.7805817177594712 0 0 0 0 17.985622938891936 -11.926139565957158 0 -11.926139565957158 -13.866562099210498 0 0 0 0 74.277155348470473 -39.239372282278012 0 -39.239372282278012 -16.879098029275191 0 0 0 0 -77.498250680684578 -295.67325837638157 0 -295.67325837638157 38.319852242250363 0 0 0 0 68.847420923237223 24.56425480320604 0 24.56425480320604 -118.84985686661093 0 0 0 0 -386.17830865175347 -60.377111148402946 0 -60.377111148402946 -83.080095514655113 0 0 0 0 95.752286469331011 -97.586468166298573 0 -97.586468166298573 -180.43996508817509 0 0 0 0 102.64568943352788 -154.76228434918198 0 -154.76228434918198 274.04605053337241 0 0 0 0 226.95112560965936 151.48861573187202 0 151.48861573187202 134.76504296195702 0 0 0 0 97.411144230951322 -14.372469487787725 0 -14.372469487787725 20.230659442656929 0 0 0 0 -218.47020168419112 32.684552218308795 0 32.684552218308795 78.737463944434467 0 0 0 0 -9.5312221740314271 42.882360238801226 0 42.882360238801226 73.232589531023393 0 0 0 0 71.319035807202454 -12.847668818835245 0 -12.847668818835245 -13.031675063169587 0 0 0 0 -185.05889193905023 -100.72894979865202 0 -100.72894979865202 66.211134602839138 0 0 0 0 34.020534929834696 -17.060490546123731 0 -17.060490546123731 -12.219005171598017 0 0 0 0 -222.20873196143657 -213.28152030719934 0 -213.28152030719934 -120.40752367826417 0 0 0 0 -44.063633460988058 -53.766816472029376 0 -53.766816472029376 -56.209185021624336 0 0 0 0 86.723453496219008 -6.6443378718813051 0 -6.6443378718813051 -4.2271690859922728 0 0 0 0 48.489060965555836 12.686288754135546 0 12.686288754135546 -12.164523691186702 0 0 0 0 -83.96341750855936 -17.775240848844689 0 -17.775240848844689 32.870179731004157 0 0 0 0 24.600783479624312 -22.350837958103369 0 -22.350837958103369 0.43367093914241139 0 0 0 0 38.118951783981174 3.9963684904486456 0 3.9963684904486456 45.604386494893781 0 0 0 0 227.54652744774648 -66.661257783901462 0 -66.661257783901462 24.420181024517106 0 0 0 0 307.37354817884625 -75.542148303760541 0 -75.542148303760541 131.06483894995802 0 0 0 0 364.27620755130192 169.75977235607002 0 169.75977235607002 284.7297184643877 0 0 0 0 333.14680240911548 17.31532636417387 0 17.31532636417387 15.322500226586783 0 0 0 0 142.15136667801562 -243.39138777145655 0 -243.39138777145655 34.867952434358585 0 0 0 0 530.97592135100967 -70.793068449311164 0 -70.793068449311164 169.47006830360289 0 0 0 0 202.71636742178816 73.87979216412225 0 73.87979216412225 153.16372885920464 0 0 0 0 17.021250296282233 -140.68989021577488 0 -140.68989021577488 96.302843581786647 0 0 0 0 386.05498593780794 -198.79281768049066 0 -198.79281768049066 -178.91484107088604 0 0 0 0 550.37732433860947 -39.725840856952345 0 -39.725840856952345 -52.642856727464277 0 0 0 0 309.45646834833315 -60.460227365512765 0 -60.460227365512765 -50.753128650436224 0 0 0 0 -104.18903552035044 196.52454656266082 0 196.52454656266082 88.69059116700555 0 0 0 0 55.615138095232624 6.4199413277029542 0 6.4199413277029542 -0.054674030127746409 0 0 0 0 349.1305774745415 -342.80934069976138 0 -342.80934069976138 -80.809233594797433 0 0 0 0 66.599290840109461 14.044422730215047 0 14.044422730215047 17.842593613950157 0 0 0 0 74.713252999892575 13.72829909804932 0 13.72829909804932 12.183722486291117 0 0 0 0 72.005272773954175 3.3435963176429055 0 3.3435963176429055 -1.4050356914066311 0 0 0 0 58.72585041745333 14.301803137675506 0 14.301803137675506 -3.1584453662308078 0 0 0 0 86.292019764252473 3.822043501510052 0 3.822043501510052 0.030031354746824945 0 0 0 0 63.609506034450533 4.4816815498442111 0 4.4816815498442111 12.927142080269732 0 0 0 0 -63.37053014641242 333.21406003627908 0 333.21406003627908 81.621191096179246 0 0 0 0 18.74765208986355 -25.917947503634878 0 -25.917947503634878 90.340869834997648 0 0 0 0 374.17363418713649 -172.98412962978728 0 -172.98412962978728 -115.40198101328042 0 0 0 0 8.3630128034087363 3.5448158621334827 0 3.5448158621334827 1.8155289395478107 0 0 0 0 88.983400575787527 5.7905735940448722 0 5.7905735940448722 -5.9903023621895954 0 0 0 0 68.674193720376934 -6.9645227999571944 0 -6.9645227999571944 18.015973425400261 0 0 0 0 15.270219212422077 10.481455442304437 0 10.481455442304437 -1.2084698235164399 0 0 0 0 91.245590341626666 7.4973924298847123 0 7.4973924298847123 -4.7299399700436879 0 0 0 0 90.896617071470246 25.263677959777851 0 25.263677959777851 -16.343545016019561 0 0 0 0 71.353157019824721 5.2377020573276241 0 5.2377020573276241 73.275960470497466 0 0 0 0 43.019915289751225 69.386068787192016 0 69.386068787192016 -34.638895837957989 0 0 0 0 71.804973845131641 23.048968501293281 0 23.048968501293281 7.7707824235599272 0 0 0 0 11.751013603653874 2.8931650749996436 0 2.8931650749996436 -1.8779967697399975 0 0 0 0 50.529773607457173 39.484493465042078 0 39.484493465042078 -12.487220140917998 0 0 0 0 43.868807095859665 26.902932422924891 0 26.902932422924891 -46.057734500493098 0 0 0 0 64.264655316198002 14.76980484177929 0 14.76980484177929 -2.2132270082622423 0 0 0 0 38.420286104500775 41.423801890763833 0 41.423801890763833 6.5569588893854327 0 0 0 0 76.199494939380997 12.276882774208758 0 12.276882774208758 7.5468724781375549 0 0 0 0 84.017658453271764 9.2242500197149653 0 9.2242500197149653 -5.8089764944322688 0 0 0 0 43.478529672487639 -1.1048870315935346 0 -1.1048870315935346 -120.45969836348922 0 0 0 0 200.28261122052209 165.65673716149649 0 165.65673716149649 -387.05556337817211 0 0 0 0 62.133454362803604 25.915831699563569 0 25.915831699563569 -48.475868409233954 0 0 0 0 56.898396898487448 21.300974708216522 0 21.300974708216522 0.30425145169312628 0 0 0 0 90.30174608594038 -58.548609357269036 0 -58.548609357269036 -30.278574400587889 0 0 0 0 49.419301093817921 81.951053305685491 0 81.951053305685491 -19.843479483966803 0 0 0 0 94.269727944207261 5.1535345405202406 0 5.1535345405202406 -8.3654285145066751 0 0 0 0 91.815955376267084 0.46466205228580293 0 0.46466205228580293 -16.465986125328072 0 0 0 0 91.67757570464164 3.5287440362571942 0 3.5287440362571942 -9.3833787599987772 0 0 0 0 100.81874331674771 -2.6600697515179945 0 -2.6600697515179945 -5.0357505469210082 0 0 0 0 88.224010456062388 0.81119898706344884 0 0.81119898706344884 -2.9526579448174743 0 0 0 0 89.068304790818729 -6.6494616873027752 0 -6.6494616873027752 -5.4615895373344756 0 0 0 0 87.405614556395449 -4.1821615578806419 0 -4.1821615578806419 3.2219971195712773 0 0 0 0 55.993186562380288 2.5007986483769855 0 2.5007986483769855 -15.706945416704002 0 0 0 0 52.080745656504746 5.841211558665826 0 5.841211558665826 -9.3396730979571885 0 0 0 0 26.796608962467957 11.261411548648198 0 11.261411548648198 -12.023835637905012 0 0 0 0 42.002964538442029 12.692137677956225 0 12.692137677956225 -25.740930805340213 0 0 0 0 74.94547820353182 77.839305427692125 0 77.839305427692125 -50.706162724859041 0 0 0 0 -9.1009528883878374 75.665281757395633 0 75.665281757395633 -42.253779597240282 0 0 0 0 68.827260998978545 14.426226537757671 0 14.426226537757671 -8.9844891953710864 0 0 0 0 24.130913606782414 6.2410155840579904 0 6.2410155840579904 -5.9336862885903239 0 0 0 0 85.016750393951952 1.3131962005711557 0 1.3131962005711557 -35.244224063281763 0 0 0 0 70.965675449755508 -37.611886585957109 0 -37.611886585957109 1.7694961418189905 0 0 0 0 118.27861138242588 43.185520186495978 0 43.185520186495978 -84.929311847619829 0 0 0 0 73.760346134243832 12.409057680290346 0 12.409057680290346 -5.2643174784790245 0 0 0 0 96.955966320208972 70.96379606661867 0 70.96379606661867 -167.39396523662185 0 0 0 0 37.301821075248881 36.271713402009709 0 36.271713402009709 -4.3165271045027112 0 0 0 0 160.1255711147387 50.044923135953923 0 50.044923135953923 -3.7071125798435958 0 0 0 0 129.22811879345682 26.596849503925228 0 26.596849503925228 6.6088789436143998 0 0 0 0 204.18378035783826 -1.0205796101790838 0 -1.0205796101790838 -32.688976842310922 0 0 0 0 131.76796481371275 17.043248742117612 0 17.043248742117612 2.4728732102430513 0 0 0 0 93.35308818602789 -3.5098001152059624 0 -3.5098001152059624 -18.980689646979954 0 0 0 0 150.76720689662034 48.878091278482543 0 48.878091278482543 -5.923650921974513 0 0 0 0 150.7224915454135 53.126546203958469 0 53.126546203958469 -29.805077458479332 0 0 0 0 178.90289792278782 26.677770141442124 0 26.677770141442124 -18.154157645119994 0 0 0 0 142.23329441895476 22.712981642247541 0 22.712981642247541 1.5064123389438464 0 0 0 0 203.56748280313332 32.264191419059443 0 32.264191419059443 -16.168142319288108 0 0 0 0 166.62323471416312 17.765396035562389 0 17.765396035562389 -1.3137001622330899 0 0 0 0 145.83206647000407 33.87132413010022 0 33.87132413010022 7.3202136518320913 0 0 0 0 120.36337163131975 20.92648306815363 0 20.92648306815363 -0.075790036073385636 0 0 0 0 -13.503064364456804 23.797518386043976 0 23.797518386043976 -11.857672147565381 0 0 0 0 0.18615383123344387 1.3283610671536508 0 1.3283610671536508 -0.01306060558695421 0 0 0 0 -67.873892804775096 20.185900877436779 0 20.185900877436779 6.5575300664331735 0 0 0 0 0.4935382567346096 9.6144623342026989 0 9.6144623342026989 -19.095774097886988 0 0 0 0 -97.41113575649797 55.128427665467825 0 55.128427665467825 18.680819502611939 0 0 0 0 51.135079884668812 -2.7458392429733749 0 -2.7458392429733749 -6.6264028499192591 0 0 0 0 8.2837834029936062 16.212275627913129 0 16.212275627913129 -10.066391870729337 0 0 0 0 15.384402579166675 -6.9301867443166145 0 -6.9301867443166145 -8.760974777334356 0 0 0 0 1.7557911680420659 2.0333855958678555 0 2.0333855958678555 -1.0723842091373175 0 0 0 0 2.0074720568227349 18.831309521722915 0 18.831309521722915 -15.042487641268963 0 0 0 0 -0.16811207365560676 6.9228978406243584 0 6.9228978406243584 -8.2276963322201482 0 0 0 0 590.83723782172456 47.620926874347447 0 47.620926874347447 94.240686204347639 0 0 0 0 99.387564222161018 116.20292924731672 0 116.20292924731672 110.21599697436068 0 0 0 0 351.25521780679628 95.079723657824985 0 95.079723657824985 -27.291835847362108 0 0 0 0 327.7772177222796 160.65984052882567 0 160.65984052882567 180.06106716109389 0 0 0 0 395.4278354902126 73.416739658136294 0 73.416739658136294 13.676765620920605 0 0 0 0 484.97784631242394 159.50155914609331 0 159.50155914609331 -21.460021085426888 0 0 0 0 311.5872407837669 169.69394253154411 0 169.69394253154411 19.567045421420062 0 0 0 0 -7.6114340111817 5.9049268263688077 0 5.9049268263688077 0.86445183129467296 0 0 0 0 -0.87198606021137692 2.2859647778477381 0 2.2859647778477381 -0.50471106826101053 0 0 0 0 -2.3591679954085265 4.1688111317730829 0 4.1688111317730829 -2.5967600269890787 0 0 0 0 267.02511972320644 111.09899578180904 0 111.09899578180904 43.818698089495911 0 0 0 0 0.39185775817330892 1.9781259868510972 0 1.9781259868510972 -0.025129338333954365 0 0 0 0 -28.64161458727358 14.278370216056345 0 14.278370216056345 -3.0350486818097124 0 0 0 0 -5.9406574714666931 -3.112430691182908 0 -3.112430691182908 -3.3575835434614874 0 0 0 0 92.114131703615385 34.548821576177858 0 34.548821576177858 6.9904466578291249 0 0 0 0 111.89583135084831 38.368753052684951 0 38.368753052684951 -6.1698398745074883 0 0 0 0 110.67842293817375 42.680868670565587 0 42.680868670565587 -4.4957123048552603 0 0 0 0 4.8976528959756251 10.860010813190854 0 10.860010813190854 13.337491458598578 0 0 0 0 68.783312658360956 56.058841080096101 0 56.058841080096101 14.30186289196331 0 0 0 0 158.262250267544 68.001208740849052 0 68.001208740849052 14.423165046940085 0 0 0 0 98.100669311374077 24.79221438036393 0 24.79221438036393 3.4129200033418243 0 0 0 0 152.6851573180611 42.684097653865592 0 42.684097653865592 2.0030453510444204 0 0 0 0 139.12519391262322 63.608203038597821 0 63.608203038597821 0.67828420444124049 0 0 0 0 565.29497341977549 130.63414441554539 0 130.63414441554539 -67.491241961551623 0 0 0 0 389.59152152844763 33.499678032724091 0 33.499678032724091 22.611113931022828 0 0 0 0 370.27185911459674 132.12150773062251 0 132.12150773062251 -50.936279112976536 0 0 0 0 604.42025861378352 -37.444374011354853 0 -37.444374011354853 66.826132490530085 0 0 0 0 387.87859124783427 169.95513053572131 0 169.95513053572131 196.62218379985688 0 0 0 0 361.30242719069065 65.051396278041693 0 65.051396278041693 36.752311841550295 0 0 0 0 411.66310281582264 -141.54167381703527 0 -141.54167381703527 14.614133280408311 0 0 0 0 521.9108704077953 119.76069194421507 0 119.76069194421507 68.404676770088997 0 0 0 0 1.3404578941968452 2.7887031547381156 0 2.7887031547381156 2.2171808361855576 0 0 0 0 -77.462443409633124 53.180108264335956 0 53.180108264335956 57.906496781215992 0 0 0 0 -54.70017366517277 -12.5911184432195 0 -12.5911184432195 175.88761829106761 0 0 0 0 115.86229290673509 123.45493782064568 0 123.45493782064568 -40.121115358611917 0 0 0 0 11.731198145537178 -0.18889492615943482 0 -0.18889492615943482 1.5079605112758288 0 0 0 0 90.885191079585638 90.77111273354285 0 90.77111273354285 344.11082511850498 0 0 0 0 880.02670779636537 167.63655556353109 0 167.63655556353109 -211.7473887683683 0 0 0 0 -0.089897911625676841 1.0548961016383487 0 1.0548961016383487 1.8785217025956724 0 0 0 0 -702.66134724793665 -123.23653497711166 0 -123.23653497711166 183.72278774937604 0 0 0 0 -403.10265862372762 104.4010826503897 0 104.4010826503897 116.39838804719579 0 0 0 0 116.6945509898942 142.32296205536136 0 142.32296205536136 147.54013292118273 0 0 0 0 -102.07678212564497 -112.09050242430953 0 -112.09050242430953 38.359952835993226 0 0 0 0 -213.49247535000904 13.698716144556784 0 13.698716144556784 60.412198493290987 0 0 0 0 149.71227293714765 -122.14710558126399 0 -122.14710558126399 -46.437765560843673 0 0 0 0 23.588153045449872 61.878957438549151 0 61.878957438549151 37.773164305778778 0 0 0 0 -209.97591336585174 -87.140872322683776 0 -87.140872322683776 157.12722724946252 0 0 0 0 -297.43308189849995 -234.2889889403387 0 -234.2889889403387 -92.809666786705748 0 0 0 0 -283.18262703144865 106.12842412813234 0 106.12842412813234 -184.37439937548351 0 0 0 0 -363.79363141160138 -111.34884097838301 0 -111.34884097838301 86.150636402049713 0 0 0 0 -1.0257273145506396 5.3742050015704876 0 5.3742050015704876 4.5652534051103117 0 0 0 0 -682.6093296643885 42.03100225197602 0 42.03100225197602 218.73492379394293 0 0 0 0 347.21405394089379 -210.33209451633695 0 -210.33209451633695 216.72600925093184 0 0 0 0 31.177502678089695 66.825480952522923 0 66.825480952522923 467.33298148206632 0 0 0 0 23.170574216186651 130.32901537359294 0 130.32901537359294 37.850694149185415 0 0 0 0 770.13872288206767 -50.88759266203715 0 -50.88759266203715 -80.027362835017584 0 0 0 0 269.59194470893272 81.817628867805865 0 81.817628867805865 -64.751971305281586 0 0 0 0 753.05572073215808 164.84292063564388 0 164.84292063564388 -84.173271125960582 0 0 0 0 248.38115039549302 60.564663395977277 0 60.564663395977277 3.607381669127335 0 0 0 0 127.64240418026748 294.65119595800206 0 294.65119595800206 3.6510586163020662 0 0 0 0 345.27245085398317 341.0080119731972 0 341.0080119731972 -20.430091555372201 0 0 0 0 8.3551427397066504 2.1888346972800363 0 2.1888346972800363 0.73792168162482774 0 0 0 0 404.84035284099082 -458.74570116874884 0 -458.74570116874884 486.01212636210084 0 0 0 0 85.332044287672034 -157.97551307772619 0 -157.97551307772619 282.73617637059397 0 0 0 0 -139.83896604841721 -143.19081911636798 0 -143.19081911636798 -22.174122778532535 0 0 0 0 347.41440799058182 -257.77060802681183 0 -257.77060802681183 -27.315705101128287 0 0 0 0 104.16004923125729 -11.033059845439482 0 -11.033059845439482 -106.52229566414314 0 0 0 0 300.1244035087002 -56.075137438714364 0 -56.075137438714364 -107.03955067769868 0 0 0 0 562.46057262217801 371.44990881145782 0 371.44990881145782 147.74071620443533 0 0 0 0 874.03400735223113 -208.44930274372831 0 -208.44930274372831 32.827205152414081 0 0 0 0 355.94842930312757 13.093277169596728 0 13.093277169596728 -37.977212894757031 0 0 0 0 15.535841286851792 94.172772302941667 0 94.172772302941667 93.056250230993101 0 0 0 0 -9.7781066668103449 204.89977707142464 0 204.89977707142464 -43.69006638882621 0 0 0 0 -269.58933845395222 136.30989931633019 0 136.30989931633019 45.702180172113003 0 0 0 0 -334.21208962448145 55.522090255133151 0 55.522090255133151 74.713081151361621 0 0 0 0 -1.9199201229829974 8.264355575998934 0 8.264355575998934 3.2944095137135339 0 0 0 0 -52.300028974510496 189.39358842903653 0 189.39358842903653 29.191833427393078 0 0 0 0 -177.32307474203844 26.68783817157663 0 26.68783817157663 -25.347991704533115 0 0 0 0 279.63054448188996 191.34665720508005 0 191.34665720508005 -62.660379941642077 0 0 0 0 64.783940069450182 120.74686821063082 0 120.74686821063082 -56.995470823431788 0 0 0 0 59.640017045385321 105.26377972380476 0 105.26377972380476 -79.237566728229922 0 0 0 0 94.263410229963483 101.08627529660086 0 101.08627529660086 -81.095331167092837 0 0 0 0 -10.035782907274552 108.90940830678903 0 108.90940830678903 -56.225361451785659 0 0 0 0 54.571257326373598 68.927575233669074 0 68.927575233669074 -65.461245529443431 0 0 0 0 -37.675836047033954 65.596785745175339 0 65.596785745175339 -27.053059410533024 0 0 0 0 -46.969885146099841 52.224521838154011 0 52.224521838154011 -22.881879385186807 0 0 0 0 -38.488100582922925 69.36785409432207 0 69.36785409432207 -18.451513498343274 0 0 0 0 -29.66055413216236 68.840181963702207 0 68.840181963702207 -33.329862123227372 0 0 0 0 -33.326524391304702 60.206094912234278 0 60.206094912234278 -44.128243081147389 0 0 0 0 -19.671116327386699 37.963433488688572 0 37.963433488688572 -29.806841315070386 0 0 0 0 11.135265485732816 50.385887957352438 0 50.385887957352438 -42.001719025070479 0 0 0 0 20.691435072220145 3.072224003463063 0 3.072224003463063 -1.4927998245984164 0 0 0 0 55.067881063441746 24.096183647655543 0 24.096183647655543 -87.259878075576211 0 0 0 0 11.056277335621417 47.215591404563881 0 47.215591404563881 -74.516013194939262 0 0 0 0 28.703975523923873 -5.035693950608163 0 -5.035693950608163 -100.73201261398131 0 0 0 0 94.68984640785493 2.2719568600292632 0 2.2719568600292632 -100.51444003923692 0 0 0 0 -49.40598815872363 -81.566795445487173 0 -81.566795445487173 -77.219167951926295 0 0 0 0 120.18744977251845 -44.104355568385749 0 -44.104355568385749 -118.55374228740442 0 0 0 0 56.133957442529208 -72.376146102638728 0 -72.376146102638728 -125.02812577005386 0 0 0 0 150.13813682601904 0.60879500573348366 0 0.60879500573348366 -115.23165651818738 0 0 0 0 96.380964242925984 19.223425988632727 0 19.223425988632727 49.103457033933211 0 0 0 0 195.41640583433036 65.222607266894755 0 65.222607266894755 6.3187595561937542 0 0 0 0 88.709043353796005 36.272068437520943 0 36.272068437520943 36.833402364527728 0 0 0 0 89.777884662007637 26.66960893945523 0 26.66960893945523 -11.077742706816935 0 0 0 0 -38.400838963367278 2.7581798004812583 0 2.7581798004812583 28.306421060867848 0 0 0 0 93.301549842697568 33.674695622419776 0 33.674695622419776 -16.859576021863518 0 0 0 0 90.248348590683236 111.9784880970663 0 111.9784880970663 117.05393086864797 0 0 0 0 -1.265484458341902 2.5452639169830604 0 2.5452639169830604 -0.047503279085121086 0 0 0 0 325.54679693778235 80.075457282301755 0 80.075457282301755 -11.558890965020055 0 0 0 0 330.01475466601551 111.20219721803937 0 111.20219721803937 91.512261433221056 0 0 0 0 374.01642982530757 164.32871371235706 0 164.32871371235706 80.578868603685123 0 0 0 0 335.59736949097714 138.96697495559135 0 138.96697495559135 122.82556802445583 0 0 0 0 461.39737780437281 178.76963074160398 0 178.76963074160398 48.129060521683073 0 0 0 0 -1.311159066680645 0.62412875594594652 0 0.62412875594594652 0.49685345271352332 0 0 0 0 378.42750950073241 114.49818202605246 0 114.49818202605246 22.424389660575798 0 0 0 0 295.09800971357618 114.46341837652471 0 114.46341837652471 26.18056658673413 0 0 0 0 157.99982936643937 96.063735317524447 0 96.063735317524447 83.25577499829069 0 0 0 0 282.26577298564371 72.313316890356987 0 72.313316890356987 23.029170235062679 0 0 0 0 164.63247766612039 91.117755611456801 0 91.117755611456801 -6.9949715578077303 0 0 0 0 234.84456411215433 154.4602847039254 0 154.4602847039254 5.9885641286950886 0 0 0 0 238.01490690425271 131.03012043108106 0 131.03012043108106 110.219279787402 0 0 0 0 332.14039548289293 150.71945783850501 0 150.71945783850501 94.23077523390748 0 0 0 0 13.503821853388217 33.549006624503704 0 33.549006624503704 26.283851619698567 0 0 0 0 1.2240461557188631 9.3516876530896411 0 9.3516876530896411 -0.78021569221495746 0 0 0 0 3.7501300862168137 1.7830576260146813 0 1.7830576260146813 6.4358148846467884 0 0 0 0 0.3640674300304596 0.46746222828474515 0 0.46746222828474515 0.79838621545939459 0 0 0 0 -5.1146952233975753 3.3428114684528509 0 3.3428114684528509 -1.7947531821645271 0 0 0 0 0.10327974955635 0.065531837590782516 0 0.065531837590782516 -0.54350596526551165 0 0 0 0 39.926792459737044 -38.70862590253455 0 -38.70862590253455 29.965778880776497 0 0 0 0 -4.908718193823006 3.9788909990771231 0 3.9788909990771231 0.089453858600563763 0 0 0 0 3.306608821845316 3.981810839093697 0 3.981810839093697 -0.079394005400113099 0 0 0 0 3.5018410255099752 1.9039094233725109 0 1.9039094233725109 -0.52540834185803331 0 0 0 0 7.409738131245831 3.1945221870734031 0 3.1945221870734031 -1.9577086531571695 0 0 0 0 1.2642856389254291 0.99490334981067008 0 0.99490334981067008 -1.2627210546951138 0 0 0 0 263.41949459080934 138.81782858284873 0 138.81782858284873 88.972499574071435 0 0 0 0 5.52895681100199 2.1147439518093165 0 2.1147439518093165 -0.20630995933328222 0 0 0 0 397.32750111544738 100.4260887872324 0 100.4260887872324 26.434857757454665 0 0 0 0 381.60272529511712 97.58632875208184 0 97.58632875208184 47.678792463336777 0 0 0 0 356.69579459965462 111.41632508984594 0 111.41632508984594 56.87122885640747 0 0 0 0 345.71211097761989 127.54496856478818 0 127.54496856478818 45.662772897823743 0 0 0 0 338.94836235896219 136.80048151410097 0 136.80048151410097 34.28613186312873 0 0 0 0 325.74579378728231 108.50461762807265 0 108.50461762807265 36.517478912145179 0 0 0 0 345.50142233632505 120.48189157941684 0 120.48189157941684 23.542705066631243 0 0 0 0 345.95916604041122 124.03003821381981 0 124.03003821381981 48.977652500524528 0 0 0 0 359.65819068736164 110.53335314893093 0 110.53335314893093 33.823093406002272 0 0 0 0 367.14027191328933 115.81402668844203 0 115.81402668844203 30.806256430869325 0 0 0 0 413.36004043916182 158.75223986246363 0 158.75223986246363 17.772433127888689 0 0 0 0 360.64292590046534 123.83293170631532 0 123.83293170631532 23.715885097310547 0 0 0 0 360.88148577817265 126.56412721969973 0 126.56412721969973 20.410605837008006 0 0 0 0 346.705199172633 129.98444790730423 0 129.98444790730423 28.618686482312114 0 0 0 0 392.9663218788919 125.09527431048127 0 125.09527431048127 19.778876409002805 0 0 0 0 413.89331870739989 122.7173668423456 0 122.7173668423456 6.1990613713146558 0 0 0 0 393.55343048993382 149.69618133826987 0 149.69618133826987 11.281050471005983 0 0 0 0 354.70998680344201 138.98473041395573 0 138.98473041395573 22.657945617840369 0 0 0 0 373.96796394626188 143.51666337121037 0 143.51666337121037 14.97349664713829 0 0 0 0 323.95037010223314 149.39222176698615 0 149.39222176698615 16.812263142596748 0 0 0 0 354.88912041046751 138.8136584152607 0 138.8136584152607 -14.253619081403031 0 0 0 0 -53.632520017185016 -35.731764378352956 0 -35.731764378352956 39.667028057385011 0 0 0 0 -0.59627332453280246 0.57054901623044429 0 0.57054901623044429 3.1198383331788753 0 0 0 0 299.85043592045258 131.05783228752335 0 131.05783228752335 41.034192361079022 0 0 0 0 296.25460060333899 97.713565259283939 0 97.713565259283939 29.109610892141063 0 0 0 0 348.0337939998717 128.68415958825767 0 128.68415958825767 2.1851336445549805 0 0 0 0 338.31532500234607 135.42838911706036 0 135.42838911706036 31.473322171223344 0 0 0 0 74.000549482021597 73.04985052850698 0 73.04985052850698 57.923450888411466 0 0 0 0 0.96643478986574394 -1.1701879801881887 0 -1.1701879801881887 3.4057878881806456 0 0 0 0 193.44002993144386 -101.73951137128026 0 -101.73951137128026 46.949002067620967 0 0 0 0 313.96884015847172 122.4264744187477 0 122.4264744187477 32.603338331445229 0 0 0 0 57.408225243547349 -66.708527079936061 0 -66.708527079936061 24.826095994489926 0 0 0 0 307.39633226962178 78.042416411441991 0 78.042416411441991 97.097907476258797 0 0 0 0 0.33308604430337141 -0.71169951391780728 0 -0.71169951391780728 4.2204629942637535 0 0 0 0 270.68866166021326 100.68414176477677 0 100.68414176477677 92.054595199182586 0 0 0 0 430.79011972737499 126.02191351595138 0 126.02191351595138 28.029197920840261 0 0 0 0 330.00909240159672 135.52614089524485 0 135.52614089524485 41.103777453583632 0 0 0 0 0.74982399695562663 0.28652666434544471 0 0.28652666434544471 -0.16900403121003429 0 0 0 0 1.2852419309768237 -0.28694993792782952 0 -0.28694993792782952 -1.5667393966994261 0 0 0 0 6.3937787711038254 5.8130863875378775 0 5.8130863875378775 3.5283009126912077 0 0 0 0 10.844824213920219 3.6733279384155679 0 3.6733279384155679 -0.39099642312373817 0 0 0 0 4.24034020453837 1.4022807754201636 0 1.4022807754201636 -1.7634744748583868 0 0 0 0 344.64623790813494 21.868023664378583 0 21.868023664378583 -0.16312424929311931 0 0 0 0 1.4334488586514595 0.60390870233678129 0 0.60390870233678129 -0.58275055140501619 0 0 0 0 1.5723809964786994 0.94053412593589769 0 0.94053412593589769 -0.96509359411858409 0 0 0 0 5.8175127682916354 2.0124469781469543 0 2.0124469781469543 -0.52245433866733038 0 0 0 0 0.87778499993549985 -0.047078558398041537 0 -0.047078558398041537 -0.66697793873554789 0 0 0 0 306.63783593778498 256.8121577853197 0 256.8121577853197 157.86078798866947 0 0 0 0 4.0099117576340859 1.7045747987183404 0 1.7045747987183404 -0.94495243233708592 0 0 0 0 3.8587888335098057 0.71862361873400005 0 0.71862361873400005 -0.010484366754935248 0 0 0 0 10.262933209873154 5.3429814251509669 0 5.3429814251509669 1.1145729371351862 0 0 0 0 12.355976744096552 -6.3475759305503328 0 -6.3475759305503328 -9.9844053590281305 0 0 0 0 11.100877448472602 6.7784719107813416 0 6.7784719107813416 1.9507884631277648 0 0 0 0 3.0275517830463059 0.92771265960540461 0 0.92771265960540461 -0.1174020229900798 0 0 0 0 4.9157396018272266 -13.661727140476559 0 -13.661727140476559 0.72223224932134056 0 0 0 0 2.8233867093731533 0.019183723712743905 0 0.019183723712743905 -1.5319297835300629 0 0 0 0 1.8822309836868953 -2.1258974224221374 0 -2.1258974224221374 -1.3161045349876863 0 0 0 0 1.5247409722123848 -4.1217349592083217 0 -4.1217349592083217 -6.6233700891886578 0 0 0 0 -0.067244213956712429 0.0015037930756420792 0 0.0015037930756420792 -0.073267855759324582 0 0 0 0 1.3342732625096687 -1.8603888080268496 0 -1.8603888080268496 -0.010840199966339475 0 0 0 0 281.44709259662341 99.272091604366594 0 99.272091604366594 37.548493293226898 0 0 0 0 11.880414809260401 -0.9635699070416015 0 -0.9635699070416015 0.015401587821996372 0 0 0 0 0.41493699038721843 -0.088341222386304707 0 -0.088341222386304707 -0.49202481468987475 0 0 0 0 11.728945030347177 14.277062987526094 0 14.277062987526094 0.038388584104290815 0 0 0 0 316.17332162684761 107.85330424156589 0 107.85330424156589 0.17085574719104266 0 0 0 0 5.4779354741622228 5.5005100998279133 0 5.5005100998279133 -25.215618456323369 0 0 0 0 101.71055116225034 -30.191408331510242 0 -30.191408331510242 -27.728270185975262 0 0 0 0 -64.32958211764344 38.662079124261666 0 38.662079124261666 -20.307279376078576 0 0 0 0 47.785247153755336 77.780400466037165 0 77.780400466037165 -47.473164872842851 0 0 0 0 3.1397272742188846 0.17709004531283767 0 0.17709004531283767 -0.55406745754921749 0 0 0 0 15.542021044912929 -0.029710010789720798 0 -0.029710010789720798 -1.2763780660339561 0 0 0 0 36.819392858436913 29.894147997649029 0 29.894147997649029 -37.672346678100922 0 0 0 0 17.059446179220686 -3.212350218254528 0 -3.212350218254528 -31.89463446800147 0 0 0 0 20.962443100965174 -21.203243594120067 0 -21.203243594120067 -30.32650615696474 0 0 0 0 18.720602639694903 0.85286017977308148 0 0.85286017977308148 -1.0513393456287088 0 0 0 0 22.389419698723941 -11.587843271204992 0 -11.587843271204992 -10.709984068876643 0 0 0 0 34.254243342467817 7.2673543383991017 0 7.2673543383991017 -45.242324582465997 0 0 0 0 20.078079215280013 -4.0474671941425697 0 -4.0474671941425697 -19.520697618526313 0 0 0 0 17.791714401677382 -3.4976008909883318 0 -3.4976008909883318 2.2840498156334661 0 0 0 0 19.349151659800555 -7.8031416261088937 0 -7.8031416261088937 -10.554809643959539 0 0 0 0 18.525197675262461 -27.031255405088473 0 -27.031255405088473 18.856889064282466 0 0 0 0 2.6924452947860118 0.65966199192471997 0 0.65966199192471997 -2.5443354036918597 0 0 0 0 2.9807600931380875 0.27702375308524552 0 0.27702375308524552 -14.247233254712446 0 0 0 0 2.1309231442470491 0.42562630936997436 0 0.42562630936997436 -0.079778072354845395 0 0 0 0 -0.40945192440995015 -5.0234302617725994 0 -5.0234302617725994 0.015527907807392494 0 0 0 0 -0.38285724855086301 -9.1605853639263781 0 -9.1605853639263781 -9.5479630574769416 0 0 0 0 -8.3631363483182213 12.184547369828971 0 12.184547369828971 9.9317184351043633 0 0 0 0 224.28698754808283 20.000789052984167 0 20.000789052984167 -32.085175771493795 0 0 0 0 47.013401904187049 -4.7598474417079659 0 -4.7598474417079659 -0.031723029625427626 0 0 0 0 31.437201763968915 33.02047280789683 0 33.02047280789683 -32.875155119883679 0 0 0 0 20.196674845505186 -20.248484284756433 0 -20.248484284756433 41.296652966075342 0 0 0 0 0.86540523257491486 0.10205035330453427 0 0.10205035330453427 -0.045917260160962245 0 0 0 0 140.4826273984072 -90.077989347822268 0 -90.077989347822268 60.761746352707057 0 0 0 0 217.96253480931045 2.9136976285303207 0 2.9136976285303207 15.512449848689981 0 0 0 0 232.49786458205199 -1.2559821227029353 0 -1.2559821227029353 -16.288184723907271 0 0 0 0 231.15755821589846 18.264941497645001 0 18.264941497645001 3.5210559723811663 0 0 0 0 219.47940584053867 23.958119683913992 0 23.958119683913992 42.321581511155088 0 0 0 0 216.93610276489017 -2.8282043944423778 0 -2.8282043944423778 58.221474225767679 0 0 0 0 256.90165487107151 -1.219436646364034 0 -1.219436646364034 0.11497514101488061 0 0 0 0 402.91362338588078 52.21344868393075 0 52.21344868393075 -23.224874600535951 0 0 0 0 25.038982228619716 -3.9759316388671846 0 -3.9759316388671846 0.0085133917061196093 0 0 0 0 0.72605075750060166 -0.48792843771977346 0 -0.48792843771977346 0.044182555076544276 0 0 0 0 256.17012518048432 76.003217374095911 0 76.003217374095911 -14.915231065639595 0 0 0 0 60.653094248998968 1.442087359744767 0 1.442087359744767 -4.5427780485887519 0 0 0 0 44.102361628829385 -3.5606258756938196 0 -3.5606258756938196 -0.0015104172529392566 0 0 0 0 41.061999714394915 8.0693474465422987 0 8.0693474465422987 1.0735486388531541 0 0 0 0 40.873629870962759 0.47449897861981682 0 0.47449897861981682 -2.6190076704062069 0 0 0 0 42.984736709076969 4.0071543425055474 0 4.0071543425055474 1.9353937670864916 0 0 0 0 53.994783723537694 5.4081879369564732 0 5.4081879369564732 -0.032928912537560251 0 0 0 0 61.51038854449871 6.5573267064877108 0 6.5573267064877108 -1.9925523514516605 0 0 0 0 512.67453502227727 29.406576498478806 0 29.406576498478806 -54.257489245229266 0 0 0 0 353.92386588163208 57.834741505266635 0 57.834741505266635 -25.540310134017695 0 0 0 0 1.0681822384056261 -1.2355750667987024 0 -1.2355750667987024 0.22761924209488288 0 0 0 0 210.34794898476684 -29.11253666749078 0 -29.11253666749078 12.22047357462219 0 0 0 0 314.8027893438848 89.564690077844475 0 89.564690077844475 -22.035416579853937 0 0 0 0 363.99676817070576 7.7754703894077721 0 7.7754703894077721 -60.532346923354723 0 0 0 0 330.53247500264843 52.696029058342489 0 52.696029058342489 63.988003939444248 0 0 0 0 368.24008753898306 -19.034130928499437 0 -19.034130928499437 39.293692381470535 0 0 0 0 556.7883910080709 89.425349382697092 0 89.425349382697092 2.5441908980778578 0 0 0 0 3.9747881356296233 -5.3111823128167259 0 -5.3111823128167259 2.7024501277756201 0 0 0 0 2.0054684988525722 -3.7029969815753248 0 -3.7029969815753248 1.322320612821819 0 0 0 0 607.43393640825161 86.988369748671403 0 86.988369748671403 -62.771975972761609 0 0 0 0 316.87227555773643 41.756774965837543 0 41.756774965837543 -72.465685097284108 0 0 0 0 322.34341460515861 5.8260983596835274 0 5.8260983596835274 132.21356477664861 0 0 0 0 34.126530750887468 -54.822177343451486 0 -54.822177343451486 62.628979996549532 0 0 0 0 0.050753264796156827 -1.0858215698135893 0 -1.0858215698135893 -0.41926179125005503 0 0 0 0 68.798236600021482 11.177416267144089 0 11.177416267144089 -1.9701234799181293 0 0 0 0 81.576359143378795 9.7980902261160736 0 9.7980902261160736 -2.3175935419402407 0 0 0 0 76.762902986940389 4.4712577230794324 0 4.4712577230794324 -0.87616038573003152 0 0 0 0 5.6454844982350352 1.4687588821968518 0 1.4687588821968518 -3.058564060114898 0 0 0 0 -23.384176272178593 -33.810003371202185 0 -33.810003371202185 87.157276342291539 0 0 0 0 71.773553035367513 19.168086395116006 0 19.168086395116006 3.9093842496901061 0 0 0 0 145.36631152596965 118.49708557584893 0 118.49708557584893 -31.437767654134973 0 0 0 0 33.559928752077326 10.32649581302077 0 10.32649581302077 0.63633680905366319 0 0 0 0 78.049137356851134 1.3228019383299738 0 1.3228019383299738 -5.2092838142864366 0 0 0 0 77.75312469930941 4.282114474923528 0 4.282114474923528 -1.9598473578917037 0 0 0 0 78.133820319173537 6.0009832112061794 0 6.0009832112061794 0.55766428077612318 0 0 0 0 5.596343031053209 -4.9851413068783614 0 -4.9851413068783614 -5.1565519705810337 0 0 0 0 105.27355148486095 0.83352401826195432 0 0.83352401826195432 -14.292095634326159 0 0 0 0 80.215805292362347 8.0193903709161134 0 8.0193903709161134 -0.59907114823191421 0 0 0 0 79.55412978980894 6.423281921267197 0 6.423281921267197 -2.3683761413372508 0 0 0 0 45.752343264051888 -27.733672173276773 0 -27.733672173276773 -15.508073210758994 0 0 0 0 59.063334870967083 11.555698951135696 0 11.555698951135696 -37.811180280838016 0 0 0 0 15.31040883189236 -15.959172588711908 0 -15.959172588711908 -13.77127391140414 0 0 0 0 80.06931517902558 5.3386867047554318 0 5.3386867047554318 -5.0279350474828846 0 0 0 0 39.348202555032913 -22.233315297169838 0 -22.233315297169838 -46.234889195225151 0 0 0 0 55.160446151523502 1.282825485294893 0 1.282825485294893 -64.218359602687997 0 0 0 0 10.505338973118342 16.900371579742568 0 16.900371579742568 -82.387108919397576 0 0 0 0 213.64131859640474 -109.72947673762815 0 -109.72947673762815 12.172353937384514 0 0 0 0 63.95781514562259 50.588132102876557 0 50.588132102876557 -215.82402197296415 0 0 0 0 22.345933977083348 7.0948624482184641 0 7.0948624482184641 2.0404338159937119 0 0 0 0 105.85814725131422 -197.60029046693435 0 -197.60029046693435 -14.776989037552539 0 0 0 0 835.93016509898007 50.026965380183242 0 50.026965380183242 -107.21294292585856 0 0 0 0 0.57123667741284123 -0.75248980844162361 0 -0.75248980844162361 0.41599348420650095 0 0 0 0 -291.65347819616727 -405.78872555791844 0 -405.78872555791844 20.960630972097533 0 0 0 0 236.77475972752836 -283.01563403228795 0 -283.01563403228795 83.522107737779606 0 0 0 0 81.034597365534864 -0.084836694356567932 0 -0.084836694356567932 -4.6002242518695766 0 0 0 0 79.168850322108483 -0.39851365499723101 0 -0.39851365499723101 -4.6150441097001744 0 0 0 0 80.501321188989095 -0.7840910600476434 0 -0.7840910600476434 -5.1652079128994473 0 0 0 0 80.750947119522607 -0.84217440310300162 0 -0.84217440310300162 -5.1571961634537331 0 0 0 0 80.460431174258702 -0.20838328846760135 0 -0.20838328846760135 -4.0536151580914463 0 0 0 0 80.546617706226243 -0.21980120819572946 0 -0.21980120819572946 -4.377128088829835 0 0 0 0 82.223810340437922 -0.73082041223166527 0 -0.73082041223166527 -4.2284599387085535 0 0 0 0 82.498337138951683 1.426077481012971 0 1.426077481012971 -4.7310259183323637 0 0 0 0 81.339553327357862 1.4712442011834526 0 1.4712442011834526 -4.3745884842177389 0 0 0 0 81.825214233831502 4.1838129802641646 0 4.1838129802641646 -6.171348170981517 0 0 0 0 82.869906450388953 2.4601894345409079 0 2.4601894345409079 -4.8688395446359607 0 0 0 0 80.622253761743195 3.0555956775662878 0 3.0555956775662878 -5.0254102748250844 0 0 0 0 79.796629784308607 4.9201860941159907 0 4.9201860941159907 -4.187977079204785 0 0 0 0 78.44590611019521 3.1209288422987385 0 3.1209288422987385 -2.9854864978547084 0 0 0 0 80.291834876195935 3.7474740661986523 0 3.7474740661986523 -3.7502349909540555 0 0 0 0 77.858820230307174 4.0712757311128271 0 4.0712757311128271 -1.5653707153217624 0 0 0 0 77.454563129285816 2.9493461803910463 0 2.9493461803910463 -2.8435268912140543 0 0 0 0 79.681478833314031 1.4065023391369067 0 1.4065023391369067 -4.1600735146632672 0 0 0 0 77.484156527963933 1.4095875550756887 0 1.4095875550756887 -3.3135648788425485 0 0 0 0 79.821150250019855 1.8515706832140708 0 1.8515706832140708 -3.6126420244687836 0 0 0 0 79.305563617846929 -0.14665900120342457 0 -0.14665900120342457 -4.1545358692008278 0 0 0 0 78.583937764749862 -0.40592804885025657 0 -0.40592804885025657 -4.0316126578792364 0 0 0 0 74.48457200404664 1.1196947577608256 0 1.1196947577608256 -2.3190272346615952 0 0 0 0 76.045932922090287 2.9550660097581556 0 2.9550660097581556 -1.7861134648519865 0 0 0 0 77.005427050342405 3.0812832783435233 0 3.0812832783435233 -2.4776971012804552 0 0 0 0 78.074996475028456 2.2362020245627789 0 2.2362020245627789 -2.1696584871200457 0 0 0 0 70.25007856960201 0.78138178169496841 0 0.78138178169496841 -2.3269840646160276 0 0 0 0 78.080471061592107 -1.5576184008450653 0 -1.5576184008450653 -4.2087919239617602 0 0 0 0 76.489030340781028 -1.4370925184628547 0 -1.4370925184628547 -4.1886908871206145 0 0 0 0 77.890883732776274 -2.8289650701166664 0 -2.8289650701166664 -5.496633613108731 0 0 0 0 80.32370815804461 -2.0502413592441187 0 -2.0502413592441187 -5.2597770949399205 0 0 0 0 80.450183657107118 -0.94080244620725395 0 -0.94080244620725395 -4.6871036037937586 0 0 0 0 78.366254117805511 -1.6833878431207552 0 -1.6833878431207552 -4.9395287518276376 0 0 0 0 80.346284449300583 -1.3293238533878711 0 -1.3293238533878711 -5.6339913907307988 0 0 0 0 81.032748171732237 -1.475063639832964 0 -1.475063639832964 -5.6058228326021577 0 0 0 0 83.268969870035562 0.78080466803472293 0 0.78080466803472293 -2.6495883522466812 0 0 0 0 83.066938299052708 -3.8105886993205988 0 -3.8105886993205988 -5.6424401463861926 0 0 0 0 77.652868942761415 -4.1447563102088862 0 -4.1447563102088862 -2.4762399275530775 0 0 0 0 82.384915099377395 -1.8306761486850576 0 -1.8306761486850576 -3.0342733227190091 0 0 0 0 72.363863054080866 1.511233742071914 0 1.511233742071914 -3.9361905229821517 0 0 0 0 71.833723178206128 -2.9799801039578924 0 -2.9799801039578924 -3.3160131846733663 0 0 0 0 77.416232930982005 -3.057007399085014 0 -3.057007399085014 -5.0624639904063784 0 0 0 0 69.507284663428436 -1.6096486891376767 0 -1.6096486891376767 -0.9345688423453149 0 0 0 0 69.534766654767736 -1.7338371315651209 0 -1.7338371315651209 -5.1404411084080746 0 0 0 0 59.679346550741684 -0.35142118926163102 0 -0.35142118926163102 -0.84574589041308457 0 0 0 0 60.109235615251237 0.55380837126237215 0 0.55380837126237215 1.4504807559928372 0 0 0 0 74.007596791772812 0.19962027278152927 0 0.19962027278152927 -0.011474422637580695 0 0 0 0 68.132848074055801 -5.0169188228623138 0 -5.0169188228623138 -0.0040411310170694031 0 0 0 0 85.112567606127413 -5.3033934485046297 0 -5.3033934485046297 0.38642748740395838 0 0 0 0 75.351462841827015 -5.5152575997457864 0 -5.5152575997457864 -0.31299283120098131 0 0 0 0 81.922708769721794 -5.032379867145699 0 -5.032379867145699 -0.00092559854703026714 0 0 0 0 89.824812874154304 3.3915817087117661 0 3.3915817087117661 2.7535873394780515 0 0 0 0 121.13753579075274 6.9093876910355911 0 6.9093876910355911 -3.9219450406398968 0 0 0 0 97.951286216797598 -3.5579003466159493 0 -3.5579003466159493 0.014187858305752281 0 0 0 0 93.179717895240174 5.8173784296304287 0 5.8173784296304287 1.9062189856292893 0 0 0 0 69.362925388890289 9.610325640590947 0 9.610325640590947 9.8237709120023364 0 0 0 0 94.78657715630834 5.3395171094626326 0 5.3395171094626326 -0.021485720211280406 0 0 0 0 0.21581778565727916 -0.060642543436273399 0 -0.060642543436273399 0.027161582051619424 0 0 0 0 127.19585153678781 7.0276946469139983 0 7.0276946469139983 0.053806330367243131 0 0 0 0 100.14718440505385 20.424723178052513 0 20.424723178052513 2.9125330301512005 0 0 0 0 156.11643988563446 34.718490899920027 0 34.718490899920027 -8.0846383688168117 0 0 0 0 6.0594388830650132 -0.27183008042015444 0 -0.27183008042015444 0.015120451222594115 0 0 0 0 0.27892450095669119 -0.061092288360214297 0 -0.061092288360214297 -0.0076788426406439623 0 0 0 0 120.39909115816408 40.715889891510798 0 40.715889891510798 -8.3702431564565902 0 0 0 0 117.87969510095718 29.763660672055348 0 29.763660672055348 22.204715797585454 0 0 0 0 107.629462240875 5.1113331419053196 0 5.1113331419053196 16.694963300020319 0 0 0 0 94.299820968954009 19.655971647998776 0 19.655971647998776 2.1564844664225493 0 0 0 0 98.51404800452292 3.2254957438913436 0 3.2254957438913436 3.5662242441259346 0 0 0 0 108.87484462773136 10.235723604202567 0 10.235723604202567 2.9768981270032855 0 0 0 0 105.67672218490043 11.620810270173536 0 11.620810270173536 0.45414005760203935 0 0 0 0 100.89212100274744 9.7325387732965609 0 9.7325387732965609 0.26154596809125952 0 0 0 0 116.55928186011442 12.894299174898174 0 12.894299174898174 -3.5798270640011296 0 0 0 0 96.841859633452259 21.858028534382694 0 21.858028534382694 -4.1771626761308127 0 0 0 0 103.90259263299231 15.097811250771056 0 15.097811250771056 0.46537847888315298 0 0 0 0 97.604346710515529 11.110355385795598 0 11.110355385795598 6.6825159390318163 0 0 0 0 91.96254509780556 16.577681323178197 0 16.577681323178197 1.3929418321037019 0 0 0 0 93.898449062689906 22.317315026070418 0 22.317315026070418 13.876728309390387 0 0 0 0 99.081012788308726 10.422086890235523 0 10.422086890235523 2.1516302713665283 0 0 0 0 97.60721074626781 10.729993570692976 0 10.729993570692976 2.0992685864183045 0 0 0 0 77.355669649827178 5.103718566562911 0 5.103718566562911 -2.6589289390556439 0 0 0 0 79.666381891976926 -2.8818032557538018 0 -2.8818032557538018 -6.3500593151948124 0 0 0 0 85.324863695524982 -0.27476915637627641 0 -0.27476915637627641 -2.160295327086061 0 0 0 0 87.120217680276255 7.0275033100671003 0 7.0275033100671003 5.5058791511875853 0 0 0 0 0.24408366249301139 -0.15643722636482948 0 -0.15643722636482948 0.027201196805546821 0 0 0 0 92.482618408910639 6.5361197996276807 0 6.5361197996276807 -2.7848717767072415 0 0 0 0 11.732184845182928 -1.0629143605858669 0 -1.0629143605858669 -1.5241892916445168 0 0 0 0 1.9192990063794042 0.049619708645479932 0 0.049619708645479932 -0.19177920995031242 0 0 0 0 12.755385813477915 -3.0055580485895201 0 -3.0055580485895201 1.0150321731130396 0 0 0 0 18.523792904445145 -2.9570730783983348 0 -2.9570730783983348 -0.12585682970450285 0 0 0 0 -0.076043645917039271 -0.045270958743714118 0 -0.045270958743714118 0.038403688217604051 0 0 0 0 3.1746700144722126 1.0766630381258269 0 1.0766630381258269 -0.00032432938955860753 0 0 0 0 4.2228658061067108 0.60309309127461153 0 0.60309309127461153 -0.24251940401901018 0 0 0 0 5.7870365916605806 0.97849944740512984 0 0.97849944740512984 -0.38756557270976022 0 0 0 0 4.4050503640319221 1.3413967169710896 0 1.3413967169710896 0.62539688274450622 0 0 0 0 6.7138802563131321 1.4397875876685076 0 1.4397875876685076 -0.17315243042891737 0 0 0 0 1.3418760579289142 0.1560062521607648 0 0.1560062521607648 -0.18539340344856217 0 0 0 0 1.5654197072162788 1.1313107027984071 0 1.1313107027984071 1.0646931946224072 0 0 0 0 4.4053293785109418 1.4111172090105479 0 1.4111172090105479 0.26848303164887488 0 0 0 0 4.1799574731267057 1.2384141758582929 0 1.2384141758582929 0.27134005015852508 0 0 0 0 4.571876657577377 1.2244446084402658 0 1.2244446084402658 -0.00071852255640183832 0 0 0 0 0.61077423911774531 0.30103479181416037 0 0.30103479181416037 0.00094987856338199267 0 0 0 0 0.1979645574003257 0.050362704642736844 0 0.050362704642736844 -0.0017508016847349911 0 0 0 0 0.10826316339586128 0.069611255575225073 0 0.069611255575225073 0.051986126983747119 0 0 0 0 3.4497463883599266 2.7212904241569063 0 2.7212904241569063 1.3270563965121442 0 0 0 0 0.48063341854640385 0.16038412091106835 0 0.16038412091106835 0.32778088187161486 0 0 0 0 0.7213168195924311 0.11568577879106101 0 0.11568577879106101 0.14725334911873181 0 0 0 0 45.626991894969251 -22.789716352989529 0 -22.789716352989529 12.563360116120979 0 0 0 0 1.3036736174253747 1.4424902908962451 0 1.4424902908962451 7.1921679009196922 0 0 0 0 3.0368137827026658 1.8073888009216246 0 1.8073888009216246 1.663428293670193 0 0 0 0 0.75640757197952446 0.74797292736536747 0 0.74797292736536747 0.69833991984368382 0 0 0 0 1.6648262367161806 0.53278015244465848 0 0.53278015244465848 0.45140807320331078 0 0 0 0 0.76318984723184258 0.64757587723943288 0 0.64757587723943288 0.32033838328379716 0 0 0 0 1.4670583815388909 0.92507276284203499 0 0.92507276284203499 0.51693551994339526 0 0 0 0 1.0498291269095716 1.0829508739420675 0 1.0829508739420675 1.1207658450221372 0 0 0 0 1.047115220096984 0.67504726582146191 0 0.67504726582146191 0.6270294950396319 0 0 0 0 0.5797604655235773 0.46130145412594459 0 0.46130145412594459 1.2063971760520609 0 0 0 0 0.23623843934458577 0.18537030005472843 0 0.18537030005472843 0.99646612894754127 0 0 0 0 37.581599586847005 18.052442214604859 0 18.052442214604859 18.397434079896087 0 0 0 0 87.396206428617006 46.123806755167934 0 46.123806755167934 19.708553546425549 0 0 0 0 107.02169231671724 16.554088172345207 0 16.554088172345207 -3.7525377325451217 0 0 0 0 0.065007273729058568 0.027963349286437733 0 0.027963349286437733 0.37387503726894888 0 0 0 0 -2.9241140912199626 0.70598236226597066 0 0.70598236226597066 4.2416257024038089 0 0 0 0 122.72663694807852 30.913245890401441 0 30.913245890401441 2.5854922818551387 0 0 0 0 88.972871809193748 6.5193590025729371 0 6.5193590025729371 -7.3176696781683574 0 0 0 0 1.2727218677900964 0.47051237426192927 0 0.47051237426192927 0.049836640843381019 0 0 0 0 1.6927354589424795 1.3375423872035377 0 1.3375423872035377 1.0465874580149723 0 0 0 0 0.9990616304694413 2.0983892309224768 0 2.0983892309224768 0.52556801730219149 0 0 0 0 3.1119917402393185 2.073101767855519 0 2.073101767855519 2.2099750427063327 0 0 0 0 1.7434028331493323 0.60987400412672343 0 0.60987400412672343 -0.18170023593528883 0 0 0 0 0.14100722536943522 0.21253523317773215 0 0.21253523317773215 0.47581129088976759 0 0 0 0 3.440460241981782 2.3446418986219513 0 2.3446418986219513 1.2120923348873021 0 0 0 0 4.2623517311347427 0.86328968059054745 0 0.86328968059054745 -0.5501695733318348 0 0 0 0 4.4500509169592988 1.6788814503741207 0 1.6788814503741207 0.3339780791852931 0 0 0 0 5.5812658062786795 2.0576397485478104 0 2.0576397485478104 1.0273249456882949 0 0 0 0 4.8795549217349645 1.9875290892800308 0 1.9875290892800308 0.97338775771424002 0 0 0 0 2.1998832340978538 1.1110555263445434 0 1.1110555263445434 -0.003132197031459838 0 0 0 0 0.80164614920292365 2.6809916928033033 0 2.6809916928033033 1.2862152643717135 0 0 0 0 2.9634347884421004 2.5315302159935342 0 2.5315302159935342 1.2217832393343944 0 0 0 0 7.1841454390341823 1.3557169727197973 0 1.3557169727197973 1.1562783028564354 0 0 0 0 0.49390920644444236 0.64530633659140335 0 0.64530633659140335 -0.2345661182902839 0 0 0 0 7.069149837072473 1.8192873116627339 0 1.8192873116627339 0.96858460267765167 0 0 0 0 12.998748916885233 10.64770934018901 0 10.64770934018901 3.0647656407610313 0 0 0 0 2.4480741739082532 -0.12979231941596936 0 -0.12979231941596936 -0.057763877010782894 0 0 0 0 16.949159326148219 4.1625489205498525 0 4.1625489205498525 2.6290175606593493 0 0 0 0 5.1438619572145399 7.3181226877781569 0 7.3181226877781569 1.8292061118696665 0 0 0 0 12.603772715854575 6.3348405715149738 0 6.3348405715149738 -6.519763417400668 0 0 0 0 9.4805275812898913 0.35668545416962161 0 0.35668545416962161 -0.40565125875256525 0 0 0 0 10.976008956684382 -2.4583622915085428 0 -2.4583622915085428 -2.9398621198382409 0 0 0 0 8.8664745430287439 3.3441713943716422 0 3.3441713943716422 4.4087307342457507 0 0 0 0 6.1004758939670864 0.050251274436448057 0 0.050251274436448057 2.1007335791028936 0 0 0 0 7.6252934645599453 -0.30104395479574464 0 -0.30104395479574464 1.165696352636445 0 0 0 0 5.2044877724632101 1.0408899483323899 0 1.0408899483323899 0.84128098784429994 0 0 0 0 6.4068034272495424 1.979938057260739 0 1.979938057260739 1.0149217942444011 0 0 0 0 3.3345752310576415 2.7836169949164571 0 2.7836169949164571 0.073550246519107243 0 0 0 0 6.9032635391631629 2.1751317268797976 0 2.1751317268797976 -0.044740662446542956 0 0 0 0 6.8326016525388695 1.6310017122725071 0 1.6310017122725071 0.13710573690724459 0 0 0 0 6.9261844238499179 1.9434935084426854 0 1.9434935084426854 1.1170041760299796 0 0 0 0 8.2742560798724298 1.2580376926260897 0 1.2580376926260897 -0.70402072631316059 0 0 0 0 8.0128933088271879 1.6321255469022162 0 1.6321255469022162 -1.072907395398488 0 0 0 0 7.3898315299011301 2.0965332797712222 0 2.0965332797712222 -0.77196169234548506 0 0 0 0 10.545104698890839 -0.7415563096051585 0 -0.7415563096051585 -0.69393755401170076 0 0 0 0 7.5420000126468949 1.541039875832098 0 1.541039875832098 0.14459344981469258 0 0 0 0 52.943679786199937 23.38596284639442 0 23.38596284639442 4.7630475779676544 0 0 0 0 1.2821227979829359 1.611959550665091 0 1.611959550665091 -0.39150532560817386 0 0 0 0 57.924632195878075 24.605266877842297 0 24.605266877842297 4.8535826029686007 0 0 0 0 16.912679468267015 -0.29324910996105302 0 -0.29324910996105302 -16.737552955275063 0 0 0 0 0.53986038552829996 5.5225847292011849 0 5.5225847292011849 2.9362109133444676 0 0 0 0 0.78452317550545558 2.5246206801418367 0 2.5246206801418367 0.5446671366563649 0 0 0 0 0.82363264385639923 5.3070959827511919 0 5.3070959827511919 8.9499679414937248 0 0 0 0 88.792010263889097 37.551467258503664 0 37.551467258503664 -2.9379581070506902 0 0 0 0 91.841612465126673 41.339038343790293 0 41.339038343790293 31.051170673409871 0 0 0 0 87.472051065753476 16.751756846321477 0 16.751756846321477 10.297206115106803 0 0 0 0 81.349160926663899 5.4495108736997295 0 5.4495108736997295 -5.0872718343441647 0 0 0 0 48.639458036399446 17.502797063056192 0 17.502797063056192 36.714697321815109 0 0 0 0 66.485007814117125 15.273905953567592 0 15.273905953567592 1.9579930490806419 0 0 0 0 70.948187276255339 17.993662957411971 0 17.993662957411971 -3.6720177059663506 0 0 0 0 49.286941271286196 13.269719995137283 0 13.269719995137283 1.9566811376647593 0 0 0 0 58.58216090152564 0.31237377868079363 0 0.31237377868079363 -7.0339863353857197 0 0 0 0 6.3773461697822 8.3761768002716224 0 8.3761768002716224 -1.296410957184404 0 0 0 0 19.51271003986767 15.321037406630865 0 15.321037406630865 7.9247988749973786 0 0 0 0 19.853302962510497 4.5410727808631748 0 4.5410727808631748 -1.975927647741031 0 0 0 0 25.010066819770145 -0.88365710471516934 0 -0.88365710471516934 -4.357901620855273 0 0 0 0 22.52670094306086 -12.365439416251647 0 -12.365439416251647 1.018628471528503 0 0 0 0 30.215830232365988 1.8141300605019746 0 1.8141300605019746 -3.1098704562091566 0 0 0 0 10.861765164881945 -2.3934752780625388 0 -2.3934752780625388 0.71784650543668249 0 0 0 0 52.628376267050044 -42.12073442280753 0 -42.12073442280753 35.654026255374106 0 0 0 0 0.81933593485604206 -0.4632250325557834 0 -0.4632250325557834 -0.53895638201753515 0 0 0 0 11.370092089702666 -5.0501624178018858 0 -5.0501624178018858 -1.0721058113362574 0 0 0 0 6.3219703986879949 -1.3008643417734618 0 -1.3008643417734618 0.12135182667106781 0 0 0 0 78.031822423992708 -3.1816360940563406 0 -3.1816360940563406 -5.5249829642714303 0 0 0 0 84.547903217666317 -2.65331608856809 0 -2.65331608856809 -6.3471884575960118 0 0 0 0 80.507753074103675 -0.52738381806272727 0 -0.52738381806272727 -7.3117634927156132 0 0 0 0 63.688041887558938 -3.9467669288636102 0 -3.9467669288636102 -3.2235850640502122 0 0 0 0 0.17660422145200982 -0.094691832650624974 0 -0.094691832650624974 -0.0041577492321017151 0 0 0 0 115.92820631376526 5.0819041162106622 0 5.0819041162106622 -3.5581607899500511 0 0 0 0 88.755393391402322 -1.302699313737989 0 -1.302699313737989 -2.6771982909204297 0 0 0 0 83.207228833984118 15.828396830049783 0 15.828396830049783 13.329981829716331 0 0 0 0 83.609263203979935 5.4301393104184257 0 5.4301393104184257 4.4285511525846459 0 0 0 0 85.89538300318236 10.656847713906686 0 10.656847713906686 -0.67277249971884601 0 0 0 0 75.662831201450899 9.6262363705811822 0 9.6262363705811822 -5.8009747270291427 0 0 0 0 79.914531164788059 5.5949901857374158 0 5.5949901857374158 -4.902876431327428 0 0 0 0 83.574447344595683 3.1442649090061678 0 3.1442649090061678 -5.747675708863099 0 0 0 0 81.539630572297028 0.85854675932897351 0 0.85854675932897351 -8.1718421724916652 0 0 0 0 79.883792518943665 3.837106704691891 0 3.837106704691891 -9.1705666255896148 0 0 0 0 68.547162499235128 3.5109335852079511 0 3.5109335852079511 -8.2820704268126804 0 0 0 0 67.94618797172734 9.1629791809454844 0 9.1629791809454844 -7.583212984094164 0 0 0 0 71.821742356845789 1.5563645210018322 0 1.5563645210018322 -6.4311551665053912 0 0 0 0 80.329237308498705 0.92314247528274507 0 0.92314247528274507 -7.5345587493870809 0 0 0 0 81.26401769369113 -0.66835000432430469 0 -0.66835000432430469 -6.6571046654297277 0 0 0 0 80.640363679078291 -1.0834159091741071 0 -1.0834159091741071 -6.9327868222908791 0 0 0 0 80.296926945302403 -1.1092670192507121 0 -1.1092670192507121 -5.42105634298062 0 0 0 0 80.498745945629707 -0.23638690613681845 0 -0.23638690613681845 -5.8084120357960671 0 0 0 0 80.365791536241886 0.51530449303449188 0 0.51530449303449188 -4.319067342858375 0 0 0 0 79.722941405198071 1.1075056014507396 0 1.1075056014507396 -4.6555317506646929 0 0 0 0 77.914092851831811 1.7150785056709879 0 1.7150785056709879 -4.882797290982495 0 0 0 0 80.134422014325537 1.6451446381949886 0 1.6451446381949886 -5.0710156013277583 0 0 0 0 79.629332161010097 2.6451175271880167 0 2.6451175271880167 -2.3028919528899223 0 0 0 0 78.837369176908396 1.9393757797456175 0 1.9393757797456175 -1.6634863472059607 0 0 0 0 79.336115147321834 3.416764832855975 0 3.416764832855975 0.035979081499945664 0 0 0 0 81.781022318798932 -0.78378182824090459 0 -0.78378182824090459 1.7049446650652982 0 0 0 0 83.101139124628389 1.8017752001117628 0 1.8017752001117628 4.608191842523695 0 0 0 0 90.118205146151013 -6.5604895679583279 0 -6.5604895679583279 6.1825898082210387 0 0 0 0 83.213909221696667 -4.5134578279033661 0 -4.5134578279033661 8.1724745296453705 0 0 0 0 82.009452543479711 -0.78648134264293645 0 -0.78648134264293645 -0.30817235350963301 0 0 0 0 79.91300341184251 0.49626684071073157 0 0.49626684071073157 3.5774328667989863 0 0 0 0 78.47883640431337 -8.3392074947320634 0 -8.3392074947320634 7.4723370336204198 0 0 0 0 68.476628276825068 -3.9091541387443485 0 -3.9091541387443485 1.6818773182656628 0 0 0 0 74.041067945694522 4.1728628302018009 0 4.1728628302018009 -4.1145867704122168 0 0 0 0 75.828225991863292 1.7207647424500294 0 1.7207647424500294 -1.0803423829649432 0 0 0 0 77.855538346906542 2.1366564760797502 0 2.1366564760797502 -7.5826169284565026 0 0 0 0 52.693624480292783 6.139709636895617 0 6.139709636895617 -1.7453714902087398 0 0 0 0 5.4195643886282454 9.2672578276670947 0 9.2672578276670947 0.56657692378800095 0 0 0 0 24.461429482948006 13.640283493540608 0 13.640283493540608 11.926965355637606 0 0 0 0 29.304372187561967 -0.59398347364344217 0 -0.59398347364344217 3.7751246391527644 0 0 0 0 51.431065871802275 9.5782315316363054 0 9.5782315316363054 7.9165121468821269 0 0 0 0 37.064981812036422 9.0304913899914396 0 9.0304913899914396 0.41157524392031064 0 0 0 0 32.289131834906584 -13.492496706941672 0 -13.492496706941672 14.241749658468507 0 0 0 0 32.453602940600831 -16.695539526440655 0 -16.695539526440655 19.913221681709047 0 0 0 0 81.776703136962169 -24.907109515812976 0 -24.907109515812976 31.655255676141792 0 0 0 0 37.016455504024634 14.224697122250234 0 14.224697122250234 33.266077269495781 0 0 0 0 31.733855124795809 -12.916374036688083 0 -12.916374036688083 27.210636157330896 0 0 0 0 96.939689608101617 -92.149005089075146 0 -92.149005089075146 45.121584314463874 0 0 0 0 0.15327587686076072 0.043486135100152978 0 0.043486135100152978 -0.23598739716598105 0 0 0 0 40.415386272552496 -9.0876524154291687 0 -9.0876524154291687 37.386023516215801 0 0 0 0 40.086217349002254 -4.2376567466783968 0 -4.2376567466783968 4.7786104705136836 0 0 0 0 81.790685568936169 -33.22474290599925 0 -33.22474290599925 55.696582438951452 0 0 0 0 100.61231010584743 -48.116044088766387 0 -48.116044088766387 46.292466034870472 0 0 0 0 62.046967132104328 -27.5072197243706 0 -27.5072197243706 45.676536484762437 0 0 0 0 70.988400513830129 -16.610551226005441 0 -16.610551226005441 38.601515554274414 0 0 0 0 83.682512120692991 -34.445652748058478 0 -34.445652748058478 39.24870917248461 0 0 0 0 80.396623986074701 -21.86069402367832 0 -21.86069402367832 38.62961931499467 0 0 0 0 73.333934002643218 -30.586182664146804 0 -30.586182664146804 45.733439934838088 0 0 0 0 106.7461774426265 -37.701871567857978 0 -37.701871567857978 37.742320560671715 0 0 0 0 98.544248838181375 -46.161386088317101 0 -46.161386088317101 41.066465512884974 0 0 0 0 76.968513067637105 -42.284142161099908 0 -42.284142161099908 45.452858648591814 0 0 0 0 123.30219789082093 -66.276747755913874 0 -66.276747755913874 49.643968025026481 0 0 0 0 120.96235401429294 -43.36312008873449 0 -43.36312008873449 35.093004630007158 0 0 0 0 133.06412159230604 -38.732443244257212 0 -38.732443244257212 16.250537182468747 0 0 0 0 126.21504687958804 -51.763729079583186 0 -51.763729079583186 20.891310375118337 0 0 0 0 198.02676493868057 -69.857645885925223 0 -69.857645885925223 19.685905831618754 0 0 0 0 112.32703869167017 -37.528609329925587 0 -37.528609329925587 8.7791551397142484 0 0 0 0 101.71212369520254 -35.766062334597862 0 -35.766062334597862 23.766494843984901 0 0 0 0 102.50891297461931 -44.208636142114415 0 -44.208636142114415 40.318405031452215 0 0 0 0 87.022729154559784 -34.433412955568542 0 -34.433412955568542 39.09946421292301 0 0 0 0 93.448510684480425 -37.472764857024572 0 -37.472764857024572 24.927620524422593 0 0 0 0 125.00935281299462 -38.259823056129221 0 -38.259823056129221 -8.6083375978938648 0 0 0 0 99.160549586529669 -33.522068945865442 0 -33.522068945865442 -2.3155121443458029 0 0 0 0 103.77655533245706 -42.685111437424467 0 -42.685111437424467 9.837809924035696 0 0 0 0 123.47175560861069 -36.433173631333261 0 -36.433173631333261 -0.26523878509249244 0 0 0 0 152.06109129685501 -47.417435567406415 0 -47.417435567406415 3.3806325616967001 0 0 0 0 33.03536906213958 -25.062838370588992 0 -25.062838370588992 4.8368428395184537 0 0 0 0 6.1332564547792856 9.6925003640353964 0 9.6925003640353964 2.2017707752020934 0 0 0 0 38.912569907028228 -18.801170450391766 0 -18.801170450391766 11.482899915794576 0 0 0 0 70.139194417846738 -2.1416640646660312 0 -2.1416640646660312 2.9744149196654632 0 0 0 0 85.964840810598616 -26.983584205289176 0 -26.983584205289176 19.703630115587885 0 0 0 0 0.39650071897511907 0.28590521671827673 0 0.28590521671827673 -0.051569335474055844 0 0 0 0 93.562228239872638 -37.217531182425546 0 -37.217531182425546 7.2043664829566296 0 0 0 0 69.427931963509764 -24.962948102766944 0 -24.962948102766944 4.8625338894823926 0 0 0 0 82.184269762103213 -43.443851996952048 0 -43.443851996952048 11.182645604058905 0 0 0 0 0.5597047305454339 0.44502727921732799 0 0.44502727921732799 0.03658263386450944 0 0 0 0 3.7861611382972455 10.120734913186737 0 10.120734913186737 4.1286762295237445 0 0 0 0 61.46984281387995 2.2409863882778041 0 2.2409863882778041 14.509994226738826 0 0 0 0 76.102859331389482 -29.651116418296084 0 -29.651116418296084 5.6594805812037521 0 0 0 0 74.686498094437411 -29.758371792891467 0 -29.758371792891467 -4.0675709080605316 0 0 0 0 89.849481392695452 -28.373210850286341 0 -28.373210850286341 -5.5848806457676119 0 0 0 0 92.643824658793164 -37.172835332606837 0 -37.172835332606837 -0.31595803552244206 0 0 0 0 104.97119458422821 -20.375232153069078 0 -20.375232153069078 -10.102398767673094 0 0 0 0 120.88817633401322 -12.791831342163043 0 -12.791831342163043 -11.686480980428087 0 0 0 0 99.998329310881672 6.7816472774309204 0 6.7816472774309204 3.1579428330062456 0 0 0 0 96.556061403898639 -19.711785498211498 0 -19.711785498211498 -9.0236133231653639 0 0 0 0 0.41032167120985719 0.29110378284593708 0 0.29110378284593708 -0.081438554423323595 0 0 0 0 101.83776087363367 -29.874803491137527 0 -29.874803491137527 -3.1507984311064092 0 0 0 0 46.665361536030105 12.547583650151914 0 12.547583650151914 15.446497358463148 0 0 0 0 49.838266097896849 -15.037799674484631 0 -15.037799674484631 5.2226950975962154 0 0 0 0 116.57594143290771 -23.107257113070261 0 -23.107257113070261 -18.15327171029071 0 0 0 0 121.72796683774504 -35.926127042601422 0 -35.926127042601422 -16.334604692308403 0 0 0 0 141.96379337555845 -30.498948267334356 0 -30.498948267334356 -16.055335151306053 0 0 0 0 112.59364978883241 -36.923153085797139 0 -36.923153085797139 -8.3496733603599296 0 0 0 0 109.66543835945777 -32.168036472377935 0 -32.168036472377935 -12.589166374776823 0 0 0 0 109.61570475007466 -33.122986955618586 0 -33.122986955618586 -12.085706845505683 0 0 0 0 122.7001003541518 -34.481484403866261 0 -34.481484403866261 -14.435619325796551 0 0 0 0 116.2133596122294 -32.334947727799999 0 -32.334947727799999 -15.113026006429436 0 0 0 0 116.22268065102071 -32.494937272478886 0 -32.494937272478886 -18.469672873017771 0 0 0 0 107.23824012864497 -27.250917911064107 0 -27.250917911064107 -13.411362690314036 0 0 0 0 85.712621803075308 -11.512716922688924 0 -11.512716922688924 -15.040096731762446 0 0 0 0 109.56033355031104 -24.526567149177424 0 -24.526567149177424 -14.953974910964916 0 0 0 0 94.905976086127339 -10.09478899089612 0 -10.09478899089612 -21.345599092631346 0 0 0 0 97.720901581225917 -24.857243936481382 0 -24.857243936481382 0.25350422396718386 0 0 0 0 114.03652287795558 -30.542375555783565 0 -30.542375555783565 -13.85492574356681 0 0 0 0 114.24423320820097 -28.725939654755038 0 -28.725939654755038 -0.73803001054011474 0 0 0 0 122.6014822285797 -30.148290957153677 0 -30.148290957153677 -1.4034996138595943 0 0 0 0 113.12693810212659 -12.047002652666606 0 -12.047002652666606 22.837546534817648 0 0 0 0 76.873545611641021 1.4727691926033231 0 1.4727691926033231 19.473780421501033 0 0 0 0 23.463817534223722 3.7331367736724417 0 3.7331367736724417 -6.6491651263683345 0 0 0 0 130.48420309025096 9.8502926287487753 0 9.8502926287487753 1.930471114702641 0 0 0 0 112.15367646985942 -19.285179480364533 0 -19.285179480364533 -10.846779317853816 0 0 0 0 68.70180226736818 8.2633696791536835 0 8.2633696791536835 -8.7382864524255162 0 0 0 0 72.710646441104473 -15.133492212978354 0 -15.133492212978354 0.9170385481993435 0 0 0 0 84.055224298208486 3.9843529238501105 0 3.9843529238501105 -24.52558741058499 0 0 0 0 17.505330144555046 -52.720909124906683 0 -52.720909124906683 -10.716925366630903 0 0 0 0 63.230276811016665 11.959202451660801 0 11.959202451660801 12.952130182121437 0 0 0 0 65.465625462420576 24.346243634776158 0 24.346243634776158 9.8264060500500818 0 0 0 0 107.96433951891959 36.132998189952332 0 36.132998189952332 -0.37214502816686945 0 0 0 0 175.18786113199894 -22.626472948051514 0 -22.626472948051514 -9.9650097876647123 0 0 0 0 122.0234050269537 -25.367082211937813 0 -25.367082211937813 6.5117184568384801 0 0 0 0 219.13728074985556 37.136467762521761 0 37.136467762521761 -2.7744678209929816 0 0 0 0 15.571657512997888 5.9509712547840365 0 5.9509712547840365 2.1719305739932731 0 0 0 0 289.90425860874529 -23.560287305549821 0 -23.560287305549821 -65.942384952227087 0 0 0 0 68.812991977203637 -23.168993823446726 0 -23.168993823446726 26.384420942286397 0 0 0 0 191.64028783031972 -52.373962269431104 0 -52.373962269431104 13.896075238353887 0 0 0 0 107.38729176275228 -40.523416984615324 0 -40.523416984615324 33.916373138653398 0 0 0 0 -0.85828504098753911 97.699897410438439 0 97.699897410438439 112.27959714947929 0 0 0 0 102.5008480367178 -12.386363768817773 0 -12.386363768817773 9.1205506894893915 0 0 0 0 62.604383610696772 -14.454807832763464 0 -14.454807832763464 -3.0834680476791441 0 0 0 0 82.111005295460927 11.267187093033044 0 11.267187093033044 16.62687565512033 0 0 0 0 26.167991065849833 4.4051730581586241 0 4.4051730581586241 3.8061206166000279 0 0 0 0 89.536189581762301 6.2408618898693931 0 6.2408618898693931 -0.98509645042787497 0 0 0 0 73.70362545037068 -16.998615908624913 0 -16.998615908624913 -6.099314484362119 0 0 0 0 -37.028617555653909 -103.32731561771311 0 -103.32731561771311 -19.52952619284622 0 0 0 0 34.608206669785432 37.382525854508231 0 37.382525854508231 0.7336319355181331 0 0 0 0 -1.371282130246982 8.7455220329869121 0 8.7455220329869121 55.239055750797888 0 0 0 0 208.65290651790565 177.3148822687283 0 177.3148822687283 116.04157248113006 0 0 0 0 40.94088675819512 62.326282488192419 0 62.326282488192419 40.544499763787599 0 0 0 0 155.42526118906972 -164.37375230196619 0 -164.37375230196619 163.39939250661155 0 0 0 0 71.780079399919487 -24.419004409657418 0 -24.419004409657418 -22.093327640247367 0 0 0 0 394.24437928030966 -10.343408268204712 0 -10.343408268204712 -21.743694381178329 0 0 0 0 3.7683773468668846 0.92870643091975502 0 0.92870643091975502 0.23352754361741876 0 0 0 0 -40.423558895432507 -3.4893115982386007 0 -3.4893115982386007 258.50998502337268 0 0 0 0 87.072082001337549 2.2080306414589046 0 2.2080306414589046 12.858386876158363 0 0 0 0 208.39841679723031 -213.23559678220022 0 -213.23559678220022 -131.62480374047732 0 0 0 0 71.534464906070923 -17.236161701299736 0 -17.236161701299736 -7.6412587215454124 0 0 0 0 203.79242536990932 173.814694774906 0 173.814694774906 66.202077525656932 0 0 0 0 81.491269221762195 -0.84093705629038595 0 -0.84093705629038595 2.828375391496138 0 0 0 0 81.019552545827537 -2.8754275107344718 0 -2.8754275107344718 9.5405095968191063 0 0 0 0 83.329934421883081 -2.8781326116486241 0 -2.8781326116486241 10.367828064210357 0 0 0 0 86.139533384790411 18.82400407840214 0 18.82400407840214 30.88617765492927 0 0 0 0 20.048884301006154 9.278089874568451 0 9.278089874568451 5.2216860371523754 0 0 0 0 104.78214787787147 0.85477310714561838 0 0.85477310714561838 14.21036364298196 0 0 0 0 87.040722523758348 -6.2926166997887121 0 -6.2926166997887121 11.674097679569854 0 0 0 0 9.7033679082832691 -7.8354844181984333 0 -7.8354844181984333 -4.9050412867818256 0 0 0 0 63.062402309447833 -30.965746672499378 0 -30.965746672499378 -12.88643728788459 0 0 0 0 74.517611179471714 -60.111426739625131 0 -60.111426739625131 -10.349500164537403 0 0 0 0 35.667741307523102 -78.177068552407036 0 -78.177068552407036 2.3045500160824304 0 0 0 0 60.008546078199288 35.261807029922124 0 35.261807029922124 -53.456855901949439 0 0 0 0 23.177032810048644 5.9671747680131944 0 5.9671747680131944 -22.926667142665501 0 0 0 0 47.817613740902743 -8.6437364138871544 0 -8.6437364138871544 -37.317829553085176 0 0 0 0 20.05255276200478 -12.741901325325671 0 -12.741901325325671 -36.428805172171451 0 0 0 0 44.970348465052666 -19.233953852852437 0 -19.233953852852437 -76.707017485182405 0 0 0 0 36.304575223228312 -39.093954856102982 0 -39.093954856102982 -35.485535840597095 0 0 0 0 -2.0037347275938373 1.9906631502465189 0 1.9906631502465189 2.3987393112534274 0 0 0 0 46.366798305127304 44.054075973668205 0 44.054075973668205 -138.41170064785251 0 0 0 0 195.48517827149772 -170.75976275553239 0 -170.75976275553239 113.28168133226336 0 0 0 0 193.26213322281546 -75.657592176162552 0 -75.657592176162552 -12.990109168849813 0 0 0 0 201.16617589155067 -80.00921254103514 0 -80.00921254103514 -11.938853600703624 0 0 0 0 180.49457748263376 -88.356267501891352 0 -88.356267501891352 -24.202885302997856 0 0 0 0 204.62411529582459 -73.794394248172466 0 -73.794394248172466 -22.931827543225154 0 0 0 0 204.73745383338246 -82.096956414335409 0 -82.096956414335409 -78.656631708516215 0 0 0 0 220.38854462558811 -86.076506859596066 0 -86.076506859596066 -31.17460076939733 0 0 0 0 72.498093861700909 -53.020506703452156 0 -53.020506703452156 15.769636031154732 0 0 0 0 194.48278795267106 -44.249049976007882 0 -44.249049976007882 -71.136669143274048 0 0 0 0 183.49739888537442 -82.359494939990327 0 -82.359494939990327 -14.697661285534195 0 0 0 0 227.22813569880964 -61.462967803280662 0 -61.462967803280662 -91.748971272600102 0 0 0 0 187.72352795130928 -17.804516030097986 0 -17.804516030097986 -132.05697406645595 0 0 0 0 60.439570757822366 -22.422659946296903 0 -22.422659946296903 -36.279885859667957 0 0 0 0 187.8950299059702 -23.797342506080639 0 -23.797342506080639 -51.285259730024336 0 0 0 0 195.57266311184503 -107.62510225001097 0 -107.62510225001097 -108.58856771387946 0 0 0 0 230.70055712075555 -73.73311209244639 0 -73.73311209244639 -77.983298683865087 0 0 0 0 186.54508171020279 -83.972836935829037 0 -83.972836935829037 -104.31762438676378 0 0 0 0 268.5348214997648 -137.17770998770038 0 -137.17770998770038 -153.76370153515018 0 0 0 0 -228.8377517752815 -215.35986993135339 0 -215.35986993135339 66.007994960815267 0 0 0 0 751.31121265716502 -213.38420024359402 0 -213.38420024359402 -142.39912520155576 0 0 0 0 52.558384256307249 -29.820719000167767 0 -29.820719000167767 -11.8490791119184 0 0 0 0 156.48362366218498 172.94404361867601 0 172.94404361867601 -57.882142731130443 0 0 0 0 437.69179946189979 0.89173742094317276 0 0.89173742094317276 -131.59716326349235 0 0 0 0 -223.08933515194803 215.9177442822911 0 215.9177442822911 -49.451283427426915 0 0 0 0 540.83092787492205 346.70185391362315 0 346.70185391362315 -121.77182812717365 0 0 0 0 9.3122495499234734 0.80660943302802934 0 0.80660943302802934 0.054501492828098463 0 0 0 0 84.703496219546651 -42.150854619513552 0 -42.150854619513552 -35.495850198871267 0 0 0 0 48.160733160182446 -33.925084220454337 0 -33.925084220454337 -17.525217995384882 0 0 0 0 87.017530352837639 -16.636616305539746 0 -16.636616305539746 10.912718611913988 0 0 0 0 78.442731318733422 -22.957693232140628 0 -22.957693232140628 -42.853237889303273 0 0 0 0 118.63512623896167 -15.423690247541799 0 -15.423690247541799 -79.962209298876587 0 0 0 0 109.12952532943018 -21.457979351797576 0 -21.457979351797576 -25.339607291166431 0 0 0 0 97.472070942465507 -29.182651194753845 0 -29.182651194753845 13.131846385145309 0 0 0 0 97.262025751224428 -25.825257117494857 0 -25.825257117494857 -25.987964484361015 0 0 0 0 100.62122741396888 -93.911926538299213 0 -93.911926538299213 91.854349962604147 0 0 0 0 28.982451338019018 117.61018491048463 0 117.61018491048463 58.34897720396657 0 0 0 0 269.96422445030476 -31.445209672914189 0 -31.445209672914189 -88.079248347561929 0 0 0 0 75.157241757609881 44.80056126912632 0 44.80056126912632 -68.03338901449888 0 0 0 0 105.04095827614219 84.877167278950537 0 84.877167278950537 -143.61872896936347 0 0 0 0 74.214113682531149 11.808446312236129 0 11.808446312236129 -5.9663944872937318 0 0 0 0 133.96621971639979 -56.992044551080653 0 -56.992044551080653 -38.074918894929624 0 0 0 0 28.778384853256284 13.488975751009775 0 13.488975751009775 -13.968569729857336 0 0 0 0 32.091772135681822 53.699004806998346 0 53.699004806998346 -35.275416070675647 0 0 0 0 72.375525960342145 10.073579366032995 0 10.073579366032995 -7.1760436641715808 0 0 0 0 41.134283557519666 120.11321747002899 0 120.11321747002899 -101.90646577130406 0 0 0 0 85.523037431237753 18.189231477713065 0 18.189231477713065 -51.926552315016806 0 0 0 0 73.322390760018607 10.26847597583992 0 10.26847597583992 -30.270125205127897 0 0 0 0 75.769505257485434 -2.550111443873277 0 -2.550111443873277 -14.160814491822066 0 0 0 0 102.95666481290391 -1.0507386245997736 0 -1.0507386245997736 -22.425556830515006 0 0 0 0 99.20650060960179 -6.5407125392974876 0 -6.5407125392974876 -32.306891931992823 0 0 0 0 119.28026573725219 -23.263310279671941 0 -23.263310279671941 -22.714393136922354 0 0 0 0 109.23176378167409 2.4452098206733126 0 2.4452098206733126 -35.805334902768777 0 0 0 0 87.135919604581431 14.013497016865017 0 14.013497016865017 -17.409033937550475 0 0 0 0 117.39567176660057 9.8603561818025582 0 9.8603561818025582 -17.648796836922678 0 0 0 0 143.76180746984028 -11.707893577854918 0 -11.707893577854918 -20.020945556868895 0 0 0 0 59.01087737402122 24.025569105889815 0 24.025569105889815 -22.06537358136643 0 0 0 0 57.829042998375371 44.01747305517091 0 44.01747305517091 -13.77174574145215 0 0 0 0 80.445612146380626 8.178326710382045 0 8.178326710382045 -11.500996323492101 0 0 0 0 81.758584366587456 14.494854024798883 0 14.494854024798883 -47.153508782225231 0 0 0 0 94.163684689934598 29.650313738581758 0 29.650313738581758 -31.1821114100876 0 0 0 0 87.57332200770179 38.193185536426427 0 38.193185536426427 -15.053239323151956 0 0 0 0 86.402905331400689 21.440275643579298 0 21.440275643579298 -14.905189600692438 0 0 0 0 110.72037356634974 37.692815981346826 0 37.692815981346826 -4.2005052745261082 0 0 0 0 76.576392564544221 31.368624452660583 0 31.368624452660583 3.3134719649895032 0 0 0 0 38.485452409426216 34.47662148847553 0 34.47662148847553 23.609032805189599 0 0 0 0 7.6334336229186306 0.25602478152168828 0 0.25602478152168828 -16.128485550116714 0 0 0 0 77.401758342864923 41.524638622145972 0 41.524638622145972 -15.142622188671595 0 0 0 0 11.272630372128333 -18.528252842356778 0 -18.528252842356778 -11.265519123784543 0 0 0 0 98.95205598892062 43.110618223863696 0 43.110618223863696 10.581136432046918 0 0 0 0 -6.5302043340852833 -25.36251483687478 0 -25.36251483687478 -99.349524359589466 0 0 0 0 1.235061438491357 -2.5877499971115014 0 -2.5877499971115014 -4.7577654708518899 0 0 0 0 98.239295420557028 45.012883623237371 0 45.012883623237371 9.9902307874881444 0 0 0 0 4.2443341583193614 -1.5545495390995114 0 -1.5545495390995114 -5.5549966458158817 0 0 0 0 94.140010686300229 44.214969602448491 0 44.214969602448491 11.833029568177608 0 0 0 0 89.114210430867388 36.0350847399732 0 36.0350847399732 11.580995329695952 0 0 0 0 121.35586767901259 55.905930423016002 0 55.905930423016002 25.62597584898765 0 0 0 0 100.83826047030743 36.320596415074704 0 36.320596415074704 11.575772064907738 0 0 0 0 -42.894622522886493 -132.01762166959395 0 -132.01762166959395 -176.26744337598547 0 0 0 0 2.1358019336632879 -0.6849585667763165 0 -0.6849585667763165 -1.4591545923287303 0 0 0 0 210.61605695633625 71.871433358175352 0 71.871433358175352 27.293300846509695 0 0 0 0 20.695927119217231 -49.853495208023986 0 -49.853495208023986 -114.01110792752559 0 0 0 0 130.74335544439236 -19.757440498884193 0 -19.757440498884193 -5.8663870789051771 0 0 0 0 161.84973336517578 -15.019978121879376 0 -15.019978121879376 -5.5561128577339431 0 0 0 0 159.51310901774559 6.6285480396787761 0 6.6285480396787761 -4.6977268354680746 0 0 0 0 120.70899390225532 15.976228117176561 0 15.976228117176561 -6.945330088466676 0 0 0 0 170.07598315634823 23.118860478143858 0 23.118860478143858 14.959787531781899 0 0 0 0 187.95100141313742 13.399860756403967 0 13.399860756403967 20.229618166970795 0 0 0 0 166.30959136081492 -20.249220408886544 0 -20.249220408886544 0.40028021066734709 0 0 0 0 234.07028301889659 -0.5394800741346728 0 -0.5394800741346728 5.4373160626837205 0 0 0 0 502.29753381728369 60.053809805510326 0 60.053809805510326 10.515796595142632 0 0 0 0 0.79995222455602288 -0.41347799437369304 0 -0.41347799437369304 -0.45392554258162188 0 0 0 0 192.76540628646035 24.520284385655714 0 24.520284385655714 34.102181431809015 0 0 0 0 -194.48985122114391 -297.24393585194485 0 -297.24393585194485 -143.75803360334771 0 0 0 0 202.9215139298758 -125.38063882062109 0 -125.38063882062109 0.06078696284553331 0 0 0 0 184.58536387725326 -176.55119676324512 0 -176.55119676324512 -138.91053611312006 0 0 0 0 173.38097712732269 -105.87129810291648 0 -105.87129810291648 -9.4634347922818769 0 0 0 0 175.90015726181446 -60.103591045990527 0 -60.103591045990527 33.487499217215493 0 0 0 0 91.656199138360535 -43.501782788776971 0 -43.501782788776971 -167.32980521905216 0 0 0 0 24.346173958729196 -39.29438930617043 0 -39.29438930617043 -166.63014773029522 0 0 0 0 11.284330054899328 -60.446741689329798 0 -60.446741689329798 -153.51427807030714 0 0 0 0 76.957028499760781 -31.604892746058582 0 -31.604892746058582 -52.751842197705002 0 0 0 0 63.230324717209442 -199.98704916288952 0 -199.98704916288952 14.329245293717989 0 0 0 0 41.240452647631173 -106.1692373973286 0 -106.1692373973286 -95.841544619481198 0 0 0 0 53.196256742347032 -66.150542652960709 0 -66.150542652960709 -55.893566397857896 0 0 0 0 70.514098066574661 4.4493412795240204 0 4.4493412795240204 -141.33909893419965 0 0 0 0 39.763942050441983 -49.698702158239882 0 -49.698702158239882 -206.07001122524613 0 0 0 0 39.601767230713449 -15.623411001799852 0 -15.623411001799852 -131.54210685404175 0 0 0 0 -3.738492102655016 -3.9696799272008718 0 -3.9696799272008718 -3.761617325403007 0 0 0 0 11.709871525747076 81.853586612736279 0 81.853586612736279 -290.50030990037322 0 0 0 0 55.909030779708701 -65.758868848249904 0 -65.758868848249904 41.555299013832609 0 0 0 0 27.581786600371743 -24.343160208587506 0 -24.343160208587506 -11.193699268667842 0 0 0 0 -6.5677174352119891 -7.9123025339551418 0 -7.9123025339551418 -7.6259119357699809 0 0 0 0 18.002679027151316 -32.3213692217887 0 -32.3213692217887 -8.7995844994256913 0 0 0 0 1.762002628416667 -12.468401827598903 0 -12.468401827598903 -128.58685575452796 0 0 0 0 27.882483930221497 -27.16891036583138 0 -27.16891036583138 -22.136715495091266 0 0 0 0 158.42544006679964 -102.04867266121573 0 -102.04867266121573 1.858767088930108 0 0 0 0 86.92692423875269 -26.309770988590685 0 -26.309770988590685 -1.0477507403095387 0 0 0 0 160.04720284492942 -62.305354405881644 0 -62.305354405881644 -44.666448283633599 0 0 0 0 107.33715415494225 -63.076970096913215 0 -63.076970096913215 28.486369796043846 0 0 0 0 225.18831175912783 -142.5903363223336 0 -142.5903363223336 82.118083452725671 0 0 0 0 -1.1349707512280247 -0.9703613889448377 0 -0.9703613889448377 -1.0742178823769486 0 0 0 0 118.47942100421642 204.32679155923336 0 204.32679155923336 -533.34826715680197 0 0 0 0 -40.426816266790411 48.288244337554417 0 48.288244337554417 -120.6480080115671 0 0 0 0 156.26906631354359 -0.006721165261140527 0 -0.006721165261140527 -91.08082777906472 0 0 0 0 226.9351117234728 149.41051392791252 0 149.41051392791252 5.1325766910553909 0 0 0 0 318.41469606739702 87.498647335492393 0 87.498647335492393 36.193182847222033 0 0 0 0 370.80207410181902 171.00421424448749 0 171.00421424448749 86.887628056922551 0 0 0 0 309.96632975804096 -1.7547743761589913 0 -1.7547743761589913 79.712422441742888 0 0 0 0 251.95029748579691 44.302102866093108 0 44.302102866093108 46.341869514852434 0 0 0 0 125.67011367075611 50.565009501223727 0 50.565009501223727 -140.58406356011309 0 0 0 0 147.88822014098332 -47.266315895321412 0 -47.266315895321412 -0.2309221118035083 0 0 0 0 109.71835729051963 -87.689509137378053 0 -87.689509137378053 -64.273900524181812 0 0 0 0 82.818619083569502 -37.476562888144215 0 -37.476562888144215 26.038092319620922 0 0 0 0 106.26671835413435 -79.238410843886072 0 -79.238410843886072 -62.012466589103859 0 0 0 0 89.955416933598826 -142.0620012738097 0 -142.0620012738097 143.02574305932984 0 0 0 0 102.46378541090235 -88.246375625540722 0 -88.246375625540722 102.71343326649909 0 0 0 0 137.27609808418492 -84.1154466036256 0 -84.1154466036256 95.732827230562805 0 0 0 0 167.21118742437102 -101.19926809578976 0 -101.19926809578976 50.727420932924566 0 0 0 0 145.23060749529395 -109.08868958943279 0 -109.08868958943279 164.53320998344518 0 0 0 0 226.53067587211262 -38.059659852398966 0 -38.059659852398966 116.86085843995323 0 0 0 0 181.83829744246759 -139.45237095217047 0 -139.45237095217047 130.79389023678209 0 0 0 0 133.48268240102334 -148.05032474832461 0 -148.05032474832461 135.60842726961749 0 0 0 0 78.965768842288526 -135.99561328541404 0 -135.99561328541404 150.82053292497127 0 0 0 0 64.025946047680918 -119.67797290127083 0 -119.67797290127083 172.74124860779207 0 0 0 0 293.15101771878835 -170.12818403576568 0 -170.12818403576568 149.67152984738561 0 0 0 0 124.26743661826185 -137.11274345400517 0 -137.11274345400517 202.91915186202544 0 0 0 0 339.98661723548867 -33.229760729150343 0 -33.229760729150343 151.1145532136037 0 0 0 0 474.02718387727509 -83.710851158050389 0 -83.710851158050389 133.09237254869447 0 0 0 0 534.49222264609125 90.634133588574286 0 90.634133588574286 156.29510926642371 0 0 0 0 480.24495356788975 22.288151946268044 0 22.288151946268044 112.89012937302448 0 0 0 0 551.58907939570418 204.31045824685879 0 204.31045824685879 128.22439461129795 0 0 0 0 383.85208877039258 67.392697780750723 0 67.392697780750723 114.47402912912776 0 0 0 0 325.93699842407659 -82.924906254947444 0 -82.924906254947444 114.99832124423813 0 0 0 0 0.48081310612542438 -0.41292253122252021 0 -0.41292253122252021 0.708197433995994 0 0 0 0 82.163855999941006 -77.408985266848561 0 -77.408985266848561 -34.888240641835466 0 0 0 0 87.639327925837279 -138.2981044833046 0 -138.2981044833046 170.69612427327979 0 0 0 0 183.41020767300506 -156.07355318168098 0 -156.07355318168098 -5.8189522821748696 0 0 0 0 152.93762825789599 -115.01929603805209 0 -115.01929603805209 57.483213528824862 0 0 0 0 118.98846156951549 -207.50349071290856 0 -207.50349071290856 190.20138417096896 0 0 0 0 205.63724400589126 -216.6704919628819 0 -216.6704919628819 148.26738369169652 0 0 0 0 148.99298177991659 -32.354255913863774 0 -32.354255913863774 134.53848893233152 0 0 0 0 76.522078597583459 -148.52085041567037 0 -148.52085041567037 274.97430948946317 0 0 0 0 57.179277455281408 -64.017454884090029 0 -64.017454884090029 96.813452383786142 0 0 0 0 97.390413643690408 -119.6557479229315 0 -119.6557479229315 34.42367210085721 0 0 0 0 70.508563519579184 -121.26368697326957 0 -121.26368697326957 154.54716063097851 0 0 0 0 90.543428825316369 -123.15925809298153 0 -123.15925809298153 99.260246655370267 0 0 0 0 128.17323114383908 -162.90562576299229 0 -162.90562576299229 120.98681407491446 0 0 0 0 78.15474011825836 -150.79321000399949 0 -150.79321000399949 178.01919713093037 0 0 0 0 48.018699677864788 -64.911754447657643 0 -64.911754447657643 95.038456976625881 0 0 0 0 82.52794141900813 -63.579339944359134 0 -63.579339944359134 3.7992874751843715 0 0 0 0 51.966528548189672 -17.439420577703913 0 -17.439420577703913 24.595745706782623 0 0 0 0 52.905871603776177 -24.457881765071285 0 -24.457881765071285 12.467730247897521 0 0 0 0 99.645256770963897 -72.080351959716864 0 -72.080351959716864 69.212661625638191 0 0 0 0 237.52442691540637 -181.04823133495526 0 -181.04823133495526 118.28203352399345 0 0 0 0 94.436021731475194 -85.454220051905864 0 -85.454220051905864 58.146900791743462 0 0 0 0 10.492217852137401 -45.225139592388871 0 -45.225139592388871 144.83680819945116 0 0 0 0 165.1733667548433 -12.537539902651925 0 -12.537539902651925 32.000766740050608 0 0 0 0 1.5862810401975764 -1.4461352178867344 0 -1.4461352178867344 1.2900251958724496 0 0 0 0 92.244881871210055 17.631868652538181 0 17.631868652538181 0.43182722437546772 0 0 0 0 -16.227632525522495 57.95301114066497 0 57.95301114066497 13.745993714637251 0 0 0 0 42.031179426441668 29.417419058403595 0 29.417419058403595 -2.4493539915283122 0 0 0 0 -6.9818648783693789 19.203475397723139 0 19.203475397723139 12.200403759644928 0 0 0 0 -1.0106523423164617 31.961633324618788 0 31.961633324618788 9.8173450831016567 0 0 0 0 0.66534373750488385 -0.75375763640971627 0 -0.75375763640971627 0.5883465236598272 0 0 0 0 2.1776086531807834 -1.3735792804745444 0 -1.3735792804745444 0.25593315809211659 0 0 0 0 8.1908323676034342 -0.15346902006626806 0 -0.15346902006626806 33.798075841502055 0 0 0 0 5.1994874308705334 -0.74370177931088488 0 -0.74370177931088488 0.74411800365061254 0 0 0 0 4.3764855843037367 12.709737176951592 0 12.709737176951592 14.322634747509632 0 0 0 0 0.53638831910211593 14.033059824720453 0 14.033059824720453 9.3769069298653278 0 0 0 0 -22.400831864259089 57.944898539444353 0 57.944898539444353 26.12768535730703 0 0 0 0 6.0950559316006547 0.15680293642581944 0 0.15680293642581944 1.3094234201591348 0 0 0 0 2.2122179113119955 0.31830776749706047 0 0.31830776749706047 0.11411096764459572 0 0 0 0 20.962367152154911 -10.336055205871958 0 -10.336055205871958 -9.59287933862214 0 0 0 0 13.24835021328181 1.0359573831253548 0 1.0359573831253548 -4.492367907384816 0 0 0 0 10.428899349781773 0.69439796643916196 0 0.69439796643916196 -0.49317918682245232 0 0 0 0 11.04628261952962 1.2968028789280006 0 1.2968028789280006 -2.8271808900325457 0 0 0 0 13.977370008302387 11.365479535716844 0 11.365479535716844 -14.074221323864549 0 0 0 0 4.1640449430269655 13.072074697552011 0 13.072074697552011 14.18644816584569 0 0 0 0 17.281140865787165 4.2480852603851531 0 4.2480852603851531 1.0037301209392808 0 0 0 0 4.9200092531827977 12.090326073777874 0 12.090326073777874 -12.209283953041222 0 0 0 0 2.7470620929088909 18.343976308286699 0 18.343976308286699 2.26333699837528 0 0 0 0 1.7424522884539329 13.105325167303135 0 13.105325167303135 3.368897146101915 0 0 0 0 0.84491059660950896 -0.98330399151173964 0 -0.98330399151173964 -0.68206215414016547 0 0 0 0 5.9395503587147687 17.672658350703159 0 17.672658350703159 -18.019730964263942 0 0 0 0 14.629676930337155 -1.7686333280665565 0 -1.7686333280665565 -51.665955035798959 0 0 0 0 -6.3756631673750235 8.6717056175453138 0 8.6717056175453138 -10.338833036535561 0 0 0 0 -0.16137998005103782 1.3673944924790931 0 1.3673944924790931 0.0047335598607848306 0 0 0 0 0.67778943313169293 21.812402895544437 0 21.812402895544437 -0.75193154772080106 0 0 0 0 1.1341764942417285 12.836647681148822 0 12.836647681148822 -9.1691731995583723 0 0 0 0 27.043428627963294 27.048095821741697 0 27.048095821741697 -34.131654184113131 0 0 0 0 11.358512866457943 2.2048764457197905 0 2.2048764457197905 0.14394519512780035 0 0 0 0 13.198369628953515 20.247972203180552 0 20.247972203180552 -7.1879822709762777 0 0 0 0 15.668849487381522 3.3495503992343765 0 3.3495503992343765 -7.7067296361411364 0 0 0 0 12.847499513773073 1.300318798283445 0 1.300318798283445 -3.6703665197616311 0 0 0 0 -11.130956993867585 -11.49233248123231 0 -11.49233248123231 -7.7622761390932737 0 0 0 0 -0.23482903137306721 -0.1637693438303387 0 -0.1637693438303387 0.051409888543040183 0 0 0 0 23.212085112856585 -62.409997112482657 0 -62.409997112482657 15.152736105295958 0 0 0 0 -12.517460192058934 8.3350106688670849 0 8.3350106688670849 1.6096033155492933 0 0 0 0 37.230514008362661 24.766271889109333 0 24.766271889109333 16.910190299302968 0 0 0 0 34.197653356117371 -19.925527135072038 0 -19.925527135072038 24.456924410916827 0 0 0 0 10.68258390580263 2.1878686578369937 0 2.1878686578369937 0.37555750994784676 0 0 0 0 41.602771056364872 30.716815997846382 0 30.716815997846382 -26.401846533689032 0 0 0 0 13.684790432911541 8.5265057214064957 0 8.5265057214064957 -2.9455217998657863 0 0 0 0 2.0142178761611831 1.1189607982448564 0 1.1189607982448564 -0.023237027341734384 0 0 0 0 -18.285226062100264 -9.2052981604866151 0 -9.2052981604866151 0.027881532833751797 0 0 0 0 28.392505072013591 14.478444557562518 0 14.478444557562518 5.4493135198958278 0 0 0 0 -0.084606849586691624 -0.075164861199709776 0 -0.075164861199709776 0.05395696477455416 0 0 0 0 9.17637453750649 5.3300639113592299 0 5.3300639113592299 2.8751812705491835 0 0 0 0 17.584402043132286 0.22865482215922217 0 0.22865482215922217 -6.1320834186115256 0 0 0 0 14.341516149390372 -0.42296422984612925 0 -0.42296422984612925 -0.22092315584660371 0 0 0 0 15.1524691752129 1.5021035520044399 0 1.5021035520044399 0.59820143823394245 0 0 0 0 18.109539351364219 0.041115430621859378 0 0.041115430621859378 0.032631302792155557 0 0 0 0 14.700696091618738 -0.66578693932800648 0 -0.66578693932800648 0.49225392669737611 0 0 0 0 15.595095874014078 -0.52890976901866626 0 -0.52890976901866626 -0.005441716591378193 0 0 0 0 14.045752064739645 0.43088711550378411 0 0.43088711550378411 -0.72853511691325457 0 0 0 0 14.413900023908354 1.0689698525992699 0 1.0689698525992699 -3.8208078340303664 0 0 0 0 13.172245722162188 -0.56255754696966975 0 -0.56255754696966975 -1.4559680950679437 0 0 0 0 773.22218472767418 33.906848806910574 0 33.906848806910574 228.65737286271963 0 0 0 0 663.15846544347005 -117.13845546742994 0 -117.13845546742994 29.448380271024803 0 0 0 0 794.95969212152704 125.66361975476377 0 125.66361975476377 229.91572885526659 0 0 0 0 721.83749205285858 91.626566740219687 0 91.626566740219687 243.93405379689602 0 0 0 0 661.63062725853524 131.05398587817632 0 131.05398587817632 268.40190050543777 0 0 0 0 663.0563728444522 30.801099548564267 0 30.801099548564267 171.33029515929229 0 0 0 0 480.73690458381316 8.009589798600814 0 8.009589798600814 197.74762233557334 0 0 0 0 593.75372860423886 -37.939036652734757 0 -37.939036652734757 204.01755859971809 0 0 0 0 -13.341653123061405 -135.1136362687034 0 -135.1136362687034 254.80638984887744 0 0 0 0 445.81096433782477 -224.11195533733289 0 -224.11195533733289 154.98433106749701 0 0 0 0 4.437531562987715 14.125912184138656 0 14.125912184138656 117.32577001260896 0 0 0 0 124.67600390224834 -111.58410111666146 0 -111.58410111666146 117.05470910138547 0 0 0 0 57.458990488492418 23.637268368239361 0 23.637268368239361 7.0191220620540093 0 0 0 0 6.1577634712448344 19.192912533598758 0 19.192912533598758 -3.8758788418541883 0 0 0 0 12.434748632556875 -43.991732666520768 0 -43.991732666520768 -44.66987042149708 0 0 0 0 3.9253252535616809 -0.44819649929983996 0 -0.44819649929983996 1.2922363337447644 0 0 0 0 615.12910515909607 54.355133173240517 0 54.355133173240517 -76.528603542446604 0 0 0 0 0.93648901507711457 -0.81240615592625431 0 -0.81240615592625431 0.95386081624112695 0 0 0 0 -14.561434564224328 30.5566629242999 0 30.5566629242999 210.33528578771461 0 0 0 0 606.35045673837885 -253.54839674203606 0 -253.54839674203606 -8.6306819090090698 0 0 0 0 3.1055753110452997 0.84676299574047675 0 0.84676299574047675 0.35513033979492103 0 0 0 0 73.726506991647057 253.21311217417232 0 253.21311217417232 261.38177946076769 0 0 0 0 -16.615132489527241 9.2980482648922234 0 9.2980482648922234 0.84727877489569892 0 0 0 0 -2.6025388224516064 -46.75583732984164 0 -46.75583732984164 -1.7635149936230334 0 0 0 0 7.1465561975861078 1.7339617894476973 0 1.7339617894476973 0.55159251260556519 0 0 0 0 34.62236527420464 15.754831167334892 0 15.754831167334892 -89.194745748009097 0 0 0 0 35.651835705706617 14.37044541269538 0 14.37044541269538 -3.8122491811223149 0 0 0 0 1.217208224843489 52.655481803278789 0 52.655481803278789 134.84504147534815 0 0 0 0 259.13620253164845 72.745359771989371 0 72.745359771989371 0.16742948994527257 0 0 0 0 912.1174284909066 347.62463077920813 0 347.62463077920813 31.31143470667763 0 0 0 0 55.783983053639531 -90.299190632638826 0 -90.299190632638826 46.600947683328215 0 0 0 0 953.01225575088029 95.038834243001673 0 95.038834243001673 195.44074981860493 0 0 0 0 885.15400497655355 269.81114607068008 0 269.81114607068008 221.14925760142478 0 0 0 0 1008.9748448550381 186.08173123995982 0 186.08173123995982 19.677582804894101 0 0 0 0 900.60388668184896 305.49333593594201 0 305.49333593594201 123.74492269484574 0 0 0 0 901.75893432121666 282.53642231906463 0 282.53642231906463 211.07891513878934 0 0 0 0 974.41004202298063 195.15324839369114 0 195.15324839369114 0.11700224306171979 0 0 0 0 1007.3187338231219 265.6164801978116 0 265.6164801978116 127.15710243424672 0 0 0 0 1037.4669751847832 288.44212283547597 0 288.44212283547597 -0.17890413992643112 0 0 0 0 501.07688285982294 4.667403407083043 0 4.667403407083043 -64.709578329386943 0 0 0 0 1262.6496930123685 271.71517660961962 0 271.71517660961962 -113.66243983899273 0 0 0 0 249.87165806590929 -229.19820220713251 0 -229.19820220713251 -297.79340408975503 0 0 0 0 955.58917184738675 478.90254206858731 0 478.90254206858731 449.0609549433608 0 0 0 0 1098.8125429226347 78.955810459691747 0 78.955810459691747 395.94676930745675 0 0 0 0 782.71646513362157 253.81644498161498 0 253.81644498161498 335.65364495500535 0 0 0 0 1412.1601240585005 506.1815174876923 0 506.1815174876923 225.97334594444033 0 0 0 0 746.8767710483371 901.92099724501372 0 901.92099724501372 1011.8852141442126 0 0 0 0 7.8657038648645994 0.26429675450015111 0 0.26429675450015111 -0.099321637014639474 0 0 0 0 734.69886146321369 396.97450760147933 0 396.97450760147933 194.24160914837796 0 0 0 0 819.85185537116195 485.77246604616477 0 485.77246604616477 285.96951385744501 0 0 0 0 981.9391696236562 131.19814328331086 0 131.19814328331086 215.33468318146168 0 0 0 0 146.86905690083222 265.77865588406928 0 265.77865588406928 296.32668256045531 0 0 0 0 241.5717671408056 344.18793247316103 0 344.18793247316103 428.48131202025752 0 0 0 0 602.36822564051545 551.9400068451065 0 551.9400068451065 282.37920367861176 0 0 0 0 7.6294614687358262 66.033003230846361 0 66.033003230846361 -167.96770632603642 0 0 0 0 19.501707987384236 -0.55729513309449885 0 -0.55729513309449885 -1.0221954400741085 0 0 0 0 320.07819197712524 297.84806526928458 0 297.84806526928458 203.14433290406487 0 0 0 0 74.29873413927271 199.61202524674769 0 199.61202524674769 19.572310978439759 0 0 0 0 312.2979646995409 240.93060281395574 0 240.93060281395574 0.017808682431212197 0 0 0 0 -114.15292854972358 104.83300632462338 0 104.83300632462338 69.301769181489021 0 0 0 0 -1.2529257261194289 0.39952577491814623 0 0.39952577491814623 -0.042893688266811024 0 0 0 0 -128.06096407722271 0.12669766232534663 0 0.12669766232534663 24.353256557564066 0 0 0 0 -0.90251639499911107 1.9971413827014388 0 1.9971413827014388 0.0033622288798320281 0 0 0 0 -2.8212611879425822 2.4224351035117619 0 2.4224351035117619 -0.0014073787393188036 0 0 0 0 -3.3098496117745526 2.0781431264623187 0 2.0781431264623187 0.92498695410591769 0 0 0 0 -3.7152634978556307 2.6431349109810798 0 2.6431349109810798 0.81616394737385123 0 0 0 0 -1.3625310467541567 1.3845644229977137 0 1.3845644229977137 0.63533197775651518 0 0 0 0 -8.5557427016319707 10.557181668464693 0 10.557181668464693 2.3608271267886494 0 0 0 0 8.1895734565332532 10.512841257774539 0 10.512841257774539 0.61572226573662192 0 0 0 0 -2.5602472796485358 1.6948191992827049 0 1.6948191992827049 -0.75329465833009635 0 0 0 0 0.99410613318404728 1.5929214952573147 0 1.5929214952573147 -2.886635108117634 0 0 0 0 48.990116942804889 -8.3274887172419412 0 -8.3274887172419412 -2.5637195143908116 0 0 0 0 -3.8564946209080517 25.035164916350027 0 25.035164916350027 3.974737682583168 0 0 0 0 46.117720116395503 6.4803966158090169 0 6.4803966158090169 2.6250677596042209 0 0 0 0 55.745853776330478 12.124999930922332 0 12.124999930922332 0.017611094393858495 0 0 0 0 78.134618781761674 -6.8361679544900351 0 -6.8361679544900351 -2.7618401293845736 0 0 0 0 -0.39878633764193694 0.44144249318787843 0 0.44144249318787843 -0.12708135038131393 0 0 0 0 45.180673153256066 -4.4913149294410886 0 -4.4913149294410886 3.3519699848122713 0 0 0 0 44.436614764039405 -1.8286756836852547 0 -1.8286756836852547 1.1942247433826623 0 0 0 0 51.578515706656617 5.3842633301484799 0 5.3842633301484799 -0.77038130507507674 0 0 0 0 36.155323746803333 11.592604846698304 0 11.592604846698304 3.577314864461588 0 0 0 0 38.149738058244111 7.1654801364929313 0 7.1654801364929313 -1.0052839260443811 0 0 0 0 30.446095959848208 11.160730212130684 0 11.160730212130684 -0.057039470464644637 0 0 0 0 29.609681082773022 1.6345713704887928 0 1.6345713704887928 -4.5470585536287018 0 0 0 0 37.074000907981826 -2.5168843216019781 0 -2.5168843216019781 -12.392174513166054 0 0 0 0 43.426018391706748 -4.3751618197075501 0 -4.3751618197075501 -0.74923343507960993 0 0 0 0 35.486360378941754 2.2748098280701328 0 2.2748098280701328 -5.5620177117497889 0 0 0 0 25.739015030297935 0.062483538198247146 0 0.062483538198247146 -1.1545558133220919 0 0 0 0 37.70032870961586 1.8903687783041363 0 1.8903687783041363 -18.563266450511406 0 0 0 0 48.315842582553159 -2.9943205784702513 0 -2.9943205784702513 0.29802997114092022 0 0 0 0 6.4291345197998453 -53.025441615670161 0 -53.025441615670161 -7.2576887028477586 0 0 0 0 2.4639667246260615 3.988285611338469 0 3.988285611338469 0.57663865690878957 0 0 0 0 17.924815107544418 6.4826027760502711 0 6.4826027760502711 -0.23963593178612541 0 0 0 0 8.992576097138226 23.350691628935238 0 23.350691628935238 -22.269408505355159 0 0 0 0 23.692669849930098 8.4645431509868558 0 8.4645431509868558 -33.17857518681808 0 0 0 0 13.998923523566191 33.499301253612359 0 33.499301253612359 -3.0480266777137786 0 0 0 0 12.736022724886425 14.476165534992447 0 14.476165534992447 -5.2692758665812107 0 0 0 0 29.835337538388558 -1.6051268183124421 0 -1.6051268183124421 -17.259128297307029 0 0 0 0 32.374578834278509 -3.3204172162666197 0 -3.3204172162666197 -7.7156995227118585 0 0 0 0 7.6766611600772023 1.0376585157486602 0 1.0376585157486602 -4.8298695764367539 0 0 0 0 39.213642051960051 -10.586069027268644 0 -10.586069027268644 -0.76107391668344349 0 0 0 0 29.276468933676369 20.509549625042382 0 20.509549625042382 -109.92838382614218 0 0 0 0 5.7158821808461084 1.584760353446967 0 1.584760353446967 -1.8328256198614499 0 0 0 0 26.767686769809472 5.2214197213358169 0 5.2214197213358169 -1.1781515287381723 0 0 0 0 23.761391556996386 -9.2151698338395249 0 -9.2151698338395249 -11.704874942423288 0 0 0 0 11.939098971924977 -67.778213004997042 0 -67.778213004997042 -132.88163055157594 0 0 0 0 -92.239929953022511 -134.36030614400511 0 -134.36030614400511 -185.09230450257655 0 0 0 0 -42.55525503131139 -91.547305613558763 0 -91.547305613558763 35.128886986004545 0 0 0 0 -1.9042092093077372 87.164858287264394 0 87.164858287264394 -12.802353518628479 0 0 0 0 165.00544467719737 36.229769303128478 0 36.229769303128478 -73.064499270566102 0 0 0 0 217.1250885429472 -0.37859040828539037 0 -0.37859040828539037 -52.459633861826433 0 0 0 0 24.89610667516024 -3.8254495157197894 0 -3.8254495157197894 -1.8404380181041016 0 0 0 0 579.21527223542216 208.99206480643215 0 208.99206480643215 16.291379043415418 0 0 0 0 204.03179189556977 32.154832031379101 0 32.154832031379101 -29.688492996187051 0 0 0 0 149.66887984611094 105.75107429063178 0 105.75107429063178 112.26871978763938 0 0 0 0 202.98613969635335 -47.502937087461078 0 -47.502937087461078 30.813389925830279 0 0 0 0 90.602292986135581 -86.149244602401836 0 -86.149244602401836 24.276026305358755 0 0 0 0 -20.806547689193394 -33.25451968019172 0 -33.25451968019172 105.04157452646132 0 0 0 0 5.0859343334657865 1.9153397513906603 0 1.9153397513906603 0.61331905957626709 0 0 0 0 39.549784573602665 70.85561474291535 0 70.85561474291535 204.34458618704741 0 0 0 0 -52.796299562745844 198.51524377118142 0 198.51524377118142 558.15850479997835 0 0 0 0 836.16966653704003 314.04622600864229 0 314.04622600864229 -125.63212347933052 0 0 0 0 17.627040785431745 4.2849368901581784 0 4.2849368901581784 -4.8515467362915388 0 0 0 0 18.515953060130414 5.6487935262503015 0 5.6487935262503015 -5.1762898605522878 0 0 0 0 -17.131389683694579 -23.276012006117526 0 -23.276012006117526 18.650583996399291 0 0 0 0 20.933592966466676 4.6235377893451641 0 4.6235377893451641 -9.7379380290491895 0 0 0 0 15.063520145104064 3.3601042870286673 0 3.3601042870286673 0.60623278337027875 0 0 0 0 21.490118095040089 6.8495962488018449 0 6.8495962488018449 -7.0548359393251303 0 0 0 0 78.633202669690945 83.16036478551564 0 83.16036478551564 70.85575536135299 0 0 0 0 28.24305371549417 28.909475730768378 0 28.909475730768378 14.57975393404908 0 0 0 0 203.11003015787355 119.20805693487523 0 119.20805693487523 -17.646038347835827 0 0 0 0 119.96301344834137 211.01777545102865 0 211.01777545102865 71.362642255017704 0 0 0 0 7.1106420931345724 2.5180665931774016 0 2.5180665931774016 -3.3613540239377317 0 0 0 0 347.66100742436538 108.31538064545038 0 108.31538064545038 -146.28685392369789 0 0 0 0 3.4912670764944664 1.2840653672023379 0 1.2840653672023379 -1.8085294755463823 0 0 0 0 229.96007207059665 -152.72381758995425 0 -152.72381758995425 -258.32681325083422 0 0 0 0 4.338159944968595 1.9353919872345671 0 1.9353919872345671 -1.9733106881729428 0 0 0 0 467.67383949091891 701.55688479782827 0 701.55688479782827 488.54293292691148 0 0 0 0 21.683374201602419 232.84954767396121 0 232.84954767396121 136.55294074718427 0 0 0 0 174.14661164182326 232.65305492797458 0 232.65305492797458 171.43469024836691 0 0 0 0 440.34273733917507 -45.975219672198136 0 -45.975219672198136 -239.20595955934837 0 0 0 0 176.46136276554898 287.79126386113433 0 287.79126386113433 342.3691900502738 0 0 0 0 3.0593456253565705 1.6185271072048408 0 1.6185271072048408 -2.7251340709096863 0 0 0 0 763.43134449925856 340.23999453528131 0 340.23999453528131 96.783688309454305 0 0 0 0 713.74765674611808 654.70861621346853 0 654.70861621346853 499.9339127627473 0 0 0 0 929.79160556790885 447.18160081257713 0 447.18160081257713 -132.73466796848382 0 0 0 0 695.05550268653315 214.37323880920076 0 214.37323880920076 224.2556058381399 0 0 0 0 627.79708563625172 321.24025049597242 0 321.24025049597242 133.67566252766821 0 0 0 0 561.02201145915024 328.63113361860485 0 328.63113361860485 225.92407317380412 0 0 0 0 556.72983991133515 273.04278626021653 0 273.04278626021653 152.34727226319694 0 0 0 0 560.78136655963863 252.02400616056244 0 252.02400616056244 64.178418527120002 0 0 0 0 396.17115930240834 122.2084143768875 0 122.2084143768875 -19.136796198995597 0 0 0 0 366.06060359989351 251.53990838463514 0 251.53990838463514 70.706177260197194 0 0 0 0 476.68606241827365 206.75616539182306 0 206.75616539182306 63.402636040187929 0 0 0 0 509.68542487679224 282.11730919794184 0 282.11730919794184 109.31229656832278 0 0 0 0 491.88353187681059 313.36330149766877 0 313.36330149766877 137.0175562648293 0 0 0 0 560.5898231962783 301.57536913617503 0 301.57536913617503 111.62497509734237 0 0 0 0 586.00039382044633 369.27662331053205 0 369.27662331053205 174.99349848797829 0 0 0 0 551.48696880514399 265.6376067802384 0 265.6376067802384 103.09448396550465 0 0 0 0 460.03769474722503 128.68471329639391 0 128.68471329639391 86.593180236986996 0 0 0 0 710.00723769984506 240.53079216048769 0 240.53079216048769 180.87732153407615 0 0 0 0 607.72364888327866 168.09515317933784 0 168.09515317933784 143.8526436899366 0 0 0 0 742.93663906192523 322.01698173111902 0 322.01698173111902 116.27838765194832 0 0 0 0 636.29478410141746 420.74937373386439 0 420.74937373386439 189.14930169696413 0 0 0 0 421.12153014590149 436.67050322378145 0 436.67050322378145 264.32760853771413 0 0 0 0 451.412101124326 357.17227207360349 0 357.17227207360349 136.52354739427744 0 0 0 0 394.74273299737979 415.18462188787834 0 415.18462188787834 350.78016696858435 0 0 0 0 498.44358090195601 292.45357332625008 0 292.45357332625008 262.62365618161198 0 0 0 0 489.56196257086413 271.60554584432606 0 271.60554584432606 372.87534405217059 0 0 0 0 571.56559051040676 379.75243729233512 0 379.75243729233512 167.42201495347933 0 0 0 0 539.70543701144197 363.58631578789141 0 363.58631578789141 189.41391689116858 0 0 0 0 572.77218026765331 413.19848524687353 0 413.19848524687353 239.88444221229474 0 0 0 0 1531.4127930297836 426.57449174681091 0 426.57449174681091 -410.16631328555496 0 0 0 0 2626.1883689341121 601.47460801249576 0 601.47460801249576 -490.33057949203908 0 0 0 0 2250.2855846066232 687.52607045506875 0 687.52607045506875 -461.55875743412884 0 0 0 0 3497.4447711979201 105.97412765520238 0 105.97412765520238 -211.16471698604323 0 0 0 0 3070.368248306273 209.48373148871056 0 209.48373148871056 0.049133562726635077 0 0 0 0 3394.1970649780997 -847.61391488105482 0 -847.61391488105482 -996.28783183835731 0 0 0 0 8.3829067499884786 6.5199077405504227 0 6.5199077405504227 1.4040204243420136 0 0 0 0 4344.8611876992945 -674.98755827487025 0 -674.98755827487025 -355.86607624475135 0 0 0 0 21.651845783853787 19.969421997917657 0 19.969421997917657 10.549350808194376 0 0 0 0 3282.4142246672127 -574.10633662704959 0 -574.10633662704959 -76.639275874219038 0 0 0 0 4360.3326220124654 589.62115813159085 0 589.62115813159085 -83.697031114837955 0 0 0 0 2367.1677316088317 -278.31833578274114 0 -278.31833578274114 664.87353896313971 0 0 0 0 13.172410973356293 16.165527800181991 0 16.165527800181991 4.7321127838091712 0 0 0 0 976.10266110111843 -1170.2366808738013 0 -1170.2366808738013 -918.24555927631536 0 0 0 0 13.220353804396666 -4.3153537952776588 0 -4.3153537952776588 -2.3800657731035417 0 0 0 0 4223.0958571870433 1855.4268957833556 0 1855.4268957833556 222.87350992372103 0 0 0 0 2191.8949722494144 1335.4832419034071 0 1335.4832419034071 614.12609246005286 0 0 0 0 5.1059605988105261 9.2964204612715093 0 9.2964204612715093 4.0174408701993594 0 0 0 0 2327.3359847350221 -150.80906360903265 0 -150.80906360903265 -229.66469388815773 0 0 0 0 74.082259816495935 1.3840958966522976 0 1.3840958966522976 -4.5263689060934098 0 0 0 0 3.9589340228747574 -2.0793799039422254 0 -2.0793799039422254 -1.1573910488132317 0 0 0 0 -6.1407477777393069 -53.533305164888212 0 -53.533305164888212 2.1285811340188907 0 0 0 0 101.43235387466848 5.4260933300541865 0 5.4260933300541865 -3.9326951064015248 0 0 0 0 80.357695964747109 22.060899244451775 0 22.060899244451775 3.8979695841280773 0 0 0 0 18.298798458330566 34.425671836649698 0 34.425671836649698 53.557685047110994 0 0 0 0 6.5340275304479292 22.497519312296959 0 22.497519312296959 22.684038483857194 0 0 0 0 84.254033153883938 27.868569553163638 0 27.868569553163638 4.3677010366577633 0 0 0 0 4.4344713325263001 0.058203475337240462 0 0.058203475337240462 14.128903221518943 0 0 0 0 30.515196696142084 7.4057963098068171 0 7.4057963098068171 1.5759892276955725 0 0 0 0 65.328482469834853 28.262168064288403 0 28.262168064288403 4.4514871361696464 0 0 0 0 57.128408548800508 5.7023189844986746 0 5.7023189844986746 -2.4214390808517692 0 0 0 0 16.311736337111228 -11.523430790800205 0 -11.523430790800205 -2.5045181193634196 0 0 0 0 58.616693475400098 7.213447009405229 0 7.213447009405229 -6.3511023379285234 0 0 0 0 57.413965126281255 10.581020548630722 0 10.581020548630722 3.5631604142692197 0 0 0 0 56.47414720289089 3.7691441334693945 0 3.7691441334693945 -2.4981757191317655 0 0 0 0 56.406335677209427 3.5832542779003766 0 3.5832542779003766 -3.0039029419127061 0 0 0 0 14.581402954214582 -10.196858898674265 0 -10.196858898674265 -5.1124478267259903 0 0 0 0 93.054445164663775 -3.7450893408174295 0 -3.7450893408174295 -6.1123226544651814 0 0 0 0 55.860856829109252 26.067071384528884 0 26.067071384528884 -0.0098619224197676204 0 0 0 0 17.802842119417619 4.6815502995553997 0 4.6815502995553997 0.0050189596268556264 0 0 0 0 4.1528712605101816 1.4803306006488981 0 1.4803306006488981 0.40212144730831245 0 0 0 0 4.3056334590910694 -0.42358421765990784 0 -0.42358421765990784 -0.35495643323634496 0 0 0 0 18.852601062688336 10.734848319355926 0 10.734848319355926 3.9622646431262218 0 0 0 0 43.478741543003707 18.962523731555279 0 18.962523731555279 4.2101013643542728 0 0 0 0 12.527834422344199 12.89443362313034 0 12.89443362313034 5.0856553340180088 0 0 0 0 24.622516236944648 12.25653323117935 0 12.25653323117935 4.3094757998063038 0 0 0 0 27.530123135176837 15.550592186454026 0 15.550592186454026 0.0091739799360513082 0 0 0 0 37.098570066526008 14.028762722829295 0 14.028762722829295 -0.0023902781848310177 0 0 0 0 30.082052585290512 10.702713550608404 0 10.702713550608404 2.8789082002059598 0 0 0 0 29.938808745719143 10.903811934867981 0 10.903811934867981 0.83859331798226577 0 0 0 0 37.432822438713629 11.972492850039448 0 11.972492850039448 0.70723448601207295 0 0 0 0 28.577692021128314 9.5929024546471062 0 9.5929024546471062 2.7863815682364432 0 0 0 0 10.334193999384297 3.1359176071358625 0 3.1359176071358625 -8.3481451987748336 0 0 0 0 6.7676564455309745 17.026866594032018 0 17.026866594032018 8.3019996218336587 0 0 0 0 34.924974144247244 5.4610381956055392 0 5.4610381956055392 0.9963782152168541 0 0 0 0 12.956903420349875 10.536982544316828 0 10.536982544316828 2.2075544439033461 0 0 0 0 32.820710760126531 9.0821835708330667 0 9.0821835708330667 -5.2292277947319263 0 0 0 0 27.526609926552908 2.248731461963402 0 2.248731461963402 -2.1972808899517897 0 0 0 0 30.927451754017966 5.8221650947705257 0 5.8221650947705257 -9.2911422979716463 0 0 0 0 24.164421333305995 4.7936010595174992 0 4.7936010595174992 -0.33715948862101497 0 0 0 0 20.569747852743603 5.6910413043174231 0 5.6910413043174231 -6.2216710192903975 0 0 0 0 23.380354511493351 3.2192661543801933 0 3.2192661543801933 -10.188848280058323 0 0 0 0 9.3272917640772448 2.138980267337466 0 2.138980267337466 -0.30946353386789982 0 0 0 0 18.912457295475178 0.41898340062570583 0 0.41898340062570583 -7.2865088657325723 0 0 0 0 27.224444062751786 4.9296548299618985 0 4.9296548299618985 -0.49982810583928339 0 0 0 0 21.993824278128159 4.0506405711231821 0 4.0506405711231821 -13.466640429161288 0 0 0 0 -59.897392926362954 135.33476872041649 0 135.33476872041649 -190.94497543369607 0 0 0 0 -65.256517869798699 112.30930851331891 0 112.30930851331891 -94.152375914348568 0 0 0 0 67.023442893405445 4.264116932069328 0 4.264116932069328 -11.637032995357522 0 0 0 0 4.0099675725123518 -1.8356678584129895 0 -1.8356678584129895 -0.84100552775433535 0 0 0 0 27.335080762000871 117.72892211780092 0 117.72892211780092 -95.254173959611592 0 0 0 0 -69.478310152066115 63.613375212096855 0 63.613375212096855 162.72747733137021 0 0 0 0 129.97514678396692 410.36120992002645 0 410.36120992002645 283.32661694167751 0 0 0 0 23.001584581419593 60.849421915625385 0 60.849421915625385 -212.68229163898445 0 0 0 0 -201.02255075486028 90.336992947182125 0 90.336992947182125 -22.276819129185014 0 0 0 0 -100.5881778139883 28.920311165697342 0 28.920311165697342 -43.836471556962564 0 0 0 0 -119.2548370989698 101.58788817330037 0 101.58788817330037 -94.504358966789141 0 0 0 0 -117.02835733619577 82.119549188605163 0 82.119549188605163 -64.740062321308301 0 0 0 0 -194.47204692433388 162.72865519567753 0 162.72865519567753 -83.087764888924312 0 0 0 0 -191.06838029414939 474.03858233516291 0 474.03858233516291 -179.08013780376359 0 0 0 0 4.5387148025433248 6.5020410042056369 0 6.5020410042056369 6.7497617967205299 0 0 0 0 542.07705901635927 91.699420867020706 0 91.699420867020706 -121.38300713383074 0 0 0 0 -169.07371455624707 85.544955546029911 0 85.544955546029911 30.372109869731275 0 0 0 0 -120.04038198810304 112.39499047636212 0 112.39499047636212 35.457699640212468 0 0 0 0 720.63908266864019 131.99184190223804 0 131.99184190223804 -360.83443879880792 0 0 0 0 2.2994289812663737 2.7506085365453714 0 2.7506085365453714 2.8178306850088441 0 0 0 0 -94.147511574687087 198.90420430364645 0 198.90420430364645 32.793237422084587 0 0 0 0 538.36409304288827 134.59342271382008 0 134.59342271382008 -578.98800178271074 0 0 0 0 -91.398026828319416 169.97712209232986 0 169.97712209232986 -40.28395484225257 0 0 0 0 2.607351777637632 -0.87456069001419934 0 -0.87456069001419934 0.27950644963013005 0 0 0 0 -25.534767518838635 24.10217335854896 0 24.10217335854896 8.7500382785312425 0 0 0 0 91.413612202304648 95.373383788474513 0 95.373383788474513 93.290359984172056 0 0 0 0 23.476726926543051 -15.665056053237407 0 -15.665056053237407 -31.798759830910122 0 0 0 0 141.93455680899206 34.029974367838065 0 34.029974367838065 -18.360385961001185 0 0 0 0 0.18388911199144786 -13.972878557163433 0 -13.972878557163433 -15.013982410038778 0 0 0 0 38.184609024271595 4.5554136936312473 0 4.5554136936312473 -1.0552026700602612 0 0 0 0 603.82454125024378 -256.13280943658668 0 -256.13280943658668 -388.30310360828776 0 0 0 0 272.7397656768444 99.809610822895493 0 99.809610822895493 -42.940637879391424 0 0 0 0 -218.67718356914702 -101.83279822858037 0 -101.83279822858037 81.802654595409763 0 0 0 0 2967.7130001472251 750.92149116325174 0 750.92149116325174 -115.29615488339851 0 0 0 0 3591.2581058105134 1204.9664443704407 0 1204.9664443704407 -191.54168226611512 0 0 0 0 2475.7596627967141 158.24500090856651 0 158.24500090856651 -219.0130778127249 0 0 0 0 -198.77379480336822 -669.62031515619628 0 -669.62031515619628 -417.84624679187937 0 0 0 0 11.536723013907419 -1.8941743737518664 0 -1.8941743737518664 -0.4726874780746475 0 0 0 0 1403.5312459956622 -0.54758237698649737 0 -0.54758237698649737 -243.58847101683347 0 0 0 0 761.72171980074927 400.09790655117138 0 400.09790655117138 -63.821404581332217 0 0 0 0 1423.2963561916113 418.0830872985141 0 418.0830872985141 -218.81929186691872 0 0 0 0 1573.5924476205983 280.62283187894388 0 280.62283187894388 -337.2214770023819 0 0 0 0 1595.4286713370529 362.09806355817329 0 362.09806355817329 -41.543332689560742 0 0 0 0 1690.6553999290445 493.48406247769901 0 493.48406247769901 -203.47428641214105 0 0 0 0 1683.874173731776 517.84271732517425 0 517.84271732517425 -273.36387277872871 0 0 0 0 1689.2611716012761 553.98002388185159 0 553.98002388185159 -195.19421092840992 0 0 0 0 2063.4461294165376 -305.34794640620112 0 -305.34794640620112 -187.76924826833454 0 0 0 0 2280.4345796954203 510.93402088276611 0 510.93402088276611 -253.61414578217619 0 0 0 0 2447.390645471547 157.21101747810789 0 157.21101747810789 -531.30864639504057 0 0 0 0 3491.7264846733233 -97.139285087211377 0 -97.139285087211377 -565.04339885591116 0 0 0 0 3497.8911801031254 1708.3952037395156 0 1708.3952037395156 220.60812693687618 0 0 0 0 61.899350633597351 -466.0538558289029 0 -466.0538558289029 -87.691563591705773 0 0 0 0 12.462224896046223 -3.8571874488301603 0 -3.8571874488301603 -0.76996560133174929 0 0 0 0 1792.3603188144698 751.86373559167225 0 751.86373559167225 -212.0312375827981 0 0 0 0 1496.8107455143727 26.977785477265702 0 26.977785477265702 -19.746786715450355 0 0 0 0 22.805450274068193 -9.3904224656406683 0 -9.3904224656406683 -3.2284324312386685 0 0 0 0 3527.1027253613283 1039.2607157242003 0 1039.2607157242003 733.76823639284839 0 0 0 0 2945.0560064849706 1151.2352675462487 0 1151.2352675462487 715.64772437115676 0 0 0 0 2396.6961678286098 1784.8120494453151 0 1784.8120494453151 973.06439380988797 0 0 0 0 2467.4379692909861 772.78858661874062 0 772.78858661874062 416.07201238356441 0 0 0 0 2463.2777577902662 869.17635855849517 0 869.17635855849517 185.70681518502118 0 0 0 0 3499.2141209476322 1002.1066652345132 0 1002.1066652345132 131.67055513909568 0 0 0 0 3058.2078405392094 642.09326216153318 0 642.09326216153318 -161.11834745860341 0 0 0 0 2645.7117897745702 706.79565268221847 0 706.79565268221847 -170.64472900030376 0 0 0 0 3501.5040716572084 345.92003625054673 0 345.92003625054673 -513.08650058995897 0 0 0 0 2420.4695353802308 409.16550825103315 0 409.16550825103315 -247.9608452584165 0 0 0 0 1439.2026937801347 659.94450552844091 0 659.94450552844091 196.44502232798538 0 0 0 0 790.26230172989017 175.82531408792249 0 175.82531408792249 48.411628226887501 0 0 0 0 595.8290721874946 301.35328145579376 0 301.35328145579376 108.22273679508493 0 0 0 0 1414.8269722860114 758.05353776638538 0 758.05353776638538 275.36651458852748 0 0 0 0 123.78591683840204 343.76910193347135 0 343.76910193347135 671.10277042668122 0 0 0 0 181.72582350683115 -87.207288993591945 0 -87.207288993591945 312.76793882701475 0 0 0 0 8.9033678838737274 3.8849547780180114 0 3.8849547780180114 0.20425668216845777 0 0 0 0 1217.8174488607765 1218.2799036044603 0 1218.2799036044603 1173.8493414689585 0 0 0 0 501.26576820145419 -72.732747884806486 0 -72.732747884806486 -30.095016578248106 0 0 0 0 1716.4355255853152 659.26378638238521 0 659.26378638238521 389.69081964593374 0 0 0 0 -194.61235378083802 52.267729512961751 0 52.267729512961751 634.96357633339312 0 0 0 0 43.13057552081591 -2.6269504826748289 0 -2.6269504826748289 116.22756777858797 0 0 0 0 -196.70266293942404 7.2472145379870199 0 7.2472145379870199 258.08921354918903 0 0 0 0 -8.0156478658827837 77.899866765983234 0 77.899866765983234 249.00936245985918 0 0 0 0 216.33480387876898 108.15703324806178 0 108.15703324806178 171.79080882022845 0 0 0 0 16.098866295744926 4.9777214369775304 0 4.9777214369775304 -0.70310960599224392 0 0 0 0 135.1885873942374 16.39856930030578 0 16.39856930030578 148.53270259987616 0 0 0 0 307.3735977968463 313.1711909815067 0 313.1711909815067 387.63901239944494 0 0 0 0 163.55947759450282 32.138707927462178 0 32.138707927462178 71.877762797094704 0 0 0 0 -31.178477688299608 105.75793582021822 0 105.75793582021822 -227.39914182547002 0 0 0 0 -14.662956875108648 192.76601667067507 0 192.76601667067507 138.32838608348362 0 0 0 0 -329.89958183707495 109.56347352987986 0 109.56347352987986 64.005214565196141 0 0 0 0 0.45596453643520363 -61.400116943221519 0 -61.400116943221519 245.66217209300817 0 0 0 0 -67.877572777026216 132.48139482163708 0 132.48139482163708 190.64923283918893 0 0 0 0 -76.50742550612631 86.05263089647751 0 86.05263089647751 39.157121050253068 0 0 0 0 -62.841410370830999 63.039635183102945 0 63.039635183102945 129.93970333564948 0 0 0 0 -182.2166214463432 134.51339579066382 0 134.51339579066382 -46.67199898915193 0 0 0 0 -239.76144000169006 104.95828500435414 0 104.95828500435414 172.51593488732098 0 0 0 0 -176.3850440797687 392.05689711394916 0 392.05689711394916 3.588727821634393 0 0 0 0 -293.69538592564459 287.69265716097306 0 287.69265716097306 -25.716685447842366 0 0 0 0 3.7019613104122016 6.158943820789176 0 6.158943820789176 6.9730627882717995 0 0 0 0 209.52161377784796 -116.21329053198292 0 -116.21329053198292 -560.01083533239125 0 0 0 0 -228.84131052927114 78.295279540441243 0 78.295279540441243 -322.76662128069006 0 0 0 0 120.17219160689274 -62.569496153156479 0 -62.569496153156479 -286.4914419515178 0 0 0 0 1.2499275157125851 2.3948937194395654 0 2.3948937194395654 3.2775027805109458 0 0 0 0 413.86576102105028 180.60242768575722 0 180.60242768575722 -196.45514121943927 0 0 0 0 -181.08227278032427 -67.928757521483533 0 -67.928757521483533 148.22491018142864 0 0 0 0 -144.40758756190189 33.288874772914596 0 33.288874772914596 132.55543740404869 0 0 0 0 -258.85782258565723 -62.153630867713517 0 -62.153630867713517 156.65953119933874 0 0 0 0 -267.94021961942781 43.576730351428068 0 43.576730351428068 136.91890213529365 0 0 0 0 -195.77834369223274 97.045235623650683 0 97.045235623650683 167.666787995091 0 0 0 0 158.31537943035073 130.56248745681864 0 130.56248745681864 210.90085345693225 0 0 0 0 13.013592566467196 5.4153941513430013 0 5.4153941513430013 -0.71895977535614264 0 0 0 0 84.256317591003608 126.43624532051695 0 126.43624532051695 278.08227351098731 0 0 0 0 228.08909140263859 285.60406345150705 0 285.60406345150705 337.9624740771302 0 0 0 0 64.715337524083225 252.55471074519875 0 252.55471074519875 656.92109091847351 0 0 0 0 253.2766032647196 368.28256759398118 0 368.28256759398118 331.40442602443864 0 0 0 0 269.7517924503627 407.25362062615886 0 407.25362062615886 313.38661705233153 0 0 0 0 246.62184631646596 394.98603650385866 0 394.98603650385866 364.75030903738298 0 0 0 0 240.61763206355135 342.52266352045359 0 342.52266352045359 240.23374290017091 0 0 0 0 449.89209223911166 414.45537557070384 0 414.45537557070384 264.94007966006893 0 0 0 0 1026.3800460823768 456.58463903288589 0 456.58463903288589 157.02030365830979 0 0 0 0 363.26991985866698 240.70265535516967 0 240.70265535516967 87.376818510847443 0 0 0 0 210.04086070452468 476.67085188709143 0 476.67085188709143 403.92666172472673 0 0 0 0 145.24033115238126 353.6127409920291 0 353.6127409920291 336.51504370242264 0 0 0 0 127.03003932458887 313.38360215000887 0 313.38360215000887 276.69418025085997 0 0 0 0 -254.17751249551657 -189.93281897888755 0 -189.93281897888755 205.78702101427007 0 0 0 0 80.702850178753579 352.46514141395801 0 352.46514141395801 396.93293344224548 0 0 0 0 83.383445121333352 145.32076787970345 0 145.32076787970345 -372.31966681318772 0 0 0 0 13.671927366742295 6.1736549151064821 0 6.1736549151064821 2.0226947075356225 0 0 0 0 239.35645002103411 47.06235384935826 0 47.06235384935826 -315.41865968804495 0 0 0 0 5.5801238651595497 3.719848536298521 0 3.719848536298521 2.2103070202877984 0 0 0 0 92.012550853658468 -260.69535444296707 0 -260.69535444296707 134.45864497555249 0 0 0 0 926.19676630210597 -476.02380482050603 0 -476.02380482050603 133.07196266718893 0 0 0 0 255.33102781414345 513.33750002589159 0 513.33750002589159 368.16213798201807 0 0 0 0 1428.810624148522 260.99932543195246 0 260.99932543195246 422.34629282424066 0 0 0 0 308.10012524733611 793.82771588458991 0 793.82771588458991 776.24731024427456 0 0 0 0 5.6140015864747568 5.4326863329304018 0 5.4326863329304018 4.1803944459969422 0 0 0 0 260.68221072111919 36.255507218554612 0 36.255507218554612 843.8176648485055 0 0 0 0 1389.8856115780218 148.25056105460271 0 148.25056105460271 773.23216018391031 0 0 0 0 349.39668408960279 400.99554886726764 0 400.99554886726764 993.38889909333466 0 0 0 0 1515.0054891507025 282.91788280740911 0 282.91788280740911 62.779137429224647 0 0 0 0 554.82863461889792 -7.5405969223102147 0 -7.5405969223102147 -19.237057441841898 0 0 0 0 693.45941394456895 90.969168325309511 0 90.969168325309511 -177.28587175766734 0 0 0 0 135.32673154003714 115.26719272920218 0 115.26719272920218 -76.717521111910173 0 0 0 0 312.60979889075679 390.46392955392912 0 390.46392955392912 342.2640880297713 0 0 0 0 231.21066561852058 92.07971408807316 0 92.07971408807316 300.602472093551 0 0 0 0 -32.432053238080698 160.84266973343983 0 160.84266973343983 580.23540436455369 0 0 0 0 -94.537288944076863 -351.80526064125343 0 -351.80526064125343 504.38636746410521 0 0 0 0 634.52860566087475 -101.18208109182206 0 -101.18208109182206 111.29043352716917 0 0 0 0 412.51358058076585 167.85353003049852 0 167.85353003049852 189.94725648552321 0 0 0 0 95.207038701446436 -132.68170909152491 0 -132.68170909152491 205.88065429703852 0 0 0 0 -20.357906192126393 -23.793908546369835 0 -23.793908546369835 263.3038174917192 0 0 0 0 -208.2297699500341 -384.81918398199309 0 -384.81918398199309 301.52786845668129 0 0 0 0 -37.993549956929201 -104.22231452935068 0 -104.22231452935068 -43.619133733796389 0 0 0 0 -296.5679265386334 -86.731288787610367 0 -86.731288787610367 1023.8829746716024 0 0 0 0 1.4369131441636682 -3.5623164515126575 0 -3.5623164515126575 3.3481662097776876 0 0 0 0 -1436.7708009656781 7.4349385330194764 0 7.4349385330194764 1189.237367408685 0 0 0 0 -118.75682138941193 144.2454276019846 0 144.2454276019846 884.49423617090838 0 0 0 0 -253.27744066707965 -753.41764974610714 0 -753.41764974610714 151.44419137596151 0 0 0 0 -158.30270936849411 -231.09394916081965 0 -231.09394916081965 291.0682178676077 0 0 0 0 181.16677907580743 353.33852090822893 0 353.33852090822893 503.01786726876253 0 0 0 0 17.609856530194776 11.360122268337001 0 11.360122268337001 6.5728248389338191 0 0 0 0 -217.51624213554533 91.3288564690356 0 91.3288564690356 115.33975093869049 0 0 0 0 -220.1440172945222 -321.60013253615466 0 -321.60013253615466 158.62738303425976 0 0 0 0 -151.9508505773556 -32.979007656477734 0 -32.979007656477734 266.6729989474079 0 0 0 0 -246.67143932527688 228.88663069083941 0 228.88663069083941 6.9206414204054454 0 0 0 0 -13.086127063899767 289.51932780000607 0 289.51932780000607 168.78236887171806 0 0 0 0 8.3073658797133234 -1.3572907961779919 0 -1.3572907961779919 12.111014725270792 0 0 0 0 -317.70384645382001 7.0954477568479888 0 7.0954477568479888 70.786688843988713 0 0 0 0 14.938580211390217 -178.59465861533613 0 -178.59465861533613 -122.27542065365606 0 0 0 0 30.15842414321196 -19.273294161111835 0 -19.273294161111835 -181.7627268064557 0 0 0 0 -180.78340777349513 -367.65090315458383 0 -367.65090315458383 754.51414711959387 0 0 0 0 1513.0396184964629 -47.922165136061437 0 -47.922165136061437 13.741647130481738 0 0 0 0 29.412698697317637 21.302362037887256 0 21.302362037887256 14.99712454266723 0 0 0 0 1781.7801920015845 -756.49383110173881 0 -756.49383110173881 220.25343152168745 0 0 0 0 4566.7813498205796 -1169.9389207627842 0 -1169.9389207627842 250.61706507081468 0 0 0 0 623.1198614014429 1197.5404832797219 0 1197.5404832797219 977.24091527945438 0 0 0 0 3501.5453193059147 213.24236583204524 0 213.24236583204524 2569.3089866278947 0 0 0 0 15.775276048152477 7.4389161166935693 0 7.4389161166935693 4.386519685172984 0 0 0 0 4878.3120228155021 681.45858809640549 0 681.45858809640549 564.8956080151662 0 0 0 0 3374.6367586788256 1893.4604433430711 0 1893.4604433430711 805.47585980949248 0 0 0 0 1279.2438927117328 307.76885818648032 0 307.76885818648032 670.77652167781707 0 0 0 0 718.74454492767109 242.96087263289684 0 242.96087263289684 803.24487042407782 0 0 0 0 1146.0242485509079 511.41860747526874 0 511.41860747526874 530.03446782137689 0 0 0 0 870.14173818712879 880.57952289748721 0 880.57952289748721 1340.2173747605295 0 0 0 0 1691.7004669518647 191.83098886982117 0 191.83098886982117 -108.36848604791263 0 0 0 0 2583.8163873670346 545.43861491627354 0 545.43861491627354 -156.8020591849924 0 0 0 0 10.982854176904652 6.8950305697332652 0 6.8950305697332652 4.2525037436545681 0 0 0 0 3484.861831269387 1531.5752358003529 0 1531.5752358003529 615.29558799185179 0 0 0 0 3500.1382448571835 1278.6137515791668 0 1278.6137515791668 1242.9257593788384 0 0 0 0 3490.313926925257 1504.5341222017528 0 1504.5341222017528 387.16341528448049 0 0 0 0 407.49361796290032 84.745344325588349 0 84.745344325588349 19.458368224272135 0 0 0 0 216.22049590591632 126.35440758091772 0 126.35440758091772 138.62836868715786 0 0 0 0 253.14086363930255 3.9234962923324019 0 3.9234962923324019 27.607005964686095 0 0 0 0 292.88430363324005 57.818508448103557 0 57.818508448103557 68.067798531279095 0 0 0 0 186.02162652999687 -56.503064188224471 0 -56.503064188224471 16.668072092041029 0 0 0 0 220.69629408732271 -67.109174409666451 0 -67.109174409666451 -5.8460483479780123 0 0 0 0 264.15886819869047 -46.319569563160485 0 -46.319569563160485 2.348941868881866 0 0 0 0 236.59074140967277 -6.9566873076952334 0 -6.9566873076952334 54.389867639702061 0 0 0 0 353.37093921657652 20.231469622474037 0 20.231469622474037 6.4390711992047045 0 0 0 0 361.02757453416143 92.249358280807115 0 92.249358280807115 73.520402207245525 0 0 0 0 357.76248340190796 3.4992633530924877 0 3.4992633530924877 -176.97361187791211 0 0 0 0 252.11149291789843 198.45505014687603 0 198.45505014687603 -45.508689621421468 0 0 0 0 407.29115195400664 235.8123607467885 0 235.8123607467885 132.18887815017368 0 0 0 0 442.84308038156996 239.21573924929041 0 239.21573924929041 231.83082808998995 0 0 0 0 476.80532442736148 133.48318631023767 0 133.48318631023767 -11.870837474388964 0 0 0 0 334.87352729947088 186.58620676538499 0 186.58620676538499 132.25643258951413 0 0 0 0 583.12283044483775 275.08248624177565 0 275.08248624177565 121.72333524879014 0 0 0 0 406.95602195752872 363.21075191151618 0 363.21075191151618 229.12745862146971 0 0 0 0 383.98844101374561 327.73052460710846 0 327.73052460710846 332.32519008811528 0 0 0 0 369.80687175641651 433.91182864253346 0 433.91182864253346 201.21634192826392 0 0 0 0 4.1255947565585416 3.004329535905697 0 3.004329535905697 -4.7438092990976566 0 0 0 0 280.8990263636515 352.53242824666745 0 352.53242824666745 234.14564075891053 0 0 0 0 173.58319679298438 -163.69468945594701 0 -163.69468945594701 -407.11138465760632 0 0 0 0 25.318400619391468 0.55189997958092363 0 0.55189997958092363 38.839737590522873 0 0 0 0 241.77157252837787 209.94135958054176 0 209.94135958054176 -41.164519335727164 0 0 0 0 336.96571237885837 109.94641675432169 0 109.94641675432169 461.31691129975479 0 0 0 0 183.29736747225979 361.55399648030743 0 361.55399648030743 71.82595950324901 0 0 0 0 206.74734140639339 258.06015582717544 0 258.06015582717544 290.12018013220563 0 0 0 0 358.62810890858236 835.08598810436933 0 835.08598810436933 537.9485534181382 0 0 0 0 2.1628823285793146 1.9305071508431979 0 1.9305071508431979 -2.4985406685398059 0 0 0 0 542.84145193645963 248.35865699890019 0 248.35865699890019 -576.72081686143338 0 0 0 0 622.08956311867223 619.51011609202692 0 619.51011609202692 2.5929850206939591 0 0 0 0 348.17286852249526 544.65573399094887 0 544.65573399094887 229.50188970549948 0 0 0 0 519.91944265019265 492.02996559082419 0 492.02996559082419 -115.45097404077023 0 0 0 0 531.67103223642334 455.67775765905958 0 455.67775765905958 -4.5985986476446215 0 0 0 0 309.99803322528533 252.07123162851806 0 252.07123162851806 -177.46635413807962 0 0 0 0 397.18210818490479 632.8949441792015 0 632.8949441792015 714.452684603526 0 0 0 0 103.35520826341963 440.54436171312921 0 440.54436171312921 1047.0361755232618 0 0 0 0 5.6812520385612402 3.5985836845370489 0 3.5985836845370489 -0.097588605930002514 0 0 0 0 768.41792840926792 145.81686944710464 0 145.81686944710464 -345.52335824259285 0 0 0 0 84.482203812425723 444.88614085078279 0 444.88614085078279 -106.94898637794961 0 0 0 0 664.22185432005244 536.96224826582772 0 536.96224826582772 378.59553405131419 0 0 0 0 403.09802048296842 226.62115201757558 0 226.62115201757558 295.08972871559877 0 0 0 0 605.4892678297474 281.20160591329773 0 281.20160591329773 268.953932144399 0 0 0 0 448.53493445208005 274.23244997759411 0 274.23244997759411 246.62708689263764 0 0 0 0 328.37673466392698 309.68441339314404 0 309.68441339314404 377.92996993550969 0 0 0 0 321.87886162067298 354.33036505914606 0 354.33036505914606 457.69618763295762 0 0 0 0 393.41142362302344 382.53047552431349 0 382.53047552431349 325.48857827415486 0 0 0 0 251.09711345478718 370.23414993002672 0 370.23414993002672 555.06655236122879 0 0 0 0 386.80588852330402 218.963442941832 0 218.963442941832 139.73579271636686 0 0 0 0 315.78006459457174 317.41836472178579 0 317.41836472178579 259.69458030991245 0 0 0 0 268.16902831121115 316.1481471174759 0 316.1481471174759 299.53837793825483 0 0 0 0 319.52104504194085 225.0888470473765 0 225.0888470473765 287.06061725847258 0 0 0 0 304.74017979361815 249.95837286713959 0 249.95837286713959 261.70678818813349 0 0 0 0 1.0644716148450613 -1.0252695204179645 0 -1.0252695204179645 -0.19424680020988738 0 0 0 0 186.71902210932058 66.579021094930511 0 66.579021094930511 52.459815060722121 0 0 0 0 344.05625110580149 156.36300271448272 0 156.36300271448272 18.80522494656816 0 0 0 0 1.1879403914308426 -1.2437447643694099 0 -1.2437447643694099 -0.77000596133756716 0 0 0 0 126.39781645850599 25.437685125702501 0 25.437685125702501 93.676950811600818 0 0 0 0 246.68754034127051 126.68058530972985 0 126.68058530972985 -9.145142247527474 0 0 0 0 142.69197818912653 37.015103439058294 0 37.015103439058294 2.1845028265488509 0 0 0 0 339.17582920994755 277.25363123849479 0 277.25363123849479 187.74095465385108 0 0 0 0 208.10396632125776 330.09856805722893 0 330.09856805722893 326.3834903247282 0 0 0 0 249.60434458007512 248.96004486408356 0 248.96004486408356 287.63396008909876 0 0 0 0 200.21763208678021 76.145611718609416 0 76.145611718609416 49.930372170432747 0 0 0 0 64.840763529748074 153.53810759615271 0 153.53810759615271 202.67867573420057 0 0 0 0 168.07184018166299 296.62030796910176 0 296.62030796910176 263.80308161704579 0 0 0 0 -36.917547356075374 150.79468211749554 0 150.79468211749554 27.238522537308199 0 0 0 0 -80.874422646764287 70.653885900610021 0 70.653885900610021 128.44857309687904 0 0 0 0 27.593875778948131 27.425701237422345 0 27.425701237422345 43.828617635345836 0 0 0 0 116.44843647860398 96.364159373933944 0 96.364159373933944 -115.86566231345205 0 0 0 0 129.92084148956928 61.747517954821888 0 61.747517954821888 -290.54865400848848 0 0 0 0 40.809162919678784 -22.08300429282508 0 -22.08300429282508 -127.80407515087427 0 0 0 0 169.78824342388543 8.1602971787569913 0 8.1602971787569913 -34.047108117372318 0 0 0 0 1.1329074871932789 -1.4369271791607332 0 -1.4369271791607332 -1.2700045364835191 0 0 0 0 352.95270326134778 1.0466791623421159 0 1.0466791623421159 -202.74707992890399 0 0 0 0 286.78702122823961 -114.25074775773828 0 -114.25074775773828 -133.91047509970304 0 0 0 0 264.6191889961774 151.67642672993134 0 151.67642672993134 -410.53673431013522 0 0 0 0 69.647403033144656 95.108745490870206 0 95.108745490870206 -109.02247301961961 0 0 0 0 105.04269206434037 -20.843665696229323 0 -20.843665696229323 -226.68080871760321 0 0 0 0 25.635361756358179 14.926134641702447 0 14.926134641702447 -200.72043786068366 0 0 0 0 117.49236663423653 16.974114799106246 0 16.974114799106246 -201.99676324927532 0 0 0 0 44.646611965545162 19.992304383622468 0 19.992304383622468 -74.654742786038696 0 0 0 0 186.75690208775632 35.076279706313926 0 35.076279706313926 -76.115795439850217 0 0 0 0 104.7835155727953 22.071844676494948 0 22.071844676494948 -21.01453693003532 0 0 0 0 195.75208924555045 0.34180072547042073 0 0.34180072547042073 -15.984751380402713 0 0 0 0 175.66585842032873 23.396040300259074 0 23.396040300259074 26.210766872180557 0 0 0 0 177.73441192247265 89.638924330620284 0 89.638924330620284 44.547934501455984 0 0 0 0 222.32068340828482 -61.716067700100325 0 -61.716067700100325 -15.80247128259316 0 0 0 0 135.54935221171763 -44.902973955256584 0 -44.902973955256584 -18.137969147721378 0 0 0 0 151.8088261963203 -61.483746358593407 0 -61.483746358593407 -66.250940672604884 0 0 0 0 186.53524990650476 -81.258165035598495 0 -81.258165035598495 -58.325900098445345 0 0 0 0 162.63897371776329 -66.919418348905538 0 -66.919418348905538 -60.984894579632964 0 0 0 0 92.533647467527771 -108.9545585250271 0 -108.9545585250271 -85.290102868403665 0 0 0 0 112.3760810225067 -23.936974655788617 0 -23.936974655788617 -85.683166696726857 0 0 0 0 24.166368483638507 26.73707871633178 0 26.73707871633178 -179.61361549740559 0 0 0 0 77.140699772488006 -57.133909793234807 0 -57.133909793234807 -108.30215633931221 0 0 0 0 47.157073787922855 -117.43329053822117 0 -117.43329053822117 -130.30488849805488 0 0 0 0 185.47966411492234 -91.946233881427361 0 -91.946233881427361 -131.01555318671853 0 0 0 0 43.59189587320725 17.525818606915891 0 17.525818606915891 -17.922607325226636 0 0 0 0 26.858702739665432 3.6260425365889351 0 3.6260425365889351 -1.3646276686309822 0 0 0 0 178.33208662852121 -71.573334214354873 0 -71.573334214354873 -261.5028911970312 0 0 0 0 68.815628421820293 -3.854719930792271 0 -3.854719930792271 -45.248946802161299 0 0 0 0 42.771207929390926 3.9140778150823294 0 3.9140778150823294 -4.6565195960477794 0 0 0 0 78.284738109941827 42.45825082472038 0 42.45825082472038 -30.684364043156165 0 0 0 0 62.660565421955397 21.745316926734986 0 21.745316926734986 -4.9205651900892526 0 0 0 0 38.95536284505215 -11.098317809162836 0 -11.098317809162836 6.031507495266851 0 0 0 0 51.395365218893858 41.164463191796131 0 41.164463191796131 8.3440065641425463 0 0 0 0 56.908134104247438 349.27706607546679 0 349.27706607546679 -2.6426744542004599 0 0 0 0 6.1882650447369087 -255.90081066627499 0 -255.90081066627499 523.96356783739247 0 0 0 0 11.480938761386057 15.041647668087805 0 15.041647668087805 -1.3756970866648501 0 0 0 0 102.54427834432323 4.067604076221162 0 4.067604076221162 -8.5486114605357848 0 0 0 0 138.45891358069639 82.629536376289252 0 82.629536376289252 -106.13249882105629 0 0 0 0 142.79983440726937 -26.134630124066462 0 -26.134630124066462 1.8655235496489695 0 0 0 0 50.404045604940251 18.195050098288796 0 18.195050098288796 -3.8307105215634278 0 0 0 0 90.558927305943257 16.425629340342283 0 16.425629340342283 2.129922870514104 0 0 0 0 64.938624511589296 20.619242814465906 0 20.619242814465906 -37.211599972284603 0 0 0 0 76.518791883753693 -12.199370859724734 0 -12.199370859724734 -13.584794395031018 0 0 0 0 54.892976738951802 -8.7565522614375215 0 -8.7565522614375215 3.2725608635216812 0 0 0 0 71.963928052538591 38.61870706020008 0 38.61870706020008 -6.8965378758585913 0 0 0 0 81.253820126403298 14.695235638982922 0 14.695235638982922 -13.619016979373555 0 0 0 0 116.27031175939919 3.1146525669337279 0 3.1146525669337279 4.0784640857835939 0 0 0 0 159.45861996948861 38.967008523624372 0 38.967008523624372 -0.018295941607902932 0 0 0 0 74.530856381850754 -0.26967023592533224 0 -0.26967023592533224 4.9266081759424196 0 0 0 0 125.35289552542235 -7.8715045558647034 0 -7.8715045558647034 -24.063449541083173 0 0 0 0 44.76242838945857 6.6717993183558164 0 6.6717993183558164 -22.597485240103758 0 0 0 0 142.15251034285302 -14.975319366013537 0 -14.975319366013537 -42.299177458899067 0 0 0 0 90.398210046172608 -3.7933303141981014 0 -3.7933303141981014 8.8949892834457387 0 0 0 0 123.59178134646936 11.22524349831474 0 11.22524349831474 5.2556032487218545 0 0 0 0 70.580580392743286 -20.120424718122194 0 -20.120424718122194 -3.995072393465307 0 0 0 0 11.732903181789936 -11.017188454195576 0 -11.017188454195576 -1.4020545434691805 0 0 0 0 105.53526587197121 -24.198598959798801 0 -24.198598959798801 -36.953511218000131 0 0 0 0 358.77175839658594 -76.06892681505451 0 -76.06892681505451 -280.70922578331238 0 0 0 0 -16.411125448270468 -154.33879029329728 0 -154.33879029329728 109.48082636778008 0 0 0 0 83.160410571971994 -8.6946997130999755 0 -8.6946997130999755 -5.1579619809668156 0 0 0 0 3.0388395817935816 -10.854517918152851 0 -10.854517918152851 214.47370459795275 0 0 0 0 96.129596127517289 -48.536544878379573 0 -48.536544878379573 -19.96350632031681 0 0 0 0 28.670951925546646 -13.192529659838556 0 -13.192529659838556 -4.6184560750087229 0 0 0 0 182.20353209047153 -67.7654407528305 0 -67.7654407528305 -149.96569452997574 0 0 0 0 -2.3762117759943067 10.077346016653337 0 10.077346016653337 74.89641239446064 0 0 0 0 57.236779189325773 -6.0087805334612341 0 -6.0087805334612341 -10.578114604119257 0 0 0 0 152.77290237290435 127.83501347300808 0 127.83501347300808 -66.145080905860596 0 0 0 0 85.016719712453778 -1.7605825901528078 0 -1.7605825901528078 -265.97919505554364 0 0 0 0 -276.1884440354188 -7.9021086013053718 0 -7.9021086013053718 -12.262897191732918 0 0 0 0 5.3989446964770877 -8.3167268900013198 0 -8.3167268900013198 -0.051085081571592639 0 0 0 0 63.904899961373303 99.42813731255228 0 99.42813731255228 -304.9369800073955 0 0 0 0 73.945325628563296 -10.468635706456553 0 -10.468635706456553 -16.554661071784722 0 0 0 0 10.366347586261185 -4.75677328734713 0 -4.75677328734713 0.89118854516537738 0 0 0 0 82.580538582989618 -15.023071564887294 0 -15.023071564887294 -4.9246532702000039 0 0 0 0 42.352581799816107 306.61257974600085 0 306.61257974600085 67.353639058972476 0 0 0 0 685.61884840123821 -71.057177833718015 0 -71.057177833718015 5.2741320346203793 0 0 0 0 168.63630301224475 -10.27749683384809 0 -10.27749683384809 -190.52135846934834 0 0 0 0 -767.27412387664299 75.530046714942046 0 75.530046714942046 125.87948473126016 0 0 0 0 340.44712349830661 386.29391747907357 0 386.29391747907357 67.137667524093558 0 0 0 0 888.966402163147 -87.011347578656569 0 -87.011347578656569 -361.49956646817009 0 0 0 0 614.03356873238226 -152.84745008436585 0 -152.84745008436585 -358.27151947459288 0 0 0 0 801.89889337867498 228.42455308350873 0 228.42455308350873 -120.04961305961479 0 0 0 0 -44.89090313516499 174.01511189175017 0 174.01511189175017 -68.085346005538668 0 0 0 0 469.46399478536478 -307.9516015089489 0 -307.9516015089489 -13.567616436828757 0 0 0 0 3.8700642445824087 3.5895748186793384 0 3.5895748186793384 1.9600644022001035 0 0 0 0 36.546752137131989 19.383240368028055 0 19.383240368028055 -163.39340882935721 0 0 0 0 150.14926800694957 12.555333255790174 0 12.555333255790174 59.081286994925904 0 0 0 0 58.154028586141067 -103.2625660845988 0 -103.2625660845988 62.036857304214209 0 0 0 0 36.774618638364984 -5.9877119526619786 0 -5.9877119526619786 2.2842512426767927 0 0 0 0 23.864302269808832 -49.417953880192727 0 -49.417953880192727 140.77855783088944 0 0 0 0 793.33623965383595 -156.4961127081292 0 -156.4961127081292 -30.618554910010062 0 0 0 0 -156.35207616066327 -44.49473474483375 0 -44.49473474483375 -6.0332322010726784 0 0 0 0 12.00127131162435 5.9641646424984813 0 5.9641646424984813 1.9039277409976112 0 0 0 0 -228.60555757972179 -39.666732781721294 0 -39.666732781721294 74.973845598437038 0 0 0 0 344.45455021010275 343.8965858884053 0 343.8965858884053 -381.01441794148013 0 0 0 0 -31.747683900641277 151.41790667958412 0 151.41790667958412 -238.99489068240655 0 0 0 0 -89.437004628081922 310.3821551136416 0 310.3821551136416 341.54925052979797 0 0 0 0 12.148320311985401 0.11271091057268912 0 0.11271091057268912 0.29149460901835678 0 0 0 0 -124.30194476676115 -98.506742677664079 0 -98.506742677664079 652.02847699992071 0 0 0 0 534.63409242518173 33.1073522510153 0 33.1073522510153 -579.41373297014616 0 0 0 0 82.840002744283993 -415.80724926779567 0 -415.80724926779567 293.21904939130854 0 0 0 0 120.3920518382719 -17.578414014395626 0 -17.578414014395626 2.4648013203804648 0 0 0 0 217.07338510482441 -337.31764414057034 0 -337.31764414057034 -487.56626972851882 0 0 0 0 88.114910082786082 -12.603349169900866 0 -12.603349169900866 -25.328920456118794 0 0 0 0 141.50770447961986 -49.025814450867983 0 -49.025814450867983 -130.10883962634944 0 0 0 0 94.504559472860933 -12.755591078768328 0 -12.755591078768328 0.91994928686903066 0 0 0 0 104.35635978645405 -37.381956451933092 0 -37.381956451933092 -77.232232631557054 0 0 0 0 89.863026325911051 -112.69894140131873 0 -112.69894140131873 -119.29542560227128 0 0 0 0 94.964422417760943 -151.77507104597862 0 -151.77507104597862 -141.68928354471973 0 0 0 0 139.6361109333015 -19.960012495564715 0 -19.960012495564715 -3.4809663438895306 0 0 0 0 185.04868892859668 5.1964364313935221 0 5.1964364313935221 -126.80663832056916 0 0 0 0 38.665049505842035 -78.865826799348724 0 -78.865826799348724 57.512419004044204 0 0 0 0 -24.062434141989797 -171.92520639491886 0 -171.92520639491886 -22.823629455351693 0 0 0 0 8.2897824589308584 -33.547758787815837 0 -33.547758787815837 60.941838751788111 0 0 0 0 34.357402964313223 -39.155896263126124 0 -39.155896263126124 39.849412621850206 0 0 0 0 254.97753148623451 6.6592515845604794 0 6.6592515845604794 -29.432946861685195 0 0 0 0 59.72412319615978 53.252020237401666 0 53.252020237401666 -54.758618988137641 0 0 0 0 1.8017735114370268 0.61119490675396548 0 0.61119490675396548 0.043302713636769852 0 0 0 0 302.68484049425024 92.528357029412291 0 92.528357029412291 -73.941336653850158 0 0 0 0 74.141015054556192 12.093895631031955 0 12.093895631031955 -9.3884258371599572 0 0 0 0 43.823300114566095 -0.048274764546356153 0 -0.048274764546356153 -6.9348960956094601 0 0 0 0 130.77265872744465 21.971699911386168 0 21.971699911386168 -17.088395086975652 0 0 0 0 340.34168713851614 -78.058526116578832 0 -78.058526116578832 -23.648289317665331 0 0 0 0 178.99266684533723 -46.999268531565122 0 -46.999268531565122 -4.236525257061885 0 0 0 0 133.6912169004645 29.184850553214346 0 29.184850553214346 3.677809365439316 0 0 0 0 217.74740408280741 99.793212694762587 0 99.793212694762587 -507.17468764951445 0 0 0 0 136.30325513284342 -12.253536007341495 0 -12.253536007341495 -3.5240559605783819 0 0 0 0 -64.742435089783612 149.09451742952751 0 149.09451742952751 -341.59484309544951 0 0 0 0 188.29798618276618 -27.74768633970416 0 -27.74768633970416 -50.275735056446138 0 0 0 0 115.98586689383228 -11.926006553549996 0 -11.926006553549996 -31.60479819829925 0 0 0 0 124.84443289571936 -1.6091201749513857 0 -1.6091201749513857 -22.276568474329906 0 0 0 0 433.27568202955092 -229.06612808156888 0 -229.06612808156888 -752.98607485191724 0 0 0 0 140.15532143252 -14.511913406911555 0 -14.511913406911555 0.69431548846768809 0 0 0 0 121.70486938257181 -44.61576020719022 0 -44.61576020719022 -30.558724047594296 0 0 0 0 -113.73436679219549 -237.13132668945445 0 -237.13132668945445 95.796358662143575 0 0 0 0 122.44349817365401 0.63375879374802935 0 0.63375879374802935 237.78995143501402 0 0 0 0 102.71742038011874 88.16903125790077 0 88.16903125790077 -243.05786321691539 0 0 0 0 266.43921222715403 -332.03600718141479 0 -332.03600718141479 32.494614223605367 0 0 0 0 179.63949506584277 -262.11910503974286 0 -262.11910503974286 307.30587628294234 0 0 0 0 225.289054581031 -85.63256606001346 0 -85.63256606001346 390.65195720565225 0 0 0 0 305.35801714463491 -164.43364512066546 0 -164.43364512066546 166.51954402502417 0 0 0 0 -902.73059202754916 328.19028053277316 0 328.19028053277316 766.24197113318155 0 0 0 0 2057.4824574962204 779.38142101659014 0 779.38142101659014 -152.39908723117037 0 0 0 0 25.864430005376803 -1.2138710898666547 0 -1.2138710898666547 -3.5162548894219405 0 0 0 0 51.342799406244922 -356.44127576032793 0 -356.44127576032793 627.27034472401965 0 0 0 0 44.161454323690123 205.70699382351268 0 205.70699382351268 -207.77517610128916 0 0 0 0 181.69022402624614 292.883081118071 0 292.883081118071 -260.22642046516012 0 0 0 0 356.34167103834079 151.45411307704308 0 151.45411307704308 -487.95624919669126 0 0 0 0 35.385598224147088 8.3149863908533916 0 8.3149863908533916 -235.69856761240862 0 0 0 0 679.45013401692177 -38.288087777665169 0 -38.288087777665169 -239.96010278822044 0 0 0 0 1213.4726995804726 -184.19827499301516 0 -184.19827499301516 -50.369017994850537 0 0 0 0 324.92635828964558 -35.274965772858195 0 -35.274965772858195 61.195842407471446 0 0 0 0 559.64510946046266 -708.02089713588862 0 -708.02089713588862 992.72534702013093 0 0 0 0 25.85569029549788 72.115238572095677 0 72.115238572095677 135.65356109303684 0 0 0 0 475.93401756455569 341.23007265541401 0 341.23007265541401 -210.43028871158731 0 0 0 0 73.19499527318203 229.43464152724709 0 229.43464152724709 -240.00404156766785 0 0 0 0 -673.33355384238439 505.74518822637219 0 505.74518822637219 -43.732027149520036 0 0 0 0 -518.35217421934067 156.74530971369404 0 156.74530971369404 -43.785294623102345 0 0 0 0 46.789256056872404 279.11764070684563 0 279.11764070684563 -300.67970412937757 0 0 0 0 354.64777253426109 -108.79023613005847 0 -108.79023613005847 -206.10589818213157 0 0 0 0 29.367715502782961 -5.9028416937815775 0 -5.9028416937815775 -16.873175814098715 0 0 0 0 116.80575681349637 55.5256468432774 0 55.5256468432774 690.22723184668985 0 0 0 0 -86.891757264209446 286.88684310570625 0 286.88684310570625 -256.4798635496245 0 0 0 0 361.30972598164954 -48.091157394155744 0 -48.091157394155744 -404.42158120966633 0 0 0 0 -0.047958257634903134 -1.4508010952230048 0 -1.4508010952230048 -1.5164534981360784 0 0 0 0 -235.27299419624069 -118.16118513062202 0 -118.16118513062202 20.011210052894739 0 0 0 0 -33.724083015048564 -161.7670919222698 0 -161.7670919222698 -9.0454748128540814 0 0 0 0 -56.506055931105948 -67.984293119481663 0 -67.984293119481663 -11.941610230277661 0 0 0 0 98.548857495873563 -44.561525737047191 0 -44.561525737047191 -51.477723962266282 0 0 0 0 -23.922214023292327 -193.22148300660353 0 -193.22148300660353 -182.13608000219074 0 0 0 0 -3.30032714320736 0.08871734201346726 0 0.08871734201346726 -4.7394301642135295 0 0 0 0 80.787246966712701 -352.2569898874799 0 -352.2569898874799 -343.62258246195597 0 0 0 0 298.20893088430421 -6.7810003545050677 0 -6.7810003545050677 -159.62029834757041 0 0 0 0 161.66341783309508 147.16487804573501 0 147.16487804573501 36.641761601667213 0 0 0 0 236.51066283352247 71.745288799811874 0 71.745288799811874 -77.380677502743083 0 0 0 0 210.83937536507801 79.225385784898663 0 79.225385784898663 249.24786221191766 0 0 0 0 469.25937516557315 166.89205716294339 0 166.89205716294339 8.6739411091585907 0 0 0 0 559.05070619743947 -11.662396779619598 0 -11.662396779619598 66.705692721520336 0 0 0 0 835.70999444463405 -56.059760452808376 0 -56.059760452808376 48.355042119797417 0 0 0 0 190.26199689325767 71.807093963116131 0 71.807093963116131 71.138579571010268 0 0 0 0 72.844181044895322 -27.36733586316268 0 -27.36733586316268 100.67098673507417 0 0 0 0 276.88352932793441 -47.993177713226828 0 -47.993177713226828 -24.781792997224329 0 0 0 0 70.936035675529638 -110.31016207032303 0 -110.31016207032303 -33.313083115888276 0 0 0 0 102.3603556517628 -161.29667556996969 0 -161.29667556996969 48.002607936249774 0 0 0 0 114.82169396330119 -104.68243499398977 0 -104.68243499398977 -225.32206679876936 0 0 0 0 52.299250378569923 -122.513954936446 0 -122.513954936446 -34.053973650592447 0 0 0 0 54.02107358252033 -111.98254623790478 0 -111.98254623790478 -11.941028853972512 0 0 0 0 -18.548312896191419 -267.83796649045132 0 -267.83796649045132 -288.76324900492233 0 0 0 0 1.5446116629209428 -36.448332494784381 0 -36.448332494784381 -216.58710501575081 0 0 0 0 17.283669769854665 8.7692155236339495 0 8.7692155236339495 -4.2550657875294808 0 0 0 0 645.35398824307049 78.903711982043433 0 78.903711982043433 -48.753997536788006 0 0 0 0 152.72372624757691 102.34776745431674 0 102.34776745431674 -14.421867466027834 0 0 0 0 245.53360664357933 -87.038262177953698 0 -87.038262177953698 -216.15060690227438 0 0 0 0 58.681385800237877 -59.405897286568404 0 -59.405897286568404 -142.06255686758391 0 0 0 0 70.426812807515773 -12.905415307688031 0 -12.905415307688031 -14.000176703504742 0 0 0 0 -24.011937152427834 -105.38942729040524 0 -105.38942729040524 -26.644049530087216 0 0 0 0 118.63182256351138 -14.702282629660203 0 -14.702282629660203 -25.879789396136857 0 0 0 0 175.01395695132578 -63.701488822748615 0 -63.701488822748615 -342.57634692136503 0 0 0 0 7.2219760657470857 -11.521208597181454 0 -11.521208597181454 -2.1512680085211624 0 0 0 0 112.16542504300196 12.175605198858307 0 12.175605198858307 -8.5923865788063267 0 0 0 0 56.31254747803797 -20.200574056241333 0 -20.200574056241333 -20.273092578745505 0 0 0 0 116.60204262113621 4.7266373492416278 0 4.7266373492416278 -16.393482642077743 0 0 0 0 117.41128913256489 15.55340659362588 0 15.55340659362588 -7.1598326877492582 0 0 0 0 84.375897593832633 9.6514955370712414 0 9.6514955370712414 -4.2422621111600165 0 0 0 0 132.75555785488541 7.8661115557297308 0 7.8661115557297308 -34.54403887693843 0 0 0 0 129.76902496856201 6.0156068436399437 0 6.0156068436399437 -11.318142496260407 0 0 0 0 27.269570144153697 19.041392805279571 0 19.041392805279571 -7.9216254736847489 0 0 0 0 129.79121234390186 25.834626987947559 0 25.834626987947559 -16.044510373445974 0 0 0 0 61.088452190484304 -1.4119348204932827 0 -1.4119348204932827 -5.316790484318993 0 0 0 0 78.108969951570032 6.7919884394953627 0 6.7919884394953627 -7.7585388798028205 0 0 0 0 28.270402004980035 0.59417256461175683 0 0.59417256461175683 -7.9985245587989837 0 0 0 0 164.06577852653481 -10.944837677414853 0 -10.944837677414853 -34.967919305538089 0 0 0 0 315.86710912978378 -138.58921240340078 0 -138.58921240340078 -55.604436755889765 0 0 0 0 62.912085799182478 5.9207131605305676 0 5.9207131605305676 -6.5622599427188106 0 0 0 0 74.717932264391493 -6.6591041172200107 0 -6.6591041172200107 -10.653587114049271 0 0 0 0 196.75923475707896 -78.707797712289903 0 -78.707797712289903 104.10321294593177 0 0 0 0 175.26992110334504 -61.458586988287607 0 -61.458586988287607 90.731589885744597 0 0 0 0 38.375697698254044 -88.889227710425018 0 -88.889227710425018 -98.385508741715171 0 0 0 0 49.22603166684803 -51.705468499832477 0 -51.705468499832477 -34.359877729228003 0 0 0 0 122.87104468415328 -0.97385769119591714 0 -0.97385769119591714 -73.471886116705946 0 0 0 0 90.409126347926431 1.1276004280508363 0 1.1276004280508363 -8.2281887707511885 0 0 0 0 3500.6693105840095 1191.8560229638761 0 1191.8560229638761 1574.6000335769622 0 0 0 0 2186.5396442280035 1913.8015142291774 0 1913.8015142291774 827.85396439619285 0 0 0 0 771.74317757424433 1049.7740744756916 0 1049.7740744756916 497.40643998344598 0 0 0 0 2177.39507093461 1597.253306308148 0 1597.253306308148 461.68514188377475 0 0 0 0 1340.7323765358014 714.88950445078274 0 714.88950445078274 91.641440805594726 0 0 0 0 3802.2388296019417 1289.4890401318387 0 1289.4890401318387 -238.37932519480029 0 0 0 0 512.1374091686157 -82.390913627471946 0 -82.390913627471946 1068.042929571204 0 0 0 0 700.93497019545612 -20.31651133038531 0 -20.31651133038531 80.399826761619806 0 0 0 0 142.54735024220281 -33.860145801669205 0 -33.860145801669205 -9.1126282581826672 0 0 0 0 70.449712669069413 -19.975399732098595 0 -19.975399732098595 20.531803318019229 0 0 0 0 103.2772381559771 -68.208777554089465 0 -68.208777554089465 -37.219702828282607 0 0 0 0 53.969777019552595 -6.3119278655017723 0 -6.3119278655017723 32.590755932897551 0 0 0 0 116.65672693885062 9.9190679011844622 0 9.9190679011844622 39.871897356999398 0 0 0 0 12.937607873114757 8.9290152441208193 0 8.9290152441208193 21.150899802576532 0 0 0 0 13.808104821468774 -1.0517767210518514 0 -1.0517767210518514 34.410682733199167 0 0 0 0 -7.7599721753007032 1.2615602534112682 0 1.2615602534112682 18.962867986004323 0 0 0 0 841.0212241204099 397.85179568999177 0 397.85179568999177 48.209125812129514 0 0 0 0 1106.0565777740121 831.44089098263191 0 831.44089098263191 400.06205839942879 0 0 0 0 601.45850807808165 91.653713354907353 0 91.653713354907353 358.03362576176528 0 0 0 0 1921.2701109680802 1006.6168700852875 0 1006.6168700852875 195.17236820998099 0 0 0 0 946.31021139553559 660.28259959782781 0 660.28259959782781 518.06161097401377 0 0 0 0 1734.6099339486445 -69.158407642073286 0 -69.158407642073286 -144.90120727358334 0 0 0 0 53.116524867531552 39.632749378574772 0 39.632749378574772 60.160823844025799 0 0 0 0 14.278851911901214 17.734926999051922 0 17.734926999051922 42.825940998367493 0 0 0 0 2394.0960318997895 916.67106013716921 0 916.67106013716921 404.51187193737582 0 0 0 0 -13.020236699167185 -5.2650582212884487 0 -5.2650582212884487 19.253676750847642 0 0 0 0 2759.9559589374694 245.62085484088018 0 245.62085484088018 -94.302772914759529 0 0 0 0 2500.9344835805095 842.95054924283863 0 842.95054924283863 110.32212578844658 0 0 0 0 2546.1604138619941 1003.7171842822764 0 1003.7171842822764 -48.141222411635958 0 0 0 0 2809.0935238300663 967.96861582495058 0 967.96861582495058 -68.750311634145646 0 0 0 0 2835.043275214397 139.90278591856287 0 139.90278591856287 -466.47638139986111 0 0 0 0 3498.7304591632274 751.90632777644566 0 751.90632777644566 -337.24698876686568 0 0 0 0 2217.4552195450306 716.5173442753445 0 716.5173442753445 321.20307784150884 0 0 0 0 3499.4327798062473 -389.35723122774715 0 -389.35723122774715 -536.09086486312367 0 0 0 0 2243.8324771996922 4.8794173609975644 0 4.8794173609975644 -472.31760924066413 0 0 0 0 896.16980007171514 -176.42414202577629 0 -176.42414202577629 214.57789466847453 0 0 0 0 2181.3865064640122 343.70505021246231 0 343.70505021246231 -338.61407185641349 0 0 0 0 1976.6232624299228 149.24813488311077 0 149.24813488311077 -236.11275833469381 0 0 0 0 -1.5679039566784922 49.527231101757025 0 49.527231101757025 70.098351190183166 0 0 0 0 -5.037651665923967 13.156060636745167 0 13.156060636745167 52.782732219378694 0 0 0 0 9.2933029144041939 68.699554545615683 0 68.699554545615683 99.201850712952819 0 0 0 0 32.023391933089442 82.869827841992446 0 82.869827841992446 64.736467824179272 0 0 0 0 -8.806706510411459 -10.134737111424329 0 -10.134737111424329 72.332158254432215 0 0 0 0 -17.940271213312371 4.8977522974721523 0 4.8977522974721523 59.127930954680778 0 0 0 0 -4.2546946328750721 16.413675063689425 0 16.413675063689425 35.315654246121923 0 0 0 0 -5.1139581657830604 4.601563080249889 0 4.601563080249889 14.199224561245465 0 0 0 0 53.430729928717483 326.63544163595361 0 326.63544163595361 -290.95905468527781 0 0 0 0 -216.9006016630774 81.543639769972856 0 81.543639769972856 -41.851534061574057 0 0 0 0 -1.0449398876220926 2.0933335962429709 0 2.0933335962429709 3.8447374455121661 0 0 0 0 -8.6739492346945326 -27.837023722779644 0 -27.837023722779644 292.0954037565316 0 0 0 0 59.511779940765337 25.215652975843341 0 25.215652975843341 -13.689375949152236 0 0 0 0 -0.41495856040054946 2.3587137901502615 0 2.3587137901502615 -4.7479987796620371 0 0 0 0 1094.4642057898709 328.82710019498381 0 328.82710019498381 -229.95506911812299 0 0 0 0 30.102072977693751 63.038261310444796 0 63.038261310444796 54.544891880665091 0 0 0 0 -208.66316239154548 -399.69613794797078 0 -399.69613794797078 -331.53548628621138 0 0 0 0 -0.78384509890528875 18.047035713195459 0 18.047035713195459 -3.1527372994345946 0 0 0 0 79.686948340284516 45.270631391084969 0 45.270631391084969 -6.2889740806499503 0 0 0 0 153.04788978930446 -10.105561647014838 0 -10.105561647014838 -7.8550590248269145 0 0 0 0 -695.32075346342754 556.37288425381121 0 556.37288425381121 257.59524478803269 0 0 0 0 -704.65356198155496 402.19451594994734 0 402.19451594994734 1309.9159980888553 0 0 0 0 -153.45039094015374 -645.04419832366716 0 -645.04419832366716 661.5851980194202 0 0 0 0 301.51548117853235 583.25864983748215 0 583.25864983748215 498.75630259727041 0 0 0 0 20.930467613459285 -2.797868811064685 0 -2.797868811064685 1.0834850774018783 0 0 0 0 265.2302444331217 -405.2238140852869 0 -405.2238140852869 541.61799963010048 0 0 0 0 197.07451160079972 333.5134665898222 0 333.5134665898222 170.94837656819436 0 0 0 0 394.95186755492614 405.69351391393957 0 405.69351391393957 44.302307722192381 0 0 0 0 263.1557224264543 -164.48220000186393 0 -164.48220000186393 -426.69255280644757 0 0 0 0 -267.13937043171609 -298.57084998958408 0 -298.57084998958408 -15.345747741805098 0 0 0 0 361.36507564687054 456.41673994336816 0 456.41673994336816 114.90674149996903 0 0 0 0 333.78067069149984 62.293658458479058 0 62.293658458479058 -288.56479770093756 0 0 0 0 28.542151302666753 303.58059385585238 0 303.58059385585238 -36.965757889352972 0 0 0 0 455.79339934540621 77.729353720724248 0 77.729353720724248 -71.396333520961889 0 0 0 0 542.38735325285234 189.17980601255658 0 189.17980601255658 -211.39757526457561 0 0 0 0 451.96614186285296 405.36963701186778 0 405.36963701186778 31.253358075930919 0 0 0 0 3.7873363366247474 1.7641236052546319 0 1.7641236052546319 -3.2241347428585989 0 0 0 0 490.05751988265411 48.529558222354694 0 48.529558222354694 109.10607548197186 0 0 0 0 161.07194113031437 -120.51275978427566 0 -120.51275978427566 36.101886937691233 0 0 0 0 664.13982878340175 -174.62816182104075 0 -174.62816182104075 41.289850880701124 0 0 0 0 144.55117110729043 -206.36521371979052 0 -206.36521371979052 462.89634451488314 0 0 0 0 11.370485032530269 131.61759422158138 0 131.61759422158138 396.78386637969015 0 0 0 0 227.16888609653779 76.756966203299612 0 76.756966203299612 -303.5713891909345 0 0 0 0 93.080589383163897 255.19140788516779 0 255.19140788516779 9.2727458610711437 0 0 0 0 83.718354857584927 -66.171113329426589 0 -66.171113329426589 13.780470432356196 0 0 0 0 60.690152466028962 -7.550946203388003 0 -7.550946203388003 0.7796584309376966 0 0 0 0 76.169583138736016 -52.671809400440907 0 -52.671809400440907 -7.6400358189130202 0 0 0 0 79.24155716959649 -25.587285177609374 0 -25.587285177609374 -33.37589974518778 0 0 0 0 113.17384165420663 -39.581749368624514 0 -39.581749368624514 -33.314570855593381 0 0 0 0 97.843116489595559 -57.222144217273126 0 -57.222144217273126 -35.322443848741386 0 0 0 0 102.64970131524387 -74.623539359290362 0 -74.623539359290362 -18.680026460988302 0 0 0 0 105.6509068131345 -65.942163119560064 0 -65.942163119560064 -25.695429634821267 0 0 0 0 128.96339460850504 -50.835864615450873 0 -50.835864615450873 -95.978059346800364 0 0 0 0 157.278670341213 -101.15089180428549 0 -101.15089180428549 -43.004415890343807 0 0 0 0 136.45630721803826 -17.99357781166232 0 -17.99357781166232 1.5372862468226591 0 0 0 0 111.19987616605067 -40.365626089534544 0 -40.365626089534544 -21.469632934032234 0 0 0 0 126.29388483963703 -45.46201946311885 0 -45.46201946311885 -33.886695981977368 0 0 0 0 226.66467998163898 -347.87458395511044 0 -347.87458395511044 -508.72674461757833 0 0 0 0 158.52002008624186 50.415934235656096 0 50.415934235656096 -190.95025521390835 0 0 0 0 -17.206257283911327 -299.91943771273827 0 -299.91943771273827 403.18912827351232 0 0 0 0 -146.27153580963932 49.607813891197111 0 49.607813891197111 290.4996699473777 0 0 0 0 317.00877821631093 -318.20994064169736 0 -318.20994064169736 -62.308709150629511 0 0 0 0 28.708122227528349 -0.55950932529388631 0 -0.55950932529388631 -4.5096065741770772 0 0 0 0 -24.447066427987011 33.610073531207945 0 33.610073531207945 -191.64028306083401 0 0 0 0 -7.6868494884492975 83.812075769635157 0 83.812075769635157 -42.029766427272079 0 0 0 0 367.05714503311174 18.25270476297959 0 18.25270476297959 -168.96491876192948 0 0 0 0 208.89387638759763 -87.582630882058766 0 -87.582630882058766 -118.25188262384472 0 0 0 0 151.03743632175429 -207.62261932792239 0 -207.62261932792239 -124.62216748438368 0 0 0 0 153.88631576005719 -44.699815828844294 0 -44.699815828844294 -95.563207407377831 0 0 0 0 128.68763125003261 -11.235700742056753 0 -11.235700742056753 0.39064864279245626 0 0 0 0 87.956490210526226 -54.143367086873127 0 -54.143367086873127 -2.5901369131170213 0 0 0 0 178.40519544565905 -27.064219520056213 0 -27.064219520056213 -158.43223742130431 0 0 0 0 41.648578320025038 -17.00418203122047 0 -17.00418203122047 -7.0228803340989208 0 0 0 0 94.961582908792479 -31.645014029184949 0 -31.645014029184949 -58.769450960287031 0 0 0 0 123.08382722653005 -90.052451663300758 0 -90.052451663300758 44.676220457201907 0 0 0 0 375.8144493005293 -342.60439556174111 0 -342.60439556174111 133.91198118958602 0 0 0 0 226.10161722371777 -298.48538671389088 0 -298.48538671389088 387.66864988390716 0 0 0 0 199.85237924131798 -279.167347124353 0 -279.167347124353 253.66557141666996 0 0 0 0 11.218526245431612 -0.70839332436651858 0 -0.70839332436651858 -4.0541897800623961 0 0 0 0 356.58135230115295 -404.50824841460144 0 -404.50824841460144 250.81221817487676 0 0 0 0 41.723911637382116 17.685338536073687 0 17.685338536073687 -33.854357929716571 0 0 0 0 247.41691269064177 -409.87110197999255 0 -409.87110197999255 741.66815844470148 0 0 0 0 98.157058051827491 12.951788103254096 0 12.951788103254096 -5.9212015240236049 0 0 0 0 3.1460759056746497 -0.66450733747485913 0 -0.66450733747485913 1.8308030245843403 0 0 0 0 56.503037920425626 10.376884561692918 0 10.376884561692918 1.017326162507894 0 0 0 0 83.538273095513432 105.94151688742613 0 105.94151688742613 70.720652805963255 0 0 0 0 64.068573145442343 4.3820250194982435 0 4.3820250194982435 -5.2987896743799219 0 0 0 0 204.5949090635404 -9.1406003364445496 0 -9.1406003364445496 -327.93626132655208 0 0 0 0 -39.583002116822172 76.390071548820742 0 76.390071548820742 -215.71313132783689 0 0 0 0 66.29557474169269 -68.693673569802286 0 -68.693673569802286 -236.09669204407328 0 0 0 0 354.68649726158765 -64.442734978092631 0 -64.442734978092631 -340.89875786623088 0 0 0 0 160.70448612060136 -24.948748270290253 0 -24.948748270290253 -149.50086565186575 0 0 0 0 232.18884816837817 -220.7780294665572 0 -220.7780294665572 -17.446900350805663 0 0 0 0 161.68059861307847 -102.3992137934747 0 -102.3992137934747 -164.08182341787278 0 0 0 0 96.839452577267366 -76.905391885519748 0 -76.905391885519748 -8.6437553874166042 0 0 0 0 87.635731635604316 -99.893398536642053 0 -99.893398536642053 42.158615633572481 0 0 0 0 1033.2661856833001 -298.5252674858657 0 -298.5252674858657 -267.77552043981996 0 0 0 0 184.85724133493204 110.66878852208265 0 110.66878852208265 -363.52276962545875 0 0 0 0 1122.6835950817631 405.37283581799829 0 405.37283581799829 -719.87177005672493 0 0 0 0 198.5811167335778 -65.492312208170915 0 -65.492312208170915 -76.317857356885725 0 0 0 0 165.71141039748181 -69.646747529312051 0 -69.646747529312051 158.68501983206806 0 0 0 0 163.82544894076636 -197.53116634872458 0 -197.53116634872458 265.17876482982501 0 0 0 0 86.258666574882227 -207.02222612557978 0 -207.02222612557978 482.97365065461418 0 0 0 0 502.88556689244979 -245.72328780279372 0 -245.72328780279372 378.80417253042833 0 0 0 0 79.588167618632724 -132.04019897409307 0 -132.04019897409307 423.42764832280409 0 0 0 0 501.83148092192278 -268.31213303232562 0 -268.31213303232562 166.82814316998156 0 0 0 0 187.13738129315607 711.19908811177061 0 711.19908811177061 -527.7950768133669 0 0 0 0 92.87186862805919 52.445040400817987 0 52.445040400817987 -3.8203804784985174 0 0 0 0 226.69825486905393 185.48501975340423 0 185.48501975340423 32.960478498014709 0 0 0 0 -9.0408902236929691 15.029070549346706 0 15.029070549346706 3.8221515351923934 0 0 0 0 676.94039508053538 -431.74054542010344 0 -431.74054542010344 247.4911227438115 0 0 0 0 360.45805408218439 -384.88849998256273 0 -384.88849998256273 535.33034269165364 0 0 0 0 348.93630176094666 -73.104546377952374 0 -73.104546377952374 429.35315297718444 0 0 0 0 780.42252332365024 -417.59725438979012 0 -417.59725438979012 309.46320272618323 0 0 0 0 284.07806198401431 -200.68199983563215 0 -200.68199983563215 273.78389390026132 0 0 0 0 240.74493838265334 -203.3211659524577 0 -203.3211659524577 298.95370821504912 0 0 0 0 281.79765493657942 -4.403125591359526 0 -4.403125591359526 144.20830277766436 0 0 0 0 200.84681911541702 -132.14787429463149 0 -132.14787429463149 74.983222271198912 0 0 0 0 397.0977077156931 -270.29525729869783 0 -270.29525729869783 114.90225844703355 0 0 0 0 157.97010299593967 38.927499458930527 0 38.927499458930527 -125.9360851938012 0 0 0 0 115.19193747507961 -38.374310176951894 0 -38.374310176951894 96.349294278250895 0 0 0 0 258.20362038644816 -96.750247019477968 0 -96.750247019477968 -49.045263628558132 0 0 0 0 250.64694931571285 -122.89815496538358 0 -122.89815496538358 91.889263210408956 0 0 0 0 216.47246265981812 -153.40842525220523 0 -153.40842525220523 -21.23392366416374 0 0 0 0 123.38432193557674 -13.084382710609589 0 -13.084382710609589 28.763342176658625 0 0 0 0 186.11531584462864 -274.91978261882969 0 -274.91978261882969 252.99398461539931 0 0 0 0 144.47092084585893 -140.7027305610568 0 -140.7027305610568 267.09843676577384 0 0 0 0 199.07024999588975 -220.83726689561854 0 -220.83726689561854 407.66555106227679 0 0 0 0 128.7154834174944 -305.19718922710581 0 -305.19718922710581 483.8076304071069 0 0 0 0 144.37270527771034 -381.32667500811749 0 -381.32667500811749 70.360818000604922 0 0 0 0 23.786505441326881 -690.53409700128577 0 -690.53409700128577 498.24373358985031 0 0 0 0 496.79824247003125 -242.45373174102588 0 -242.45373174102588 -315.95944010962194 0 0 0 0 280.18577274703421 -325.85046412223528 0 -325.85046412223528 91.99693983413772 0 0 0 0 192.68559115560493 -93.694413092454852 0 -93.694413092454852 -141.14263490471785 0 0 0 0 289.86003278237331 -46.988705319101427 0 -46.988705319101427 -123.16063341888912 0 0 0 0 179.09438014380794 174.46106977024579 0 174.46106977024579 -454.95782567509195 0 0 0 0 71.524009058164665 164.8798955723596 0 164.8798955723596 -231.55996115266609 0 0 0 0 81.787771290655655 128.6893426265591 0 128.6893426265591 -145.80494608462311 0 0 0 0 26.125799975401605 222.12598215925502 0 222.12598215925502 -229.60689100459595 0 0 0 0 93.893120515174814 135.73144788570789 0 135.73144788570789 -171.97545349227244 0 0 0 0 172.3220753823116 76.259108066064982 0 76.259108066064982 -220.13487051505126 0 0 0 0 3496.7118942572251 14.770372587419066 0 14.770372587419066 -85.828826618570432 0 0 0 0 8.8452840774471753 22.922401142061808 0 22.922401142061808 10.983604401157947 0 0 0 0 3101.2932287475305 784.9756581554085 0 784.9756581554085 202.99025237922814 0 0 0 0 -295.09480402788904 284.65295500541032 0 284.65295500541032 -171.50186532533041 0 0 0 0 -128.83735539426561 107.76562543070851 0 107.76562543070851 -27.549070820173199 0 0 0 0 -65.362712720463605 399.08482716134245 0 399.08482716134245 -521.81916503142747 0 0 0 0 3417.4758389860472 -35.163595816722633 0 -35.163595816722633 -92.518185326354967 0 0 0 0 358.95708466197902 112.04330018903966 0 112.04330018903966 -1044.2555936386379 0 0 0 0 761.81197904463625 -1057.0221071266751 0 -1057.0221071266751 -365.58781262748334 0 0 0 0 35.545413532185194 -789.88733772575506 0 -789.88733772575506 1311.3905499017201 0 0 0 0 66.780479027627734 230.01487345743408 0 230.01487345743408 766.30349387295428 0 0 0 0 1990.6855231883492 888.45662637638043 0 888.45662637638043 -2750.087531185588 0 0 0 0 -8.3071783493120392 -304.58908870502046 0 -304.58908870502046 3309.5564558280639 0 0 0 0 3501.459908168119 -174.53378551093112 0 -174.53378551093112 -121.85233358446932 0 0 0 0 3.1373367509243804 14.000357626732196 0 14.000357626732196 26.405611508766015 0 0 0 0 2.687518492267742 -4.6865375325759757 0 -4.6865375325759757 15.897964316293766 0 0 0 0 -115.85438266933488 -36.274037907345701 0 -36.274037907345701 610.14301174819047 0 0 0 0 -104.86207538661256 -134.13804875185269 0 -134.13804875185269 1448.6336564421167 0 0 0 0 -68.494945973194262 -287.78261323091647 0 -287.78261323091647 920.48269931342838 0 0 0 0 -62.653920217948325 -272.82581479295732 0 -272.82581479295732 478.59106363165392 0 0 0 0 47.478645762406813 -11.92735259944493 0 -11.92735259944493 606.71587450558036 0 0 0 0 48.348538951053342 -7.7118114516633796 0 -7.7118114516633796 252.61033560441683 0 0 0 0 147.69945774293592 176.67953777407729 0 176.67953777407729 38.449730747397552 0 0 0 0 11.932275422157019 -18.020860419092926 0 -18.020860419092926 48.598551454321424 0 0 0 0 0.52289247318549315 -112.03263248068106 0 -112.03263248068106 8.1085991031613958 0 0 0 0 177.52883058097359 -36.164084183770683 0 -36.164084183770683 -40.983321757390513 0 0 0 0 132.20126955155138 -126.57965697023383 0 -126.57965697023383 -63.826347479101969 0 0 0 0 314.92959842340576 -279.88813476031174 0 -279.88813476031174 1042.8197745361413 0 0 0 0 706.6559453045702 -244.48477737939584 0 -244.48477737939584 920.55094994993669 0 0 0 0 3.3600324385846951 2.2623262446497634 0 2.2623262446497634 14.410539944313696 0 0 0 0 4082.1158469446941 577.75727411684386 0 577.75727411684386 586.10945687050798 0 0 0 0 429.07231886040245 -421.12651607185717 0 -421.12651607185717 884.04299725536839 0 0 0 0 3501.5445980530694 -1.3017743070220835 0 -1.3017743070220835 -20.450771718364326 0 0 0 0 3104.2363778118943 59.338351235932272 0 59.338351235932272 -25.428868694723636 0 0 0 0 10.295291689402438 2.3728063759245437 0 2.3728063759245437 -5.1035262870076643 0 0 0 0 34.332422573832446 0.91792642724368534 0 0.91792642724368534 10.436193760797437 0 0 0 0 39.350714513342609 -22.006535452823073 0 -22.006535452823073 -1.6669135713330547 0 0 0 0 1.7587626544095656 -27.537097744471907 0 -27.537097744471907 4.8412532367308359 0 0 0 0 18.544221049206396 -14.918968542455895 0 -14.918968542455895 3.1553979306586379 0 0 0 0 34.154966856589454 -3.110889490573868 0 -3.110889490573868 2.5027039235797588 0 0 0 0 52.00732039902141 -5.9279196058628258 0 -5.9279196058628258 -6.9337901150626635 0 0 0 0 16.362280300469138 -23.890466655475734 0 -23.890466655475734 -1.808054700147693 0 0 0 0 44.947155569803726 -17.557538885918007 0 -17.557538885918007 4.7816197864668197 0 0 0 0 2.8697127639456217 -6.6120181619770868 0 -6.6120181619770868 -2.199879285609676 0 0 0 0 3464.4750107326327 -79.405753556573927 0 -79.405753556573927 -86.834291500184477 0 0 0 0 57.110812011478629 -8.9432351880452643 0 -8.9432351880452643 -8.0402328796981237 0 0 0 0 66.849557129378809 -19.176854116044069 0 -19.176854116044069 -5.0048507556696222 0 0 0 0 5.8719164654853433 4.2050423867455642 0 4.2050423867455642 -2.0541331983437434 0 0 0 0 9.5547246136721053 -7.7283851878373859 0 -7.7283851878373859 0.049876405507623872 0 0 0 0 3496.42380846991 -69.706396139875267 0 -69.706396139875267 -86.187508621931244 0 0 0 0 64.387411557210726 -4.3702686218567806 0 -4.3702686218567806 -8.7721339494311223 0 0 0 0 3139.058827420884 -770.11880069573078 0 -770.11880069573078 187.49165013762794 0 0 0 0 58.674095017322543 -0.65946998633216936 0 -0.65946998633216936 -6.7597079344197937 0 0 0 0 17.887483600404352 3.4426563007361333 0 3.4426563007361333 -8.7519600449084578 0 0 0 0 42.023113132120429 2.807156412260241 0 2.807156412260241 -4.1361337713732951 0 0 0 0 57.000509135239554 -7.8248102880388046 0 -7.8248102880388046 -4.7658406401943694 0 0 0 0 1.5807786911464063 7.678987040699667 0 7.678987040699667 7.4768131896652221 0 0 0 0 33.717337778130648 2.3550073924907138 0 2.3550073924907138 -1.8447990440981121 0 0 0 0 3.2545565570655839 -4.8872972097427425 0 -4.8872972097427425 3.6095959604554242 0 0 0 0 1473.448880514974 978.79504961863347 0 978.79504961863347 185.51762769688136 0 0 0 0 3487.3766154100872 50.386027464876662 0 50.386027464876662 -691.90707682950358 0 0 0 0 -7.1706092675859452 9.5272039796607118 0 9.5272039796607118 4.8053064997506807 0 0 0 0 2190.5760658136132 -908.02863654418252 0 -908.02863654418252 36.424372415122662 0 0 0 0 -327.55872346003889 -122.37731311982525 0 -122.37731311982525 707.67088626392501 0 0 0 0 38.050388684113635 3.3969882236922118 0 3.3969882236922118 0.05872195126324567 0 0 0 0 88.913579294123338 155.68217243423226 0 155.68217243423226 -212.36635966454833 0 0 0 0 131.36148582313399 70.902383593086967 0 70.902383593086967 -254.98666623115969 0 0 0 0 135.03117383184144 49.688787472327022 0 49.688787472327022 -173.1333460729395 0 0 0 0 47.802687726838371 -10.249100951404966 0 -10.249100951404966 -5.645610498642804 0 0 0 0 30.35702836278271 -13.730483204286807 0 -13.730483204286807 -11.100715070078511 0 0 0 0 95.830553606254398 -42.630732240816997 0 -42.630732240816997 -39.575292494528981 0 0 0 0 37.007862298038162 -26.294781810322917 0 -26.294781810322917 -21.955919023012029 0 0 0 0 50.893015527577518 -6.4007693834050201 0 -6.4007693834050201 -13.581082243206083 0 0 0 0 49.758630090971565 -5.3384345987038841 0 -5.3384345987038841 -3.2258494577707779 0 0 0 0 14.038789315723989 -17.207932192832004 0 -17.207932192832004 -7.7612135951967929 0 0 0 0 238.23307655430608 -75.917180740164895 0 -75.917180740164895 -204.80746625697338 0 0 0 0 210.15878126876214 -78.61841238235229 0 -78.61841238235229 -104.34327977415455 0 0 0 0 69.81183673174246 -47.636606231585574 0 -47.636606231585574 -70.833058039874231 0 0 0 0 225.73254643406835 -50.853754225672674 0 -50.853754225672674 -98.438102797890224 0 0 0 0 250.55218940815848 -50.545183641080257 0 -50.545183641080257 -138.81319467252979 0 0 0 0 12.614498075827978 -11.629458125522246 0 -11.629458125522246 -7.0489290422384157 0 0 0 0 161.73162181623411 -6.0817581572237032 0 -6.0817581572237032 -80.098132445948067 0 0 0 0 -13.296536586547518 -37.89551260274493 0 -37.89551260274493 2.8767790724377846 0 0 0 0 2.7282285945990075 -27.755825496268919 0 -27.755825496268919 -14.720652021479715 0 0 0 0 -112.36862790132 215.49332264873271 0 215.49332264873271 -284.22858603329132 0 0 0 0 27.125568372764974 -7.2185659765665378 0 -7.2185659765665378 -14.687500245601541 0 0 0 0 25.796129325001758 -0.6040472116665967 0 -0.6040472116665967 -2.989815337436033 0 0 0 0 167.06729515876577 74.122836804532653 0 74.122836804532653 -279.74553328620459 0 0 0 0 -10.986607660655864 80.424680783091844 0 80.424680783091844 -221.4707655519087 0 0 0 0 90.017168663009329 1.7880918243750639 0 1.7880918243750639 -5.2441041531428656 0 0 0 0 46.918439356916977 -28.000580764349031 0 -28.000580764349031 -16.5279338859707 0 0 0 0 145.17996552551631 -40.620198072200083 0 -40.620198072200083 -241.53368235600419 0 0 0 0 166.43553905368753 41.59933389041845 0 41.59933389041845 -96.329464745182122 0 0 0 0 15.608777727713459 12.300113241740746 0 12.300113241740746 -123.57594858618791 0 0 0 0 111.58843132443144 106.73463084319565 0 106.73463084319565 -344.89477850328058 0 0 0 0 278.97827544237225 -26.074198187558522 0 -26.074198187558522 -166.60229017505299 0 0 0 0 184.1003040226642 -156.1467727690399 0 -156.1467727690399 51.929757927966875 0 0 0 0 141.40113602258498 118.93250078571327 0 118.93250078571327 -204.29944752599727 0 0 0 0 30.251178482110845 5.3252099968499351 0 5.3252099968499351 -42.186890737345948 0 0 0 0 92.8602797124272 -85.234352174132482 0 -85.234352174132482 -158.11690478019227 0 0 0 0 10.393947090880829 -102.44960245069024 0 -102.44960245069024 -34.518598053058668 0 0 0 0 253.55954564775419 -146.85402270740792 0 -146.85402270740792 -108.52723574899937 0 0 0 0 132.26625958586737 -137.27592969407306 0 -137.27592969407306 -101.88159177817033 0 0 0 0 -3.9029941704006887 -8.6755192880915502 0 -8.6755192880915502 -104.37827534898861 0 0 0 0 431.63419136885295 -170.0547038697764 0 -170.0547038697764 -141.83772600363773 0 0 0 0 70.528342084671749 -74.78839263995269 0 -74.78839263995269 -45.380225161243288 0 0 0 0 -11.195568109730857 -274.89356832514397 0 -274.89356832514397 -70.142660631520812 0 0 0 0 13.805462945109729 -16.888936937312291 0 -16.888936937312291 1.3145473535538619 0 0 0 0 1.7786264840182433 -5.1239080336605003 0 -5.1239080336605003 -8.4976107225054758 0 0 0 0 33.081846213731296 -30.02717400293281 0 -30.02717400293281 -0.61853363311627163 0 0 0 0 18.120750066113942 -31.269839746050216 0 -31.269839746050216 -12.095755781129469 0 0 0 0 -188.80600395786314 -169.34882175825248 0 -169.34882175825248 146.15359203363869 0 0 0 0 10.481129507439164 -13.63614773538805 0 -13.63614773538805 22.11865880819596 0 0 0 0 175.32662178342343 587.01550193310368 0 587.01550193310368 461.65795641894988 0 0 0 0 203.21970559098645 -573.93598932483474 0 -573.93598932483474 -20.798586863004402 0 0 0 0 815.43264656918382 -247.02718967076953 0 -247.02718967076953 -92.168052841956069 0 0 0 0 -134.90966274292384 -291.82975357513681 0 -291.82975357513681 321.14577392944011 0 0 0 0 6.9786258540266193 -5.0624513043880173 0 -5.0624513043880173 3.8271187316688531 0 0 0 0 917.11612655648833 288.92881726315591 0 288.92881726315591 -36.116401121128547 0 0 0 0 -180.38886910579163 -68.991970657560387 0 -68.991970657560387 137.866207427483 0 0 0 0 218.69307340026717 7.1015686225891841 0 7.1015686225891841 -224.02930779798498 0 0 0 0 18.191538614569531 -15.059890553532181 0 -15.059890553532181 10.999167260709227 0 0 0 0 280.57503521524086 -111.91023530661141 0 -111.91023530661141 -759.15855677863965 0 0 0 0 296.73560089322018 143.98041876988054 0 143.98041876988054 -33.520725975522261 0 0 0 0 254.55856011381684 120.51544441447959 0 120.51544441447959 -243.7917383577078 0 0 0 0 135.79992137570662 191.77045706220588 0 191.77045706220588 -259.45053229245514 0 0 0 0 56.114829312846481 2.3939254674435961 0 2.3939254674435961 0.30335735802993047 0 0 0 0 254.04531113828853 -185.33907545343209 0 -185.33907545343209 -18.080728008182632 0 0 0 0 140.81638587514044 -203.38218772986741 0 -203.38218772986741 45.944414702182712 0 0 0 0 384.02054235903597 -274.59298600138732 0 -274.59298600138732 21.875086170780833 0 0 0 0 200.54813258052309 -201.34058905460734 0 -201.34058905460734 140.33114281167218 0 0 0 0 557.44184553436935 -741.74173931087 0 -741.74173931087 702.31279623289163 0 0 0 0 254.21203632724155 -299.1417354068833 0 -299.1417354068833 251.82444286700047 0 0 0 0 19.191594022366957 -1.0819601521580129 0 -1.0819601521580129 0.52637438293597594 0 0 0 0 -151.07243477820703 302.20433963594928 0 302.20433963594928 709.26250043977143 0 0 0 0 -240.54130616154362 1410.8924969159707 0 1410.8924969159707 -580.49875785827737 0 0 0 0 159.98734586079121 -1856.536402678777 0 -1856.536402678777 1338.9589697222609 0 0 0 0 15.8467568933801 -16.659603503254285 0 -16.659603503254285 15.383747326534541 0 0 0 0 459.39772475541304 203.40303509816408 0 203.40303509816408 -273.31758559808759 0 0 0 0 811.21561657920211 -117.5529281233425 0 -117.5529281233425 -268.52132506731334 0 0 0 0 177.33857420165987 -52.817462022310281 0 -52.817462022310281 -41.0427075879212 0 0 0 0 -522.6347827233617 -41.579556110701105 0 -41.579556110701105 14.128278830733052 0 0 0 0 -51.658160230879275 343.26376393562612 0 343.26376393562612 -103.66661025650319 0 0 0 0 77.279878637704769 -203.95250994290302 0 -203.95250994290302 -180.11160283718255 0 0 0 0 58.106975671417899 -162.11550658568558 0 -162.11550658568558 -125.67411395836166 0 0 0 0 179.92461584685361 -103.82464091103782 0 -103.82464091103782 -152.35835366387573 0 0 0 0 164.65962594124721 -147.47388067525623 0 -147.47388067525623 -105.04129840796553 0 0 0 0 55.202448300976585 -135.92441370158838 0 -135.92441370158838 -84.569373973995312 0 0 0 0 -157.46781341597921 -247.44852000236833 0 -247.44852000236833 -117.59295790997825 0 0 0 0 24.961923864565051 -74.939132240342843 0 -74.939132240342843 -207.31629032657793 0 0 0 0 -27.222445650983445 -155.73957037969149 0 -155.73957037969149 70.889135583822167 0 0 0 0 -10.825114868794458 -106.31101454624689 0 -106.31101454624689 -136.87967520024074 0 0 0 0 40.97091391694039 -73.986178360011607 0 -73.986178360011607 -29.737202767217241 0 0 0 0 192.54135229211761 -171.88872333115785 0 -171.88872333115785 33.436061179911917 0 0 0 0 204.51419466926745 -208.71314667465526 0 -208.71314667465526 132.88608436989625 0 0 0 0 42.674111601311438 -132.86296127112746 0 -132.86296127112746 98.986753616705755 0 0 0 0 -67.744342577299278 -176.99592003790201 0 -176.99592003790201 156.61058228229399 0 0 0 0 22.118156312343956 -159.29951014402843 0 -159.29951014402843 154.24946943116061 0 0 0 0 48.73335036250046 -150.15275325439757 0 -150.15275325439757 68.22534191039702 0 0 0 0 21.334264142643839 -83.622835015656761 0 -83.622835015656761 79.017567234885064 0 0 0 0 21.629764985261431 -90.774409882883901 0 -90.774409882883901 193.69728451468495 0 0 0 0 24.450692589834034 -157.57075952745936 0 -157.57075952745936 146.61625044839002 0 0 0 0 31.670526674345183 -136.37100198807894 0 -136.37100198807894 206.54836768705354 0 0 0 0 170.34796483125774 -218.16030202064371 0 -218.16030202064371 248.19290311825625 0 0 0 0 -31.032682277989352 -56.769694847467122 0 -56.769694847467122 293.84191443851796 0 0 0 0 35.06400051354634 -9.5232321828968054 0 -9.5232321828968054 -6.7794568588914323 0 0 0 0 24.392203288872508 -43.243585401586529 0 -43.243585401586529 128.4427527421858 0 0 0 0 20.877241038389911 85.932846604862902 0 85.932846604862902 -267.45366247986169 0 0 0 0 120.85203555392945 129.9546799252862 0 129.9546799252862 -417.03786305301151 0 0 0 0 104.98817661843441 39.241595298965422 0 39.241595298965422 -368.37348451841763 0 0 0 0 35.609662224714725 -10.538901340659262 0 -10.538901340659262 -7.5777540640361005 0 0 0 0 73.879760115527318 -106.40025957663238 0 -106.40025957663238 -65.474290104601096 0 0 0 0 58.695527954918816 -74.215253065208714 0 -74.215253065208714 -242.38499600879595 0 0 0 0 150.75273821117469 -222.95994852232073 0 -222.95994852232073 -103.2198924116301 0 0 0 0 49.132654701548745 -82.158348228002524 0 -82.158348228002524 -144.6395843633934 0 0 0 0 25.801840412108504 -71.823020403043756 0 -71.823020403043756 -128.65438520070938 0 0 0 0 109.22871442801011 -22.093851283255692 0 -22.093851283255692 -291.08050822265159 0 0 0 0 109.05764394990024 -186.74758344936026 0 -186.74758344936026 23.670135319495557 0 0 0 0 26.817830826165732 -190.68119584357544 0 -190.68119584357544 70.232741938679737 0 0 0 0 21.361144907086697 -183.97377844196012 0 -183.97377844196012 101.45106070959685 0 0 0 0 -14.079771430161543 -244.3030530541248 0 -244.3030530541248 211.87773919353367 0 0 0 0 41.274148546328206 -251.553180164183 0 -251.553180164183 81.176326143361621 0 0 0 0 73.440398430672758 -205.74917282598153 0 -205.74917282598153 -53.999560923603212 0 0 0 0 795.28718545113611 81.655794932612253 0 81.655794932612253 32.936081311677754 0 0 0 0 297.6323097007355 -493.90537615423273 0 -493.90537615423273 231.43400698003347 0 0 0 0 -0.99840889766065732 -0.36543078530357143 0 -0.36543078530357143 -1.2590379702924093 0 0 0 0 80.544824524621788 -76.594990184797723 0 -76.594990184797723 -10.901678378982069 0 0 0 0 -210.80295442614533 366.76855040707096 0 366.76855040707096 422.09025316388079 0 0 0 0 73.227020112513401 -19.662109331881084 0 -19.662109331881084 -5.3727401169508084 0 0 0 0 25.959949449958003 3.902858799613341 0 3.902858799613341 16.24764459149543 0 0 0 0 9.7203300117157596 12.136985130767926 0 12.136985130767926 -35.230224464583216 0 0 0 0 30.8548840798573 -41.935655618242833 0 -41.935655618242833 -0.45993741652546305 0 0 0 0 -32.094335726715599 -12.04443265587247 0 -12.04443265587247 12.18325365371129 0 0 0 0 29.064824792585366 -13.357179361420879 0 -13.357179361420879 -7.1971448591854967 0 0 0 0 139.39878310282074 79.777203427207951 0 79.777203427207951 -155.88461374744588 0 0 0 0 33.307231421961184 -11.31949919999583 0 -11.31949919999583 -7.8484236255872659 0 0 0 0 -22.686386758588014 -98.385083782765193 0 -98.385083782765193 34.053684458453063 0 0 0 0 58.782856799029105 -48.686897490976662 0 -48.686897490976662 -166.55001358216714 0 0 0 0 29.3928548267113 -29.87064469516622 0 -29.87064469516622 -84.046266968254713 0 0 0 0 72.099147551000442 -126.4447337124476 0 -126.4447337124476 -79.151155981477132 0 0 0 0 0.31508316291114724 -1.070563225905552 0 -1.070563225905552 4.3895262431596933 0 0 0 0 29.920333787069922 -103.28186560125187 0 -103.28186560125187 27.009751959576988 0 0 0 0 -227.23481935600557 -103.33540121684416 0 -103.33540121684416 41.148814184641196 0 0 0 0 -1.0594117026930689 -58.486561293650539 0 -58.486561293650539 -4.2355111369847691 0 0 0 0 997.23382042300727 -970.88520774147935 0 -970.88520774147935 1026.2936168982408 0 0 0 0 1.0579915754324236 -6.6150880353983892 0 -6.6150880353983892 13.030400473209969 0 0 0 0 2395.8754339881302 -970.29082002471307 0 -970.29082002471307 34.530784110993018 0 0 0 0 3502.3755539317012 -429.80481746310403 0 -429.80481746310403 -136.46953028266066 0 0 0 0 3493.8577001522008 -1994.7449368860568 0 -1994.7449368860568 440.53497359198582 0 0 0 0 2124.3810839091893 -916.62283455770148 0 -916.62283455770148 51.05751669029226 0 0 0 0 11.491358955874002 -8.6552758537516183 0 -8.6552758537516183 0.84115585294897177 0 0 0 0 1490.3491356992251 -864.38821055084895 0 -864.38821055084895 413.25213962543285 0 0 0 0 10.775058383149371 -12.917249812424188 0 -12.917249812424188 7.7082317318763103 0 0 0 0 4.0597269232780384 -1.5933444525990073 0 -1.5933444525990073 2.7656853962210795 0 0 0 0 -552.73678010800677 -1913.8745923155066 0 -1913.8745923155066 3596.4145654106214 0 0 0 0 28.453330620832276 -1.9245799050779908 0 -1.9245799050779908 -0.90820490058840164 0 0 0 0 3487.4973414182641 -3.252667625095468 0 -3.252667625095468 -1.1414626898409468 0 0 0 0 300.95673391198943 541.95248394920668 0 541.95248394920668 1009.7650332261512 0 0 0 0 3.0762822089744688 -3.6447810488748367 0 -3.6447810488748367 1.4859521537868028 0 0 0 0 8.9515429946332006 -16.099464888930925 0 -16.099464888930925 5.7190966844823379 0 0 0 0 19.763748034471746 -10.190710453155617 0 -10.190710453155617 -4.6942515613743581 0 0 0 0 11.54483852945441 -10.552830616445476 0 -10.552830616445476 -3.5879723160884396 0 0 0 0 10.355245857759577 -8.4378107407013019 0 -8.4378107407013019 -5.5174024029155619 0 0 0 0 38.14802142269582 -4.92300227547193 0 -4.92300227547193 -5.698638134285261 0 0 0 0 10.471662811716836 -9.0745158397239294 0 -9.0745158397239294 0.90958633179195858 0 0 0 0 25.648497465158925 -16.320059053419431 0 -16.320059053419431 0.30009354203778571 0 0 0 0 5.893575619740969 0.028462670035509063 0 0.028462670035509063 -2.1101143594011988 0 0 0 0 3496.5092458376848 711.56033170547016 0 711.56033170547016 -93.514436361124638 0 0 0 0 13.058224847609255 -1.5466444737752756 0 -1.5466444737752756 -2.394859669010057 0 0 0 0 2.3409075713454848 -0.069466729294056506 0 -0.069466729294056506 -0.009486910385682723 0 0 0 0 177.81595388284063 87.837107050610655 0 87.837107050610655 23.346923678008068 0 0 0 0 197.52233043709748 94.474190460412302 0 94.474190460412302 15.894992785446505 0 0 0 0 303.19867731175054 -56.830254512345974 0 -56.830254512345974 -17.090193830600725 0 0 0 0 234.93570450693323 -47.506537509186202 0 -47.506537509186202 -12.436793976118768 0 0 0 0 385.45635718766744 -10.507814087928647 0 -10.507814087928647 -13.974682466860635 0 0 0 0 270.89343791287956 58.971437117569735 0 58.971437117569735 39.596499644946107 0 0 0 0 277.71379009380416 62.582995517960029 0 62.582995517960029 28.413572980838467 0 0 0 0 221.87704288142777 89.328294870594107 0 89.328294870594107 43.361647113884601 0 0 0 0 214.82578397777797 117.24443932890951 0 117.24443932890951 12.186718893156694 0 0 0 0 196.32935645097587 117.70290458077415 0 117.70290458077415 33.241876008690241 0 0 0 0 204.89088985156013 128.95566813024379 0 128.95566813024379 47.384155778293348 0 0 0 0 225.01008730628291 129.23903711524795 0 129.23903711524795 24.791323875037278 0 0 0 0 194.48560728290613 133.8233915673523 0 133.8233915673523 7.8903487901359028 0 0 0 0 155.87106294240766 111.29000236988975 0 111.29000236988975 54.27464572769054 0 0 0 0 188.13561159386882 107.78100277128738 0 107.78100277128738 -23.707290940342265 0 0 0 0 235.24492377597562 138.72363221857836 0 138.72363221857836 -52.788138918127416 0 0 0 0 153.79587123749297 154.35205362425691 0 154.35205362425691 1.6999336685926352 0 0 0 0 220.69960434797667 162.78869498308768 0 162.78869498308768 -50.672072866422695 0 0 0 0 168.08837024810782 214.61517729097807 0 214.61517729097807 -73.50929202771249 0 0 0 0 186.34145670341968 192.30849733262377 0 192.30849733262377 -60.549618913147242 0 0 0 0 152.33683808406658 193.09332330264425 0 193.09332330264425 -78.771913987257449 0 0 0 0 228.86258769557753 109.43153713832072 0 109.43153713832072 -97.441113781907802 0 0 0 0 298.1175915107724 205.14424499197702 0 205.14424499197702 -107.47643603567587 0 0 0 0 333.83620851312298 116.7925514696589 0 116.7925514696589 -110.47161983823491 0 0 0 0 380.97623551843276 203.57041865331166 0 203.57041865331166 -140.43707072686516 0 0 0 0 354.53445060240188 131.37938623286408 0 131.37938623286408 47.419897131534526 0 0 0 0 202.76774238389771 235.07512662081342 0 235.07512662081342 -112.30344384971977 0 0 0 0 209.93781678150299 103.91877555901976 0 103.91877555901976 -6.2620909474448467 0 0 0 0 189.34507048913656 140.63640145228987 0 140.63640145228987 -289.17172276542078 0 0 0 0 -337.56638152510141 11.005206300721227 0 11.005206300721227 -16.083797090188227 0 0 0 0 -81.820608617936159 370.88844583393029 0 370.88844583393029 -109.20301487918624 0 0 0 0 24.983505703381525 132.86879469460814 0 132.86879469460814 12.787038594003434 0 0 0 0 99.254468439240554 89.180408856581778 0 89.180408856581778 -3.2009014674174523 0 0 0 0 4.1779068619789541 -130.08730165835635 0 -130.08730165835635 26.059968448706741 0 0 0 0 30.295842061376788 -106.495616854525 0 -106.495616854525 -335.95578390025548 0 0 0 0 -353.91339948558925 490.56425741645921 0 490.56425741645921 -246.61249946848739 0 0 0 0 121.45065410175903 50.778468868830373 0 50.778468868830373 -104.02563370808866 0 0 0 0 183.8163662204197 -279.41456610741932 0 -279.41456610741932 360.81895337477192 0 0 0 0 495.52176575496651 315.73995766713313 0 315.73995766713313 233.1326995131401 0 0 0 0 10.871351921974874 -0.26781375395938367 0 -0.26781375395938367 -0.84726330574161546 0 0 0 0 536.6188119225867 254.00516647892539 0 254.00516647892539 -214.35838396621693 0 0 0 0 850.430399878343 -70.786855318526051 0 -70.786855318526051 -217.17135832324288 0 0 0 0 477.02166483669771 -19.139873313904118 0 -19.139873313904118 -193.17219916226591 0 0 0 0 708.68385947129286 -318.96876534695127 0 -318.96876534695127 -47.769413720835701 0 0 0 0 315.86642599588959 -194.24595873945333 0 -194.24595873945333 -84.794341333555224 0 0 0 0 949.32067149842078 68.922156515805 0 68.922156515805 -205.55086335853525 0 0 0 0 4.3368256269038952 -6.5176541159068409 0 -6.5176541159068409 8.8709429862177753 0 0 0 0 294.31571836457442 -889.24539633225027 0 -889.24539633225027 -426.86328737663013 0 0 0 0 -89.149475948483996 380.88986958680584 0 380.88986958680584 -215.70278379489071 0 0 0 0 280.42968822212424 -230.46828515858306 0 -230.46828515858306 18.867624255420125 0 0 0 0 -580.69956959393539 -241.88133436455428 0 -241.88133436455428 22.258018635634471 0 0 0 0 108.42900249612467 -81.240144363429238 0 -81.240144363429238 -48.396720802009668 0 0 0 0 373.9980400983477 -42.14010862337949 0 -42.14010862337949 -47.408601964929623 0 0 0 0 224.72348724825224 -98.826966404184418 0 -98.826966404184418 -172.41005395389166 0 0 0 0 328.92239089055056 -178.04786907991513 0 -178.04786907991513 -136.13355350437655 0 0 0 0 278.845869311358 -90.423266100174544 0 -90.423266100174544 -139.87815401303084 0 0 0 0 273.54865572146491 -154.11002678612564 0 -154.11002678612564 -45.178411732202619 0 0 0 0 182.26985108139365 -84.85465984640912 0 -84.85465984640912 -84.899341241657453 0 0 0 0 219.44873254079221 -147.27374523314219 0 -147.27374523314219 -111.48858413946118 0 0 0 0 307.14414104429579 -125.51184214562826 0 -125.51184214562826 -97.947017757776166 0 0 0 0 339.95591794055963 -62.341870010782316 0 -62.341870010782316 -89.521940285722124 0 0 0 0 386.97369895858037 -104.92566855688037 0 -104.92566855688037 -58.743711111577568 0 0 0 0 439.88926148785322 -70.09859911445426 0 -70.09859911445426 -57.392278441706182 0 0 0 0 362.15177219053066 -193.09329322770816 0 -193.09329322770816 34.523432935357732 0 0 0 0 218.63383298962708 -97.661492454877134 0 -97.661492454877134 -22.998366259485721 0 0 0 0 518.83590730965034 -84.304086928551953 0 -84.304086928551953 -106.23745532616623 0 0 0 0 474.77459006065328 -56.312564068878885 0 -56.312564068878885 -102.27400857920124 0 0 0 0 458.54589289842079 -47.22866053488309 0 -47.22866053488309 -106.67007560557209 0 0 0 0 414.85857371097427 -57.308148152458401 0 -57.308148152458401 -108.30399743095427 0 0 0 0 461.35698494054031 -62.008142985921324 0 -62.008142985921324 -72.371676808308166 0 0 0 0 525.52529681434498 -37.948064188799435 0 -37.948064188799435 -65.580001764998997 0 0 0 0 378.15654221309023 -23.166908865689621 0 -23.166908865689621 -22.932468049167937 0 0 0 0 511.69392191936277 -42.418279069345544 0 -42.418279069345544 37.779357965233771 0 0 0 0 485.40475249002156 13.55773611857785 0 13.55773611857785 -10.374002126470828 0 0 0 0 456.76391729566831 -9.5484734179958082 0 -9.5484734179958082 30.996960613984811 0 0 0 0 552.39579368595457 -113.85482624949661 0 -113.85482624949661 128.53494607661924 0 0 0 0 572.15375954681258 15.881669048494643 0 15.881669048494643 92.417908938541132 0 0 0 0 637.30788201026553 -23.290464923609989 0 -23.290464923609989 206.74314756636522 0 0 0 0 532.22012722477666 -55.016017414066937 0 -55.016017414066937 180.80489783201824 0 0 0 0 532.14364479105564 30.957901300038777 0 30.957901300038777 125.01047252022317 0 0 0 0 486.5398509141155 53.540254355954062 0 53.540254355954062 82.370518510053444 0 0 0 0 218.62410942691258 -140.38779833695594 0 -140.38779833695594 91.658681338813153 0 0 0 0 454.97457337901005 -105.7444505478411 0 -105.7444505478411 13.359077853549252 0 0 0 0 608.53604254226411 -84.052961285515721 0 -84.052961285515721 15.210114816007149 0 0 0 0 433.54322503541516 -132.55209610504608 0 -132.55209610504608 152.94448382612336 0 0 0 0 673.17653563409112 -227.24894421787599 0 -227.24894421787599 190.33135413741115 0 0 0 0 596.37951734675221 -90.154152785044857 0 -90.154152785044857 403.66444055825286 0 0 0 0 466.26093171500486 -250.1271915239937 0 -250.1271915239937 137.17561419012873 0 0 0 0 539.00979927298795 -304.3599145873186 0 -304.3599145873186 269.78049846595422 0 0 0 0 178.25603118331583 -197.81886486388817 0 -197.81886486388817 252.26841606436528 0 0 0 0 57.15294362487748 55.696945841255456 0 55.696945841255456 161.19637920499872 0 0 0 0 108.57694236131238 -229.88885855303693 0 -229.88885855303693 407.81776404717357 0 0 0 0 5.6108059076345365 -1.8531631353122275 0 -1.8531631353122275 3.7071072283234532 0 0 0 0 1274.1654129905783 -598.41675625332391 0 -598.41675625332391 303.0722546875686 0 0 0 0 809.29180756685309 -496.67593744524765 0 -496.67593744524765 745.647056003952 0 0 0 0 721.05634508819003 -182.68932020239896 0 -182.68932020239896 331.15499965562685 0 0 0 0 970.11779848216611 -440.722519311312 0 -440.722519311312 429.96085416338792 0 0 0 0 1094.8248612832085 -314.59335107361085 0 -314.59335107361085 126.1710100875207 0 0 0 0 1054.2881518321028 -294.17504120988065 0 -294.17504120988065 117.75074826450054 0 0 0 0 988.04749792002622 -264.03242729784324 0 -264.03242729784324 130.34357534502533 0 0 0 0 31.024138671843303 -7.6800902899259329 0 -7.6800902899259329 -7.4228085517307845 0 0 0 0 -50.05423272612461 149.12001216014636 0 149.12001216014636 -248.99775348443109 0 0 0 0 32.038708099304131 204.72707013534364 0 204.72707013534364 -239.13193023505906 0 0 0 0 552.83669573015322 -52.770934078970868 0 -52.770934078970868 176.46935681091145 0 0 0 0 568.93916052070199 -33.936216081108341 0 -33.936216081108341 192.97153740252526 0 0 0 0 656.65865956847665 -105.66088293766734 0 -105.66088293766734 196.7225194870598 0 0 0 0 653.20511277913465 -50.335919308938173 0 -50.335919308938173 161.22659771553845 0 0 0 0 609.27066685921363 -76.890026050277584 0 -76.890026050277584 246.83360592821919 0 0 0 0 700.95732221600883 -199.46884601719694 0 -199.46884601719694 318.63734127716884 0 0 0 0 640.44952708904725 -150.71735167837471 0 -150.71735167837471 311.06578368739156 0 0 0 0 807.90950115978558 -218.16891651415654 0 -218.16891651415654 230.1745844841148 0 0 0 0 715.12146607139402 -179.03156921815662 0 -179.03156921815662 220.42829682823412 0 0 0 0 885.82708053453371 -212.82337523377657 0 -212.82337523377657 135.70457922636524 0 0 0 0 1002.2716016691838 -341.76249914717096 0 -341.76249914717096 186.31367240231884 0 0 0 0 795.30035203285661 -273.02675955776613 0 -273.02675955776613 270.46498998849802 0 0 0 0 962.01435655913338 -309.05929195258568 0 -309.05929195258568 170.51688762891945 0 0 0 0 601.64734419936713 -57.10909653532741 0 -57.10909653532741 197.53862940845556 0 0 0 0 738.27125360575519 -119.00622409415519 0 -119.00622409415519 182.67091297383422 0 0 0 0 615.09427075840949 -37.251886689515118 0 -37.251886689515118 148.70957970690642 0 0 0 0 459.51401820376918 116.27362254428641 0 116.27362254428641 73.332786447954732 0 0 0 0 517.34419005076688 -14.655676466791988 0 -14.655676466791988 161.5576188043392 0 0 0 0 512.63626865777405 60.364781453466776 0 60.364781453466776 70.710843756566192 0 0 0 0 351.61145584489896 76.163753937962383 0 76.163753937962383 136.31976929918687 0 0 0 0 527.34913163975034 31.108649360398431 0 31.108649360398431 106.90438582243178 0 0 0 0 500.99493684977278 -18.182835566480662 0 -18.182835566480662 191.45649930128661 0 0 0 0 431.26445208700534 44.854457226921795 0 44.854457226921795 162.48607651532234 0 0 0 0 454.47340657447057 63.264691346581913 0 63.264691346581913 78.911580768905878 0 0 0 0 485.70472684662673 -7.8316720904288104 0 -7.8316720904288104 93.28492306630983 0 0 0 0 321.62261151023449 75.201204773983363 0 75.201204773983363 98.597783003534914 0 0 0 0 334.74898916053007 86.802226870548623 0 86.802226870548623 78.897572413200351 0 0 0 0 249.74505494142613 111.16593175596904 0 111.16593175596904 75.645328613967649 0 0 0 0 315.54002655949444 91.911241777719056 0 91.911241777719056 41.54268179417187 0 0 0 0 407.10011163757645 -3.5628788858435883 0 -3.5628788858435883 45.588452199399967 0 0 0 0 413.84079703042119 87.79638277629661 0 87.79638277629661 54.592628091502775 0 0 0 0 316.42595242945026 40.464145852693036 0 40.464145852693036 44.602138598874774 0 0 0 0 193.62240981608375 132.18447667566107 0 132.18447667566107 82.640658899137634 0 0 0 0 138.88325491066553 126.63699916702723 0 126.63699916702723 94.985217246421371 0 0 0 0 176.53451019436125 109.10569822998303 0 109.10569822998303 52.20949733806583 0 0 0 0 200.90713421228429 113.70278827848358 0 113.70278827848358 89.705201822777553 0 0 0 0 252.09757284822626 116.10694241465512 0 116.10694241465512 47.85162292071599 0 0 0 0 205.5343423614795 125.4433571245263 0 125.4433571245263 114.96214891215732 0 0 0 0 269.13238583122893 142.62579699034666 0 142.62579699034666 92.562345411239676 0 0 0 0 205.69276310343957 122.65508598153315 0 122.65508598153315 103.05653329576012 0 0 0 0 164.92210528167561 112.28559068365166 0 112.28559068365166 105.41008106713514 0 0 0 0 168.93795918099522 123.18071939527388 0 123.18071939527388 94.58737456780932 0 0 0 0 134.90439337339649 94.760028020861512 0 94.760028020861512 48.996034096750009 0 0 0 0 167.81898824075324 88.41582711025967 0 88.41582711025967 80.89554803254714 0 0 0 0 117.34368695284638 113.7078147186798 0 113.7078147186798 125.07507932313592 0 0 0 0 25.291830083785499 3.8689253220284172 0 3.8689253220284172 63.403630713431085 0 0 0 0 360.18544115890495 136.67652781175786 0 136.67652781175786 84.19609132525693 0 0 0 0 182.93821035702422 159.28916962355265 0 159.28916962355265 128.24423609592782 0 0 0 0 12.532742087208135 -36.536272565230718 0 -36.536272565230718 89.344886335759838 0 0 0 0 43.495656210186098 -37.511580175057134 0 -37.511580175057134 -20.038986747097169 0 0 0 0 91.860279537237147 93.144186868594488 0 93.144186868594488 132.26912106102191 0 0 0 0 5.6259154418476101 -43.973281195810841 0 -43.973281195810841 41.7797094419725 0 0 0 0 13.290712476797125 16.774909143287914 0 16.774909143287914 53.58413713855299 0 0 0 0 -33.833652383853405 -11.097185746289824 0 -11.097185746289824 10.72400334654958 0 0 0 0 -27.217972800037387 -31.307156432707984 0 -31.307156432707984 13.507776414116961 0 0 0 0 -16.687194511916459 8.7038916160472581 0 8.7038916160472581 4.4257123355858994 0 0 0 0 -51.532132721184098 -29.425742332239679 0 -29.425742332239679 -12.712414951013216 0 0 0 0 -1.9457731772579479 -0.38084439881985244 0 -0.38084439881985244 2.6001553164411311 0 0 0 0 1.0024851816820561 -1.1909061838803243 0 -1.1909061838803243 3.9803274171709351 0 0 0 0 -22.150324823091069 4.1590861364957163 0 4.1590861364957163 25.26251826332134 0 0 0 0 -10.248774263251107 22.574691043988878 0 22.574691043988878 47.867463942095583 0 0 0 0 -1.9560381025157767 -9.1710786140104119 0 -9.1710786140104119 22.420686582189319 0 0 0 0 -14.778184424237224 -10.686715077397931 0 -10.686715077397931 26.836848241897847 0 0 0 0 -11.615372750489769 -17.631594103252841 0 -17.631594103252841 3.2249561489796426 0 0 0 0 -4.9174727605368389 -1.4361161789576897 0 -1.4361161789576897 14.641997332496544 0 0 0 0 2.1956982751216856 -0.37247782719890665 0 -0.37247782719890665 3.4665914904784358 0 0 0 0 2.3643890184012157 -2.0942083881583358 0 -2.0942083881583358 2.7885575064237913 0 0 0 0 15.469374923769465 2.9237653462840072 0 2.9237653462840072 0.31090138487974173 0 0 0 0 2.4232501660653725 0.64683898663108153 0 0.64683898663108153 1.9241416257908668 0 0 0 0 1.5570941449030116 -1.0460899652735041 0 -1.0460899652735041 0.64098722040172218 0 0 0 0 2.1084615083302225 -0.32755800336213481 0 -0.32755800336213481 0.26521667846716235 0 0 0 0 2.2803508100731165 -0.20463132091351866 0 -0.20463132091351866 0.66444150092071708 0 0 0 0 3.3731655592951029 -1.2085789681650283 0 -1.2085789681650283 1.7599325833710964 0 0 0 0 0.0066218207462718226 0.77447618181188815 0 0.77447618181188815 -0.16613350487773237 0 0 0 0 5.2725363981689952 0.028816430518418201 0 0.028816430518418201 1.3553034263166808 0 0 0 0 1.534247682611749 -3.3768374193059003 0 -3.3768374193059003 8.4510440694367617 0 0 0 0 4.2938794422248066 -1.9809278847106953 0 -1.9809278847106953 -2.7215278008301311 0 0 0 0 89.255139492726812 146.67608192654609 0 146.67608192654609 185.21955995197996 0 0 0 0 45.758634872402581 -2.1097224062306168 0 -2.1097224062306168 -51.190044498578118 0 0 0 0 0.35458767690519721 -0.10856089618230813 0 -0.10856089618230813 0.11905732401122127 0 0 0 0 -13.835622420601339 7.4710166585212221 0 7.4710166585212221 -4.1344174822841069 0 0 0 0 62.30443856310194 44.144911553891461 0 44.144911553891461 24.387853350222031 0 0 0 0 0.74016986737542112 0.068474636591791094 0 0.068474636591791094 0.52356851911074542 0 0 0 0 61.356162595631758 59.049037785709501 0 59.049037785709501 73.928545360805401 0 0 0 0 23.688301828131443 69.880904181273763 0 69.880904181273763 114.16367324359658 0 0 0 0 103.90726690007796 100.72533340468294 0 100.72533340468294 76.861388821097364 0 0 0 0 110.33498739987772 93.531923603541912 0 93.531923603541912 65.636323601075787 0 0 0 0 155.42299403802622 108.67878113816028 0 108.67878113816028 42.272322966539377 0 0 0 0 121.22761341634578 75.121173679458707 0 75.121173679458707 16.97250534509206 0 0 0 0 192.19633745701685 95.996857671836764 0 95.996857671836764 -13.384643115466243 0 0 0 0 157.79161593060417 49.267103649409925 0 49.267103649409925 -61.748278907816371 0 0 0 0 246.32385581620292 82.55363239717019 0 82.55363239717019 -94.103538217549755 0 0 0 0 53.071077446282288 -34.285765859293505 0 -34.285765859293505 -115.163778612839 0 0 0 0 -162.80077299036202 100.45391594054689 0 100.45391594054689 27.918125468252441 0 0 0 0 154.48462010178991 52.276578879460189 0 52.276578879460189 -42.242940384848396 0 0 0 0 98.297501088698482 20.621257286787454 0 20.621257286787454 4.375096440308937 0 0 0 0 98.124169562672193 123.47798984977616 0 123.47798984977616 20.930073301527145 0 0 0 0 85.416824677248769 57.1750185203542 0 57.1750185203542 64.182297413454648 0 0 0 0 77.073609970725556 78.933986792982097 0 78.933986792982097 64.129941050761772 0 0 0 0 121.26916516860877 73.802315930735375 0 73.802315930735375 56.603696159689775 0 0 0 0 233.24449900677246 45.473562210728943 0 45.473562210728943 27.823493700068692 0 0 0 0 6.5379441604600288 7.2519630239938806 0 7.2519630239938806 -8.0147265083749062 0 0 0 0 2.9265363260910817 0.29038731297634968 0 0.29038731297634968 -1.3816726117095186 0 0 0 0 -0.056772159288026813 0.82459424548029858 0 0.82459424548029858 -0.56490570104277915 0 0 0 0 -93.653128741972978 69.344117480801401 0 69.344117480801401 -23.714007325691227 0 0 0 0 -2.3601863742383102 -4.214398925682076 0 -4.214398925682076 -10.446280571324678 0 0 0 0 2.2095694854069734 2.4885598276978271 0 2.4885598276978271 -6.6254474418037717 0 0 0 0 1.9804832968536346 4.5684506528435511 0 4.5684506528435511 2.755453182942043 0 0 0 0 30.086512494784984 35.434935691766441 0 35.434935691766441 -19.302090096902475 0 0 0 0 3.3035065490585112 7.1948531476284643 0 7.1948531476284643 1.9017385143727736 0 0 0 0 -0.02525803664529036 1.126723860868259 0 1.126723860868259 0.91824502793234763 0 0 0 0 1.5496581339362656 4.3851831734646121 0 4.3851831734646121 2.2408578708897999 0 0 0 0 0.48605295774487445 1.2419163773250972 0 1.2419163773250972 -3.0281114027785145 0 0 0 0 255.48555402425131 259.65268522057443 0 259.65268522057443 -64.175481628742034 0 0 0 0 8.7060889571548614 4.7849039102218285 0 4.7849039102218285 -5.4874798854957589 0 0 0 0 91.171871253658537 308.11156273493339 0 308.11156273493339 9.3419963030034125 0 0 0 0 291.90843293173458 -235.07231113711663 0 -235.07231113711663 -111.99816887477682 0 0 0 0 256.36442403741785 213.63380867108305 0 213.63380867108305 -277.71976963129828 0 0 0 0 -1.7402663480153002 1.4692130750887387 0 1.4692130750887387 -1.9534352071961654 0 0 0 0 0.34135628636633442 -0.11470570780271494 0 -0.11470570780271494 0.83400982026404979 0 0 0 0 68.345901346632672 76.667278900956944 0 76.667278900956944 27.260382630898903 0 0 0 0 -54.529198679192632 55.334885410747802 0 55.334885410747802 -18.806790130687887 0 0 0 0 -66.717446281255434 -9.9536989673612197 0 -9.9536989673612197 9.3680510567073156 0 0 0 0 -65.669754051034033 66.95276234739336 0 66.95276234739336 -23.781527550268152 0 0 0 0 -28.258694823711267 -3.0130395650389801 0 -3.0130395650389801 317.79540871021618 0 0 0 0 -72.554572868146352 50.432821721139391 0 50.432821721139391 -3.3302931163984795 0 0 0 0 -4.8413051258085034 88.28864965973537 0 88.28864965973537 13.550428443826945 0 0 0 0 1.3074825963728962 7.3916630706246504 0 7.3916630706246504 -6.7560648956093967 0 0 0 0 59.410166308362022 49.808605970707617 0 49.808605970707617 -8.4673312108079699 0 0 0 0 52.737635335535742 23.004661317115847 0 23.004661317115847 9.377164681586919 0 0 0 0 33.609195763396201 41.865382433021978 0 41.865382433021978 45.908233620883493 0 0 0 0 17.057506578231369 -60.530413141775398 0 -60.530413141775398 -11.949738094074519 0 0 0 0 -6.013278208554766 23.973228888047515 0 23.973228888047515 13.054828398282211 0 0 0 0 54.130575940831477 20.441017320350511 0 20.441017320350511 7.861431189556356 0 0 0 0 154.8181175428781 0.7212690863715352 0 0.7212690863715352 -27.037407173964993 0 0 0 0 116.12442163950982 13.90258831627898 0 13.90258831627898 -30.232010021338795 0 0 0 0 496.18036896611375 97.882951859180594 0 97.882951859180594 -122.49294482138345 0 0 0 0 297.23655599209269 -99.124937261135869 0 -99.124937261135869 -87.326709396135357 0 0 0 0 278.36487338945517 50.459117757747748 0 50.459117757747748 -91.7615056075648 0 0 0 0 259.80594340105017 80.12788891065054 0 80.12788891065054 -116.32879553716781 0 0 0 0 160.57546041913702 53.368526301961595 0 53.368526301961595 -86.822419027457499 0 0 0 0 165.80649975305278 61.472880096831716 0 61.472880096831716 -165.90737803036461 0 0 0 0 67.780321587708386 84.231501729339257 0 84.231501729339257 -43.269445151628815 0 0 0 0 104.96179479576313 34.679405538954541 0 34.679405538954541 -2.2094699758913521 0 0 0 0 22.962836402380162 27.25927593255858 0 27.25927593255858 -14.428169109746079 0 0 0 0 -108.53602667661562 -15.598309576527527 0 -15.598309576527527 -5.9171405832733512 0 0 0 0 -8.4471587555753729 24.422157730459752 0 24.422157730459752 2.7033604123886619 0 0 0 0 -3.1475862040892935 -10.318253901538242 0 -10.318253901538242 -59.798198979762503 0 0 0 0 -5.6088197068111185 -17.3410454565146 0 -17.3410454565146 -51.485943614461092 0 0 0 0 14.784061970209734 25.344852754772752 0 25.344852754772752 -15.627127496484007 0 0 0 0 12.682620424340712 14.24774567583637 0 14.24774567583637 -1.3136960330985517 0 0 0 0 10.784333563703512 34.620535192570514 0 34.620535192570514 8.7821964661544598 0 0 0 0 33.174839604794215 34.817090186786174 0 34.817090186786174 -8.3190113625717856 0 0 0 0 33.293358244543697 33.556943538647495 0 33.556943538647495 2.6644494647657098 0 0 0 0 54.316979148830796 33.918747533025112 0 33.918747533025112 -0.14084463396579849 0 0 0 0 93.325405874684293 -7.8172873576950792 0 -7.8172873576950792 11.740688230258229 0 0 0 0 87.757076733440954 50.446676752420956 0 50.446676752420956 -5.2230374222860121 0 0 0 0 3.5626302193791588 2.4064959715065601 0 2.4064959715065601 1.6162215327235421 0 0 0 0 67.99470195196227 1.2704990713506845 0 1.2704990713506845 -3.1547322871689403 0 0 0 0 62.099030590989059 12.058397104870267 0 12.058397104870267 -0.75401213033563863 0 0 0 0 -55.194566289515024 14.968182136719463 0 14.968182136719463 -36.125997570536811 0 0 0 0 -0.55571021192798753 0.090517800376053614 0 0.090517800376053614 1.9544412336468531 0 0 0 0 -94.671352185107025 56.44284061324322 0 56.44284061324322 -4.9414851347748368 0 0 0 0 248.218405250459 -52.761480226024844 0 -52.761480226024844 -26.327729910169126 0 0 0 0 13.595557846503652 37.210548254375283 0 37.210548254375283 12.57578037347605 0 0 0 0 188.77635523423578 85.266846400552367 0 85.266846400552367 -60.921541103530444 0 0 0 0 1.5844501289975597 5.0152588380844918 0 5.0152588380844918 -3.6908721621572909 0 0 0 0 2.7044082972052728 2.8198086524241432 0 2.8198086524241432 0.21193771879862539 0 0 0 0 22.255770191898591 125.39086198647112 0 125.39086198647112 -41.865485829781051 0 0 0 0 3.1849841102302889 3.8833618109055053 0 3.8833618109055053 -4.0442032889754316 0 0 0 0 249.85973667690268 21.440934318965333 0 21.440934318965333 -113.3964175783691 0 0 0 0 3.041738965207891 1.9160175652900051 0 1.9160175652900051 0.30212441012244406 0 0 0 0 3.3534602712679522 2.3214549397037665 0 2.3214549397037665 0.94584176540432963 0 0 0 0 -149.26438004057127 -21.980046451738872 0 -21.980046451738872 -50.63832052260625 0 0 0 0 4.1557517999181073 8.4600494885035715 0 8.4600494885035715 -18.298097906846465 0 0 0 0 2.798668720832211 5.405002219999119 0 5.405002219999119 -4.5562613333847954 0 0 0 0 -11.229501430965684 -2.3609866281775567 0 -2.3609866281775567 -6.34655251583672 0 0 0 0 3.5429396302738496 -1.4739125142701539 0 -1.4739125142701539 -18.536266077598043 0 0 0 0 3.5074619561406628 2.5590985358266911 0 2.5590985358266911 1.3418763782725436 0 0 0 0 59.107011606083688 44.387757180046265 0 44.387757180046265 -16.286570938168097 0 0 0 0 -17.640830856608318 12.717867435710687 0 12.717867435710687 -3.3662225043724447 0 0 0 0 2.756979616139688 4.3341829110456729 0 4.3341829110456729 -3.3807600339381807 0 0 0 0 3.9808004345312362 2.8183751736383686 0 2.8183751736383686 1.0581049178544384 0 0 0 0 3.7803042488303618 2.4728950332856918 0 2.4728950332856918 -1.7634815461518372 0 0 0 0 3.2879875166545389 4.9092194692065334 0 4.9092194692065334 -2.7590428743710049 0 0 0 0 6.5917944223969691 3.657170082343093 0 3.657170082343093 -1.0107767072964484 0 0 0 0 4.4599258832052087 1.9485388840880835 0 1.9485388840880835 -0.05641455385267239 0 0 0 0 -3.7852201005707684 -38.461187285281056 0 -38.461187285281056 -100.20228668157637 0 0 0 0 4.5690468250056711 3.690933378411021 0 3.690933378411021 0.089519350050217383 0 0 0 0 8.8326330066952217 4.9240078386158448 0 4.9240078386158448 1.6544350258065976 0 0 0 0 10.613633143228071 35.109628629249606 0 35.109628629249606 -16.235741803416534 0 0 0 0 -0.11600846220146366 2.0267927530304677 0 2.0267927530304677 0.7203201441773901 0 0 0 0 -9.4832967383299547 -10.456982990364963 0 -10.456982990364963 4.7953954457680368 0 0 0 0 49.873700744772577 -11.363637657445224 0 -11.363637657445224 -43.141136351595151 0 0 0 0 -0.17680623546561236 0.25908369624725403 0 0.25908369624725403 0.0096535623522613356 0 0 0 0 11.407205420558057 39.132813065987989 0 39.132813065987989 7.9188068601372379 0 0 0 0 7.4780367741318514 -10.653059060437784 0 -10.653059060437784 7.1513806227593477 0 0 0 0 41.3877821830838 65.870478053575823 0 65.870478053575823 11.883437024785167 0 0 0 0 -18.518880350380641 14.705363555226882 0 14.705363555226882 -117.53044282500218 0 0 0 0 -179.62626878631818 -49.924605141850293 0 -49.924605141850293 -6.4518415596273826 0 0 0 0 0.882258772049763 0.68040052026874243 0 0.68040052026874243 -0.32762963625472974 0 0 0 0 82.541734558693861 -70.564625766294512 0 -70.564625766294512 -157.95352047083679 0 0 0 0 -31.769986363058706 -96.57258355878048 0 -96.57258355878048 -100.10814198459502 0 0 0 0 -119.67975449430924 7.8196112302449592 0 7.8196112302449592 -8.1414168017895463 0 0 0 0 -2.4717210874441662 9.1986770050421001 0 9.1986770050421001 -12.502946206348724 0 0 0 0 14.912074683779792 55.562728103665563 0 55.562728103665563 -5.5926313020660245 0 0 0 0 -19.302255749178585 6.5927045256383963 0 6.5927045256383963 -24.53893712095487 0 0 0 0 -36.754980857198461 30.346413521105546 0 30.346413521105546 11.370793321498013 0 0 0 0 23.761240446809097 47.520414013985544 0 47.520414013985544 14.502964790156511 0 0 0 0 -1.7863576970385111 16.133868453017698 0 16.133868453017698 12.874876401703091 0 0 0 0 -18.062797316124488 0.67021500333157746 0 0.67021500333157746 -1.4075589697174564 0 0 0 0 24.174037703556678 7.5616075286689011 0 7.5616075286689011 -3.8399100217673237 0 0 0 0 29.340486392424282 36.868790627660204 0 36.868790627660204 19.20064204764158 0 0 0 0 40.482266086415621 31.49189944289364 0 31.49189944289364 13.953567426941056 0 0 0 0 48.769854386497173 68.237271322166762 0 68.237271322166762 32.781696001787161 0 0 0 0 18.031251376434739 45.301796934956755 0 45.301796934956755 24.048934962820454 0 0 0 0 30.80106376119511 72.064319170819999 0 72.064319170819999 58.383098297832703 0 0 0 0 59.066097409722715 91.903609130165165 0 91.903609130165165 42.487537892521289 0 0 0 0 45.472283338793204 58.418232024314761 0 58.418232024314761 18.6763660215546 0 0 0 0 38.679433368456557 72.008758182045824 0 72.008758182045824 22.233610083664644 0 0 0 0 14.773062135797772 50.831960443440494 0 50.831960443440494 18.749933792499405 0 0 0 0 7.5636641640285234 -2.9299383178929475 0 -2.9299383178929475 -6.3539418624490462 0 0 0 0 19.584263031414594 19.241309312798649 0 19.241309312798649 23.396169695550725 0 0 0 0 -3.3424265745270532 11.237562285314198 0 11.237562285314198 -3.2195575967980261 0 0 0 0 59.929018492612158 27.080394294010944 0 27.080394294010944 -21.210460424583061 0 0 0 0 1.4230099940383276 -0.46496859308220451 0 -0.46496859308220451 0.15509602529245914 0 0 0 0 110.43417567256802 -11.715443863533949 0 -11.715443863533949 -123.27887406161949 0 0 0 0 26.065207635478146 -14.60406327440279 0 -14.60406327440279 -31.675358514058871 0 0 0 0 80.036930056656274 22.416284155608423 0 22.416284155608423 -52.164585171717135 0 0 0 0 18.377648880887136 -21.471393513161956 0 -21.471393513161956 -29.283472696384365 0 0 0 0 30.48694499123485 -1.2130702022656692 0 -1.2130702022656692 -10.666511405442293 0 0 0 0 36.727689647370426 -4.5173896955344617 0 -4.5173896955344617 -15.66184520869524 0 0 0 0 20.757472488228814 -7.6674327859632854 0 -7.6674327859632854 -13.753515433923013 0 0 0 0 40.788572168819883 12.006286367472143 0 12.006286367472143 -7.7045984423435812 0 0 0 0 25.106624449199444 12.912017116769398 0 12.912017116769398 7.7553059129451682 0 0 0 0 24.212025248884856 6.1883949684713002 0 6.1883949684713002 6.5725172905202953 0 0 0 0 40.937937637376308 -0.077369302810097906 0 -0.077369302810097906 -17.224953156762922 0 0 0 0 36.269773110522692 -2.7682093572362589 0 -2.7682093572362589 -18.772391625374212 0 0 0 0 39.758907375806302 3.9464344700190281 0 3.9464344700190281 -18.215564632850374 0 0 0 0 24.73221038201882 9.3505487353194354 0 9.3505487353194354 -17.180542043837079 0 0 0 0 2.7182385307633012 -29.830510396248393 0 -29.830510396248393 -9.4821680583075789 0 0 0 0 9.7522703213981004 -29.781737755351628 0 -29.781737755351628 -55.977049070965222 0 0 0 0 -0.12372574886029497 -0.3135844648822701 0 -0.3135844648822701 0.40047635458049502 0 0 0 0 62.3303494409829 14.06991736577578 0 14.06991736577578 4.6869394035201015 0 0 0 0 37.877389636771113 2.326232440000382 0 2.326232440000382 4.9821347406666234 0 0 0 0 55.718308423597591 30.875272265370945 0 30.875272265370945 13.355887054961244 0 0 0 0 83.810904228535037 29.256722832238893 0 29.256722832238893 21.104462553290773 0 0 0 0 79.691251927341909 31.64243056077234 0 31.64243056077234 20.734580010757782 0 0 0 0 39.22322554024413 -23.818222630839045 0 -23.818222630839045 29.245636310477039 0 0 0 0 44.475622436939375 10.283158464930182 0 10.283158464930182 32.936648436680002 0 0 0 0 113.29710670265422 123.63249101468145 0 123.63249101468145 20.561687883594573 0 0 0 0 89.804752525902586 88.397514064846689 0 88.397514064846689 25.688967309496832 0 0 0 0 112.17652083039684 120.37774720453666 0 120.37774720453666 40.043501942900008 0 0 0 0 57.677784609723801 98.024476015822387 0 98.024476015822387 55.226433154685424 0 0 0 0 59.613124494545104 67.281642288083546 0 67.281642288083546 27.338970069347056 0 0 0 0 62.190749743092965 76.969493225416727 0 76.969493225416727 41.30474985216415 0 0 0 0 52.336273605016686 31.655866885720485 0 31.655866885720485 14.446310316043082 0 0 0 0 75.604755719674358 55.677686691454426 0 55.677686691454426 21.823172022723092 0 0 0 0 75.486296527793456 49.311062196119231 0 49.311062196119231 24.690134487247462 0 0 0 0 118.01409339140628 44.458659170465637 0 44.458659170465637 16.58835295502729 0 0 0 0 124.71435357926237 99.947878992666077 0 99.947878992666077 29.10943910475828 0 0 0 0 127.66374619221233 109.48822049760098 0 109.48822049760098 19.326279894552044 0 0 0 0 114.94080459743418 97.537498140332048 0 97.537498140332048 41.406266878573788 0 0 0 0 175.15435355002228 113.79425393711031 0 113.79425393711031 -47.06690530400941 0 0 0 0 162.54252168996572 162.21336271987269 0 162.21336271987269 42.446782460576131 0 0 0 0 188.37036533359333 69.345459589085692 0 69.345459589085692 7.9230603257267376 0 0 0 0 -0.031614249288409724 -0.16114090271336856 0 -0.16114090271336856 -0.8636697546039156 0 0 0 0 81.22940995097872 32.465133512614294 0 32.465133512614294 -1.2378680128958877 0 0 0 0 6.3967222972887612 -64.798061836711284 0 -64.798061836711284 2.7312507071329151 0 0 0 0 -155.50068350254742 40.983629148525949 0 40.983629148525949 8.803747297493544 0 0 0 0 68.202221989237387 -96.272638433243372 0 -96.272638433243372 45.237009039266411 0 0 0 0 62.498057908436749 -51.321346856786221 0 -51.321346856786221 -33.846113151832355 0 0 0 0 99.87541741167297 37.134608925741304 0 37.134608925741304 -61.653208045181096 0 0 0 0 81.491661787606972 -108.49702927663679 0 -108.49702927663679 25.847082213508571 0 0 0 0 108.2672594640685 -123.57835576448105 0 -123.57835576448105 210.06473790370171 0 0 0 0 76.561318737325564 -56.76014546932376 0 -56.76014546932376 78.129706369885184 0 0 0 0 62.500437764880189 -86.116935012146143 0 -86.116935012146143 57.969319390116937 0 0 0 0 98.660185371350963 -42.609285161295624 0 -42.609285161295624 2.8362961354912386 0 0 0 0 -15.907147315603652 41.484534620165704 0 41.484534620165704 52.889674713059897 0 0 0 0 190.5768525094727 110.54139706449291 0 110.54139706449291 231.19648644143052 0 0 0 0 369.33195297291604 -84.350305890641266 0 -84.350305890641266 -17.892916928958641 0 0 0 0 429.90263574147343 99.302933542013378 0 99.302933542013378 -42.20840648536074 0 0 0 0 3.3802272405079172 1.7386765493951719 0 1.7386765493951719 1.1973786004132301 0 0 0 0 -16.158534096084622 40.220102549800913 0 40.220102549800913 241.18300122249389 0 0 0 0 105.27112455859242 206.52865373917842 0 206.52865373917842 255.46201440092628 0 0 0 0 11.189927884940062 82.644727226352217 0 82.644727226352217 93.378248170329655 0 0 0 0 62.930049374382406 148.43983225842547 0 148.43983225842547 110.44809640525131 0 0 0 0 294.08067447239978 231.77248649741827 0 231.77248649741827 69.925777706199824 0 0 0 0 303.09983030041894 -90.871184897250188 0 -90.871184897250188 18.705318178104278 0 0 0 0 154.37424158655449 10.916665630255807 0 10.916665630255807 5.2598868152933846 0 0 0 0 158.7388540867023 -26.260052024430593 0 -26.260052024430593 24.319726094975152 0 0 0 0 46.763153542057353 147.37540729161958 0 147.37540729161958 -11.361415798957523 0 0 0 0 0.092748750285331027 0.098452340012398665 0 0.098452340012398665 -0.49280708699235687 0 0 0 0 5.4856661612839162 0.46792549376891657 0 0.46792549376891657 118.92676557049469 0 0 0 0 -65.287622022281539 31.313662498160056 0 31.313662498160056 8.2170174258023962 0 0 0 0 8.7563502111706839 -76.077395022481483 0 -76.077395022481483 84.683322026603719 0 0 0 0 57.286368597165165 -22.47426018511586 0 -22.47426018511586 19.801664115513177 0 0 0 0 1.5816022460955015 -2.0627865489877841 0 -2.0627865489877841 -0.23226587229160067 0 0 0 0 5.7636123410875371 -9.125814225895283 0 -9.125814225895283 10.870772627162069 0 0 0 0 1.8396740725512828 -1.7309001460721252 0 -1.7309001460721252 6.1785923422933182 0 0 0 0 21.445013699464198 -8.5653937624888954 0 -8.5653937624888954 10.273969532010824 0 0 0 0 0.24111641337561274 -0.58612523732018573 0 -0.58612523732018573 2.3088416462359698 0 0 0 0 72.935364904303242 -16.617952013675421 0 -16.617952013675421 -1.1569403323978502 0 0 0 0 276.3825453837585 -38.931447491913545 0 -38.931447491913545 -0.39539506164106797 0 0 0 0 175.09048344380699 -141.75942203352335 0 -141.75942203352335 60.378332457788474 0 0 0 0 116.83178687551572 -77.737127173670359 0 -77.737127173670359 22.88254849064802 0 0 0 0 31.579418958062888 -52.60637667073491 0 -52.60637667073491 22.634572630757681 0 0 0 0 28.003672968041428 -3.2245813958346119 0 -3.2245813958346119 9.6355504698830003 0 0 0 0 5.5013460718065659 5.3515725005902031 0 5.3515725005902031 4.0604356749727923 0 0 0 0 11.168529825493351 17.712084994007085 0 17.712084994007085 -18.720727806642572 0 0 0 0 23.091994777065338 -4.6906303641986824 0 -4.6906303641986824 2.5638034056316314 0 0 0 0 23.364904462252753 2.6598116346701204 0 2.6598116346701204 -1.9662519505919818 0 0 0 0 4.8328877203235008 -7.5042735695441838 0 -7.5042735695441838 1.7907129976835225 0 0 0 0 7.2671246005007495 4.3012437072199132 0 4.3012437072199132 4.7454865584447141 0 0 0 0 -47.831178285913666 -43.554924561461007 0 -43.554924561461007 41.111065819712508 0 0 0 0 29.551741828602644 2.1035671262643518 0 2.1035671262643518 9.5725380600140397 0 0 0 0 4.9175114312038204 -59.489057178080429 0 -59.489057178080429 6.389756323314927 0 0 0 0 41.755374953385399 -55.757901951906433 0 -55.757901951906433 -75.086378730728029 0 0 0 0 55.481259148984464 -26.088023044941338 0 -26.088023044941338 21.244570015297143 0 0 0 0 -451.68932700255664 16.299318837415285 0 16.299318837415285 128.9091431126235 0 0 0 0 -301.1162480360656 110.0237821923447 0 110.0237821923447 -70.165088019698487 0 0 0 0 15.266929275611993 6.1637130496696919 0 6.1637130496696919 4.5290689160437996 0 0 0 0 34.80227286850095 -17.908120404942792 0 -17.908120404942792 -96.894066883708888 0 0 0 0 -467.70237503907447 547.4259199569542 0 547.4259199569542 -173.36239812962413 0 0 0 0 -0.98355898447607615 -26.76482068385576 0 -26.76482068385576 -35.061461564974252 0 0 0 0 7.0585837641756637 -7.0504861345850776 0 -7.0504861345850776 2.6277411614611079 0 0 0 0 15.478140150740046 -11.18781133729405 0 -11.18781133729405 9.2231094916897973 0 0 0 0 6.576870927432954 -7.9251247937261606 0 -7.9251247937261606 12.33686194914031 0 0 0 0 8.4398017484767998 -0.05390952767051771 0 -0.05390952767051771 2.311726432107875 0 0 0 0 14.743297490576879 -15.299194423605798 0 -15.299194423605798 -4.8122713799391477 0 0 0 0 22.080054316031578 -5.1023866351472691 0 -5.1023866351472691 2.6030066131183958 0 0 0 0 26.90719343440287 -17.359899146144244 0 -17.359899146144244 13.60089157080489 0 0 0 0 24.348677205319632 -6.5356015488163592 0 -6.5356015488163592 10.48290659054669 0 0 0 0 41.849328932551089 -10.124640536478068 0 -10.124640536478068 -14.027038911384579 0 0 0 0 25.74689451303675 -65.044732408757 0 -65.044732408757 67.616643151707763 0 0 0 0 4.0527031324884035 1.5411103642328832 0 1.5411103642328832 0.4121159676054722 0 0 0 0 -14.944337420909505 -40.183259560984723 0 -40.183259560984723 42.361918576102205 0 0 0 0 24.444210483839242 -9.5659415845038041 0 -9.5659415845038041 -52.421514482088469 0 0 0 0 25.160956500731231 33.746726019524097 0 33.746726019524097 106.63499579506993 0 0 0 0 2.1697583236101536 -17.254848789336634 0 -17.254848789336634 52.012045825607785 0 0 0 0 7.7061028571611132 -13.57016250996476 0 -13.57016250996476 24.765964406718808 0 0 0 0 10.116735560402617 -12.108498910843792 0 -12.108498910843792 18.996588938027685 0 0 0 0 7.9736407189427609 -17.302402131929682 0 -17.302402131929682 16.183791286993483 0 0 0 0 9.959832366101864 -11.028913501530866 0 -11.028913501530866 9.2425329804123955 0 0 0 0 9.8160546362047398 -2.7362081683261295 0 -2.7362081683261295 10.150925300792323 0 0 0 0 9.5755179612664278 3.0950228486332207 0 3.0950228486332207 35.236532669343291 0 0 0 0 6.0664617963583964 -10.998898475807437 0 -10.998898475807437 18.450305543895738 0 0 0 0 3.9121558937519674 -10.035404916535361 0 -10.035404916535361 10.879303609669941 0 0 0 0 -471.08752690521578 -313.46427768295666 0 -313.46427768295666 228.14209948948098 0 0 0 0 -241.30694828872493 38.292451246375549 0 38.292451246375549 21.607507125061602 0 0 0 0 651.89867384665877 132.01388588684134 0 132.01388588684134 -142.20263376325357 0 0 0 0 -0.3899574054177215 -0.40539366416231126 0 -0.40539366416231126 0.29062659304242566 0 0 0 0 100.89244316744407 81.701126886563031 0 81.701126886563031 48.543286384113763 0 0 0 0 65.337688069346768 -13.020145774277637 0 -13.020145774277637 3.5272032091103824 0 0 0 0 73.157243429913706 -27.029932807622089 0 -27.029932807622089 2.5986608547505909 0 0 0 0 16.760890715581809 51.632056058616726 0 51.632056058616726 27.822252577005088 0 0 0 0 -12.791761254139374 -6.5293726930259126 0 -6.5293726930259126 57.191206043223474 0 0 0 0 313.60459405934989 61.40658396483127 0 61.40658396483127 -44.349620371393826 0 0 0 0 313.63683066720114 10.316943678570894 0 10.316943678570894 -31.178294414652925 0 0 0 0 341.76774164285234 50.16597964834682 0 50.16597964834682 -52.363837482778422 0 0 0 0 224.49298433765671 -48.287884618620495 0 -48.287884618620495 -52.217129571488044 0 0 0 0 5.1626889124690045 4.5704830079193277 0 4.5704830079193277 3.1967321689311192 0 0 0 0 149.78408099637909 80.071367337585798 0 80.071367337585798 -1.1112694123569149 0 0 0 0 -25.727695263783971 55.138157291024129 0 55.138157291024129 -39.913148851074993 0 0 0 0 -95.709390213442475 -122.02785314946215 0 -122.02785314946215 151.73863345172543 0 0 0 0 93.120486775783775 -16.998625446669735 0 -16.998625446669735 -71.937367986659865 0 0 0 0 625.33038617184775 -188.09810401379411 0 -188.09810401379411 -3.8955276866394115 0 0 0 0 2.282484272638559 1.8582317570821214 0 1.8582317570821214 1.4816639085504759 0 0 0 0 208.93706924245362 414.96546147580204 0 414.96546147580204 31.896934737706488 0 0 0 0 394.86652997196734 105.87695988804703 0 105.87695988804703 3.896078174420893 0 0 0 0 409.44060657580394 93.387162325972952 0 93.387162325972952 -41.316514011369549 0 0 0 0 539.38177111288678 234.55843378311994 0 234.55843378311994 34.801308881222809 0 0 0 0 1.1617744778727577 0.73045420790707027 0 0.73045420790707027 0.4857129360073007 0 0 0 0 181.86922508080352 131.66612718215566 0 131.66612718215566 -34.615551037444163 0 0 0 0 35.032567707173257 90.86781774604674 0 90.86781774604674 64.50728060078211 0 0 0 0 127.93763579942606 45.529200303433015 0 45.529200303433015 46.03099072775899 0 0 0 0 169.56246244437898 0.083785890055466439 0 0.083785890055466439 49.020352956619888 0 0 0 0 580.59710237613149 85.219764654025113 0 85.219764654025113 -46.900608394389565 0 0 0 0 428.47872525040384 -2.8836096715099302 0 -2.8836096715099302 43.701884330935897 0 0 0 0 565.67893774116055 122.77189023790186 0 122.77189023790186 -30.776109417670881 0 0 0 0 2.8097916973047461 -1.3757586243396007 0 -1.3757586243396007 -0.087336599726154041 0 0 0 0 -29.181496786854041 -178.36594122169262 0 -178.36594122169262 -31.451364458880313 0 0 0 0 -38.600639538131105 -3.4559278792653521 0 -3.4559278792653521 -34.083103388214454 0 0 0 0 749.3251752931501 44.107959175254877 0 44.107959175254877 -36.930622518389896 0 0 0 0 135.16622312222898 374.52054863775749 0 374.52054863775749 331.28986261998625 0 0 0 0 -13.515273341417924 -38.77913358495892 0 -38.77913358495892 -79.827884080614297 0 0 0 0 -3.2864495350386278 -51.060047831814586 0 -51.060047831814586 -102.05598900959706 0 0 0 0 4.137242930109565 -1.8549875747812381 0 -1.8549875747812381 0.25102040601250164 0 0 0 0 13.039678111330431 -10.960413508085935 0 -10.960413508085935 -111.81095077488749 0 0 0 0 4.5803269850293873 2.83615778433321 0 2.83615778433321 -52.528369313044863 0 0 0 0 49.439893505429154 31.035956517123623 0 31.035956517123623 -13.757799003532512 0 0 0 0 16.078356595762401 -7.3654362441391878 0 -7.3654362441391878 -43.755531376716135 0 0 0 0 41.301243130445073 -49.571667598413683 0 -49.571667598413683 -8.9083313485870121 0 0 0 0 85.110889036291383 78.256346235496096 0 78.256346235496096 87.486467771253501 0 0 0 0 39.867361325616457 21.866413771547741 0 21.866413771547741 31.759384914760176 0 0 0 0 -0.51716596400547132 8.6965602800810302 0 8.6965602800810302 77.351584891396982 0 0 0 0 357.1161333186833 25.40836544320257 0 25.40836544320257 -17.348431167357603 0 0 0 0 160.23695017781256 -35.748224175995318 0 -35.748224175995318 1.470513278690305 0 0 0 0 319.36227813114874 -143.28809460167406 0 -143.28809460167406 -42.099796184350794 0 0 0 0 207.10907432823251 -191.13115417740175 0 -191.13115417740175 -30.949742195711242 0 0 0 0 100.64085789290493 -19.828960795016428 0 -19.828960795016428 -2.515374717200757 0 0 0 0 306.94250708812342 46.203301791831791 0 46.203301791831791 22.862877980328904 0 0 0 0 329.27422563240771 -131.80175815951196 0 -131.80175815951196 -54.848358395061609 0 0 0 0 129.90026727360782 -2.6449238771309638 0 -2.6449238771309638 137.91387023990484 0 0 0 0 87.181427509272908 -23.645577554805044 0 -23.645577554805044 20.756193303675673 0 0 0 0 123.12803380056846 21.20986403816903 0 21.20986403816903 -40.011215886820537 0 0 0 0 149.99220356880369 27.263229341441729 0 27.263229341441729 -57.605088332153287 0 0 0 0 108.80942540721202 -131.71967302842157 0 -131.71967302842157 82.883025724363733 0 0 0 0 113.65180346522266 -7.6397444901940617 0 -7.6397444901940617 -90.374755380128136 0 0 0 0 297.76039210126146 78.960250653555704 0 78.960250653555704 -161.84032945092849 0 0 0 0 31.594152709154876 13.237725182268466 0 13.237725182268466 5.2517188832179347 0 0 0 0 2.3465761913214465 58.777359139498458 0 58.777359139498458 -30.002609486030224 0 0 0 0 -3.3352004391613264 -51.542163605462285 0 -51.542163605462285 38.140219232654971 0 0 0 0 -89.111073183623375 -13.430365467502732 0 -13.430365467502732 110.92694848612925 0 0 0 0 94.583540537812951 -82.251279168716792 0 -82.251279168716792 41.668386270285112 0 0 0 0 4.0614453539787974 -17.627802716776273 0 -17.627802716776273 35.094545668324827 0 0 0 0 553.56330361141772 -475.90557624002986 0 -475.90557624002986 320.68592721817367 0 0 0 0 -327.36206043343191 -90.036502385968561 0 -90.036502385968561 888.22771149708205 0 0 0 0 -326.7524090172883 308.25228586945104 0 308.25228586945104 229.69442332696775 0 0 0 0 -31.441193836608363 -105.9412295034208 0 -105.9412295034208 254.75635899363442 0 0 0 0 100.30201685835488 396.52238587210985 0 396.52238587210985 -68.196226442848911 0 0 0 0 14.58840164714038 0.71276925863319462 0 0.71276925863319462 -0.14329529569219246 0 0 0 0 283.34660397671382 322.90470890506435 0 322.90470890506435 -132.43303131429502 0 0 0 0 -193.74901658534145 -138.32434337300947 0 -138.32434337300947 492.19248558970321 0 0 0 0 151.62928278736308 78.150579965169072 0 78.150579965169072 -95.749251722709687 0 0 0 0 798.39833187179465 78.586559375406978 0 78.586559375406978 -150.79593730093484 0 0 0 0 -908.88209962450651 397.58327194277672 0 397.58327194277672 854.28764323685959 0 0 0 0 10.262493233201226 5.6928297881071952 0 5.6928297881071952 2.9242581862052557 0 0 0 0 -249.69231302229036 176.22458121220029 0 176.22458121220029 133.16949997312781 0 0 0 0 1498.9971244173635 -780.83218841326436 0 -780.83218841326436 -721.29929106310283 0 0 0 0 37.466710765981588 -43.797105668794302 0 -43.797105668794302 47.525758910338027 0 0 0 0 33.529996432986543 -3.5958295371117703 0 -3.5958295371117703 -0.087086178079585741 0 0 0 0 -0.81072359351001566 1.9510144140865728 0 1.9510144140865728 0.91036701041581725 0 0 0 0 112.89038314304571 87.670482443531228 0 87.670482443531228 97.759060061225341 0 0 0 0 698.39746849546236 197.33741207659625 0 197.33741207659625 -71.856098909526963 0 0 0 0 319.53909231389616 -225.30376278620315 0 -225.30376278620315 99.599176123222151 0 0 0 0 39.89048769215109 3.1503586302628621 0 3.1503586302628621 0.2032715703746244 0 0 0 0 31.385752388210676 -52.707657820746135 0 -52.707657820746135 21.012049297058184 0 0 0 0 116.72330855206383 28.028894443436457 0 28.028894443436457 -64.921589240075036 0 0 0 0 68.733080342579342 11.660152092956196 0 11.660152092956196 -47.44330628267744 0 0 0 0 10.339871298744939 -10.131464751031327 0 -10.131464751031327 6.0049600266470931 0 0 0 0 -111.8505629882934 -222.74348464730699 0 -222.74348464730699 -127.84548087233671 0 0 0 0 13.517021227396242 -2.0236185503206485 0 -2.0236185503206485 9.6729936789057547 0 0 0 0 22.23222411597078 5.9330395621622074 0 5.9330395621622074 -1.5819296224468644 0 0 0 0 33.005348665778264 3.6535122493641934 0 3.6535122493641934 -1.1544121890771391 0 0 0 0 47.611152721976623 34.249550373171587 0 34.249550373171587 -18.9041968338895 0 0 0 0 21.592667882549648 12.980510106678066 0 12.980510106678066 12.870361344702587 0 0 0 0 13.318697038782375 15.902913410782901 0 15.902913410782901 15.583647578266152 0 0 0 0 56.116102423067787 9.5237209099869347 0 9.5237209099869347 52.032058270608673 0 0 0 0 18.615521827583279 33.90756762039922 0 33.90756762039922 72.550318007361767 0 0 0 0 47.659386229624261 22.800826286677989 0 22.800826286677989 -71.95969703723631 0 0 0 0 45.280504067688071 74.064287303712376 0 74.064287303712376 37.416964169076664 0 0 0 0 8.6506700405770509 10.971559806804462 0 10.971559806804462 -1.4130742372604093 0 0 0 0 50.368899239914754 0.9713083279498278 0 0.9713083279498278 3.1119577576171196 0 0 0 0 56.413239484676978 89.642753026808577 0 89.642753026808577 -53.635853517861051 0 0 0 0 14.381836302447482 -30.103268107353188 0 -30.103268107353188 -21.404765873116048 0 0 0 0 51.950714555218312 17.85512724837848 0 17.85512724837848 2.7017200202966452 0 0 0 0 -40.249656500560377 23.678289381359207 0 23.678289381359207 3.4975887388009141 0 0 0 0 18.908979347670538 56.123946351728591 0 56.123946351728591 20.894229683475714 0 0 0 0 33.169374389803124 52.874935489352538 0 52.874935489352538 -43.190326134010775 0 0 0 0 72.683664182910434 26.374634100704952 0 26.374634100704952 -29.17842650571356 0 0 0 0 43.177452086538651 9.3150487905019013 0 9.3150487905019013 -6.9374224083156593 0 0 0 0 63.363685556594646 40.781616818876046 0 40.781616818876046 -13.888076451506777 0 0 0 0 61.614781353440776 36.875275649184005 0 36.875275649184005 1.7363330965365549 0 0 0 0 -18.424786773419328 6.6992961252219629 0 6.6992961252219629 -21.798834823604238 0 0 0 0 -22.272224531871302 49.055002025677723 0 49.055002025677723 -11.960938360281034 0 0 0 0 185.3833189283032 139.22872008332456 0 139.22872008332456 -51.255207251718389 0 0 0 0 62.355006373628385 3.6639156669588857 0 3.6639156669588857 -27.537083681571403 0 0 0 0 71.473362464985257 21.650380775498434 0 21.650380775498434 -10.822984398837434 0 0 0 0 551.48515285102258 -63.553992366237253 0 -63.553992366237253 -182.70593642044628 0 0 0 0 68.572837809670929 4.148411351143376 0 4.148411351143376 -2.9499821790402256 0 0 0 0 128.33362109481823 59.99720399951002 0 59.99720399951002 -7.5744224666414084 0 0 0 0 38.298068881791551 2.0750617180146946 0 2.0750617180146946 -25.9984803303023 0 0 0 0 90.087243363144808 -29.080327359159128 0 -29.080327359159128 -15.673343001348258 0 0 0 0 118.12128257767966 8.1745872035314662 0 8.1745872035314662 -27.702155902074065 0 0 0 0 13.362252012061814 -0.84124463590015708 0 -0.84124463590015708 -1.8240568118797285 0 0 0 0 -61.606321434320307 52.374303155635516 0 52.374303155635516 -3.997800285818812 0 0 0 0 95.321048561967473 -106.09099743719116 0 -106.09099743719116 65.456010416638435 0 0 0 0 287.8708657668758 -63.340772227829802 0 -63.340772227829802 14.828983545123265 0 0 0 0 2.3476459984278861 -4.5359260202379215 0 -4.5359260202379215 -0.44187104760867091 0 0 0 0 -15.367129886886687 -3.891465624997636 0 -3.891465624997636 33.685549672540219 0 0 0 0 55.434407412932252 3.7492172706345066 0 3.7492172706345066 -9.5127544904722825 0 0 0 0 251.79303759469713 -43.56470598999897 0 -43.56470598999897 -54.479461243609421 0 0 0 0 131.4212718390263 -104.91109476057636 0 -104.91109476057636 43.681291908462299 0 0 0 0 2.4848629312533888 -0.29834574897508759 0 -0.29834574897508759 -0.39184567258503478 0 0 0 0 336.81524007774715 33.204619636939242 0 33.204619636939242 -48.124084982455315 0 0 0 0 135.14202264748019 -77.24423533214258 0 -77.24423533214258 7.5198776204997557 0 0 0 0 -35.623530021279294 -20.855742122185347 0 -20.855742122185347 46.871466033394427 0 0 0 0 97.809981142008837 54.059478416244474 0 54.059478416244474 7.6737955935859645 0 0 0 0 216.57209758980025 -0.88484915497883776 0 -0.88484915497883776 -21.178091658613539 0 0 0 0 3.3050136787241868 -1.1099068366827822 0 -1.1099068366827822 4.9496223610086041 0 0 0 0 261.50326481640514 -57.857125329299379 0 -57.857125329299379 23.951206109428313 0 0 0 0 5.2598206291877432 -73.886858023539389 0 -73.886858023539389 60.149321867920662 0 0 0 0 308.1048112386743 50.809515370269992 0 50.809515370269992 -27.505358803291529 0 0 0 0 239.6544792688801 79.777031742447434 0 79.777031742447434 -13.351744565949048 0 0 0 0 280.89536103441787 89.095902653695703 0 89.095902653695703 -51.099010426425593 0 0 0 0 -376.23047032937029 -184.52764822305608 0 -184.52764822305608 313.71399565780121 0 0 0 0 0.76076311468898439 -1.3876895020705398 0 -1.3876895020705398 2.0098394601148826 0 0 0 0 266.79006594924431 71.390806803460691 0 71.390806803460691 54.013453413608659 0 0 0 0 274.73568891972536 90.208575040290725 0 90.208575040290725 48.41971975892011 0 0 0 0 194.92303115969116 -8.4350071980406938 0 -8.4350071980406938 220.05549346829139 0 0 0 0 109.89763885707362 -5.6580961928989382 0 -5.6580961928989382 -46.854607887397833 0 0 0 0 181.55942518268421 -76.855131367794456 0 -76.855131367794456 -1.0282276481775625 0 0 0 0 49.104081969759136 70.653456533034387 0 70.653456533034387 -38.23406608981486 0 0 0 0 -18.613311281806091 25.143033796242378 0 25.143033796242378 -4.7209230150083386 0 0 0 0 33.049670406913435 5.861007191651165 0 5.861007191651165 -0.18449690045009604 0 0 0 0 41.22230646070966 67.128288935499768 0 67.128288935499768 24.25624094408704 0 0 0 0 -92.421312231817865 103.97590413042758 0 103.97590413042758 14.32181320990685 0 0 0 0 87.730262416260601 14.984480883221272 0 14.984480883221272 1.8451555177971839 0 0 0 0 122.58127794612665 3.8945177908096866 0 3.8945177908096866 -5.0560818736521469 0 0 0 0 7.5581985513454129 26.774181985309269 0 26.774181985309269 5.5979540940124934 0 0 0 0 40.539948784087755 -0.12437689132320884 0 -0.12437689132320884 17.167444865550351 0 0 0 0 68.289240535440513 -15.881619585228293 0 -15.881619585228293 3.4530891710328433 0 0 0 0 55.381315306746501 -7.018766133949903 0 -7.018766133949903 2.6330277585608988 0 0 0 0 87.42734945412667 -6.854797689390125 0 -6.854797689390125 7.108310208619514 0 0 0 0 55.401686049932323 33.026100195488937 0 33.026100195488937 -2.4843464879900239 0 0 0 0 25.582671813534489 4.0754692370506262 0 4.0754692370506262 8.1241727570593802 0 0 0 0 58.291429389893892 -2.88356191100047 0 -2.88356191100047 4.751297941071698 0 0 0 0 8.9463445380777387 -11.989417040380815 0 -11.989417040380815 6.2484911138623076 0 0 0 0 46.601470234287262 -29.37578681416494 0 -29.37578681416494 64.714023057128543 0 0 0 0 171.67878825024673 -57.38378970556073 0 -57.38378970556073 -96.668444250607081 0 0 0 0 397.20462858511746 -37.02457518353367 0 -37.02457518353367 5.7973492240580526 0 0 0 0 111.53022808353126 43.882128553875077 0 43.882128553875077 -96.533499799869105 0 0 0 0 176.50232414627681 112.19271908073756 0 112.19271908073756 -42.002019284047719 0 0 0 0 96.886578835528525 0.32450053879268381 0 0.32450053879268381 -0.95864956842922444 0 0 0 0 89.588013891858282 115.31565385989506 0 115.31565385989506 102.66984757509726 0 0 0 0 118.17650537761801 -62.068956284902015 0 -62.068956284902015 47.388922168254794 0 0 0 0 286.72599625340081 183.41451026298546 0 183.41451026298546 115.46349160674254 0 0 0 0 78.42616992686817 -23.183906157065394 0 -23.183906157065394 -9.6137389606628858 0 0 0 0 51.667737810968902 13.343511738198231 0 13.343511738198231 -26.767684783937511 0 0 0 0 49.542428725162608 4.6192207532183147 0 4.6192207532183147 -2.3944442304473341 0 0 0 0 80.411181755458529 0.29386327975316817 0 0.29386327975316817 -4.7067368372918281 0 0 0 0 44.585228968823756 4.9253852679154981 0 4.9253852679154981 -4.690862733804698 0 0 0 0 64.592573245776293 5.7670552627855614 0 5.7670552627855614 -16.889427838262236 0 0 0 0 66.805687736589306 1.1657391425300911 0 1.1657391425300911 -3.1900940903798727 0 0 0 0 53.36724484326519 1.3352050774080837 0 1.3352050774080837 -3.887482989313904 0 0 0 0 75.800779687007889 -7.4364413603389039 0 -7.4364413603389039 -19.625565748431654 0 0 0 0 82.099310854249779 -33.111985154788727 0 -33.111985154788727 -58.039427065357813 0 0 0 0 48.797832520074245 9.8116520202422652 0 9.8116520202422652 -1.1772667178360168 0 0 0 0 -18.294528884195643 4.4375358945962944 0 4.4375358945962944 -34.714008358236242 0 0 0 0 161.16047310816248 -46.410124002732118 0 -46.410124002732118 -29.353009330970053 0 0 0 0 211.76248204273634 -29.45803458808814 0 -29.45803458808814 -416.49702618722131 0 0 0 0 -12.918747317786256 22.703982968095261 0 22.703982968095261 243.96040329378593 0 0 0 0 38.69115316958414 -298.29336613449959 0 -298.29336613449959 -216.59558422104783 0 0 0 0 -60.46004110422291 -416.52945379919856 0 -416.52945379919856 239.46307627083843 0 0 0 0 1102.4329665914693 729.66176679317505 0 729.66176679317505 -978.2208816535458 0 0 0 0 13.736100911271411 -15.435526954050797 0 -15.435526954050797 -5.3555068827196042 0 0 0 0 105.98862876143616 21.250692533549429 0 21.250692533549429 1.3047512295471932 0 0 0 0 227.19968470415188 71.091440346337549 0 71.091440346337549 -252.43209406114511 0 0 0 0 67.119379158961237 -13.673735742949248 0 -13.673735742949248 75.182467466150229 0 0 0 0 -36.838514138552455 201.46879390528284 0 201.46879390528284 -247.25095434901596 0 0 0 0 118.64069379724242 -44.54351049642537 0 -44.54351049642537 33.211710391546148 0 0 0 0 143.65239526479854 32.983343802896343 0 32.983343802896343 -5.7415652469999259 0 0 0 0 65.113533147872346 5.5749197769732994 0 5.5749197769732994 -0.88448493294100849 0 0 0 0 71.521519826088081 11.579082075291524 0 11.579082075291524 -1.8277422799339602 0 0 0 0 108.08207123678949 11.766450443313033 0 11.766450443313033 -62.688540779690811 0 0 0 0 102.95805371653842 22.551445470590352 0 22.551445470590352 -74.696563857660294 0 0 0 0 51.19017733594228 13.731143860968359 0 13.731143860968359 -7.3862444786127526 0 0 0 0 85.566409039543942 13.935584735812427 0 13.935584735812427 -11.81761219121563 0 0 0 0 54.025641323796393 8.8065707821526935 0 8.8065707821526935 0.70835277778003558 0 0 0 0 53.475644893526294 6.3061357696243121 0 6.3061357696243121 1.7221977740733703 0 0 0 0 69.317132436689917 12.878823117492374 0 12.878823117492374 -0.25975152819955838 0 0 0 0 73.793399019392382 4.1836654896469554 0 4.1836654896469554 11.639235208538139 0 0 0 0 56.946552808512422 -4.4827100767401973 0 -4.4827100767401973 -3.0657434393847716 0 0 0 0 84.758651938172989 93.826508482094141 0 93.826508482094141 55.389267408663727 0 0 0 0 62.368136879895218 -9.1224277813452659 0 -9.1224277813452659 -4.5522492925007993 0 0 0 0 66.5625796118984 -25.07708652236488 0 -25.07708652236488 -38.236783049659152 0 0 0 0 76.71141348472338 -2.0187401491956507 0 -2.0187401491956507 -4.3826725951248591 0 0 0 0 66.565963603883574 13.449076728674299 0 13.449076728674299 -6.4675357831310976 0 0 0 0 61.631209559273429 20.51896872785705 0 20.51896872785705 -4.4846096459300391 0 0 0 0 68.696510334446813 44.197535883834135 0 44.197535883834135 -16.891279917708289 0 0 0 0 97.216344758955529 41.800038618510371 0 41.800038618510371 -14.275392680550794 0 0 0 0 77.061062141396917 -10.447679408485833 0 -10.447679408485833 -9.9447233853586958 0 0 0 0 43.698101274319924 3.1158140770494356 0 3.1158140770494356 -21.424582409410505 0 0 0 0 67.340080202304904 -0.3806151094971284 0 -0.3806151094971284 -11.36325777085613 0 0 0 0 54.846148165714425 22.232202553558551 0 22.232202553558551 -9.7913233238946198 0 0 0 0 101.61281227933068 3.5829306955138236 0 3.5829306955138236 -66.13184000635647 0 0 0 0 71.397637062082595 -2.2339211301356769 0 -2.2339211301356769 -7.2588068270263211 0 0 0 0 86.540157367780921 -13.460030784221999 0 -13.460030784221999 -50.994326628950148 0 0 0 0 52.11966838550731 19.621352869235892 0 19.621352869235892 -4.8424616604849611 0 0 0 0 73.844494869787013 -20.571485950360966 0 -20.571485950360966 -16.452287163418077 0 0 0 0 62.316134469409008 -10.466143675013882 0 -10.466143675013882 -12.864343669643858 0 0 0 0 65.238625214275089 -6.7515097599580258 0 -6.7515097599580258 -19.393829290026588 0 0 0 0 41.274427182041109 -2.7329862602632602 0 -2.7329862602632602 -26.032274845558902 0 0 0 0 47.541902623085264 12.16827573605336 0 12.16827573605336 -1.9203142970625118 0 0 0 0 62.066844455424871 -3.4833824018038513 0 -3.4833824018038513 -21.342218654016506 0 0 0 0 53.244992655604705 -4.335828228628678 0 -4.335828228628678 -8.0378495553187737 0 0 0 0 58.572100854897144 6.017228730175475 0 6.017228730175475 -12.7552255993578 0 0 0 0 54.545804923414522 6.1155918963154505 0 6.1155918963154505 -9.3979345973273389 0 0 0 0 47.979616506521694 4.9595349840889469 0 4.9595349840889469 -9.5336649006145215 0 0 0 0 42.23961806652369 1.4318461383518297 0 1.4318461383518297 -10.022563766332041 0 0 0 0 31.383481730355044 -7.4488371590786286 0 -7.4488371590786286 -13.010458090323192 0 0 0 0 41.223967214248404 3.3080554647692093 0 3.3080554647692093 -10.516181964937719 0 0 0 0 67.530817452614428 33.071804264066031 0 33.071804264066031 -26.195139513252343 0 0 0 0 74.310671602885122 23.328580146398167 0 23.328580146398167 6.9320358586410293 0 0 0 0 76.462701852899045 20.371306301769437 0 20.371306301769437 -6.1051884225785216 0 0 0 0 33.615030321867863 6.5373371123889257 0 6.5373371123889257 -14.082519972985835 0 0 0 0 46.898732878689771 -5.7276222536502246 0 -5.7276222536502246 10.441451863059456 0 0 0 0 8.236581803575973 19.522953743152812 0 19.522953743152812 -1.395141459640854 0 0 0 0 106.60931265180261 -76.800380647985776 0 -76.800380647985776 -104.12204586110715 0 0 0 0 89.078613804034831 13.606238103779106 0 13.606238103779106 35.284302421073789 0 0 0 0 101.67852115981805 13.313931877804407 0 13.313931877804407 34.767404925540177 0 0 0 0 76.191737814672791 14.025889874487028 0 14.025889874487028 0.046640951497046057 0 0 0 0 15.274678479793181 -2.217800494426875 0 -2.217800494426875 -2.7428401267074882 0 0 0 0 47.873458136278714 12.978061083822837 0 12.978061083822837 21.389494862747597 0 0 0 0 46.210299361603774 -3.7918487873924391 0 -3.7918487873924391 -4.5506068237959498 0 0 0 0 71.985425801874953 18.110998324824322 0 18.110998324824322 41.118416665309269 0 0 0 0 44.181699484044103 -3.602603301905873 0 -3.602603301905873 -2.2559510021174223 0 0 0 0 70.13891691682511 24.353532483078652 0 24.353532483078652 20.272068905394462 0 0 0 0 42.332573655134183 3.1569027323376986 0 3.1569027323376986 -6.2924235470455869 0 0 0 0 45.923668945315242 8.2079271949634602 0 8.2079271949634602 8.6079911170468613 0 0 0 0 26.489370973489713 -8.9574080620923269 0 -8.9574080620923269 -30.335683416313259 0 0 0 0 54.923887533996691 -5.8411288140701743 0 -5.8411288140701743 -7.0701114290881053 0 0 0 0 34.969278097385541 -9.8681564554669876 0 -9.8681564554669876 -23.573754185967573 0 0 0 0 63.405570034776872 22.974217102782617 0 22.974217102782617 4.1973137885639389 0 0 0 0 48.086731087589897 -19.88293813546467 0 -19.88293813546467 -5.3556708017395209 0 0 0 0 51.276973289248843 -7.7713262184243455 0 -7.7713262184243455 -1.302032306940883 0 0 0 0 66.045411636521749 -16.66631878212047 0 -16.66631878212047 -16.350159923220417 0 0 0 0 70.64736449704651 -13.727126568670428 0 -13.727126568670428 -16.124168635768001 0 0 0 0 70.942074997252348 -7.6477585728005124 0 -7.6477585728005124 3.8559202588485277 0 0 0 0 40.742996216664324 -13.222642266011462 0 -13.222642266011462 -15.956586091797362 0 0 0 0 15.541406007367186 -21.80284941683567 0 -21.80284941683567 -31.354901526307003 0 0 0 0 36.684094635593397 -38.523346179078928 0 -38.523346179078928 -3.5037917963382315 0 0 0 0 57.248056380325352 13.292651736460762 0 13.292651736460762 -6.1153856999799254 0 0 0 0 68.620541760607011 5.4096271355008412 0 5.4096271355008412 26.860001972552709 0 0 0 0 37.784188831792477 -9.9691439542776763 0 -9.9691439542776763 -0.34221441704119115 0 0 0 0 92.24147010143497 9.0656850318603119 0 9.0656850318603119 23.477743147273856 0 0 0 0 45.769408783321495 -10.653650690035384 0 -10.653650690035384 -4.3594596819109679 0 0 0 0 74.093660308571998 7.6169948218465606 0 7.6169948218465606 39.934129217975283 0 0 0 0 43.728124588167702 10.681676706208464 0 10.681676706208464 7.6801069076509521 0 0 0 0 71.448968424207123 10.31689677975055 0 10.31689677975055 38.925596713540017 0 0 0 0 71.889850202987873 21.799989351840622 0 21.799989351840622 64.746802168279828 0 0 0 0 73.030356515693711 -8.6519821131370236 0 -8.6519821131370236 -12.378503934654873 0 0 0 0 40.720086399266044 -12.739236911964163 0 -12.739236911964163 -5.8655605236759545 0 0 0 0 8.2090978641147956 -14.43492587472085 0 -14.43492587472085 -4.3167217487182521 0 0 0 0 37.901898461042038 -15.953933871039933 0 -15.953933871039933 -4.0110006022399194 0 0 0 0 73.973329947712045 1.7538798426228368 0 1.7538798426228368 2.9650936192975763 0 0 0 0 70.224466236199078 13.878164331272956 0 13.878164331272956 7.4120085267068134 0 0 0 0 80.108214096872871 -20.161236403674138 0 -20.161236403674138 -7.8557492488753269 0 0 0 0 36.188546793158821 -18.204053108594508 0 -18.204053108594508 -7.6097137292335901 0 0 0 0 45.483364301462927 -16.825550563320235 0 -16.825550563320235 -2.3595455410349775 0 0 0 0 14.771540028843447 7.7218086945579216 0 7.7218086945579216 32.58495395232012 0 0 0 0 50.631081323379476 -68.000817121315549 0 -68.000817121315549 -13.856211132005001 0 0 0 0 -119.67157956687879 58.140853718082781 0 58.140853718082781 111.59960878459833 0 0 0 0 13.759378252121905 -17.365899984888443 0 -17.365899984888443 -11.02862179665021 0 0 0 0 51.25237798440503 20.006685354325555 0 20.006685354325555 11.127234048830701 0 0 0 0 49.116336660554339 -5.702455974644316 0 -5.702455974644316 -7.0193263994040223 0 0 0 0 55.576850479163113 -16.381119192897074 0 -16.381119192897074 -7.5195862057775003 0 0 0 0 59.478160433258381 28.522327015179968 0 28.522327015179968 39.550260026932847 0 0 0 0 86.827536407618027 25.363063639700613 0 25.363063639700613 37.927635333014678 0 0 0 0 132.16403572815034 127.95062059300193 0 127.95062059300193 77.200070011627531 0 0 0 0 62.528737234420987 55.004715104979596 0 55.004715104979596 1.7903089968117456 0 0 0 0 215.59330188445892 -5.3633527140011665 0 -5.3633527140011665 -194.97118940334576 0 0 0 0 101.01572038289058 10.96365956262389 0 10.96365956262389 -3.76649266058973 0 0 0 0 35.092882727229153 -17.214456692411659 0 -17.214456692411659 -36.204502169960506 0 0 0 0 92.827726911396894 -157.75217265827519 0 -157.75217265827519 124.60951556938653 0 0 0 0 253.7678277103405 69.549250526441028 0 69.549250526441028 -124.10051758854706 0 0 0 0 0.50378338678700629 2.1495906483926603 0 2.1495906483926603 2.2996631548214861 0 0 0 0 7.9626318086704941 2.3345458670422143 0 2.3345458670422143 117.26619443791787 0 0 0 0 163.23363459579559 116.51719626247632 0 116.51719626247632 31.482165409357094 0 0 0 0 73.882984438139829 29.938826277475755 0 29.938826277475755 137.32703810890996 0 0 0 0 158.98686353339872 45.781705474560113 0 45.781705474560113 -9.1308087755267024 0 0 0 0 74.260208859703198 16.794896723532247 0 16.794896723532247 -17.759981921392409 0 0 0 0 123.2059953829521 -24.157364548637929 0 -24.157364548637929 -36.01495094671327 0 0 0 0 121.7245309578106 4.8330248131936706 0 4.8330248131936706 -6.4542675378830179 0 0 0 0 84.389478224999039 -20.905512341984831 0 -20.905512341984831 -27.409082955063013 0 0 0 0 214.47969531908166 32.246024433618004 0 32.246024433618004 -95.245399359201656 0 0 0 0 22.466881495532391 12.109627427994624 0 12.109627427994624 -1.2057829878065851 0 0 0 0 54.053067899149028 75.674297410743293 0 75.674297410743293 -8.9656230032389885 0 0 0 0 -6.089518879172374 3.1637529708002603 0 3.1637529708002603 2.6110862401741173 0 0 0 0 668.11008741773549 692.71227474981606 0 692.71227474981606 928.64083726355966 0 0 0 0 6.102765598645675 1.0732243545186577 0 1.0732243545186577 -0.33651081040439834 0 0 0 0 737.78047760817572 643.23980832604684 0 643.23980832604684 146.28370845944301 0 0 0 0 5.5472929537645541 -67.70628599322572 0 -67.70628599322572 -55.863149160069952 0 0 0 0 73.813219934272638 -28.768312312778107 0 -28.768312312778107 -11.231350283222127 0 0 0 0 13.03244654535011 -33.032492673082317 0 -33.032492673082317 -35.335232790766561 0 0 0 0 -50.781289207807276 -24.943260638103311 0 -24.943260638103311 -12.281131483909121 0 0 0 0 4.1356648793258159 -15.599670834615708 0 -15.599670834615708 5.2837030925283166 0 0 0 0 1030.8758812511805 -203.66191077354779 0 -203.66191077354779 275.18660800115504 0 0 0 0 31.964478246626772 -28.818755428288185 0 -28.818755428288185 -34.19629098907469 0 0 0 0 98.610761396023463 1.1433786639195382 0 1.1433786639195382 -27.199875454623907 0 0 0 0 86.364430897243437 -72.596594781397471 0 -72.596594781397471 -39.665166622826291 0 0 0 0 36.334251905784186 -169.75548307887948 0 -169.75548307887948 -190.47964168212457 0 0 0 0 -66.997958896132332 -100.93069153333886 0 -100.93069153333886 53.96626697645479 0 0 0 0 6.2167264570764189 -3.800261075724606 0 -3.800261075724606 2.2209221238072843 0 0 0 0 32.155645098770037 -226.50261223116286 0 -226.50261223116286 80.484843701016416 0 0 0 0 1274.1322930640308 753.91334943050606 0 753.91334943050606 -121.583154538288 0 0 0 0 102.72079213295625 -15.188430470839513 0 -15.188430470839513 -15.412790328196232 0 0 0 0 140.89748305818648 -43.338577336559865 0 -43.338577336559865 -71.956822505891068 0 0 0 0 48.400607876650611 -42.153308943364777 0 -42.153308943364777 -66.866151340686883 0 0 0 0 46.556156601298611 -5.284074727942798 0 -5.284074727942798 -6.2559328843467901 0 0 0 0 124.06295116105719 13.315040365600227 0 13.315040365600227 -5.4199677062842477 0 0 0 0 673.29009525782021 42.554610339369901 0 42.554610339369901 -525.07575462871318 0 0 0 0 168.72980517763062 49.714119824314821 0 49.714119824314821 -53.494170168803066 0 0 0 0 177.81692383639165 -0.40242388472415769 0 -0.40242388472415769 62.065941524211667 0 0 0 0 82.892997591297345 5.0042472831222682 0 5.0042472831222682 -11.288435266715714 0 0 0 0 149.21537827356951 53.117825508291389 0 53.117825508291389 -36.353470386136905 0 0 0 0 87.607940595386111 24.983293434803954 0 24.983293434803954 -14.418487205822657 0 0 0 0 81.755307966290275 -7.6422545883724524 0 -7.6422545883724524 4.3480802181238687 0 0 0 0 134.03704176727496 -10.676446388688984 0 -10.676446388688984 -14.134335923847001 0 0 0 0 164.6085113427107 17.027147150974997 0 17.027147150974997 -99.141001991912162 0 0 0 0 122.1593543136796 16.673427370380864 0 16.673427370380864 -21.21137799026684 0 0 0 0 62.249956137558911 -75.521764858970982 0 -75.521764858970982 -73.770240492097855 0 0 0 0 47.681057080223354 -5.4668350067912161 0 -5.4668350067912161 -14.897635118699327 0 0 0 0 53.092008172893969 -16.817948346240996 0 -16.817948346240996 -14.784123724852913 0 0 0 0 85.599598403560748 -4.3350322557042489 0 -4.3350322557042489 -10.118406525084772 0 0 0 0 37.077995319385082 -14.757194576008942 0 -14.757194576008942 41.249644373604951 0 0 0 0 62.736975485147525 2.0697207723850113 0 2.0697207723850113 -9.0047971397542526 0 0 0 0 14.30727927092812 23.341779655105711 0 23.341779655105711 6.4491493726136468 0 0 0 0 50.29394000548411 47.84750307853254 0 47.84750307853254 2.0662222793303284 0 0 0 0 359.92630043073586 218.61403188461674 0 218.61403188461674 -323.91915969605913 0 0 0 0 316.11996493347306 189.08551441417083 0 189.08551441417083 -19.744690320057032 0 0 0 0 -297.10985502616768 -64.665649976825421 0 -64.665649976825421 -22.20787018533656 0 0 0 0 -23.603081931236346 -0.75036750477097236 0 -0.75036750477097236 7.2032586944917627 0 0 0 0 118.25307258842273 20.678450467761746 0 20.678450467761746 -10.61812912609177 0 0 0 0 81.873563025361364 207.46084293158151 0 207.46084293158151 329.50228037695501 0 0 0 0 43.383628540782802 -23.646035843562817 0 -23.646035843562817 -19.162551934041485 0 0 0 0 1027.1496439379434 91.083825815567138 0 91.083825815567138 -495.00786296238266 0 0 0 0 122.02533470238268 791.55852100976881 0 791.55852100976881 5.4448204727005987 0 0 0 0 992.47244769398822 -1064.7547634982866 0 -1064.7547634982866 658.67223761552157 0 0 0 0 74.96482424295931 -24.598696532066256 0 -24.598696532066256 -21.387151550229646 0 0 0 0 -110.18434742694808 -22.548304799898688 0 -22.548304799898688 -108.44476566274534 0 0 0 0 94.166166584795064 126.18420028508301 0 126.18420028508301 -1.0895209151861991 0 0 0 0 151.47499786810658 83.637803371610147 0 83.637803371610147 -24.242552616453757 0 0 0 0 335.91129939354596 128.63985115593601 0 128.63985115593601 -126.39849998555252 0 0 0 0 226.49223249748866 -163.56147149238978 0 -163.56147149238978 -115.40931007602532 0 0 0 0 76.630896194720535 -16.185980996832619 0 -16.185980996832619 -16.011770408065477 0 0 0 0 148.07824472447828 -12.079120052628127 0 -12.079120052628127 -32.082979805312448 0 0 0 0 244.71253433403763 -10.901729891198215 0 -10.901729891198215 -113.92028770372818 0 0 0 0 62.19814776724354 -74.852653636866577 0 -74.852653636866577 43.643972277196099 0 0 0 0 3.228942856651031 10.698529745006496 0 10.698529745006496 5.5009764350148354 0 0 0 0 17.750492940023832 153.44684352197373 0 153.44684352197373 288.7640736469134 0 0 0 0 28.557056647085119 -24.079975338196846 0 -24.079975338196846 83.456902893664164 0 0 0 0 200.91447376139695 -124.37843526600807 0 -124.37843526600807 127.04116253752119 0 0 0 0 565.5414389400903 28.475324932874457 0 28.475324932874457 -28.143836762869341 0 0 0 0 130.86963675958395 328.83077538873511 0 328.83077538873511 249.08198402088311 0 0 0 0 201.7149445044779 -565.27587479705744 0 -565.27587479705744 123.36345200796995 0 0 0 0 74.480473012769821 -12.376226731812601 0 -12.376226731812601 -12.662240769588564 0 0 0 0 333.07655298774534 343.36550812860571 0 343.36550812860571 -35.420883850171776 0 0 0 0 148.0307406093707 36.421524485517693 0 36.421524485517693 -251.06958774757049 0 0 0 0 103.89144642399424 149.22188170789335 0 149.22188170789335 68.743154837245584 0 0 0 0 43.05050014930633 24.901197744149876 0 24.901197744149876 3.1231714792636236 0 0 0 0 80.867694627526163 2.6806054614709502 0 2.6806054614709502 -16.600791265826086 0 0 0 0 73.850479430147971 16.119371702860917 0 16.119371702860917 -7.5759624596238382 0 0 0 0 83.348335928767483 12.779492552948454 0 12.779492552948454 -9.0134866280782262 0 0 0 0 81.629182023468957 2.642116131929118 0 2.642116131929118 2.4829650545238735 0 0 0 0 540.8627868417534 252.02830976469022 0 252.02830976469022 -138.4784829323728 0 0 0 0 4.4434810585188451 1.167324543093665 0 1.167324543093665 -0.65177431356142623 0 0 0 0 529.91392794146395 -156.62911761805026 0 -156.62911761805026 -133.10214885341787 0 0 0 0 -34.608886940131583 -53.492532244406945 0 -53.492532244406945 215.4263750023047 0 0 0 0 294.03443413783225 207.59329233307571 0 207.59329233307571 390.47934121402966 0 0 0 0 645.89486563014725 169.31821637155201 0 169.31821637155201 -165.49242143487635 0 0 0 0 616.46867486107294 -139.13967146770437 0 -139.13967146770437 84.457901692250118 0 0 0 0 52.921629545723377 53.151319385604388 0 53.151319385604388 18.815599908682639 0 0 0 0 -17.277499624262418 99.220724361174575 0 99.220724361174575 -25.920217223372219 0 0 0 0 111.03849429262391 -98.644922538049059 0 -98.644922538049059 248.09667792945777 0 0 0 0 -78.766108292224089 147.79144845535154 0 147.79144845535154 -17.594682550891605 0 0 0 0 283.62968276848437 125.53718331977269 0 125.53718331977269 -191.97512487305124 0 0 0 0 15.25803130560092 4.098212920845433 0 4.098212920845433 -0.42207241503709025 0 0 0 0 -10.800117715357374 141.59673499681827 0 141.59673499681827 69.474575004845065 0 0 0 0 217.36209103359215 28.645782619160514 0 28.645782619160514 19.502600751930515 0 0 0 0 202.11805102261587 48.17805719394164 0 48.17805719394164 35.186099834205777 0 0 0 0 22.090978969821013 8.2071698657179688 0 8.2071698657179688 1.5917366086982567 0 0 0 0 89.480331158965782 17.214737350716746 0 17.214737350716746 -85.164614987276764 0 0 0 0 309.72470632109571 51.389598223144588 0 51.389598223144588 15.825935504902191 0 0 0 0 338.21187965819172 191.76614100714198 0 191.76614100714198 57.520781156222029 0 0 0 0 326.41871249097312 265.64645228631559 0 265.64645228631559 -58.290461904967628 0 0 0 0 1.970715561490529 -2.335693927847327 0 -2.335693927847327 0.25793054525980308 0 0 0 0 644.75341027930619 529.52632830307698 0 529.52632830307698 212.98375391682566 0 0 0 0 220.03854700366537 -261.69445852484296 0 -261.69445852484296 -186.75163162801573 0 0 0 0 292.99474915608198 345.99910236840589 0 345.99910236840589 255.72975196192306 0 0 0 0 88.699937131199476 117.25156713470921 0 117.25156713470921 -59.035872426151855 0 0 0 0 -99.123238359438801 39.224187198827394 0 39.224187198827394 177.25093573906088 0 0 0 0 127.17654131296604 -108.20990341815173 0 -108.20990341815173 -79.110347961055368 0 0 0 0 1.7775203335242367 -2.0682888670092296 0 -2.0682888670092296 1.1306849720675176 0 0 0 0 247.04617059175325 257.18547366409928 0 257.18547366409928 243.92151097286188 0 0 0 0 613.16956937305986 -49.845545795577891 0 -49.845545795577891 -172.74879794826376 0 0 0 0 44.918356014571906 1.3369551195404183 0 1.3369551195404183 -8.0572200124758488 0 0 0 0 77.448614989730231 10.58652205814866 0 10.58652205814866 -5.2534994948659914 0 0 0 0 44.062862253959793 2.7370718989736815 0 2.7370718989736815 6.1886855868666544 0 0 0 0 41.587581047318508 28.573030158380021 0 28.573030158380021 1.2305846000397196 0 0 0 0 65.538266266437859 114.05713801172874 0 114.05713801172874 60.209589749323186 0 0 0 0 14.774632958448066 3.1957052250595801 0 3.1957052250595801 0.015882479029335705 0 0 0 0 77.028370466592605 31.695498756225334 0 31.695498756225334 14.130492361016877 0 0 0 0 31.25378928126338 51.30109215317907 0 51.30109215317907 -27.693738523601951 0 0 0 0 54.234114262639196 16.472370054144562 0 16.472370054144562 -64.713949377180825 0 0 0 0 26.70722697286763 14.873919275964637 0 14.873919275964637 -1.1933893719162318 0 0 0 0 47.685645017603292 16.204813331602395 0 16.204813331602395 -5.4551891689277454 0 0 0 0 24.929499605381711 -6.3026441237532609 0 -6.3026441237532609 -8.9365820662594579 0 0 0 0 45.601510698897982 -6.3726763584628543 0 -6.3726763584628543 -5.5603900498760481 0 0 0 0 73.190875957168373 -7.9353298173629696 0 -7.9353298173629696 -23.791521855939664 0 0 0 0 52.586135708904067 -24.107891587885689 0 -24.107891587885689 18.642321337281828 0 0 0 0 38.606874476201483 10.415952048449242 0 10.415952048449242 41.381781164403947 0 0 0 0 12.967635966256237 2.4281160973044011 0 2.4281160973044011 -2.8734225281130632 0 0 0 0 30.99152648879317 61.040284137447543 0 61.040284137447543 51.903287657345118 0 0 0 0 43.630736463051107 12.123925710528113 0 12.123925710528113 3.3047114419985917 0 0 0 0 23.527636986998871 -12.600651272421782 0 -12.600651272421782 -4.7920410031389107 0 0 0 0 44.716564356315757 5.7266885726742203 0 5.7266885726742203 4.5332719153067558 0 0 0 0 49.785791930889673 12.596647409211407 0 12.596647409211407 -0.090865345358906779 0 0 0 0 66.832657097223091 12.106820272255732 0 12.106820272255732 -2.3903716430933173 0 0 0 0 28.770406886541423 28.590525225506099 0 28.590525225506099 8.4372840729967038 0 0 0 0 40.999486992950551 18.770813017710537 0 18.770813017710537 15.226282496779731 0 0 0 0 28.172881834997042 29.707731740886345 0 29.707731740886345 9.9743544295749871 0 0 0 0 15.584344968613095 29.874890066083935 0 29.874890066083935 31.586662219508753 0 0 0 0 23.604347465962746 29.426774981051153 0 29.426774981051153 8.4135103200762273 0 0 0 0 16.321253289797824 24.249506094757123 0 24.249506094757123 36.028845776808112 0 0 0 0 5.7046387091249926 2.6599501604960096 0 2.6599501604960096 31.450106450190106 0 0 0 0 5.496280582289728 14.271968769028149 0 14.271968769028149 85.081165451272909 0 0 0 0 21.72246689091935 10.706844819230696 0 10.706844819230696 16.49508346350467 0 0 0 0 18.982014487741253 12.352379243420387 0 12.352379243420387 37.324378319873404 0 0 0 0 32.113359998254964 3.4269200443686714 0 3.4269200443686714 20.043641805864581 0 0 0 0 34.90302102712576 -2.7614416205217367 0 -2.7614416205217367 13.867514953675482 0 0 0 0 20.820911213502768 -4.5523477244835249 0 -4.5523477244835249 15.690804320279767 0 0 0 0 -7.5718160636415632 -19.730321823136592 0 -19.730321823136592 35.516017891713318 0 0 0 0 29.856950187491748 -10.733378892400196 0 -10.733378892400196 1.4277609816687118 0 0 0 0 20.166960167826346 -5.389777039990804 0 -5.389777039990804 35.927820531345333 0 0 0 0 9.2616678737222173 -26.42617218636633 0 -26.42617218636633 14.125859778594531 0 0 0 0 3.6028295110455399 -3.636508893719351 0 -3.636508893719351 1.3201104552005818 0 0 0 0 39.10185403226253 -10.777502771474342 0 -10.777502771474342 0.35245267807394987 0 0 0 0 51.977752897437767 -15.17391774734574 0 -15.17391774734574 -22.117928542238133 0 0 0 0 -234.07285540834252 -164.95632141162335 0 -164.95632141162335 -8.8890675262957757 0 0 0 0 63.795989126367203 4.8166347087720851 0 4.8166347087720851 8.4655281004938843 0 0 0 0 74.773952081784046 -5.4901079348125634 0 -5.4901079348125634 -1.4815249941657385 0 0 0 0 -12.909141065782023 -37.75824936119443 0 -37.75824936119443 63.287954404347147 0 0 0 0 55.809702200905605 -0.68911782809415012 0 -0.68911782809415012 -3.9569052613693358 0 0 0 0 22.828892356741562 -22.918905890318911 0 -22.918905890318911 -41.434841243378287 0 0 0 0 38.785216004259482 -12.620012880518679 0 -12.620012880518679 -8.8092020044368482 0 0 0 0 22.576244549768489 -29.399380312723604 0 -29.399380312723604 -4.4416558139652818 0 0 0 0 41.091435838225941 -8.1633119284393203 0 -8.1633119284393203 -12.130716258163638 0 0 0 0 42.075108229137953 2.4247372528205338 0 2.4247372528205338 0.059387677896066471 0 0 0 0 47.2138640821222 -19.872088630067992 0 -19.872088630067992 -2.0012752563989125 0 0 0 0 43.32300487865632 -15.612250174706901 0 -15.612250174706901 -2.302012031429399 0 0 0 0 35.922129591199337 -5.9326544582099814 0 -5.9326544582099814 10.244083903106457 0 0 0 0 26.013048698747831 -22.894717386836447 0 -22.894717386836447 -1.3566940605264444 0 0 0 0 19.674760183261242 -18.658800857726419 0 -18.658800857726419 -36.110733742883895 0 0 0 0 30.141532614343674 -10.096496622905715 0 -10.096496622905715 -8.0243404962701277 0 0 0 0 50.099089647637996 9.0568119620882221 0 9.0568119620882221 -6.6510605566344188 0 0 0 0 80.846446054496482 -4.3705523561278596 0 -4.3705523561278596 0.13387809899811742 0 0 0 0 73.548919745899184 12.853971946606642 0 12.853971946606642 10.190730039698835 0 0 0 0 -106.94169676522142 -230.26343856568565 0 -230.26343856568565 -237.85388890946342 0 0 0 0 56.047897872238536 -7.0654116282796622 0 -7.0654116282796622 3.7766226611640832 0 0 0 0 71.465703032887177 11.051177507401462 0 11.051177507401462 -4.3846175071532798 0 0 0 0 -4.0562586106816862 -3.8282379904207868 0 -3.8282379904207868 2.5219238082728914 0 0 0 0 57.91455408235197 -3.222811482837642 0 -3.222811482837642 0.17275427834465518 0 0 0 0 33.228406297747966 -13.243854990602697 0 -13.243854990602697 -8.7375182639630307 0 0 0 0 36.208619917624674 13.23465269777887 0 13.23465269777887 -0.55044694967773466 0 0 0 0 34.756389987063471 -0.64573442524833524 0 -0.64573442524833524 13.108194563094457 0 0 0 0 27.150495432871544 -15.981859103547261 0 -15.981859103547261 -0.1456628487339815 0 0 0 0 37.204015539249212 -0.44960326413342955 0 -0.44960326413342955 13.123896585062994 0 0 0 0 
</DataArray>
<DataArray type="Float64" Name="cross_section_updated" format="ascii">
1 1 1 1 1 1 0.010123796089817174 1 1 1 0.011252989013698365 1 1 0.010135646165933841 1 0.010009597522755133 1 1 1 0.010394761934121224 0.010055091642202207 1 1 0.011891868727575456 1 1 1 1 1 1 0.010163493672254605 1 1 1 1 1 1 1 1 0.026738995965492278 1 0.012770919761640839 1 0.013348973255697406 1 0.008721950183924989 1 1 0.01964966208604595 1 0.016079063822774724 1 0.016777138682798804 1 1 1 1 0.0086368393848701135 1 1 1 1 1 0.010172554048940807 1 1 1 1 1 1 1 1 1 0.024279951842030197 1 0.015751350655285167 1 1 1 1 0.015227598803735205 1 1 1 1 1 1 1 1 0.008374127121708947 1 1 1 1 1 1 1 1 1 1 1 1 1 1 1 1 1 1 1 1 1 1 0.026263860642444958 1 0.0015417395053147747 1 1 1 1 1 1 0.010376860855062181 1 1 0.0081508901765420597 1 1 1 1 1 0.0097545946846434081 1 1 1 1 0.010420051151641458 1 1 0.010003839563326917 1 0.010045445055948961 1 0.010193107986865544 1 1 0.0099389926430955722 1 0.010049961856834452 1 1 1 0.010013926310775377 1 1 1 1 1 1 1 1 1 1 1 1 1 1 1 1 1 1 1 0.025311893711352503 1 0.0095418435069881298 1 1 1 1 1 0.012445594046212325 0.017593096859873807 1 1 1 1 1 1 1 1 1 1 0.010007211609452619 1 0.011915526917441615 1 1 1 0.017432962380792456 1 1 0.0099937390672242936 1 1 0.010529048027437489 1 1 1 1 0.028039375063540387 1 1 1 0.016580997804633273 1 1 1 1 1 0.0095091876251045988 1 0.012901558500040884 1 1 1 1 1 1 0.010964641365377595 1 1 1 1 1 1 1 1 1 1 1 1 1 1 1 1 1 1 1 1 1 1 1 1 1 1 1 1 1 1 1 1 1 1 1 1 0.010132458217100106 1 1 1 1 1 1 1 1 0.010240807511608508 1 1 1 1 1 1 1 1 1 1 1 1 1 1 0.0099750835302010021 1 1 1 1 1 0.025779663133104817 1 0.010024191344634708 1 1 0.010646841636781446 1 0.018079701808464074 0.0091194611556739066 1 0.0084160882847790393 1 0.012172335361355261 1 0.017091587702239196 1 1 0.0099871449802444081 1 0.014891675658332298 1 1 0.01061602086127884 1 1 1 1 1 1 1 1 1 0.010181745068208865 0.0099684194341121361 1 1 1 1 0.010046851040965556 1 1 0.0099335842731740759 1 1 0.0092891519190163759 1 1 0.010374870752213133 0.010378966463805843 0.011243037127106789 0.013040297895805882 1 0.010276265995497655 1 1 1 0.010096983514561867 1 1 1 1 1 1 1 1 0.010175292642661449 1 1 0.011656821423655032 1 0.011361735438959762 1 1 1 1 1 1 1 0.011054252506031885 0.011397527184105468 1 1 1 1 1 1 1 1 1 1 0.013958932496026219 0.012206140730379152 0.010881374452972482 1 0.010442331451618587 0.012439356706083236 0.012028609141925817 0.011390696387828589 0.010996844430021979 1 0.011198257750571044 1 0.011608416589492415 1 0.012624968150623981 1 1 0.015272625205004633 1 0.0093536435068271601 1 0.015433236232718381 0.015258027932231001 1 1 0.011703419052022384 1 0.015209279259780105 1 1 1 1 1 0.0094508529248556773 1 1 1 1 1 1 1 1 1 1 1 1 1 1 0.0077824049363777971 0.0098401448619345501 1 1 1 1 1 1 1 1 0.0092193310738101358 1 1 1 1 1 1 1 1 1 1 0.0099270819863737682 1 1 1 0.009984093015587215 1 1 1 1 1 1 1 1 1 1 1 1 1 1 1 1 1 1 1 1 1 1 1 1 1 1 1 1 1 1 1 1 1 1 1 1 1 1 1 1 1 1 1 1 1 1 1 1 1 1 1 1 1 1 1 1 1 1 1 1 1 1 1 1 1 1 1 1 1 1 0.010022607125883659 1 0.010030495554588612 1 1 1 1 1 1 1 0.0098643218712161883 1 1 1 1 1 1 1 1 1 1 0.010505165955406298 0.010147220061232498 1 1 1 1 0.017396683208277967 1 1 0.012654614844646389 1 0.011275065684741317 0.012422095632008882 1 1 0.010605778105285662 1 1 1 1 1 1 1 1 1 1 0.013911636840896774 1 1 0.011286104033305005 0.014952900155842542 1 1 1 1 1 1 1 1 1 1 1 1 1 1 1 1 1 1 1 1 1 1 1 1 1 1 1 1 1 0.010716885231150917 1 0.011802848370608866 1 1 1 1 1 1 1 1 1 1 1 1 1 1 1 1 1 1 1 1 1 1 1 1 1 1 1 1 1 0.010892389523054012 1 1 1 0.0099088276635549942 1 1 1 0.010057310432478875 1 0.0096639435186159691 1 1 1 0.011397005701284761 1 1 1 1 1 1 1 1 1 1 1 1 1 1 1 1 1 0.010829576483925707 1 0.010313571927516238 1 1 1 1 1 1 1 1 1 1 1 1 1 1 1 1 1 1 1 1 1 1 1 1 1 1 1 1 1 1 1 1 1 1 1 1 1 1 1 0.009969362712788879 1 1 0.011469032888741964 1 1 1 1 1 1 0.013011604315535344 0.012199753734529025 1 1 1 1 1 1 1 1 1 1 1 1 1 1 1 1 1 1 1 1 1 1 1 1 1 1 1 1 0.012001891731737303 1 0.01167143160414523 1 1 1 1 1 1 1 1 1 1 1 1 1 1 1 1 1 1 1 1 1 1 1 1 1 1 1 1 1 0.011083642630236624 1 1 1 1 1 0.012479891763749716 1 1 1 1 1 1 1 1 1 1 0.01065126816114018 1 1 1 0.01002527529598898 1 1 1 1 1 1 1 0.010043256153757407 1 1 1 1 1 1 1 1 1 1 0.012660090752252367 1 1 1 0.010214163181746873 1 1 0.011399153439774302 1 1 1 1 1 0.010008527893639112 1 1 1 1 1 0.012377362075050746 1 0.010110446478091263 1 1 1 1 1 1 1 1 1 1 1 1 1 1 1 1 1 1 1 1 1 0.012641058159402543 1 1 0.010334323069964639 1 1 1 1 1 1 1 1 1 1 1 1 1 1 1 0.010798613685603588 1 1 1 1 1 1 1 1 0.010025024617008032 1 0.01066667313110381 0.013570585985366181 1 1 1 1 1 1 1 1 1 1 0.014571545048315652 1 1 1 1 1 0.010699555173990145 1 1 1 1 1 1 1 1 1 0.014001051369464303 0.011415987921767838 1 1 1 1 1 1 1 1 1 1 1 1 1 1 1 1 1 1 1 1 1 1 0.0099252734078082144 0.011440941906119256 1 1 1 1 1 1 1 1 1 1 1 1 1 1 1 1 1 1 1 0.010830684625054782 1 1 1 1 1 1 1 0.011644673037100015 1 1 1 1 1 1 1 1 1 0.011133349081100079 1 1 1 0.010447410981030204 1 1 1 1 1 1 1 1 1 0.010813988412045235 1 1 1 1 1 1 1 1 1 1 1 1 1 1 1 1 1 1 1 1 1 1 1 0.010226356569350685 1 1 1 1 1 1 1 1 1 1 1 1 1 0.0099451757241816752 1 1 1 0.0097267261754607568 1 1 1 1 1 1 0.0093690378719778027 1 1 1 1 1 1 1 1 1 1 1 1 1 1 1 1 1 1 1 1 1 1 1 1 1 1 1 1 1 1 1 0.010894976695069341 1 1 0.012127661403363915 1 1 1 1 1 1 0.012644319845448417 1 1 1 1 1 1 1 1 1 1 1 1 1 1 1 1 1 0.01260096888490914 1 1 1 1 1 0.01199343338428634 1 0.01070824568204385 1 1 1 1 1 1 0.012810962498233727 1 1 1 0.012436140484472532 1 1 0.010029746805417029 1 1 1 0.012277302613186275 1 1 1 1 1 1 1 1 1 1 1 1 1 1 0.010126000328955323 1 1 0.011396109236886071 0.010580209570634439 1 0.012449579883162622 1 1 1 1 1 1 1 1 1 1 0.010873993091434735 1 1 1 1 1 1 1 1 1 0.01208323135206011 1 1 1 1 1 1 0.010300001308923381 1 1 1 1 0.011728478253569624 1 0.012902544518203281 1 1 1 1 0.0098230298729637573 1 1 1 1 0.0099905818803419331 1 1 1 1 0.01001569367591207 1 1 1 1 1 0.0094481796884456487 0.013031233271969457 1 1 1 1 1 1 1 1 1 1 1 1 1 1 0.011875501219346276 1 1 1 0.010783145757148841 1 1 1 1 1 1 1 1 1 1 1 0.012976997075735911 0.0099735629863537713 1 1 1 1 1 1 1 1 1 1 1 1 1 1 1 1 1 1 1 1 0.0096592332240658125 1 1 1 1 1 1 0.01093002759276431 1 1 0.0092796160103916624 1 1 1 0.010019724303553463 1 1 1 1 1 1 1 0.011056221109474648 1 0.010724717275331397 1 1 1 1 1 1 1 1 0.010273741308477779 1 1 1 1 1 1 1 1 1 0.010006573053599208 1 1 1 1 1 1 1 1 1 1 1 1 1 1 1 1 1 1 1 1 0.011445149043150738 0.010394210708265024 1 1 1 0.0098901001744806059 1 1 0.011268136283694066 1 1 1 1 1 1 1 0.0099754825421279267 1 1 1 1 1 1 1 1 1 1 1 1 1 1 0.011535059296578398 1 0.011460377860790681 1 1 1 1 1 1 1 1 1 1 1 1 1 1 1 1 1 1 1 1 1 1 0.013190544745185015 1 0.014673988893543618 0.010296990172195816 1 1 1 1 1 1 1 0.010140921205000646 1 1 1 1 1 1 1 0.010466975557175739 1 1 1 1 1 1 1 1 1 1 1 1 1 1 1 1 1 1 1 1 1 1 1 1 1 1 1 0.012315397813134185 1 1 0.011266407692138046 1 1 1 1 0.010003260748397781 1 1 1 1 1 1 1 1 1 0.010001874184997525 1 0.013757961945003524 1 1 1 0.013565605579127735 1 1 1 1 1 1 1 1 1 1 1 1 0.011529237790214295 1 0.01252750247732148 1 1 1 1 1 0.012449804280923314 1 1 1 0.010034207573120506 0.011179649441703601 0.01239783569867009 1 1 1 1 0.011619281432047799 1 1 1 1 1 1 0.012548525975113302 1 1 1 1 1 0.012069692393204184 1 1 0.011077707223342243 0.012085792111863952 0.011580089775506485 1 1 1 1 1 0.010754226986230003 1 1 1 1 1 1 1 1 1 1 1 1 0.014523298674613912 1 1 1 1 1 1 1 1 1 1 1 1 1 1 1 1 1 1 1 1 1 1 1 1 0.010975896282788427 1 0.010067203223739288 0.0097677197291252699 1 1 0.014008042815797489 1 1 1 1 1 1 1 1 1 1 1 0.013691100235947412 1 1 1 1 1 1 1 1 1 1 0.013276312357421395 1 1 1 1 0.010030536693143939 1 1 1 1 1 1 1 1 1 1 1 1 1 1 1 0.010172703922178465 1 1 1 1 1 1 1 1 1 1 1 1 1 1 1 1 0.010000935851953795 0.012004678426845961 1 0.010797201327016078 1 0.0098896840964471915 1 0.01326331331694292 1 0.012366266118960375 1 0.010442059890292094 1 1 1 1 1 1 1 0.010494911494597664 0.010801963653343254 1 1 0.011686633232855698 1 1 1 1 0.014135309403830362 1 1 1 1 0.013834566115112627 1 0.010154559168017434 1 1 1 1 1 1 0.012389216955156671 1 1 1 0.01068010303813979 1 1 1 1 1 0.010456531686437079 1 1 1 1 1 1 1 1 1 1 0.010129819575916356 1 1 1 1 1 1 0.013668424087550415 1 1 0.01163638787936034 1 0.011641213239343168 1 1 0.010239744243727604 1 1 1 0.012776386947106602 0.013952999499225752 1 1 1 1 0.013916520654076715 1 0.0098896815816935865 1 1 1 1 1 1 1 1 1 1 0.013275439052297394 1 1 0.014007686520004892 1 0.013113252379402859 1 1 1 1 1 1 0.013119280110047184 1 1 0.012172464267497386 1 1 1 1 1 1 1 1 0.010028201216992843 0.010052075166808484 1 1 1 1 0.01415789029887236 1 1 0.015191753349655598 1 1 0.013231160872564419 1 1 1 1 0.012396351763498846 1 1 0.010253457532427851 0.013614238178709895 1 0.010758278840788813 0.0097418157221231608 1 0.013078559568981251 1 1 0.014087655396906927 0.012497691530795512 1 0.01101980599815218 1 1 1 0.01344154685484694 1 1 0.01047684650679947 1 1 1 1 1 1 1 1 1 1 1 1 1 1 0.010290610397038288 1 1 1 0.0099812946556888937 1 1 1 1 1 1 1 0.0099769664762241594 1 1 1 1 1 1 0.009995671820535271 1 1 1 1 0.012905355434579239 1 1 0.012685443763241979 1 1 1 1 1 1 1 1 1 1 1 1 1 1 1 1 0.01692259050808189 1 1 0.017541393060135094 1 1 1 0.017026180099306516 1 1 1 1 0.011598582581907008 1 1 1 0.012383215013785318 1 1 1 0.010545750408513573 1 1 1 1 0.010719344242512146 1 1 1 1 1 1 1 1 0.010339943037614738 1 0.010953736999649969 1 1 1 1 1 1 1 1 1 1 1 1 0.011461490141414954 1 1 0.010007321197080041 0.013870247199448882 0.011282171343638934 1 1 1 0.013966568989726268 1 1 1 1 1 1 1 1 1 1 0.014023626947614082 0.011672034550790317 1 1 1 0.014120215488366049 1 1 0.010489031968460003 1 1 1 1 1 1 1 1 1 1 0.010459266515773674 1 1 0.011062479464372443 1 1 1 0.010278953719647901 0.011645719546211793 1 1 1 1 0.012998047722251107 1 0.010244273256745776 1 0.012070534210704496 1 0.015028234103887076 0.010011017160775727 1 1 1 1 1 1 1 0.010084019612328667 1 1 1 0.009975725565185823 0.010213733336136354 1 1 1 1 1 0.0093125897522389998 1 0.0096217547587165372 0.010678881800734397 1 1 1 1 1 1 0.0094659230794780502 1 0.010114265131182449 1 0.010007605311424188 1 1 1 1 0.012972859711707996 1 1 1 0.013418115298166347 1 1 0.010166920427994273 1 1 1 1 0.010555300543566756 1 1 1 1 1 1 1 0.010321479596011702 1 1 1 1 1 1 1 1 1 1 1 1 0.010352519442889238 1 1 1 1 1 1 1 1 1 1 1 1 1 1 0.010279445337145889 1 1 0.010804445923188086 1 1 1 1 0.009684734291628614 1 1 1 1 1 1 1 1 1 0.0090216806530077527 1 0.010096705005952616 1 1 0.01003658546815739 1 0.010314313089986031 1 1 1 1 1 1 1 1 1 1 0.010190579961199995 1 1 1 0.010490973166171914 1 1 0.0095889209601961421 1 1 1 1 1 1 1 1 1 1 1 1 1 1 1 1 1 1 1 1 0.013495257163931258 1 0.010070301812262109 0.010011549195137418 1 1 0.013224352619641888 0.014929910895097123 1 0.013903387278559236 1 1 1 1 0.013068662082234483 1 1 1 0.012381000399999578 0.011503986539952915 1 0.012044204337837925 1 1 1 1 0.012446561977897577 0.012249830657209066 0.014306430227254068 0.011387202113946157 1 1 0.01268725776375253 1 1 1 0.012555378718355955 0.012533375779051394 1 1 0.013385004789366101 0.013203867901451179 1 1 0.0097163489748115766 1 1 0.010284435732549568 1 1 0.013637302000340985 1 1 0.01205302061980912 1 0.012721869649570028 0.010011229504149869 1 1 0.013404330443200141 1 0.011892798398533451 1 0.01022587446520532 0.0104015159434764 1 1 0.011108117040295882 1 1 0.010152967449179073 1 1 0.011661535299808031 0.01177417462466737 1 0.012375489547368678 1 0.012741013686342902 1 0.01239493730983382 1 1 1 1 0.010140219301927655 1 1 0.010033219754058383 1 0.013133257146079071 1 1 1 0.013543324074086618 1 1 1 1 0.01425951821820054 0.0099964486109489353 1 1 1 0.015462190216975607 1 1 1 1 1 1 0.011240821398412544 1 1 1 1 0.012704499183177167 0.016250404407709446 1 1 1 0.010876123976286301 1 1 0.013589007304423284 1 0.016758236996034799 1 1 1 0.013918285441038951 1 1 1 1 1 1 1 1 1 1 1 1 1 1 1 1 1 0.010065025361843392 1 1 1 1 1 1 1 1 1 1 1 1 1 1 1 1 1 1 1 1 1 1 0.0099451084121492672 1 0.010519110163311335 1 1 1 1 1 1 0.0102205731802835 1 1 1 1 1 0.010206328194213094 1 0.0099901971569559926 1 0.010553853311684069 1 1 1 1 1 1 1 0.0099652324224809002 1 0.010034066319255065 1 1 1 1 1 0.010113234392122054 0.010256183810207514 1 1 0.010466090669743182 0.010063959710779325 1 0.0097473233539455868 1 1 1 0.010061363496196848 1 1 1 1 1 1 0.0092039381968413974 1 1 1 1 1 1 1 1 1 1 1 1 0.012018168161178915 1 0.0098995555862162205 1 0.012328673468308494 0.010496130985950038 1 1 1 1 1 0.010780361515334656 0.010611673809774416 1 0.011432054516685795 1 0.012252156807142724 1 1 1 1 1 1 1 1 1 1 1 1 0.01003098813644266 0.010036268750354372 1 1 1 1 0.010015947413451649 1 1 1 1 1 1 1 1 1 1 1 1 1 1 1 1 1 1 1 1 1 1 1 1 1 1 1 1 1 0.010014624278608225 1 1 1 1 1 1 1 1 1 1 1 0.010096710557841039 1 1 1 1 1 1 1 1 1 0.010914033739060965 1 0.010305842363890238 1 0.0098981754097117597 1 1 0.011072413181291565 1 1 1 0.0099979123047136426 1 1 1 1 1 1 1 1 1 1 1 1 1 1 1 1 0.010097611937572382 1 1 0.010002988197074273 1 1 0.012242554601783133 1 0.0097947756257214524 1 1 0.011602692389535076 1 0.010464272533870219 1 1 1 1 0.01589868498722196 0.01379257096241595 1 1 1 1 1 1 1 1 1 1 1 0.011252819859403814 1 0.010203467666416076 1 1 0.0104138892093382 1 1 1 1 1 1 1 0.010195975710492314 0.01005782988467473 0.010256147342443353 1 1 1 0.010432983963365908 1 1 1 1 1 1 1 0.010887007451545945 1 1 1 0.011225954903649027 1 0.010685399074570293 0.010453741947405485 1 1 1 1 1 0.009874189079133934 1 1 1 1 1 1 1 1 1 0.0095892612086742116 1 1 1 1 1 1 1 1 1 1 1 0.010028420872179179 1 1 1 1 1 1 1 1 1 1 1 1 1 0.010013935501286587 1 1 1 0.010335450089920033 1 0.0098980575223661729 1 1 1 1 1 1 1 1 1 1 1 1 1 1 0.010625485774203448 0.010695851497440616 1 1 1 1 1 1 1 1 1 1 1 1 0.0099834833537772987 1 1 1 1 1 0.010029500399952028 1 1 1 1 1 1 0.010107867531205392 1 1 1 1 1 0.0099941158239741403 1 1 1 1 1 1 1 0.010280466538698716 1 0.009893400416797319 1 1 1 1 0.0099148680206450311 1 1 1 1 1 1 0.010101531350040653 0.0099125910210602439 1 1 1 1 1 1 1 1 1 1 0.010140496096417874 0.0097122020765524827 1 1 0.010010490649987745 1 1 1 1 1 1 1 1 0.0099802416509206637 1 0.01038458031001978 1 1 1 1 1 1 1 1 1 1 1 1 0.010033060654302166 1 0.010111097290461984 1 1 1 0.010228634302449319 1 1 1 1 1 1 1 1 1 1 1 1 1 0.010195922054215573 1 1 1 1 1 1 1 1 1 1 1 1 1 1 1 1 1 0.010028439855320852 1 1 0.0099870958311782214 0.010602830060598993 1 1 0.010060617920534755 1 1 1 1 1 1 1 1 1 0.010492503198563825 0.010057105735864581 1 1 1 1 1 1 1 1 1 1 0.010029736019781276 1 1 1 1 1 1 1 0.01007598371469995 1 1 1 1 1 1 1 1 1 1 1 1 1 1 1 1 0.0099151292060746972 0.010680728589277176 1 1 1 1 1 1 1 1 1 1 1 1 1 1 0.010257201651044278 1 1 1 1 1 1 1 1 1 1 1 0.011107102606236353 1 1 1 0.011761061050127759 1 1 1 1 1 1 1 1 1 0.011035114878597492 1 1 1 0.012172991080613059 1 1 1 1 1 1 1 1 1 1 1 1 1 1 1 1 1 1 1 1 1 1 1 0.010387795302675203 1 1 1 1 0.010627657819471399 1 1 1 1 1 1 1 0.01029222755119142 1 1 1 1 1 1 1 1 1 1 1 1 0.010663039244001733 1 1 1 1 1 1 1 1 1 1 1 1 1 0.012026313830716201 1 1 1 0.012276667911399416 1 1 0.011354156989434018 0.011958252833015404 1 1 1 1 1 1 1 1 0.010429890557177572 1 0.014197870006325764 1 0.0085078347495248959 1 0.0099949610523210192 1 1 1 1 1 1 1 1 1 1 1 1 0.010183639206779414 1 1 1 0.01461115996207661 1 1 1 0.0099985057859987223 0.010322872327516504 0.014775712272435897 1 1 1 1 0.01014055490344027 1 1 1 1 1 1 1 1 1 1 0.011681343486159259 1 1 1 1 1 0.013943500528198292 1 1 0.010537519651791422 1 1 0.010095746414218083 1 1 1 1 1 1 1 1 1 0.014709463457234917 1 1 1 1 1 1 1 0.010816278259058948 1 1 0.0091580340818099657 1 0.0085469984657626178 1 0.012012457978669658 1 1 0.022800924055614413 1 1 1 1 1 1 1 0.015026306163260854 1 1 0.0097809709011418104 1 1 1 0.015140085710955049 1 1 1 0.015162447552099129 0.01006167677084124 1 1 1 1 1 1 1 1 1 1 1 1 0.010002049776195905 1 1 0.022650936316418107 1 1 1 1 1 1 1 1 1 0.021678396920338232 1 1 1 1 1 1 1 1 1 1 0.010493177081702824 1 1 1 1 1 1 0.011354736699660445 1 1 1 0.019754330441505846 1 1 1 1 1 1 1 1 0.010173273655497191 1 1 1 1 0.016955023080346233 1 1 1 0.010159415024944191 1 1 1 1 1 1 1 1 1 1 0.01263951155691684 1 1 1 1 1 1 1 1 0.0080426035863066687 1 1 1 1 1 1 1 0.0098834398545418027 1 1 0.0096255514328985915 1 0.0038354215186668719 1 1 1 1 0.0094088226952464115 0.0092030917736827984 1 1 0.012919728732923854 1 1 1 0.013672330655697109 1 1 1 1 0.017337179401203971 1 1 1 1 1 1 1 1 1 1 1 1 1 1 1 1 1 0.0093431939217412489 1 1 1 0.0094588657787580029 1 1 1 1 0.0099675273075898168 1 1 0.0088212826883355827 0.010721623241720176 1 0.01119392575627718 0.0082067834132166905 1 0.010179789412540583 1 1 1 1 0.011752008145966664 1 1 1 1 0.0098008161859807104 1 1 1 1 0.010401554773348342 0.011000457729839425 0.011593636261402876 1 1 0.0099095940872846889 1 0.012025212485223057 1 1 0.0099945763711128469 1 1 1 0.010434392643267246 1 1 1 1 1 0.010335430268279967 1 1 1 1 1 1 1 0.01043152514319559 1 0.011053178657151684 1 1 1 1 1 1 1 1 1 1 1 1 1 1 1 1 1 1 1 1 1 1 1 1 1 1 1 1 1 1 1 1 1 1 0.010660999536464055 1 1 0.011270606844569419 1 1 1 1 1 1 1 1 1 1 1 0.010610826300918794 1 1 1 1 1 1 1 1 1 1 1 1 1 0.013190754847646622 1 1 1 0.011319209794645187 1 1 1 1 1 0.013797650105871601 1 1 1 1 1 1 1 1 1 1 1 1 1 1 1 1 1 1 1 1 1 1 1 1 1 1 1 1 1 1 1 1 1 1 1 1 1 1 1 1 1 1 1 1 1 0.011001066148651539 1 1 1 0.011419077822757358 1 1 0.011482632303698972 1 1 1 1 1 1 1 1 1 0.012072023432193674 1 1 0.012450828643139882 1 1 1 1 1 1 1 1 1 1 1 1 0.01033804208277137 1 1 1 1 1 0.013108249297879584 1 1 1 0.010492713519528419 1 1 0.01480315189441422 1 1 0.014340293486573889 1 1 1 1 1 1 0.010112659143596447 1 0.010692355101643609 1 0.013412449666554369 1 1 0.013448573723510914 1 1 0.010300130247878283 1 0.010017689385891409 1 1 0.013126787014036464 1 1 1 1 1 1 1 0.013623035467467032 1 1 1 1 1 1 1 1 1 1 1 1 1 1 1 1 0.010113313310666739 1 1 1 1 1 1 1 1 0.010050219666196313 1 1 1 1 1 0.01005013887912324 1 1 1 1 1 1 1 1 1 1 1 1 1 1 0.010644246817424374 1 1 1 1 1 1 0.0099885257425871409 1 1 0.0099867615826159835 1 1 1 1 1 1 1 1 1 1 0.010943728780728464 1 1 1 0.010019714622540577 0.012221432529840634 1 1 0.012765306310190514 1 1 0.013650130082124498 1 1 1 1 1 1 0.01049077379154814 1 0.01002218867929398 1 1 1 0.013567269714928019 1 1 1 1 1 1 1 1 1 0.010004981475893383 1 0.010004483949572464 1 0.013107883712126962 1 0.012171492623752556 1 1 0.01223727135075689 1 1 1 1 1 1 1 1 0.010629200876285043 0.01253252180709219 1 1 1 1 1 1 1 1 1 1 1 1 1 1 1 1 1 1 1 1 1 1 1 0.012080029835385687 1 1 1 1 1 1 1 1 0.0094293171116203531 1 1 1 1 1 1 1 1 1 1 1 1 1 1 1 1 1 1 1 1 0.014109185538870569 1 1 1 1 1 1 1 1 1 1 1 1 1 1 1 1 1 1 1 1 1 1 1 0.010986881110517148 1 1 1 1 0.012560362019096008 1 0.012018350283498944 0.0092392042077353072 1 1 1 1 1 0.014428901182942381 0.011525102921651901 1 1 1 1 1 1 1 1 1 1 0.010315211881510227 1 1 1 0.010682656463441104 1 1 1 1 1 1 1 1 0.010569683843784242 1 1 1 1 1 1 1 1 1 1 1 1 1 0.0110446939526822 1 1 1 1 1 0.011245509211106208 1 1 1 1 1 0.010433941008700119 1 1 1 1 1 1 1 1 1 0.010254471962274017 0.0099619012347978361 1 1 1 1 1 1 1 1 1 1 1 1 1 0.012706209199557226 1 1 1 1 1 1 1 0.010919570069676992 1 1 1 0.012881618685164726 1 1 1 1 1 1 1 1 1 0.0098008417725887146 1 1 1 0.0099778030785294056 1 0.0123381053469581 1 1 1 1 1 0.009912540268941358 1 1 1 1 1 1 1 1 1 1 1 1 1 1 1 1 1 1 1 1 1 1 1 1 1 1 1 1 1 1 1 1 1 1 1 1 1 1 1 1 1 1 1 1 0.011068140003967507 1 1 0.011766408538930361 1 1 0.010698268534962856 1 1 1 1 0.012390738928804225 0.010930038940353213 1 1 1 1 1 1 0.010066445522727171 1 1 1 1 1 1 1 1 1 1 1 0.011175563738266192 1 1 1 1 1 1 1 1 1 1 1 1 1 1 1 1 1 1 0.01078536907464501 1 0.012879545564328068 1 1 0.011396239026396016 1 1 1 1 1 1 1 1 0.010850045579891006 1 1 1 1 1 1 1 1 1 1 1 1 1 1 1 1 1 1 1 1 1 1 1 1 1 1 1 1 1 1 1 1 1 1 1 0.0099857058727695208 1 1 0.0099996223666799951 1 1 1 0.010054328485015255 1 1 1 1 1 1 0.010003398115470673 1 1 1 0.011485331408988402 1 1 1 1 1 1 1 1 1 1 1 0.009958905111734407 1 0.015462374111925904 1 1 1 1 0.01397065985053257 1 1 1 1 1 1 1 0.0099468277851643017 1 1 1 0.011591211277883347 1 1 1 1 1 1 1 1 1 1 1 1 0.010237949800155716 0.010366725017121433 0.0087767220454231572 1 1 0.012274194023216136 1 1 1 1 1 0.010026004251155624 1 1 1 0.011440936733500728 1 1 0.013347133659574571 1 1 1 0.012041152707712272 1 0.012236824539435438 1 1 1 1 1 1 1 1 0.010663673587232362 1 1 0.011950682620993948 1 1 1 1 1 1 1 1 1 1 1 1 1 0.01095927548614594 1 1 1 1 1 1 1 0.012114921179838894 1 1 1 0.010825122683007064 1 1 1 1 1 1 1 1 1 1 1 1 1 1 1 0.011675495153266959 1 1 1 1 1 1 1 1 1 1 0.0097120843534494791 0.011358652611740272 1 1 1 1 1 1 1 1 1 1 1 1 1 1 1 1 1 1 0.0096175135219638205 1 1 0.015711656890990171 1 0.010007511986932708 1 1 1 1 1 1 1 1 0.014877802347775701 1 1 1 1 0.0074980137850293501 1 1 0.0084495013670899989 1 1 1 0.010332216270946914 1 1 1 0.011747574008422933 1 1 1 1 0.0083781323856441017 0.010001992591696337 1 1 1 1 1 1 0.0076358200833028279 1 1 1 1 1 1 1 1 1 1 1 1 1 1 1 1 1 1 1 1 1 1 1 1 1 1 1 1 1 1 1 1 1 1 1 1 1 1 1 1 1 1 1 1 1 1 1 1 0.009927330503370968 1 1 1 1 1 1 1 1 1 1 1 1 1 1 1 1 1 1 1 1 1 1 1 1 1 1 1 1 0.021959355179491737 1 1 1 1 1 0.010186577684728151 1 1 1 1 1 1 1 1 1 1 1 1 1 0.010775917243328787 1 1 1 1 1 0.022542427367261451 1 1 0.022547793049615007 1 1 1 1 1 0.011461530929380678 1 1 1 1 1 1 1 1 1 1 1 1 1 1 1 1 1 1 0.0098954557120706568 1 1 1 0.01004158912809088 1 1 1 1 1 1 1 0.010288367582324494 1 1 1 1 1 1 1 1 1 1 1 1 0.010728418703403714 1 1 1 0.0099645975899679898 1 1 1 1 1 1 1 1 1 1 1 0.010074860570668495 1 1 0.0097085337767774098 0.010225577133728795 0.016040980636550843 1 1 1 1 1 1 1 1 1 1 0.0099022539430700419 1 1 0.0091149182796770364 0.013357923483569204 1 1 1 1 1 1 1 1 1 1 1 1 0.0096675012430271611 1 1 1 1 1 1 1 1 1 1 1 1 1 1 1 1 1 1 1 1 1 1 1 1 1 1 1 1 0.016131039763459608 1 1 1 1 1 1 1 1 1 1 1 0.0099968885555002194 1 0.02088864544375009 1 1 1 1 0.01084374090126787 1 1 0.0085444779537890408 1 1 1 1 1 0.0085824258637325901 1 1 0.014224199266243543 0.014029305906428001 1 1 1 1 1 1 0.013557221776456747 1 1 1 0.0099026530772548336 1 0.0059130982362001431 1 1 0.011240070153373017 1 1 1 0.011208144904213894 1 1 1 1 1 1 1 1 0.010403375259989656 1 1 1 1 1 1 1 0.0078858233746424561 1 1 1 1 0.010251614923800841 1 1 1 1 1 1 1 1 1 1 1 1 1 1 1 1 1 1 1 1 0.010748633702483464 1 1 1 1 1 1 1 1 1 1 1 1 0.010515004936401104 0.010766619860201946 1 1 1 1 1 1 0.010763589213828159 1 1 1 1 1 1 1 1 1 1 1 1 1 1 1 1 0.010052555838443888 1 1 0.0098306656192014702 1 1 1 1 1 1 0.0098913502897088196 0.012221635004368209 1 1 1 0.010048963857333781 1 1 1 1 0.012223282796144591 1 0.012272899882843569 1 1 1 1 1 1 1 0.010417345456632972 1 1 1 1 0.011121979320055866 1 1 0.010247556435261929 1 1 1 1 1 1 1 1 1 1 1 0.010259754769917476 1 1 1 0.0093958112202756662 1 1 1 1 0.0099148514119103831 1 1 1 1 1 1 1 1 1 1 1 1 1 1 1 1 1 1 1 1 1 1 1 1 1 1 0.0098532739141011499 1 0.0095570803954966969 1 1 1 1 0.017468151046630062 1 1 1 0.010325625056298967 1 0.014132039840658851 1 1 1 0.011321064190187226 1 1 1 1 1 1 0.01067324614451913 1 1 1 1 1 1 1 1 1 0.01014449457584515 1 1 1 1 1 0.010443801180083869 1 1 0.011506183156491826 1 0.010272688903173677 1 0.008878534856752671 1 0.010018029363142481 1 1 1 1 1 1 1 1 0.012559034059106678 0.013127871628353736 1 1 1 0.0088042818934229265 1 0.0093855540246245862 1 1 1 1 0.0098285330385316991 1 1 1 1 1 1 1 1 1 0.014316762282427604 1 1 1 1 1 1 0.014842733494608741 0.014128465163881717 1 1 1 1 1 1 1 1 1 1 1 1 1 0.011687694373989151 1 1 0.0099281579225106754 0.010690537379397309 1 1 1 0.010238645820884348 0.011736218528028513 1 1 1 1 1 1 1 1 1 1 1 0.010007088871310072 1 1 1 0.010007103455041154 1 1 1 0.010007976217509634 1 0.011771363044498818 1 1 1 0.011823962144455755 1 1 1 1 0.0099991350118232986 1 1 1 1 0.011704585738286408 1 0.0095024365301455832 0.012019352388656101 1 0.0098943564266042259 0.011981056634090614 1 1 0.013391714041916792 0.012265388980228425 0.0074020554777601399 1 0.013476589094816258 1 1 0.00976920088537684 1 1 0.011393466314529806 0.011751654654274959 1 1 1 0.013217041373897544 1 1 1 1 1 0.010285999036986501 1 0.010227737994283953 1 0.010147683870240622 1 0.0098971429769749101 1 1 0.011428501179102768 1 1 1 1 0.012119710093091554 1 1 0.0099596214674139184 1 1 1 1 1 1 1 1 1 1 1 1 1 1 0.0092756170996127832 1 1 1 0.011203790006053477 1 1 0.020266702000244347 0.010415379394635717 1 1 1 1 1 1 1 1 1 0.021233978585411612 1 1 1 1 1 1 0.016276701363226911 1 1 1 0.012362789162538501 0.011875219429679675 0.017747544727755932 1 1 1 0.014002279785342756 1 1 0.015856751212231325 1 1 1 1 1 1 1 1 0.011760353457369152 1 0.01461707497961922 1 1 1 1 0.010100978893454217 1 1 1 1 1 1 1 1 1 1 1 1 1 1 1 1 1 1 1 1 0.012133553201163539 1 0.012681290027272888 1 1 1 1 1 1 1 1 1 1 1 1 1 1 1 1 1 1 1 1 1 1 1 1 1 1 1 1 1 1 1 1 1 1 1 1 1 0.01175920645399341 1 1 1 1 1 1 1 1 1 1 1 1 1 1 1 1 1 1 1 1 1 1 1 1 1 1 1 1 1 1 1 1 1 1 1 1 1 1 1 1 1 1 1 1 1 1 1 1 1 1 1 1 1 1 1 1 1 1 1 1 1 1 1 1 1 0.010330577480562757 1 0.011150140937399387 1 1 1 1 1 0.009629697825934978 1 1 1 1 1 1 1 1 1 1 1 1 1 1 1 1 1 1 0.010545687751270016 1 1 1 1 0.010250914552885279 0.01857395055305118 1 1 0.011316792471709407 1 1 1 0.01742111345863441 1 1 1 1 1 0.01460686755906445 1 1 1 1 1 1 1 0.012906657662698563 1 1 1 1 1 1 1 1 1 1 1 0.012244080058588024 1 1 1 0.011599218486805618 1 1 1 1 1 1 1 1 0.013334704699242838 1 1 1 0.011189721246078296 0.010272254236547033 1 1 1 1 1 1 1 1 1 1 1 1 1 1 1 1 1 1 1 1 1 1 1 0.0096791378736339646 1 1 1 1 1 1 0.010074062749428479 1 1 1 1 1 1 1 1 1 1 1 1 1 1 1 1 1 1 1 1 1 1 1 1 1 1 1 1 1 1 1 1 1 0.01550401992847579 1 1 1 1 1 1 1 1 1 1 0.013436095841836911 1 1 1 1 1 1 0.013002215763873861 1 1 1 1 1 1 1 0.011063370146160174 1 1 1 1 1 1 1 1 1 1 1 1 1 1 0.014568061212042748 1 1 1 1 1 0.012964704702022059 1 1 1 1 1 1 1 1 1 1 1 1 1 1 1 1 1 1 0.010627684461075308 1 1 1 1 1 0.011997397698658208 1 1 0.015131494911062264 1 1 1 0.011264632680521615 1 1 1 1 0.014408383983223666 1 0.0097313588264858024 1 1 1 1 0.012109038641734623 1 1 0.010768012796482268 1 1 1 0.0085295236284020533 1 1 1 1 1 1 1 1 1 1 1 1 1 1 0.011702941276041186 0.0097028785033832238 1 1 0.010919168592764386 1 1 1 1 1 1 1 1 1 1 0.010292987995537696 1 1 1 1 1 1 1 1 1 1 1 1 1 1 0.013406646953413037 1 1 1 0.015722637413377712 1 1 0.014635191128855442 1 1 1 1 1 1 1 0.012709630853797265 1 1 0.010130546564223113 1 1 1 1 1 1 1 1 1 1 1 1 1 1 1 1 1 1 1 0.010012213400170287 1 0.018575513931485287 1 0.010366620895168165 1 1 1 1 1 1 1 1 0.013376581201064922 0.011921180270152851 1 1 0.0098055540872579623 1 1 1 1 1 1 1 1 1 1 1 1 1 1 0.01094492837624452 1 0.012209611865046398 1 1 1 1 0.010919105818449499 1 1 1 1 1 1 1 1 1 1 1 1 1 1 1 1 1 1 1 1 1 0.01232009559275043 1 1 1 0.0096949823470886473 1 1 1 1 1 1 1 1 1 1 1 1 1 1 1 1 1 1 1 1 1 1 1 1 1 1 1 1 1 1 1 1 1 1 1 1 1 1 1 1 0.010513144056267628 1 1 1 1 1 1 1 0.01128262824868603 1 1 1 0.011399608316999809 1 1 1 1 1 1 1 1 1 1 1 1 1 1 1 0.010974721221958809 1 1 1 1 1 1 1 1 0.010900323851106522 1 1 1 1 1 1 1 1 1 1 1 1 1 1 0.011579451047141233 1 1 1 1 1 1 1 1 1 1 1 1 1 1 1 0.0094103175366082297 0.011313211581484533 1 0.0094112221915297594 1 1 1 1 0.0079467323642353656 1 0.015278697916286117 1 1 1 1 1 0.010603992389539324 1 0.014013070404590022 1 0.011873515530149453 1 1 1 1 1 1 1 1 1 0.0099950117844953643 1 0.009952642908694324 1 1 1 1 1 1 1 1 1 1 1 1 1 0.0099802567367943979 1 1 1 1 1 1 1 1 0.010499284465893285 1 0.011351875781015475 1 1 1 1 1 0.010582391588597074 1 1 1 1 1 1 1 1 1 0.010036556423993089 1 0.010051576055101701 1 1 1 0.011732927261276577 1 1 1 1 0.010129795506953631 1 0.0098761214925412073 1 1 1 1 1 1 1 1 1 0.0078007446133145329 1 1 1 1 1 1 1 0.014003329567166174 0.0099492636359058435 1 0.011766522710109808 1 1 1 1 1 1 1 1 1 1 1 1 1 0.0071031942238880003 1 1 0.010012377711488649 1 1 1 0.0071030238990158158 1 1 1 1 1 1 1 1 1 1 1 1 1 1 1 1 1 1 1 1 1 1 1 1 1 1 0.010656551842311389 1 0.011288854152348015 1 1 1 1 1 1 1 1 1 1 1 1 1 1 1 1 1 0.011681162600920069 1 0.010540220449864555 1 0.012102689439380173 1 1 1 1 0.0099991985007902105 1 0.010162730671133862 1 1 1 1 1 1 1 1 1 1 1 1 0.010596889078653542 1 1 1 1 1 1 1 1 1 1 1 0.011269764914986807 1 1 1 1 1 1 1 1 1 0.010470256165628536 1 1 1 1 1 0.010100761868778649 1 1 1 1 1 1 0.0099563217722871619 1 1 1 0.015687816900166133 0.0094064395638227879 1 1 1 1 1 1 0.014785390586951823 1 1 0.010008706362150097 1 1 0.010442620642158472 1 0.009495592931542559 0.0090165663784658318 1 1 0.010782622927563962 1 1 1 1 0.0071519544655023956 0.01003250138858303 1 1 1 1 1 1 1 1 1 1 0.010155284464286119 1 1 1 1 1 1 1 1 1 1 1 1 1 1 1 0.016251395511275735 1 1 1 1 1 1 1 1 1 1 1 1 1 0.010012104526053573 1 1 1 1 0.015856593412346617 1 1 1 1 1 0.0095223902159560815 1 1 1 1 1 1 1 1 0.0099927352981999638 1 1 1 1 0.015889232405948785 1 1 1 1 1 1 1 1 1 1 1 1 1 1 1 1 1 1 1 1 1 1 1 1 1 1 1 1 1 1 0.011052775237645798 1 1 1 1 1 1 1 1 1 1 1 0.010041013909303858 0.009891868523049718 1 1 1 1 1 1 1 1 1 1 1 1 1 1 1 1 1 1 1 1 1 1 1 1 1 1 1 0.011558809589921453 1 1 1 1 1 1 1 1 1 1 0.015619298582336166 1 1 1 1 1 1 1 1 1 1 1 1 1 1 1 1 1 1 1 1 0.011972647323246906 1 1 1 1 1 1 1 0.010652575814528113 0.01125382581881474 1 1 1 1 0.010556138133518234 1 1 0.010856241393551808 1 1 1 1 1 1 1 1 1 1 1 1 1 1 1 1 1 0.013030403637321167 1 1 1 1 1 1 1 1 0.013793311181888252 1 1 1 1 1 0.015639111198950187 1 1 1 0.01000121321232509 0.011049563395684208 1 1 0.0077412812005185506 0.011337591291714515 1 1 1 0.013303558888901723 0.011438939164921638 1 0.013776638487617097 1 1 0.0094754706336458334 1 0.010014887021057923 1 1 1 1 0.01252548204052354 1 1 1 1 1 1 1 1 1 1 1 1 1 1 0.011842240516691926 1 1 0.011003768772487758 0.012410173288935209 1 1 1 1 1 1 0.013257077934767568 1 1 1 1 1 1 0.020639961956935404 1 1 0.014309139199844157 1 1 0.013607810162741305 1 0.0099863054370630221 1 1 1 0.015854759125359746 1 1 1 1 1 1 1 1 1 1 1 1 1 1 1 0.01123023097791043 1 1 1 1 1 1 1 1 1 1 1 1 1 1 1 1 1 1 1 1 0.0085085672406929394 1 1 1 1 1 1 1 1 1 1 1 0.020448989095861979 0.015313597272286976 1 0.01679199354570296 1 1 0.010025574115786164 0.010796600896727661 1 1 1 0.010077424098466924 0.010728778760485854 1 0.013058262651754851 0.0182854696898457 1 1 1 1 1 0.016518442806631665 0.013865521533646277 1 0.014206179460832939 1 0.014901304120651545 1 1 1 1 1 1 1 0.014749539504954928 1 1 1 0.018988229285345777 1 0.010838733211620552 0.013525017727615638 0.014440419146508262 1 1 0.010671817278899251 1 1 0.011458081465793196 1 1 0.010569270230178462 1 1 1 0.010953588447860482 0.010871927375891734 1 1 1 1 1 1 1 1 0.01124831474573126 0.0093003294164280895 1 1 1 1 0.011518770327588673 1 1 1 1 0.014107873193090233 1 0.0096198075407720723 1 0.01364871521972039 1 1 0.0099886547601323074 1 1 1 1 1 0.01261005464926388 0.011116502846837718 1 1 1 1 1 1 1 0.01583051083445939 0.013133006009198419 0.01052814119924643 1 0.013762250803535268 0.01191495650807675 0.010005554893116983 1 0.014756550033732191 1 1 1 0.01536456258438653 1 1 1 1 1 0.008952451071574323 1 0.011394824422512967 1 0.0095547094245525994 1 1 1 0.0098959503083050106 1 1 1 1 1 1 1 1 0.010644261641786787 1 1 1 1 1 1 1 1 1 0.0078773206352753516 1 1 1 1 1 1 1 1 1 1 1 1 1 1 1 1 1 1 1 1 1 0.010048819690171112 1 1 1 1 1 1 1 1 1 0.0068739119207329169 1 1 1 1 1 0.00906311986801441 1 1 1 1 1 1 1 1 1 1 1 1 1 1 1 1 1 1 1 1 1 1 1 1 1 1 0.015364071546915126 0.011960927330568924 1 1 1 1 1 1 1 1 1 1 1 1 1 1 0.018067396928190323 1 1 1 1 1 1 1 1 1 1 1 1 1 1 1 1 1 1 1 0.0091602421678838794 0.0098638452313431213 1 1 1 1 0.022650906560281764 1 1 1 1 1 1 0.010862570614793883 1 1 1 1 1 1 1 1 0.0089962019592967797 0.023403566415863275 1 0.0097024999648406118 1 1 1 1 1 1 1 1 1 1 1 1 1 0.020534582566900696 1 1 1 1 1 1 1 1 1 1 1 1 1 1 0.01005802014268517 1 1 1 1 1 1 1 1 1 1 1 1 1 1 1 1 1 1 1 1 1 1 1 1 1 1 1 0.010580635477637195 1 1 1 1 1 1 1 1 1 1 1 1 0.011092780565350683 1 1 1 1 1 1 1 1 1 1 1 1 1 1 1 1 1 1 1 1 1 1 0.01074291295494095 1 1 1 1 1 1 1 1 0.0099807150453797913 0.0092999019733939273 1 0.0098850814170959433 1 1 1 1 0.0083541706827010963 1 0.0079719405114002766 1 1 0.012916207024664709 1 1 1 1 1 1 1 1 1 1 0.011066110470650481 1 1 1 1 1 1 1 1 1 1 1 1 1 1 1 0.0087031951439604655 1 1 1 1 0.010061632480330878 1 1 1 1 1 1 1 1 1 1 1 1 1 1 1 1 1 1 1 1 1 1 1 1 0.016047670511311972 1 0.016034062522429844 1 1 0.015877534714744731 1 1 1 1 0.0098280396372067199 1 1 0.010032913467160315 1 1 1 1 1 1 1 1 0.016916238932714173 1 1 0.014580993816681213 0.0163312352111326 1 1 1 1 0.013300356937636908 1 1 1 0.0099641642864072462 0.01027159924616141 1 0.011542304948329443 1 1 0.012601527011048764 1 0.013703575675345038 1 1 1 1 0.014381468786858247 1 1 1 1 1 1 1 0.010268284226786288 1 1 1 0.012964936281229038 1 1 0.013091020181745648 1 1 1 1 1 1 1 1 1 1 1 0.01005030921900817 1 1 1 0.010014687377334767 1 1 1 1 1 1 1 1 1 1 1 1 1 1 0.013533285153942995 1 1 1 0.010025057739141858 1 1 1 1 1 0.026820862843979304 1 1 1 1 1 1 1 1 1 1 1 1 1 0.011920508421483801 1 1 1 1 0.010424593127151674 1 1 1 1 1 1 1 1 1 1 1 1 1 1 1 1 1 0.010045642881601431 1 0.013722956009100975 1 1 1 1 1 1 1 1 0.012437898603622873 0.0090810016294577828 1 1 1 1 1 0.029541865890462059 1 1 0.012320172112873845 1 1 1 1 1 1 1 1 1 1 0.027986126152775462 1 1 1 1 1 1 1 1 1 1 1 0.022719315361485432 1 1 1 0.025437162314526952 1 1 1 1 1 1 1 0.020082420931181087 1 1 1 1 1 1 1 1 1 1 1 1 1 1 1 1 1 1 1 0.015568075793902953 0.01643554128951627 1 1 1 0.010566970152383143 1 0.010588564766638872 1 1 1 1 1 1 1 1 1 1 1 1 1 1 1 1 1 1 1 1 1 1 1 1 1 1 0.012714564112490688 1 1 0.017073515295683982 1 1 1 1 1 1 1 1 0.010088525010080734 1 0.009814341445687642 1 1 1 1 1 1 1 1 1 1 1 1 1 1 1 1 1 0.012960215831652957 1 1 1 0.0098730966988605437 1 1 1 1 0.010479475878158345 0.013343800280679705 0.0089838023689418171 1 1 1 1 1 1 1 0.012765467192468119 1 1 0.011201511683145959 1 1 1 1 1 1 1 1 1 1 0.010270843277113556 1 1 1 1 1 1 1 1 1 1 1 1 1 1 1 1 1 1 1 1 1 1 1 1 1 1 0.0099690845102297487 1 1 1 1 1 1 1 1 1 1 0.010208632601044789 1 1 1 1 0.012519127052039966 1 1 1 1 1 0.0099422563561116367 1 1 1 1 1 0.011148658060310398 1 1 0.010457766993132955 1 1 1 1 1 1 1 1 1 1 1 1 1 1 1 1 1 1 1 1 1 1 1 1 1 1 1 1 1 1 1 1 1 1 1 1 1 0.010644592118408985 1 1 1 1 1 1 1 1 1 1 0.0099609283743270476 1 1 1 1 1 1 1 1 1 1 1 1 1 1 1 1 1 1 1 0.0098873488461791222 1 1 0.013948405013584009 1 1 1 1 1 0.0094148322880876247 0.011935827192984649 1 1 1 1 1 0.0099971814361443905 0.014797437043180737 1 1 1 1 1 0.015544918084245723 1 1 1 0.027477526204405675 1 0.0072227243594453865 1 1 0.012468044447733475 1 1 1 0.014668773580429166 1 0.015038380337244943 1 1 0.016865293960433837 1 1 1 1 0.012360484225130976 1 0.012636049612532542 1 0.0087354144649715512 0.017973996678392515 1 1 1 0.011209389241629539 1 1 1 1 0.01008864821273716 1 1 1 0.010042362220198858 1 1 1 1 1 1 1 1 1 1 1 1 1 1 1 1 1 1 1 1 1 1 1 1 1 1 1 1 1 1 1 1 1 1 1 1 1 1 1 1 1 1 1 1 1 1 1 1 1 1 0.010157425526138507 1 1 1 1 1 1 1 1 1 1 1 1 1 1 1 1 1 1 1 1 1 1 1 1 1 0.011163409831837549 1 1 1 1 1 1 1 1 1 1 1 1 1 1 1 1 1 0.010773053543167446 1 1 1 1 0.011671172759685124 1 1 1 1 1 1 1 1 1 1 0.010898119216517666 1 1 1 1 1 1 1 1 1 1 1 1 1 1 1 1 1 0.013073409430613546 0.014537412558050113 1 1 1 1 1 1 1 1 1 1 1 0.0098163716433638873 1 1 1 1 0.0093213439771365619 1 1 1 1 0.0091363876646358613 0.014830993218135174 1 1 1 1 1 0.01200083315375973 1 1 0.013809678458385684 1 1 1 1 1 1 1 1 0.011892174719090379 1 1 1 1 1 1 1 1 1 1 1 1 1 1 1 0.011920511448547071 1 1 1 1 1 1 1 1 1 1 1 1 1 1 1 1 1 1 1 1 1 1 1 1 1 1 1 1 1 1 1 1 1 1 1 1 1 1 1 1 1 1 1 1 1 1 1 1 1 1 1 1 1 1 1 1 1 1 1 1 1 1 1 1 1 1 0.010119953204143068 1 1 1 1 1 1 1 1 1 1 1 0.010462541813326776 1 1 1 1 1 1 1 1 1 1 1 1 0.015385011094523716 1 1 1 0.012854429856726347 1 1 0.010416648743441319 0.0099997598549500522 0.012939566251502083 1 0.010012004159885565 1 0.014774809566168423 1 1 1 0.010656288946201275 0.012982446398222953 1 1 1 1 0.010852485384891931 1 1 1 0.015972584468395438 1 1 1 1 1 1 1 1 1 0.011083622652889299 1 1 0.010023201740272594 1 1 0.011277485629499682 1 1 0.014941489267665139 1 1 0.011048493279724188 1 0.014842617174830047 0.011413535719782458 1 1 1 1 1 0.013163214940471403 0.013391572866144928 1 1 1 1 1 1 1 0.01025519911418727 1 1 1 0.00955954619817319 1 0.010021306918494399 1 0.011130459154884398 0.0089427180777693713 0.011956933182037797 1 1 1 1 1 0.012101201022170827 1 1 1 0.012583950156868622 1 1 1 1 1 1 0.010817294059795236 1 1 0.01027367756989065 1 1 1 1 1 1 0.010107309850858712 1 1 0.018500255698202274 1 1 1 1 1 0.011379133890115307 0.02255206596505889 1 1 1 0.020696564039162632 1 1 1 1 1 0.010532627314051451 1 1 0.023545923265570083 0.020543266332940971 1 1 1 0.0085516059994288057 1 1 0.016113379460680376 0.019848597885888258 1 1 0.015877765966902005 0.0099792972231517764 0.011938551917152025 1 1 1 1 1 1 1 1 1 1 1 0.010433454525441813 1 1 1 1 1 0.011778616862819561 1 1 1 1 1 1 1 1 1 1 1 1 1 0.015359724659738557 1 1 1 0.017044015468680444 1 1 1 1 1 1 0.010664804141572748 1 1 0.010401701305828192 1 1 1 1 0.017583792630575492 0.0099993295143293737 1 1 0.015544185280755903 0.012918941644728349 0.011599857527319433 0.018100442356042301 1 1 1 0.014585493590180939 0.010985948021931431 1 1 1 1 1 1 1 1 1 0.014507330147975369 0.0094587888558013769 1 1 1 0.016544549858433635 0.0098134382546323853 1 1 1 0.01685721763633917 1 1 1 1 1 1 1 1 1 1 1 1 1 1 1 1 0.010011771560505237 1 1 1 1 0.0097678983034360321 0.0098601589414824675 0.0099923937172795348 1 0.0088247992731641176 1 1 1 1 1 1 1 1 0.009971862841825772 0.0094731547666450349 1 0.010016990589340793 1 1 1 1 1 1 1 1 1 1 1 1 1 1 1 1 1 1 1 0.010368698407740958 1 1 1 0.01096565987131427 1 1 0.010168629880275195 1 1 1 1 1 1 1 1 1 1 1 0.010361781369514756 1 1 1 1 1 1 1 1 1 1 0.010870482252735601 1 1 1 1 1 1 1 1 1 1 1 1 1 0.0101861736905587 1 1 1 1 1 1 1 1 1 1 1 1 1 1 1 0.012064074998750104 1 1 1 1 1 1 1 1 1 1 1 1 1 1 1 0.0098159046938047813 1 1 1 1 1 0.010055371348509805 1 1 1 1 1 1 1 1 1 0.0097655349484751588 1 0.010048715773245939 1 0.0099475030306238228 1 1 0.010515425030604174 0.010420364560060069 1 0.0098397048186450592 1 1 1 1 1 1 1 1 1 1 1 1 1 1 1 1 1 1 1 1 1 1 1 1 0.010230796721594203 1 1 1 1 1 0.010387330286160255 1 1 1 1 0.010421866692153062 1 1 1 0.0099749298656953058 0.0098863717339380021 1 1 1 1 0.009925383873272851 0.0098725932760060017 1 0.010049034207353189 1 0.010431773473800258 0.0099895962820806816 1 1 1 0.010309406784220584 1 1 1 1 0.0099926405773464386 1 1 1 0.0099643176965250845 1 1 1 1 1 1 0.0099495110915241401 0.011429038736307968 1 1 1 0.011767968861737046 1 1 1 1 1 1 1 1 0.010198841539754765 1 1 1 1 1 1 1 0.010074531912049777 1 1 1 1 1 1 1 1 1 0.010037872845647887 1 1 1 1 1 1 1 1 1 1 0.010099761203819555 1 1 1 1 1 1 0.010453891272485477 0.010259668976230374 1 1 1 1 0.010023400790575928 1 1 1 0.0096871194309124786 1 1 1 0.01357216866627926 1 1 1 0.010002427842438932 1 1 1 1 1 0.009776146229079765 1 1 1 1 1 1 0.01242245639345552 1 1 0.010067544458196711 1 1 1 1 1 1 1 1 1 1 1 1 1 1 1 1 1 1 1 1 1 1 1 1 1 1 1 1 1 1 1 1 1 1 1 1 1 1 1 1 1 1 1 1 1 1 1 1 1 1 1 1 1 1 1 1 1 1 1 0.01000537228818104 1 1 1 1 0.010014627795548904 1 1 1 1 1 1 1 1 1 1 1 1 1 1 1 1 1 1 1 1 0.010008751713800775 1 1 0.010001326744155211 1 1 0.01000036540433951 1 1 1 1 1 0.010043188543501952 1 1 1 1 1 0.010000255667814564 0.010001087407405563 1 0.010039909513754858 0.010023077120555781 1 1 1 0.010075773589327215 1 1 0.0099962230308215036 0.010055993411808697 0.010068121325554069 1 0.010100996692943006 1 1 1 0.010037560598412812 1 1 1 1 1 1 1 0.010135942952257358 0.010016261966165533 1 0.010360401011449118 1 1 0.01024049604414101 0.010000131076072586 0.010273348968062193 1 1 0.0099400548719407022 1 1 0.010134075038530999 1 1 1 0.010877411614003997 1 1 1 1 1 1 0.010189272627807394 1 1 1 1 1 1 0.010912133578034909 1 1 0.0099755194059094748 1 1 1 1 1 1 1 1 1 1 1 1 1 1 0.010399781517787521 1 1 1 1 1 1 1 0.0099422226779507586 1 0.010621725259915338 1 1 1 1 0.010003385621635455 1 1 1 1 1 1 1 1 1 1 1 1 1 1 1 1 1 1 1 1 1 1 1 1 1 1 1 1 1 1 1 1 1 1 1 1 1 0.010611819603879835 1 1 1 1 1 1 1 1 1 1 0.0099910536887143249 1 1 1 1 1 1 1 1 1 1 1 1 1 1 1 1 1 1 1 1 1 1 1 1 1 1 1 1 0.010791192739266502 1 1 1 0.010023880235002612 1 1 1 0.010045903548697133 0.010971714177037599 1 1 1 1 1 1 1 1 1 0.010022023313694544 1 1 1 1 1 1 1 1 1 1 1 1 1 1 1 1 1 1 1 1 1 1 0.010011128771964107 1 1 0.016065441036789082 1 1 1 1 1 1 1 1 1 0.010173647462391112 1 1 1 1 1 1 0.015667965800916138 1 0.010813136388703071 1 0.016599558988524533 1 1 1 1 1 1 1 1 0.010378698245765795 1 1 1 0.016422379265136771 1 1 1 1 1 0.011161798190449825 1 1 0.010085704240540443 0.01447162618724223 1 1 1 0.0088185746303912852 1 1 1 1 0.010037308397066944 1 1 1 1 1 1 1 1 1 1 1 1 1 1 1 1 1 1 1 1 1 1 1 1 1 1 0.010004633804978506 1 0.01391748934043361 1 1 1 1 1 1 1 1 1 1 1 0.01684192581403798 1 1 1 0.016534505479854869 1 1 1 1 1 1 1 1 1 1 1 1 1 0.016961688695581355 1 1 1 1 1 1 1 0.0092314732584388038 1 1 1 1 0.009992649786560304 1 0.010003134365066103 1 1 1 1 1 0.010051532552828323 1 1 1 1 1 1 1 1 1 1 1 0.010040290730566262 1 1 1 1 1 1 1 1 1 1 1 1 1 1 1 1 0.0092665367229226442 1 1 1 0.0085974565292039409 1 1 1 1 1 1 1 1 0.0098005000922013023 1 1 1 1 1 1 1 1 1 1 1 1 1 1 1 1 1 1 1 1 1 1 1 1 1 1 1 1 1 1 1 1 0.010083630722511609 1 1 1 1 1 1 1 1 1 1 1 1 1 1 1 1 1 1 1 1 1 1 1 0.010288604269369535 1 1 1 1 1 0.009993538513599522 0.010260236764024358 1 1 1 1 1 1 0.01009789364767011 1 1 0.010951152210303169 1 1 1 1 1 1 1 0.010006160059520257 1 1 1 0.0099224261333646716 1 1 1 0.011150466039623226 1 1 1 1 0.009985558951119175 1 1 1 1 0.011091792035264073 1 1 0.0099984953979867786 1 1 0.010005247092337192 1 1 1 1 1 1 1 1 1 1 1 1 1 1 1 1 1 1 1 1 1 1 1 1 1 0.010318744420972676 1 0.010175256470274409 1 1 0.01033329114504012 1 1 1 0.010750618138607435 1 1 1 1 1 1 1 1 1 1 1 1 1 1 1 1 1 1 1 1 1 1 0.01070502391117812 1 1 1 1 1 1 1 0.011808735343233769 1 1 1 1 0.0098729386874335731 1 1 1 1 1 1 1 1 0.0096424196338683703 0.0098407378675104649 1 1 1 1 1 0.010010497244662107 1 1 1 1 1 1 1 1 1 1 0.012508135773993637 1 1 1 0.010009317985441447 1 1 1 1 1 1 1 0.0096950462329594596 1 1 0.0099800996076684252 0.012451405740074577 1 1 1 1 1 1 1 0.012420154267727791 1 1 1 1 1 1 0.010533854179111547 1 1 1 1 1 1 1 0.011547218990383475 1 1 1 1 1 0.010345010411756235 1 0.010163142938986656 1 0.010181867472769592 1 1 1 1 1 0.0099401197159182698 1 1 1 1 1 1 1 1 1 1 1 1 1 1 1 1 1 1 1 1 1 1 1 1 1 1 1 1 1 1 1 1 1 1 1 0.010569122929857597 1 1 1 1 1 0.011458907389437108 1 0.010815798684093415 1 1 0.009685964976989158 1 1 0.0098115459411436852 1 1 1 1 1 1 1 1 1 1 0.011019285336629454 1 1 1 1 0.010670818927103745 1 1 1 0.0099956418137690621 0.010014971069482752 1 1 0.011626854116490025 1 1 1 1 1 1 1 1 1 1 0.011217575192456463 1 0.012613599235284968 1 0.012472721909809557 1 1 0.010844709581790981 0.0097691542831218874 0.012779003305486807 1 1 1 1 0.0098617749505811366 1 1 1 1 1 1 1 1 1 1 0.01121502053584679 1 1 1 1 0.010531015097400571 1 1 1 0.0102818392136576 1 1 1 1 1 0.013863621716790127 1 1 1 1 1 1 1 0.010328312395688918 1 1 1 1 1 1 1 1 1 1 1 1 1 1 0.010836161892350905 1 1 0.011650568531728061 1 1 1 1 1 1 1 1 1 1 1 1 1 1 1 1 0.010808178178702884 1 1 1 1 1 1 1 1 0.011499417995755717 1 1 1 1 1 1 1 1 1 1 1 1 1 1 0.011150228650389782 1 1 1 0.010466223211943567 1 1 1 1 1 1 1 0.011185357988541103 1 1 1 1 1 1 1 1 1 1 1 1 1 1 1 1 0.011625241345195721 1 0.01075349759177738 1 1 1 1 1 0.010905779420769349 1 1 1 1 1 1 1 1 1 1 1 1 1 1 1 1 1 1 0.010509908678340882 1 1 1 1 1 0.01237840849540979 1 1 1 1 1 0.011254174914201965 1 1 1 1 1 0.01444061260090791 1 1 1 1 0.011835931608980806 1 1 1 1 1 1 1 1 0.011472629074640438 1 1 1 1 1 1 1 1 1 1 1 1 1 1 1 1 1 1 1 1 1 1 1 0.009801381346609345 1 1 1 1 1 1 1 1 0.0098612616306910685 1 1 1 1 1 1 1 1 0.010494118171488268 1 1 1 1 1 1 1 1 1 1 1 1 1 1 1 0.010037906005663653 1 1 0.0099952256015614777 1 1 1 1 1 1 1 1 1 1 1 1 1 1 1 1 0.0099573195958978407 1 1 1 1 1 1 1 1 1 1 1 1 1 1 1 1 1 1 1 1 1 1 1 1 1 0.012516461745864162 1 1 0.014056629648519319 1 0.016339271067853496 1 1 1 1 0.0089492373148740804 0.019534872237883867 1 1 0.014757222864363579 0.018074884836815103 1 0.013955223634051765 0.015629845349808706 0.0090515233003877656 1 1 1 1 1 0.008084752375856567 1 1 1 1 0.010446151630030246 1 1 1 0.018399813279728706 1 1 0.0092240903958892301 1 1 0.013305687121294301 1 1 1 0.0096442354858851213 1 1 0.0099703036228645982 0.018506454439979086 1 1 1 1 1 1 1 1 1 1 0.010590353750718224 1 1 1 0.013777323384374766 1 1 1 0.011462097504136553 1 1 1 1 0.011185211714050618 1 1 1 0.022278755974857845 1 1 1 0.019615008758345182 1 1 1 0.024224952725166227 1 1 1 1 1 1 1 0.010084999848986812 1 1 0.0102542148912386 1 1 1 1 1 0.023664654617622446 1 1 1 1 1 0.024121016696661793 1 1 1 1 1 1 1 1 1 1 0.012181015692754166 1 1 1 1 1 1 1 1 1 1 1 1 1 1 1 1 0.0087187321456921214 1 1 1 0.0098089818466483032 1 1 1 1 1 0.0095599580720147122 1 1 1 1 1 1 1 1 1 1 1 1 1 1 1 1 1 1 0.0099600366250419195 1 1 1 1 0.014776979249401568 1 1 1 0.011057316411814415 1 0.013468330789895245 1 1 1 1 1 0.0098447034463922077 1 0.012888819213223351 0.0096129907628347416 0.0092975805770026919 1 1 1 0.017467175548877015 1 1 1 1 1 0.018761185780114497 1 1 1 1 1 1 1 1 1 1 1 0.015391404805107837 1 1 0.013338742277067191 0.0098141383971581987 1 1 1 1 1 1 1 0.014930000868798164 1 0.010206655877242227 1 1 1 1 1 1 1 1 1 1 1 1 1 0.014132952901352054 1 1 1 1 0.012352972351433025 0.010748335554984469 1 1 0.010305995364020371 1 1 0.0096372861217195148 1 1 1 0.0082715973310555357 0.01697429927555287 1 1 1 1 1 0.01212992802330309 1 1 1 1 1 1 1 1 1 1 1 0.010039555862700941 1 1 1 1 1 1 1 1 0.016161203758398263 1 1 1 1 1 1 1 1 0.023870678153026799 1 1 1 1 1 1 1 0.012463696476318545 1 1 1 1 1 1 0.022900031421728025 1 1 0.012547784881281235 1 1 1 1 1 0.010098144247991809 1 1 1 0.019467385557389069 0.010332014802918583 0.015189907788352259 1 0.01249292773090125 1 1 1 1 1 1 1 1 1 1 1 1 1 1 1 1 1 1 1 1 0.018317124753624538 1 0.010187603174883784 1 1 1 1 1 1 1 1 1 1 1 1 1 1 1 1 1 1 1 1 1 1 1 1 1 1 1 1 1 1 1 1 0.011122767754467093 1 1 1 1 1 1 1 1 1 1 1 1 0.012655406169403409 0.011737931435361957 1 1 1 1 1 1 1 0.015538086578905187 1 1 1 1 1 0.011443432134749965 1 1 1 1 0.0097373785095322477 1 1 1 0.01222045909165756 1 1 1 1 0.0097729843542975203 1 1 1 0.010082274287717252 0.0099967835206492169 1 1 1 1 1 0.013654443255213436 1 1 0.013386077383540314 0.010243977397613103 1 1 0.010183984244186445 1 1 0.010009597878728125 1 1 1 0.014571246045487665 0.011341019712952531 1 1 1 1 1 1 1 1 1 1 0.01007899966177838 1 1 0.0071118835344880661 1 1 0.0099188252815496369 1 1 0.018964547866464648 0.0073199128984637197 1 1 1 1 1 1 1 1 1 1 1 1 1 1 1 1 0.012126334250411954 0.0089505756704601203 1 1 1 1 1 1 1 1 0.011057217324926974 1 1 1 0.012988856033982654 1 1 1 1 0.015612220417817747 1 1 1 1 1 1 0.011887924631191165 1 1 1 0.013224273163637267 1 1 1 1 1 1 1 1 1 1 1 1 1 1 1 1 1 1 1 1 1 1 1 1 1 1 1 0.012839523559123864 1 1 1 1 0.012840218517105687 1 1 1 1 1 1 1 1 1 1 1 1 1 1 0.0098557230341649125 1 1 1 1 1 1 1 0.012095193090857839 1 0.01258552575177891 1 1 1 1 0.010349636995954623 1 1 1 1 0.010854348380863736 1 1 1 1 0.010694499320572303 1 1 0.010468559715078573 1 1 1 1 0.010132190539498575 1 1 1 0.0091193438692344746 1 0.011256245434968663 1 0.009789041575576949 1 0.010412172057470769 0.0099989839892371552 1 1 1 1 1 1 1 1 1 1 1 1 1 1 1 1 1 1 1 1 1 1 1 1 1 1 1 1 1 1 1 1 1 1 1 1 1 1 1 0.010939070984631132 1 1 1 1 1 1 0.011292634454581585 1 1 1 1 1 1 1 1 1 1 1 1 1 1 1 1 1 1 1 1 1 1 1 1 1 1 1 1 1 1 1 1 1 1 1 1 1 1 1 1 1 1 1 1 1 0.010289264372814211 1 1 1 1 1 1 1 0.012538595253695318 1 1 1 1 1 1 1 1 1 1 1 1 1 1 1 1 1 1 1 1 1 1 1 1 1 1 1 1 1 1 1 1 1 1 1 1 1 1 1 1 1 1 1 1 1 1 1 1 1 1 1 1 1 1 1 1 1 1 1 0.0099973106555149988 0.010436762726859413 1 1 1 1 1 1 1 0.010449742990436115 1 1 0.010223614230798542 0.010216337316467226 0.010230529676200691 1 0.0099475770789845541 1 1 1 1 1 0.010038035093970948 1 1 0.010071656120374922 1 1 1 1 1 1 1 1 1 1 1 1 1 1 1 1 1 1 1 1 0.010049332511710491 1 1 1 0.010598078987997089 1 1 0.010000094566995105 0.01016512431113235 0.0096592617651432549 1 1 1 1 1 0.0096691092924388339 0.010085891750170484 1 1 1 1 1 1 1 0.0089243413383753335 1 1 1 1 1 1 1 1 1 1 1 1 1 1 1 1 1 1 1 1 1 1 1 1 1 1 1 1 1 0.010423329097777139 1 1 1 0.010138128391708259 1 1 1 1 1 0.010276933723093564 1 1 1 0.010402440012632571 0.010475153527069 1 1 1 1 1 0.010515932749561719 1 1 1 0.010563614340450715 1 1 0.0099007514879346295 0.010450441874274605 1 1 0.011133190291301366 1 0.0098290579722701762 1 1 0.010008234365740866 1 1 1 1 1 0.0099576945885251449 1 1 1 1 1 1 1 1 1 1 1 1 1 1 1 1 1 1 1 1 1 1 1 1 0.010142995871647461 1 1 1 1 1 1 1 1 1 1 1 1 1 1 1 1 0.0099974966205772127 1 1 1 1 1 1 1 1 1 1 1 1 1 1 1 1 1 1 1 1 1 1 1 0.0099107068087492308 1 1 1 1 1 1 1 1 1 1 1 1 1 1 1 0.010432941551587437 1 1 1 1 1 1 1 1 1 0.0099821961867726013 1 1 1 1 0.009845048507397907 1 0.010677682996364632 1 0.010245929884347806 1 1 1 1 1 1 0.010978148577909142 1 1 1 0.010628760104815806 0.010985471427397982 1 1 1 1 1 1 1 0.011798398217688105 1 1 1 0.010698966230152859 1 0.011630449206436992 0.010766997863914092 1 1 1 1 1 1 0.010461743914465195 1 1 1 1 1 1 1 1 1 1 1 0.011593186700535349 1 1 1 0.0099600751157436634 1 1 1 1 1 1 1 1 1 0.010835836121292719 1 1 1 1 1 0.010358080773862703 1 1 1 1 0.010155528986732967 1 1 1 1 1 1 1 0.010268747027631539 1 1 1 1 1 1 0.010398269296888026 1 1 1 1 1 1 1 1 1 1 1 1 1 1 1 1 1 1 1 1 1 1 0.013671313346769989 1 1 1 1 1 1 1 1 1 1 0.011431995452023341 1 1 1 1 1 0.011279545718815941 1 1 1 0.013390683320194536 0.010066542435818948 1 1 1 0.013833184106695828 1 1 1 0.011209600573993679 1 1 1 0.013218377211596495 1 1 1 1 1 1 1 0.0099851257454738607 1 1 1 0.015771531918251615 1 1 1 1 0.013016587983472713 1 1 1 1 1 1 1 1 0.016574925297350645 1 1 1 0.008008250327936943 0.0099928587203685221 1 1 1 0.010134359711384905 1 0.014422937243266695 1 1 0.010192088757084512 1 1 1 1 1 0.010419531168407449 1 1 1 1 1 1 0.0099912034808373306 1 1 1 1 1 1 1 0.013140169403552188 1 1 0.018940518976228705 1 1 1 1 0.015627225864517952 1 1 0.011185413030657586 1 0.0099820904104633429 1 1 1 1 1 0.019568449125483993 1 1 1 1 1 1 1 0.01363524604341027 1 0.016257682315746081 0.011788848176905509 1 1 0.015032565005934487 1 1 1 1 1 1 1 0.0095444843777822159 0.020954245574278121 1 1 1 1 1 0.015319717318628027 0.016819524663643025 1 1 1 1 0.015091673227659442 0.015152743663543059 1 1 0.014221799658957342 1 0.015124749905541052 1 1 1 0.016526351355696869 1 1 0.015262737019907699 1 0.014487151352879328 0.0094459713741100841 1 0.017096501754350537 1 0.0098875237600036699 1 1 1 1 0.012216259467148511 1 0.013389734684024114 1 0.011038516307292344 0.012680778121586697 1 0.013246314318103162 0.013991730834574194 1 1 1 0.0096033426709780777 1 1 1 1 1 0.01723096410246619 0.010876523521631744 1 0.014643389701989692 1 0.013398972248176754 1 1 0.011358682675584427 1 0.013408484340213481 1 0.010265535604721375 0.011719428134052315 0.014372154711805255 1 1 1 1 1 0.011440906660590366 0.010295060889858813 1 0.013577845238351226 1 0.014090561244818417 1 1 1 1 1 0.012216049522585063 0.010003689694030484 0.012546661313046624 1 1 1 1 0.013343870653765544 1 1 1 0.0099481584230950888 1 0.013801859094967388 1 1 1 1 1 1 0.019745723708884506 1 1 1 0.010283181035741209 1 1 1 1 1 1 0.02192067663007391 1 1 0.010059248735573366 1 0.0095464396587670794 1 0.010144771378768243 1 1 1 0.0065010712045717647 1 0.01198903087808775 1 0.0066106176045261584 1 1 1 1 0.010734282216217741 1 1 0.015637271965307505 1 1 0.013910503808371664 0.021971548665934558 1 1 1 0.013847245239852948 1 1 1 0.023460586578615907 1 0.0078618569333010462 1 1 0.015590422195991282 0.014975146874535654 1 0.0090975561712440516 1 0.010156834078176406 1 1 1 0.00985363024115876 0.021881812340549159 1 0.01048743756176073 1 1 1 1 1 1 0.028320490543222724 1 1 0.014720561868675963 1 1 1 0.01093966894676853 1 1 1 1 1 1 0.016045045410160306 1 1 1 0.013534726107779721 0.015018185595890247 1 1 1 1 0.010395400542857038 1 1 1 1 1 0.017430832672685324 1 1 1 1 0.0099535597550191451 1 1 1 0.010870157469350248 1 1 1 1 0.010359364911532892 1 1 1 1 1 1 0.010323796794560001 1 1 0.013459561914027312 1 1 1 1 0.010975015070332755 1 1 1 0.011910784214045528 1 0.011090213770496378 1 1 1 1 0.010024240672834745 1 1 0.011898917781584056 1 1 1 1 1 1 1 1 1 1 1 1 1 1 1 1 1 1 1 1 0.010096269227091831 0.01407928498775916 1 1 1 1 1 0.012081792000695913 1 0.014074519475914444 0.010020225611025925 0.011733812020678948 0.013859980886566807 1 1 1 0.010782817101739861 1 0.013170878967313122 0.010417147756766757 1 1 1 1 1 0.010001268006413589 1 0.011818678588712736 1 1 0.012654011444840081 1 
</DataArray>
</CellData>
</Piece>
</UnstructuredGrid>
</VTKFile>
