<?xml version="1.0"?>
<VTKFile type="UnstructuredGrid" version="0.1" byte_order="LittleEndian">
<UnstructuredGrid>
<Piece NumberOfPoints="30881" NumberOfCells="10862">
<Points>
<DataArray type="Float64" NumberOfComponents="3" format="ascii">
-0.49999999999999828 -0.48677703703187492 0 -0.5 -0.5 0 -0.48129281494584059 -0.49338851851593718 0 -0.5 -0.5 0 -0.48129281494584059 -0.49338851851593718 0 -0.46258562989168328 -0.5 0 -0.49999999999999828 -0.48677703703187492 0 -0.48129281494584059 -0.49338851851593718 0 -0.49999999999999828 -0.48677703703187492 0 -0.4824545428279598 -0.47451624516148783 0 -0.48129281494584059 -0.49338851851593718 0 -0.49999999999999828 -0.48677703703187492 0 -0.4824545428279598 -0.47451624516148783 0 -0.5 -0.46599539173150673 0 -0.4824545428279598 -0.47451624516148783 0 -0.46853075243710779 -0.48354990242643758 0 -0.46411508256092049 -0.46598235294430129 0 -0.4824545428279598 -0.47451624516148783 0 -0.48129281494584059 -0.49338851851593718 0 -0.46853075243710779 -0.48354990242643758 0 -0.48129281494584059 -0.49338851851593718 0 -0.46258562989168328 -0.5 0 -0.48129281494584059 -0.49338851851593718 0 -0.46258562989168328 -0.5 0 -0.46853075243710779 -0.48354990242643758 0 -0.46258562989168328 -0.5 0 -0.46853075243710779 -0.48354990242643758 0 -0.45147378687733691 -0.48362213557840178 0 -0.46853075243710779 -0.48354990242643758 0 -0.45147378687733691 -0.48362213557840178 0 -0.46411508256092049 -0.46598235294430129 0 -0.4457251648104853 -0.47020164095208389 0 -0.45147378687733691 -0.48362213557840178 0 -0.46411508256092049 -0.46598235294430129 0 -0.4457251648104853 -0.47020164095208389 0 -0.45147378687733691 -0.48362213557840178 0 -0.43513446131126993 -0.48199891714758791 0 -0.45147378687733691 -0.48362213557840178 0 -0.43275163025255442 -0.5 0 -0.43513446131126993 -0.48199891714758791 0 -0.46258562989168328 -0.5 0 -0.45147378687733691 -0.48362213557840178 0 -0.43275163025255442 -0.5 0 -0.4467190029717853 -0.45478934699519452 0 -0.4422915115958943 -0.43555510214664611 0 -0.43246707723660932 -0.44794326854796312 0 -0.4457251648104853 -0.47020164095208389 0 -0.4467190029717853 -0.45478934699519452 0 -0.46411508256092049 -0.46598235294430129 0 -0.4457251648104853 -0.47020164095208389 0 -0.4467190029717853 -0.45478934699519452 0 -0.43016578207734568 -0.46313500011938619 0 -0.4467190029717853 -0.45478934699519452 0 -0.46411508256092049 -0.46598235294430129 0 -0.47114575579794699 -0.4403844242888923 0 -0.4467190029717853 -0.45478934699519452 0 -0.47114575579794699 -0.4403844242888923 0 -0.4422915115958943 -0.43555510214664611 0 -0.47114575579794699 -0.4403844242888923 0 -0.4422915115958943 -0.43555510214664611 0 -0.46411508256092049 -0.46598235294430129 0 -0.47114575579794699 -0.4403844242888923 0 -0.48354307623736548 -0.45841843211146538 0 -0.4824545428279598 -0.47451624516148783 0 -0.46411508256092049 -0.46598235294430129 0 -0.48354307623736548 -0.45841843211146538 0 -0.4824545428279598 -0.47451624516148783 0 -0.48354307623736548 -0.45841843211146538 0 -0.5 -0.46599539173150673 0 -0.48354307623736548 -0.45841843211146538 0 -0.5 -0.46599539173150673 0 -0.49999999999999972 -0.44521374643113848 0 -0.47114575579794699 -0.4403844242888923 0 -0.49999999999999972 -0.44521374643113848 0 -0.47114575579794699 -0.4403844242888923 0 -0.49999999999999972 -0.44521374643113848 0 -0.48704432221743971 -0.42935617662229603 0 -0.47114575579794699 -0.4403844242888923 0 -0.48354307623736548 -0.45841843211146538 0 -0.49999999999999972 -0.44521374643113848 0 -0.49999999999999972 -0.44521374643113848 0 -0.48704432221743971 -0.42935617662229603 0 -0.5 -0.41591957503128979 0 -0.48704432221743971 -0.42935617662229603 0 -0.5 -0.41591957503128979 0 -0.47703153307181151 -0.41590696073786332 0 -0.5 -0.41591957503128979 0 -0.47703153307181151 -0.41590696073786332 0 -0.48817838912021821 -0.4022119694541284 0 -0.47114575579794699 -0.4403844242888923 0 -0.48704432221743971 -0.42935617662229603 0 -0.47703153307181151 -0.41590696073786332 0 -0.5 -0.38662540363144121 0 -0.47568202340906118 -0.39039593841591919 0 -0.4947615751445838 -0.37332156409002909 0 -0.47568202340906118 -0.39039593841591919 0 -0.4947615751445838 -0.37332156409002909 0 -0.5 -0.38662540363144121 0 -0.48817838912021821 -0.4022119694541284 0 -0.47568202340906118 -0.39039593841591919 0 -0.5 -0.41591957503128979 0 -0.5 -0.38662540363144121 0 -0.48817838912021821 -0.4022119694541284 0 -0.47703153307181151 -0.41590696073786332 0 -0.48817838912021821 -0.4022119694541284 0 -0.47568202340906118 -0.39039593841591919 0 -0.47703153307181151 -0.41590696073786332 0 -0.47568202340906118 -0.39039593841591919 0 -0.45660247167353862 -0.40747031274180939 0 -0.47568202340906118 -0.39039593841591919 0 -0.48030931097003587 -0.37191064435083931 0 -0.46669490250066459 -0.37481721741951951 0 -0.47568202340906118 -0.39039593841591919 0 -0.4947615751445838 -0.37332156409002909 0 -0.48030931097003587 -0.37191064435083931 0 -0.45332061783919553 -0.38729481725706361 0 -0.46669490250066459 -0.37481721741951951 0 -0.45095991715087752 -0.36968037302039969 0 -0.47568202340906118 -0.39039593841591919 0 -0.45332061783919553 -0.38729481725706361 0 -0.46669490250066459 -0.37481721741951951 0 -0.47568202340906118 -0.39039593841591919 0 -0.45660247167353862 -0.40747031274180939 0 -0.47568202340906118 -0.39039593841591919 0 -0.45332061783919553 -0.38729481725706361 0 -0.45660247167353862 -0.40747031274180939 0 -0.44332653075004852 -0.401690115615219 0 -0.44646247228389868 -0.41654464256061052 0 -0.42870657106664078 -0.39987574649354879 0 -0.45332061783919553 -0.38729481725706361 0 -0.44332653075004852 -0.401690115615219 0 -0.43479631603355468 -0.39077639303142497 0 -0.45332061783919553 -0.38729481725706361 0 -0.44332653075004852 -0.401690115615219 0 -0.45660247167353862 -0.40747031274180939 0 -0.45332061783919553 -0.38729481725706361 0 -0.43421362475025049 -0.37527491429266319 0 -0.43479631603355468 -0.39077639303142497 0 -0.45332061783919553 -0.38729481725706361 0 -0.43421362475025049 -0.37527491429266319 0 -0.45095991715087752 -0.36968037302039969 0 -0.47114575579794699 -0.4403844242888923 0 -0.45663439814062529 -0.42533932462455271 0 -0.4422915115958943 -0.43555510214664611 0 -0.47114575579794699 -0.4403844242888923 0 -0.47703153307181151 -0.41590696073786332 0 -0.45663439814062529 -0.42533932462455271 0 -0.45663439814062529 -0.42533932462455271 0 -0.45660247167353862 -0.40747031274180939 0 -0.44646247228389868 -0.41654464256061052 0 -0.47703153307181151 -0.41590696073786332 0 -0.45663439814062529 -0.42533932462455271 0 -0.45660247167353862 -0.40747031274180939 0 -0.44332653075004852 -0.401690115615219 0 -0.45660247167353862 -0.40747031274180939 0 -0.44646247228389868 -0.41654464256061052 0 -0.45660247167353862 -0.40747031274180939 0 -0.44646247228389868 -0.41654464256061052 0 -0.44646247228389868 -0.41654464256061052 0 -0.4375229199380159 -0.42454468706769971 0 -0.45663439814062529 -0.42533932462455271 0 -0.4375229199380159 -0.42454468706769971 0 -0.4422915115958943 -0.43555510214664611 0 -0.45663439814062529 -0.42533932462455271 0 -0.44646247228389868 -0.41654464256061052 0 -0.4375229199380159 -0.42454468706769971 0 -0.4375229199380159 -0.42454468706769971 0 -0.4422915115958943 -0.43555510214664611 0 -0.43077617074680319 -0.43406335077952207 0 -0.43077617074680319 -0.43406335077952207 0 -0.42550232634077589 -0.42345940056268039 0 -0.41950844772475421 -0.43888456563633732 0 -0.4375229199380159 -0.42454468706769971 0 -0.43077617074680319 -0.43406335077952207 0 -0.42550232634077589 -0.42345940056268039 0 -0.44646247228389868 -0.41654464256061052 0 -0.41657232816672918 -0.41306671883907142 0 -0.42870657106664078 -0.39987574649354879 0 -0.44646247228389868 -0.41654464256061052 0 -0.4375229199380159 -0.42454468706769971 0 -0.42550232634077589 -0.42345940056268039 0 -0.44646247228389868 -0.41654464256061052 0 -0.42550232634077589 -0.42345940056268039 0 -0.41657232816672918 -0.41306671883907142 0 -0.44646247228389868 -0.41654464256061052 0 -0.41657232816672918 -0.41306671883907142 0 -0.42550232634077589 -0.42345940056268039 0 -0.41657232816672918 -0.41306671883907142 0 -0.41333489101611293 -0.42699700567040988 0 -0.41657232816672918 -0.41306671883907142 0 -0.41333489101611293 -0.42699700567040988 0 -0.39893236021425188 -0.42931692235905211 0 -0.41333489101611293 -0.42699700567040988 0 -0.39893236021425188 -0.42931692235905211 0 -0.41950844772475421 -0.43888456563633732 0 -0.42550232634077589 -0.42345940056268039 0 -0.41333489101611293 -0.42699700567040988 0 -0.41950844772475421 -0.43888456563633732 0 -0.43421362475025049 -0.37527491429266319 0 -0.42478231784314502 -0.38643128255249681 0 -0.41656514696884139 -0.37636588688318029 0 -0.43421362475025049 -0.37527491429266319 0 -0.42478231784314502 -0.38643128255249681 0 -0.43479631603355468 -0.39077639303142497 0 -0.42478231784314502 -0.38643128255249681 0 -0.43479631603355468 -0.39077639303142497 0 -0.42870657106664078 -0.39987574649354879 0 -0.44332653075004852 -0.401690115615219 0 -0.43479631603355468 -0.39077639303142497 0 -0.42870657106664078 -0.39987574649354879 0 -0.41657232816672918 -0.41306671883907142 0 -0.40962993039643741 -0.3898634720616666 0 -0.3946356370269814 -0.39577424904278191 0 -0.42478231784314502 -0.38643128255249681 0 -0.42870657106664078 -0.39987574649354879 0 -0.40962993039643741 -0.3898634720616666 0 -0.41657232816672918 -0.41306671883907142 0 -0.42870657106664078 -0.39987574649354879 0 -0.40962993039643741 -0.3898634720616666 0 -0.42478231784314502 -0.38643128255249681 0 -0.40962993039643741 -0.3898634720616666 0 -0.41656514696884139 -0.37636588688318029 0 -0.40962993039643741 -0.3898634720616666 0 -0.41656514696884139 -0.37636588688318029 0 -0.40465459864295228 -0.37650109000307358 0 -0.39431275766669582 -0.38061373190328529 0 -0.40465459864295228 -0.37650109000307358 0 -0.3968495855878465 -0.36923685638487008 0 -0.40962993039643741 -0.3898634720616666 0 -0.39431275766669582 -0.38061373190328529 0 -0.40465459864295228 -0.37650109000307358 0 -0.40962993039643741 -0.3898634720616666 0 -0.39431275766669582 -0.38061373190328529 0 -0.3946356370269814 -0.39577424904278191 0 -0.3946356370269814 -0.39577424904278191 0 -0.38704143117499401 -0.40999023144455299 0 -0.37464038230528551 -0.396492613407532 0 -0.3946356370269814 -0.39577424904278191 0 -0.37522403377147279 -0.38060127254172499 0 -0.37464038230528551 -0.396492613407532 0 -0.39431275766669582 -0.38061373190328529 0 -0.3946356370269814 -0.39577424904278191 0 -0.37522403377147279 -0.38060127254172499 0 -0.39431275766669582 -0.38061373190328529 0 -0.37522403377147279 -0.38060127254172499 0 -0.38569326772338258 -0.37053454129240582 0 -0.41657232816672918 -0.41306671883907142 0 -0.39893236021425188 -0.42931692235905211 0 -0.38704143117499401 -0.40999023144455299 0 -0.41657232816672918 -0.41306671883907142 0 -0.3946356370269814 -0.39577424904278191 0 -0.38704143117499401 -0.40999023144455299 0 -0.41657232816672918 -0.41306671883907142 0 -0.38704143117499401 -0.40999023144455299 0 -0.38704143117499401 -0.40999023144455299 0 -0.38131756488089769 -0.42670085612339947 0 -0.36377437909963828 -0.41972983174959272 0 -0.38131756488089769 -0.42670085612339947 0 -0.38339996822118783 -0.44368928783448319 0 -0.36866352395763108 -0.4313760290561211 0 -0.39893236021425188 -0.42931692235905211 0 -0.38131756488089769 -0.42670085612339947 0 -0.38339996822118783 -0.44368928783448319 0 -0.39893236021425188 -0.42931692235905211 0 -0.38704143117499401 -0.40999023144455299 0 -0.38131756488089769 -0.42670085612339947 0 -0.38339996822118783 -0.44368928783448319 0 -0.40446438048225181 -0.45117017211807442 0 -0.3895931593355052 -0.46351353191466821 0 -0.39893236021425188 -0.42931692235905211 0 -0.38339996822118783 -0.44368928783448319 0 -0.40446438048225181 -0.45117017211807442 0 -0.40446438048225181 -0.45117017211807442 0 -0.3895931593355052 -0.46351353191466821 0 -0.40280611050484572 -0.47090640128894168 0 -0.38339996822118783 -0.44368928783448319 0 -0.3895931593355052 -0.46351353191466821 0 -0.37415472949075129 -0.45946062715310632 0 -0.3895931593355052 -0.46351353191466821 0 -0.38039451612360919 -0.47713749807852829 0 -0.37415472949075129 -0.45946062715310632 0 -0.38039451612360919 -0.47713749807852829 0 -0.39198476482648659 -0.49312537606366408 0 -0.39366244928105898 -0.47747566409097131 0 -0.3895931593355052 -0.46351353191466821 0 -0.38039451612360919 -0.47713749807852829 0 -0.39366244928105898 -0.47747566409097131 0 -0.39198476482648659 -0.49312537606366408 0 -0.37055643484088358 -0.49425936316784103 0 -0.39198476482648659 -0.49312537606366408 0 -0.40291763061342539 -0.5 0 -0.37308363097429631 -0.50000000000000244 0 -0.39198476482648659 -0.49312537606366408 0 -0.37055643484088358 -0.49425936316784103 0 -0.37308363097429631 -0.50000000000000244 0 -0.38039451612360919 -0.47713749807852829 0 -0.39198476482648659 -0.49312537606366408 0 -0.37055643484088358 -0.49425936316784103 0 -0.39198476482648659 -0.49312537606366408 0 -0.41341309481208982 -0.49199138895948757 0 -0.39198476482648659 -0.49312537606366408 0 -0.39366244928105898 -0.47747566409097131 0 -0.40353369561484831 -0.48269551310905429 0 -0.39198476482648659 -0.49312537606366408 0 -0.40291763061342539 -0.5 0 -0.41341309481208982 -0.49199138895948757 0 -0.39198476482648659 -0.49312537606366408 0 -0.40353369561484831 -0.48269551310905429 0 -0.41341309481208982 -0.49199138895948757 0 -0.3895931593355052 -0.46351353191466821 0 -0.39366244928105898 -0.47747566409097131 0 -0.40280611050484572 -0.47090640128894168 0 -0.39366244928105898 -0.47747566409097131 0 -0.40353369561484831 -0.48269551310905429 0 -0.40280611050484572 -0.47090640128894168 0 -0.40280611050484572 -0.47090640128894168 0 -0.41792735015940108 -0.47619959015896091 0 -0.41524515795200517 -0.46243146669528151 0 -0.40353369561484831 -0.48269551310905429 0 -0.41792735015940108 -0.47619959015896091 0 -0.41341309481208982 -0.49199138895948757 0 -0.40353369561484831 -0.48269551310905429 0 -0.40280611050484572 -0.47090640128894168 0 -0.41792735015940108 -0.47619959015896091 0 -0.41792735015940108 -0.47619959015896091 0 -0.41341309481208982 -0.49199138895948757 0 -0.42480663413382869 -0.48754747406650911 0 -0.40291763061342539 -0.5 0 -0.41341309481208982 -0.49199138895948757 0 -0.43275163025255442 -0.5 0 -0.41341309481208982 -0.49199138895948757 0 -0.42480663413382869 -0.48754747406650911 0 -0.43275163025255442 -0.5 0 -0.42480663413382869 -0.48754747406650911 0 -0.43275163025255442 -0.5 0 -0.43513446131126993 -0.48199891714758791 0 -0.4457251648104853 -0.47020164095208389 0 -0.43513446131126993 -0.48199891714758791 0 -0.43016578207734568 -0.46313500011938619 0 -0.41792735015940108 -0.47619959015896091 0 -0.43513446131126993 -0.48199891714758791 0 -0.43016578207734568 -0.46313500011938619 0 -0.41792735015940108 -0.47619959015896091 0 -0.42480663413382869 -0.48754747406650911 0 -0.43513446131126993 -0.48199891714758791 0 -0.4467190029717853 -0.45478934699519452 0 -0.43016578207734568 -0.46313500011938619 0 -0.43246707723660932 -0.44794326854796312 0 -0.43016578207734568 -0.46313500011938619 0 -0.42051073979218989 -0.45215097324273301 0 -0.41524515795200517 -0.46243146669528151 0 -0.43016578207734568 -0.46313500011938619 0 -0.43246707723660932 -0.44794326854796312 0 -0.42051073979218989 -0.45215097324273301 0 -0.4422915115958943 -0.43555510214664611 0 -0.43077617074680319 -0.43406335077952207 0 -0.43246707723660932 -0.44794326854796312 0 -0.43077617074680319 -0.43406335077952207 0 -0.43246707723660932 -0.44794326854796312 0 -0.41950844772475421 -0.43888456563633732 0 -0.43246707723660932 -0.44794326854796312 0 -0.42051073979218989 -0.45215097324273301 0 -0.41950844772475421 -0.43888456563633732 0 -0.39893236021425188 -0.42931692235905211 0 -0.40446438048225181 -0.45117017211807442 0 -0.41950844772475421 -0.43888456563633732 0 -0.40446438048225181 -0.45117017211807442 0 -0.42051073979218989 -0.45215097324273301 0 -0.41950844772475421 -0.43888456563633732 0 -0.40446438048225181 -0.45117017211807442 0 -0.42051073979218989 -0.45215097324273301 0 -0.41524515795200517 -0.46243146669528151 0 -0.40446438048225181 -0.45117017211807442 0 -0.40280611050484572 -0.47090640128894168 0 -0.41524515795200517 -0.46243146669528151 0 -0.41792735015940108 -0.47619959015896091 0 -0.43016578207734568 -0.46313500011938619 0 -0.41524515795200517 -0.46243146669528151 0 -0.45018232007011222 -0.256765034028549 0 -0.429874989515865 -0.26165756953837482 0 -0.43598079583492633 -0.24721882136819351 0 -0.45018232007011222 -0.256765034028549 0 -0.43765198640052377 -0.27443700488157741 0 -0.429874989515865 -0.26165756953837482 0 -0.45018232007011222 -0.256765034028549 0 -0.43598079583492633 -0.24721882136819351 0 -0.45139902778349827 -0.24711062934306771 0 -0.45018232007011222 -0.256765034028549 0 -0.43765198640052377 -0.27443700488157741 0 -0.46196722525855399 -0.27174391220054139 0 -0.43765198640052377 -0.27443700488157741 0 -0.46196722525855399 -0.27174391220054139 0 -0.4476129789611048 -0.29283803371489903 0 -0.46196722525855399 -0.27174391220054139 0 -0.48050148842732221 -0.25523221810557922 0 -0.46267023581878858 -0.24817136713935201 0 -0.45018232007011222 -0.256765034028549 0 -0.46196722525855399 -0.27174391220054139 0 -0.46267023581878858 -0.24817136713935201 0 -0.45018232007011222 -0.256765034028549 0 -0.46267023581878858 -0.24817136713935201 0 -0.45139902778349827 -0.24711062934306771 0 -0.48050148842732221 -0.25523221810557922 0 -0.5 -0.26944871803204617 0 -0.5 -0.2401545466321974 0 -0.48050148842732221 -0.25523221810557922 0 -0.5 -0.26944871803204617 0 -0.48245797385404121 -0.28063059353633901 0 -0.46196722525855399 -0.27174391220054139 0 -0.48050148842732221 -0.25523221810557922 0 -0.48245797385404121 -0.28063059353633901 0 -0.46196722525855399 -0.27174391220054139 0 -0.48245797385404121 -0.28063059353633901 0 -0.46937090116945868 -0.29821258941183898 0 -0.48245797385404121 -0.28063059353633901 0 -0.5 -0.29874288943189498 0 -0.46937090116945868 -0.29821258941183898 0 -0.5 -0.26944871803204617 0 -0.48245797385404121 -0.28063059353633901 0 -0.5 -0.29874288943189498 0 -0.5 -0.29874288943189498 0 -0.46937090116945868 -0.29821258941183898 0 -0.47623524987602139 -0.32201367690444971 0 -0.46937090116945868 -0.29821258941183898 0 -0.4476129789611048 -0.29283803371489903 0 -0.45018982867155483 -0.32180400573951162 0 -0.46196722525855399 -0.27174391220054139 0 -0.46937090116945868 -0.29821258941183898 0 -0.4476129789611048 -0.29283803371489903 0 -0.43765198640052377 -0.27443700488157741 0 -0.4476129789611048 -0.29283803371489903 0 -0.43236213870239748 -0.29002705800971151 0 -0.4476129789611048 -0.29283803371489903 0 -0.45018982867155483 -0.32180400573951162 0 -0.4314578060398388 -0.3048790663939604 0 -0.45018982867155483 -0.32180400573951162 0 -0.4314578060398388 -0.3048790663939604 0 -0.45018982867155483 -0.32180400573951162 0 -0.46157657978994598 -0.34139555482026068 0 -0.43521386225128428 -0.33802231259611382 0 -0.46157657978994598 -0.34139555482026068 0 -0.43521386225128428 -0.33802231259611382 0 -0.45018982867155483 -0.32180400573951162 0 -0.46157657978994598 -0.34139555482026068 0 -0.47623524987602139 -0.32201367690444971 0 -0.46937090116945868 -0.29821258941183898 0 -0.45018982867155483 -0.32180400573951162 0 -0.47623524987602139 -0.32201367690444971 0 -0.5 -0.29874288943189498 0 -0.47623524987602139 -0.32201367690444971 0 -0.5 -0.32803706083174372 0 -0.47623524987602139 -0.32201367690444971 0 -0.5 -0.32803706083174372 0 -0.48561656391384522 -0.34384835974822991 0 -0.5 -0.32803706083174372 0 -0.5 -0.35733123223159241 0 -0.48561656391384522 -0.34384835974822991 0 -0.46157657978994598 -0.34139555482026068 0 -0.47623524987602139 -0.32201367690444971 0 -0.48561656391384522 -0.34384835974822991 0 -0.46157657978994598 -0.34139555482026068 0 -0.47568148196104371 -0.35852722048879659 0 -0.48561656391384522 -0.34384835974822991 0 -0.47568148196104371 -0.35852722048879659 0 -0.48561656391384522 -0.34384835974822991 0 -0.48768886795130861 -0.36141736908419309 0 -0.5 -0.35733123223159241 0 -0.48561656391384522 -0.34384835974822991 0 -0.48768886795130861 -0.36141736908419309 0 -0.5 -0.35733123223159241 0 -0.4947615751445838 -0.37332156409002909 0 -0.48768886795130861 -0.36141736908419309 0 -0.5 -0.38662540363144121 0 -0.5 -0.35733123223159241 0 -0.4947615751445838 -0.37332156409002909 0 -0.4947615751445838 -0.37332156409002909 0 -0.48768886795130861 -0.36141736908419309 0 -0.48030931097003587 -0.37191064435083931 0 -0.47568148196104371 -0.35852722048879659 0 -0.48030931097003587 -0.37191064435083931 0 -0.46669490250066459 -0.37481721741951951 0 -0.47568148196104371 -0.35852722048879659 0 -0.48768886795130861 -0.36141736908419309 0 -0.48030931097003587 -0.37191064435083931 0 -0.46669490250066459 -0.37481721741951951 0 -0.45985290530711531 -0.35919053618658509 0 -0.45095991715087752 -0.36968037302039969 0 -0.47568148196104371 -0.35852722048879659 0 -0.46669490250066459 -0.37481721741951951 0 -0.45985290530711531 -0.35919053618658509 0 -0.46157657978994598 -0.34139555482026068 0 -0.47568148196104371 -0.35852722048879659 0 -0.45985290530711531 -0.35919053618658509 0 -0.46157657978994598 -0.34139555482026068 0 -0.45985290530711531 -0.35919053618658509 0 -0.44091292170358748 -0.35617636658334351 0 -0.46157657978994598 -0.34139555482026068 0 -0.44091292170358748 -0.35617636658334351 0 -0.43521386225128428 -0.33802231259611382 0 -0.43421362475025049 -0.37527491429266319 0 -0.44091292170358748 -0.35617636658334351 0 -0.45095991715087752 -0.36968037302039969 0 -0.45985290530711531 -0.35919053618658509 0 -0.44091292170358748 -0.35617636658334351 0 -0.45095991715087752 -0.36968037302039969 0 -0.43421362475025049 -0.37527491429266319 0 -0.41656514696884139 -0.37636588688318029 0 -0.42218579342164808 -0.36334977441807748 0 -0.43421362475025049 -0.37527491429266319 0 -0.44091292170358748 -0.35617636658334351 0 -0.42218579342164808 -0.36334977441807748 0 -0.44091292170358748 -0.35617636658334351 0 -0.42218579342164808 -0.36334977441807748 0 -0.42066840753926321 -0.34864312644900147 0 -0.44091292170358748 -0.35617636658334351 0 -0.42066840753926321 -0.34864312644900147 0 -0.43521386225128428 -0.33802231259611382 0 -0.42218579342164808 -0.36334977441807748 0 -0.42066840753926321 -0.34864312644900147 0 -0.40690054455725883 -0.35815659477868023 0 -0.40690054455725883 -0.35815659477868023 0 -0.40885114471262263 -0.334649070371968 0 -0.42066840753926321 -0.34864312644900147 0 -0.40690054455725883 -0.35815659477868023 0 -0.40885114471262263 -0.334649070371968 0 -0.42218579342164808 -0.36334977441807748 0 -0.40690054455725883 -0.35815659477868023 0 -0.40625971269279348 -0.36587953617857771 0 -0.40690054455725883 -0.35815659477868023 0 -0.40625971269279348 -0.36587953617857771 0 -0.41656514696884139 -0.37636588688318029 0 -0.42218579342164808 -0.36334977441807748 0 -0.40625971269279348 -0.36587953617857771 0 -0.42218579342164808 -0.36334977441807748 0 -0.40690054455725883 -0.35815659477868023 0 -0.41656514696884139 -0.37636588688318029 0 -0.40465459864295228 -0.37650109000307358 0 -0.40625971269279348 -0.36587953617857771 0 -0.40465459864295228 -0.37650109000307358 0 -0.40625971269279348 -0.36587953617857771 0 -0.3968495855878465 -0.36923685638487008 0 -0.40690054455725883 -0.35815659477868023 0 -0.40029228617445223 -0.36350286704594809 0 -0.3911593018599101 -0.36073848084166482 0 -0.40625971269279348 -0.36587953617857771 0 -0.40029228617445223 -0.36350286704594809 0 -0.3968495855878465 -0.36923685638487008 0 -0.40690054455725883 -0.35815659477868023 0 -0.40625971269279348 -0.36587953617857771 0 -0.40029228617445223 -0.36350286704594809 0 -0.3911593018599101 -0.36073848084166482 0 -0.3968495855878465 -0.36923685638487008 0 -0.38569326772338258 -0.37053454129240582 0 -0.40029228617445223 -0.36350286704594809 0 -0.3911593018599101 -0.36073848084166482 0 -0.3968495855878465 -0.36923685638487008 0 -0.39431275766669582 -0.38061373190328529 0 -0.3968495855878465 -0.36923685638487008 0 -0.38569326772338258 -0.37053454129240582 0 -0.3911593018599101 -0.36073848084166482 0 -0.38569326772338258 -0.37053454129240582 0 -0.37568472164775779 -0.36524225821647011 0 -0.37522403377147279 -0.38060127254172499 0 -0.38569326772338258 -0.37053454129240582 0 -0.37568472164775779 -0.36524225821647011 0 -0.3911593018599101 -0.36073848084166482 0 -0.37568472164775779 -0.36524225821647011 0 -0.38024887903539811 -0.3491016629308506 0 -0.40690054455725883 -0.35815659477868023 0 -0.3911593018599101 -0.36073848084166482 0 -0.38024887903539811 -0.3491016629308506 0 -0.40690054455725883 -0.35815659477868023 0 -0.38024887903539811 -0.3491016629308506 0 -0.39533213247953691 -0.34338662223350158 0 -0.40690054455725883 -0.35815659477868023 0 -0.39533213247953691 -0.34338662223350158 0 -0.40885114471262263 -0.334649070371968 0 -0.40690054455725883 -0.35815659477868023 0 -0.38024887903539811 -0.3491016629308506 0 -0.39533213247953691 -0.34338662223350158 0 -0.38532796161286798 -0.33163916085250739 0 -0.40885114471262263 -0.334649070371968 0 -0.38532796161286798 -0.33163916085250739 0 -0.40885114471262263 -0.334649070371968 0 -0.38024887903539811 -0.3491016629308506 0 -0.39533213247953691 -0.34338662223350158 0 -0.38532796161286798 -0.33163916085250739 0 -0.38024887903539811 -0.3491016629308506 0 -0.38532796161286798 -0.33163916085250739 0 -0.37024470816872912 -0.33735420154985679 0 -0.38532796161286798 -0.33163916085250739 0 -0.37601492727600683 -0.3197696392392384 0 -0.39293033406270472 -0.31505081143976649 0 -0.37601492727600683 -0.3197696392392384 0 -0.39293033406270472 -0.31505081143976649 0 -0.37651642550459341 -0.307078797330949 0 -0.38532796161286798 -0.33163916085250739 0 -0.39293033406270472 -0.31505081143976649 0 -0.40885114471262263 -0.334649070371968 0 -0.39293033406270472 -0.31505081143976649 0 -0.40885114471262263 -0.334649070371968 0 -0.41078846406037228 -0.3113015987101887 0 -0.40885114471262263 -0.334649070371968 0 -0.42554877913925399 -0.3223331804902434 0 -0.41078846406037228 -0.3113015987101887 0 -0.40885114471262263 -0.334649070371968 0 -0.41078846406037228 -0.3113015987101887 0 -0.42066840753926321 -0.34864312644900147 0 -0.40885114471262263 -0.334649070371968 0 -0.43521386225128428 -0.33802231259611382 0 -0.40885114471262263 -0.334649070371968 0 -0.43521386225128428 -0.33802231259611382 0 -0.40885114471262263 -0.334649070371968 0 -0.43521386225128428 -0.33802231259611382 0 -0.42554877913925399 -0.3223331804902434 0 -0.42554877913925399 -0.3223331804902434 0 -0.4314578060398388 -0.3048790663939604 0 -0.41078846406037228 -0.3113015987101887 0 -0.45018982867155483 -0.32180400573951162 0 -0.43521386225128428 -0.33802231259611382 0 -0.42554877913925399 -0.3223331804902434 0 -0.45018982867155483 -0.32180400573951162 0 -0.42554877913925399 -0.3223331804902434 0 -0.4314578060398388 -0.3048790663939604 0 -0.4476129789611048 -0.29283803371489903 0 -0.4314578060398388 -0.3048790663939604 0 -0.43236213870239748 -0.29002705800971151 0 -0.4314578060398388 -0.3048790663939604 0 -0.43236213870239748 -0.29002705800971151 0 -0.41272578340812272 -0.2879541270484095 0 -0.4314578060398388 -0.3048790663939604 0 -0.41272578340812272 -0.2879541270484095 0 -0.43765198640052377 -0.27443700488157741 0 -0.43236213870239748 -0.29002705800971151 0 -0.41272578340812272 -0.2879541270484095 0 -0.4314578060398388 -0.3048790663939604 0 -0.41272578340812272 -0.2879541270484095 0 -0.41078846406037228 -0.3113015987101887 0 -0.41272578340812272 -0.2879541270484095 0 -0.41078846406037228 -0.3113015987101887 0 -0.41272578340812272 -0.2879541270484095 0 -0.41078846406037228 -0.3113015987101887 0 -0.39233272698174793 -0.29435547039456872 0 -0.39293033406270472 -0.31505081143976649 0 -0.41078846406037228 -0.3113015987101887 0 -0.39233272698174793 -0.29435547039456872 0 -0.39293033406270472 -0.31505081143976649 0 -0.37651642550459341 -0.307078797330949 0 -0.39233272698174793 -0.29435547039456872 0 -0.39233272698174793 -0.29435547039456872 0 -0.39278725088820249 -0.26993907014966689 0 -0.37040839911066209 -0.28171057629616708 0 -0.37651642550459341 -0.307078797330949 0 -0.39233272698174793 -0.29435547039456872 0 -0.37040839911066209 -0.28171057629616708 0 -0.41272578340812272 -0.2879541270484095 0 -0.39233272698174793 -0.29435547039456872 0 -0.39278725088820249 -0.26993907014966689 0 -0.41272578340812272 -0.2879541270484095 0 -0.39278725088820249 -0.26993907014966689 0 -0.39278725088820249 -0.26993907014966689 0 -0.37040839911066209 -0.28171057629616708 0 -0.39278725088820249 -0.26993907014966689 0 -0.37533687834285862 -0.25417213976024849 0 -0.37040839911066209 -0.28171057629616708 0 -0.39278725088820249 -0.26993907014966689 0 -0.37533687834285862 -0.25417213976024849 0 -0.39826986996263802 -0.25360934065352753 0 -0.39278725088820249 -0.26993907014966689 0 -0.37533687834285862 -0.25417213976024849 0 -0.39278725088820249 -0.26993907014966689 0 -0.39826986996263802 -0.25360934065352753 0 -0.41519883225968468 -0.25815034790020708 0 -0.39278725088820249 -0.26993907014966689 0 -0.41519883225968468 -0.25815034790020708 0 -0.39826986996263802 -0.25360934065352753 0 -0.41519883225968468 -0.25815034790020708 0 -0.41615383063077721 -0.2466412503256647 0 -0.41519883225968468 -0.25815034790020708 0 -0.41615383063077721 -0.2466412503256647 0 -0.41272578340812272 -0.2879541270484095 0 -0.41519883225968468 -0.25815034790020708 0 -0.41272578340812272 -0.2879541270484095 0 -0.41519883225968468 -0.25815034790020708 0 -0.429874989515865 -0.26165756953837482 0 -0.41272578340812272 -0.2879541270484095 0 -0.39278725088820249 -0.26993907014966689 0 -0.41519883225968468 -0.25815034790020708 0 -0.43765198640052377 -0.27443700488157741 0 -0.41272578340812272 -0.2879541270484095 0 -0.429874989515865 -0.26165756953837482 0 -0.41519883225968468 -0.25815034790020708 0 -0.43598079583492633 -0.24721882136819351 0 -0.41519883225968468 -0.25815034790020708 0 -0.429874989515865 -0.26165756953837482 0 -0.43598079583492633 -0.24721882136819351 0 -0.41519883225968468 -0.25815034790020708 0 -0.43598079583492633 -0.24721882136819351 0 -0.41615383063077721 -0.2466412503256647 0 -0.31968345090478489 -0.25798973640781447 0 -0.33623326073948312 -0.25365348176558788 0 -0.32213598881581812 -0.2442700999577708 0 -0.31968345090478489 -0.25798973640781447 0 -0.31319680135340772 -0.27337899374224139 0 -0.30564385326437488 -0.26015983685037081 0 -0.31968345090478489 -0.25798973640781447 0 -0.31319680135340772 -0.27337899374224139 0 -0.33256675641106698 -0.27199424518209242 0 -0.31319680135340772 -0.27337899374224139 0 -0.33256675641106698 -0.27199424518209242 0 -0.3219330120753135 -0.28752383142540722 0 -0.33256675641106698 -0.27199424518209242 0 -0.33623326073948312 -0.25365348176558788 0 -0.35329637777243872 -0.26495799818728782 0 -0.31968345090478489 -0.25798973640781447 0 -0.33256675641106698 -0.27199424518209242 0 -0.33623326073948312 -0.25365348176558788 0 -0.33623326073948312 -0.25365348176558788 0 -0.35329637777243872 -0.26495799818728782 0 -0.35305879752332059 -0.24486073726717009 0 -0.37533687834285862 -0.25417213976024849 0 -0.35329637777243872 -0.26495799818728782 0 -0.35305879752332059 -0.24486073726717009 0 -0.37533687834285862 -0.25417213976024849 0 -0.35329637777243872 -0.26495799818728782 0 -0.37040839911066209 -0.28171057629616708 0 -0.35329637777243872 -0.26495799818728782 0 -0.34802954733312141 -0.29348208244266671 0 -0.37040839911066209 -0.28171057629616708 0 -0.33256675641106698 -0.27199424518209242 0 -0.35329637777243872 -0.26495799818728782 0 -0.34802954733312141 -0.29348208244266671 0 -0.34802954733312141 -0.29348208244266671 0 -0.37040839911066209 -0.28171057629616708 0 -0.37651642550459341 -0.307078797330949 0 -0.37040839911066209 -0.28171057629616708 0 -0.36249180620921062 -0.30132401124355712 0 -0.34802954733312141 -0.29348208244266671 0 -0.37040839911066209 -0.28171057629616708 0 -0.36249180620921062 -0.30132401124355712 0 -0.37651642550459341 -0.307078797330949 0 -0.36249180620921062 -0.30132401124355712 0 -0.36514172279026702 -0.314674684486903 0 -0.36249180620921062 -0.30132401124355712 0 -0.35217384865543538 -0.31302074178168637 0 -0.36514172279026702 -0.314674684486903 0 -0.34802954733312141 -0.29348208244266671 0 -0.33894022777705518 -0.31261958861733652 0 -0.35217384865543538 -0.31302074178168637 0 -0.34802954733312141 -0.29348208244266671 0 -0.36249180620921062 -0.30132401124355712 0 -0.35217384865543538 -0.31302074178168637 0 -0.34802954733312141 -0.29348208244266671 0 -0.32565069555558063 -0.30525358858916618 0 -0.33894022777705518 -0.31261958861733652 0 -0.34802954733312141 -0.29348208244266671 0 -0.32565069555558063 -0.30525358858916618 0 -0.32565069555558063 -0.30525358858916618 0 -0.32940773276489932 -0.31652548782855527 0 -0.33894022777705518 -0.31261958861733652 0 -0.33256675641106698 -0.27199424518209242 0 -0.34802954733312141 -0.29348208244266671 0 -0.3219330120753135 -0.28752383142540722 0 -0.34802954733312141 -0.29348208244266671 0 -0.3219330120753135 -0.28752383142540722 0 -0.32565069555558063 -0.30525358858916618 0 -0.3219330120753135 -0.28752383142540722 0 -0.31228269981280887 -0.29918463989613459 0 -0.30483638085835207 -0.28788342401786787 0 -0.31319680135340772 -0.27337899374224139 0 -0.3219330120753135 -0.28752383142540722 0 -0.30483638085835207 -0.28788342401786787 0 -0.32565069555558063 -0.30525358858916618 0 -0.30327184377803978 -0.31702509473566581 0 -0.31228269981280887 -0.29918463989613459 0 -0.3219330120753135 -0.28752383142540722 0 -0.32565069555558063 -0.30525358858916618 0 -0.31228269981280887 -0.29918463989613459 0 -0.32565069555558063 -0.30525358858916618 0 -0.30327184377803978 -0.31702509473566581 0 -0.31475841231360341 -0.32260943229412947 0 -0.32694554799167658 -0.33099179923519167 0 -0.33828159541335823 -0.32561934181358893 0 -0.32565069555558063 -0.30525358858916618 0 -0.31475841231360341 -0.32260943229412947 0 -0.30327184377803978 -0.31702509473566581 0 -0.31475841231360341 -0.32260943229412947 0 -0.33828159541335823 -0.32561934181358893 0 -0.32940773276489932 -0.31652548782855527 0 -0.32565069555558063 -0.30525358858916618 0 -0.31475841231360341 -0.32260943229412947 0 -0.32940773276489932 -0.31652548782855527 0 -0.31475841231360341 -0.32260943229412947 0 -0.33828159541335823 -0.32561934181358893 0 -0.31475841231360341 -0.32260943229412947 0 -0.31372637242327511 -0.33497634201883658 0 -0.32694554799167658 -0.33099179923519167 0 -0.32694554799167658 -0.33099179923519167 0 -0.32737612656656928 -0.35021722948502532 0 -0.3170311031704231 -0.34491623006635341 0 -0.31372637242327511 -0.33497634201883658 0 -0.32694554799167658 -0.33099179923519167 0 -0.3170311031704231 -0.34491623006635341 0 -0.31372637242327511 -0.33497634201883658 0 -0.3170311031704231 -0.34491623006635341 0 -0.30849554643820359 -0.34481279163420842 0 -0.32694554799167658 -0.33099179923519167 0 -0.33828159541335823 -0.32561934181358893 0 -0.35359721351353718 -0.34004673108302108 0 -0.32694554799167658 -0.33099179923519167 0 -0.35359721351353718 -0.34004673108302108 0 -0.33765025977867152 -0.34480892108230998 0 -0.32694554799167658 -0.33099179923519167 0 -0.35359721351353718 -0.34004673108302108 0 -0.32694554799167658 -0.33099179923519167 0 -0.33765025977867152 -0.34480892108230998 0 -0.32737612656656928 -0.35021722948502532 0 -0.33828159541335823 -0.32561934181358893 0 -0.32940773276489932 -0.31652548782855527 0 -0.33894022777705518 -0.31261958861733652 0 -0.33828159541335823 -0.32561934181358893 0 -0.33894022777705518 -0.31261958861733652 0 -0.35217384865543538 -0.31302074178168637 0 -0.33828159541335823 -0.32561934181358893 0 -0.3618047785131131 -0.32862925133304821 0 -0.33828159541335823 -0.32561934181358893 0 -0.35217384865543538 -0.31302074178168637 0 -0.3618047785131131 -0.32862925133304821 0 -0.38532796161286798 -0.33163916085250739 0 -0.37601492727600683 -0.3197696392392384 0 -0.3618047785131131 -0.32862925133304821 0 -0.35217384865543538 -0.31302074178168637 0 -0.36514172279026702 -0.314674684486903 0 -0.3618047785131131 -0.32862925133304821 0 -0.37601492727600683 -0.3197696392392384 0 -0.36514172279026702 -0.314674684486903 0 -0.3618047785131131 -0.32862925133304821 0 -0.37601492727600683 -0.3197696392392384 0 -0.37651642550459341 -0.307078797330949 0 -0.36514172279026702 -0.314674684486903 0 -0.38532796161286798 -0.33163916085250739 0 -0.37024470816872912 -0.33735420154985679 0 -0.3618047785131131 -0.32862925133304821 0 -0.37024470816872912 -0.33735420154985679 0 -0.3618047785131131 -0.32862925133304821 0 -0.35359721351353718 -0.34004673108302108 0 -0.38532796161286798 -0.33163916085250739 0 -0.3618047785131131 -0.32862925133304821 0 -0.38024887903539811 -0.3491016629308506 0 -0.37024470816872912 -0.33735420154985679 0 -0.35359721351353718 -0.34004673108302108 0 -0.33828159541335823 -0.32561934181358893 0 -0.3618047785131131 -0.32862925133304821 0 -0.35359721351353718 -0.34004673108302108 0 -0.35359721351353718 -0.34004673108302108 0 -0.36247207576052709 -0.35740109745143939 0 -0.34268215104290278 -0.35797992452600158 0 -0.35359721351353718 -0.34004673108302108 0 -0.34268215104290278 -0.35797992452600158 0 -0.33765025977867152 -0.34480892108230998 0 -0.37568472164775779 -0.36524225821647011 0 -0.38024887903539811 -0.3491016629308506 0 -0.36247207576052709 -0.35740109745143939 0 -0.38024887903539811 -0.3491016629308506 0 -0.35359721351353718 -0.34004673108302108 0 -0.36247207576052709 -0.35740109745143939 0 -0.38024887903539811 -0.3491016629308506 0 -0.35359721351353718 -0.34004673108302108 0 -0.37522403377147279 -0.38060127254172499 0 -0.37568472164775779 -0.36524225821647011 0 -0.35964608014779109 -0.37334112637938882 0 -0.37568472164775779 -0.36524225821647011 0 -0.36247207576052709 -0.35740109745143939 0 -0.35964608014779109 -0.37334112637938882 0 -0.36247207576052709 -0.35740109745143939 0 -0.35964608014779109 -0.37334112637938882 0 -0.34268215104290278 -0.35797992452600158 0 -0.35964608014779109 -0.37334112637938882 0 -0.34268215104290278 -0.35797992452600158 0 -0.34254000635277743 -0.38197763020755832 0 -0.34268215104290278 -0.35797992452600158 0 -0.32737612656656928 -0.35021722948502532 0 -0.32270418411731933 -0.37181077970513959 0 -0.34268215104290278 -0.35797992452600158 0 -0.32270418411731933 -0.37181077970513959 0 -0.34254000635277743 -0.38197763020755832 0 -0.34268215104290278 -0.35797992452600158 0 -0.34254000635277743 -0.38197763020755832 0 -0.34268215104290278 -0.35797992452600158 0 -0.33765025977867152 -0.34480892108230998 0 -0.32737612656656928 -0.35021722948502532 0 -0.32737612656656928 -0.35021722948502532 0 -0.31662274924076123 -0.35606216629487569 0 -0.32270418411731933 -0.37181077970513959 0 -0.32737612656656928 -0.35021722948502532 0 -0.3170311031704231 -0.34491623006635341 0 -0.31662274924076123 -0.35606216629487569 0 -0.3170311031704231 -0.34491623006635341 0 -0.31662274924076123 -0.35606216629487569 0 -0.30902027636205309 -0.35243705172998302 0 -0.31662274924076123 -0.35606216629487569 0 -0.32270418411731933 -0.37181077970513959 0 -0.30796050174877349 -0.36016317053514468 0 -0.32270418411731933 -0.37181077970513959 0 -0.29719619905707523 -0.36594012765828582 0 -0.30796050174877349 -0.36016317053514468 0 -0.32270418411731933 -0.37181077970513959 0 -0.29719619905707523 -0.36594012765828582 0 -0.3103864423796594 -0.37828470113645102 0 -0.32270418411731933 -0.37181077970513959 0 -0.29719619905707523 -0.36594012765828582 0 -0.29719619905707523 -0.36594012765828582 0 -0.29943295026653399 -0.35953932364306618 0 -0.30796050174877349 -0.36016317053514468 0 -0.29719619905707523 -0.36594012765828582 0 -0.29584447723995128 -0.37444813956539807 0 -0.3103864423796594 -0.37828470113645102 0 -0.31662274924076123 -0.35606216629487569 0 -0.30796050174877349 -0.36016317053514468 0 -0.30902027636205309 -0.35243705172998302 0 -0.30796050174877349 -0.36016317053514468 0 -0.30902027636205309 -0.35243705172998302 0 -0.30278665144889838 -0.35518957417951802 0 -0.3170311031704231 -0.34491623006635341 0 -0.30902027636205309 -0.35243705172998302 0 -0.30849554643820359 -0.34481279163420842 0 -0.30902027636205309 -0.35243705172998302 0 -0.30849554643820359 -0.34481279163420842 0 -0.30076474035813339 -0.34759465108555682 0 -0.30849554643820359 -0.34481279163420842 0 -0.30076474035813339 -0.34759465108555682 0 -0.30398917998114899 -0.33934800480643368 0 -0.30902027636205309 -0.35243705172998302 0 -0.30076474035813339 -0.34759465108555682 0 -0.30278665144889838 -0.35518957417951802 0 -0.29943295026653399 -0.35953932364306618 0 -0.30796050174877349 -0.36016317053514468 0 -0.30278665144889838 -0.35518957417951802 0 -0.30076474035813339 -0.34759465108555682 0 -0.30278665144889838 -0.35518957417951802 0 -0.29719830368448108 -0.35301728683459582 0 -0.29943295026653399 -0.35953932364306618 0 -0.30278665144889838 -0.35518957417951802 0 -0.29719830368448108 -0.35301728683459582 0 -0.29943295026653399 -0.35953932364306618 0 -0.29719830368448108 -0.35301728683459582 0 -0.29016743694869812 -0.35649807524262711 0 -0.29016743694869812 -0.35649807524262711 0 -0.28284547851944208 -0.35047845284871731 0 -0.27168821399683141 -0.36006947561143121 0 -0.29719830368448108 -0.35301728683459582 0 -0.29016743694869812 -0.35649807524262711 0 -0.2925915294609488 -0.34919256188026188 0 -0.2925915294609488 -0.34919256188026188 0 -0.28611540962297188 -0.3426453659285974 0 -0.29619358151489988 -0.34015641309103278 0 -0.30076474035813339 -0.34759465108555682 0 -0.29719830368448108 -0.35301728683459582 0 -0.2925915294609488 -0.34919256188026188 0 -0.30076474035813339 -0.34759465108555682 0 -0.2925915294609488 -0.34919256188026188 0 -0.29619358151489988 -0.34015641309103278 0 -0.2925915294609488 -0.34919256188026188 0 -0.28284547851944208 -0.35047845284871731 0 -0.28611540962297188 -0.3426453659285974 0 -0.28284547851944208 -0.35047845284871731 0 -0.27676447355633299 -0.3457480812413124 0 -0.28611540962297188 -0.3426453659285974 0 -0.29016743694869812 -0.35649807524262711 0 -0.2925915294609488 -0.34919256188026188 0 -0.28284547851944208 -0.35047845284871731 0 -0.29202770366946113 -0.36668513997228358 0 -0.27168821399683141 -0.36006947561143121 0 -0.28307956849111848 -0.3828068929804474 0 -0.29719619905707523 -0.36594012765828582 0 -0.27168821399683141 -0.36006947561143121 0 -0.29202770366946113 -0.36668513997228358 0 -0.28307956849111848 -0.3828068929804474 0 -0.29202770366946113 -0.36668513997228358 0 -0.29584447723995128 -0.37444813956539807 0 -0.28307956849111848 -0.3828068929804474 0 -0.29719619905707523 -0.36594012765828582 0 -0.29016743694869812 -0.35649807524262711 0 -0.27168821399683141 -0.36006947561143121 0 -0.29719619905707523 -0.36594012765828582 0 -0.29202770366946113 -0.36668513997228358 0 -0.27168821399683141 -0.36006947561143121 0 -0.29719619905707523 -0.36594012765828582 0 -0.29943295026653399 -0.35953932364306618 0 -0.29016743694869812 -0.35649807524262711 0 -0.29719619905707523 -0.36594012765828582 0 -0.29202770366946113 -0.36668513997228358 0 -0.29584447723995128 -0.37444813956539807 0 -0.27168821399683141 -0.36006947561143121 0 -0.28307956849111848 -0.3828068929804474 0 -0.27168821399683141 -0.36006947561143121 0 -0.28307956849111848 -0.3828068929804474 0 -0.26050234447883253 -0.38027693877573482 0 -0.27168821399683141 -0.36006947561143121 0 -0.25721723303835431 -0.36623646057876708 0 -0.26050234447883253 -0.38027693877573482 0 -0.27168821399683141 -0.36006947561143121 0 -0.25721723303835431 -0.36623646057876708 0 -0.24850069890613241 -0.35473287875334369 0 -0.25721723303835431 -0.36623646057876708 0 -0.24817767477162081 -0.36986654917455902 0 -0.24850069890613241 -0.35473287875334369 0 -0.25721723303835431 -0.36623646057876708 0 -0.26050234447883253 -0.38027693877573482 0 -0.24817767477162081 -0.36986654917455902 0 -0.27168821399683141 -0.36006947561143121 0 -0.25445926970156468 -0.34270101061729968 0 -0.24850069890613241 -0.35473287875334369 0 -0.27168821399683141 -0.36006947561143121 0 -0.26120815563270988 -0.3391510272218049 0 -0.25445926970156468 -0.34270101061729968 0 -0.27168821399683141 -0.36006947561143121 0 -0.24850069890613241 -0.35473287875334369 0 -0.27168821399683141 -0.36006947561143121 0 -0.27676447355633299 -0.3457480812413124 0 -0.26120815563270988 -0.3391510272218049 0 -0.27168821399683141 -0.36006947561143121 0 -0.26120815563270988 -0.3391510272218049 0 -0.28284547851944208 -0.35047845284871731 0 -0.27168821399683141 -0.36006947561143121 0 -0.27676447355633299 -0.3457480812413124 0 -0.27676447355633299 -0.3457480812413124 0 -0.27858368134566353 -0.33798527866036399 0 -0.28611540962297188 -0.3426453659285974 0 -0.27676447355633299 -0.3457480812413124 0 -0.27858368134566353 -0.33798527866036399 0 -0.26120815563270988 -0.3391510272218049 0 -0.28089299200049878 -0.32879660088216478 0 -0.26120815563270988 -0.3391510272218049 0 -0.28089299200049878 -0.32879660088216478 0 -0.26120815563270988 -0.3391510272218049 0 -0.26730676106940449 -0.32685643845792262 0 -0.27858368134566353 -0.33798527866036399 0 -0.28089299200049878 -0.32879660088216478 0 -0.26120815563270988 -0.3391510272218049 0 -0.26120815563270988 -0.3391510272218049 0 -0.26057751607960811 -0.32279583566460812 0 -0.26730676106940449 -0.32685643845792262 0 -0.26120815563270988 -0.3391510272218049 0 -0.25273748935779161 -0.32224337373924072 0 -0.26120815563270988 -0.3391510272218049 0 -0.25207330520806498 -0.33378255792528982 0 -0.25273748935779161 -0.32224337373924072 0 -0.26120815563270988 -0.3391510272218049 0 -0.25445926970156468 -0.34270101061729968 0 -0.25207330520806498 -0.33378255792528982 0 -0.25445926970156468 -0.34270101061729968 0 -0.2460450098649074 -0.33743905859998191 0 -0.26120815563270988 -0.3391510272218049 0 -0.25207330520806498 -0.33378255792528982 0 -0.25445926970156468 -0.34270101061729968 0 -0.25273748935779161 -0.32224337373924072 0 -0.26050456352867191 -0.3149367065078193 0 -0.24426682308287331 -0.30533572025667649 0 -0.26120815563270988 -0.3391510272218049 0 -0.25273748935779161 -0.32224337373924072 0 -0.26057751607960811 -0.32279583566460812 0 -0.26057751607960811 -0.32279583566460812 0 -0.26050456352867191 -0.3149367065078193 0 -0.26730676106940449 -0.32685643845792262 0 -0.25273748935779161 -0.32224337373924072 0 -0.26057751607960811 -0.32279583566460812 0 -0.26050456352867191 -0.3149367065078193 0 -0.28089299200049878 -0.32879660088216478 0 -0.26050456352867191 -0.3149367065078193 0 -0.27445713665833338 -0.31633796571173628 0 -0.28089299200049878 -0.32879660088216478 0 -0.26050456352867191 -0.3149367065078193 0 -0.26050456352867191 -0.3149367065078193 0 -0.27445713665833338 -0.31633796571173628 0 -0.26793999894844561 -0.31004618489902153 0 -0.28089299200049878 -0.32879660088216478 0 -0.26050456352867191 -0.3149367065078193 0 -0.26730676106940449 -0.32685643845792262 0 -0.28089299200049878 -0.32879660088216478 0 -0.27445713665833338 -0.31633796571173628 0 -0.28125105682705043 -0.31976055402590231 0 -0.27445713665833338 -0.31633796571173628 0 -0.28252008875028978 -0.31254235777143202 0 -0.28125105682705043 -0.31976055402590231 0 -0.28252008875028978 -0.31254235777143202 0 -0.28823329624350208 -0.31711313423980658 0 -0.29327146190654751 -0.30876504511160502 0 -0.28089299200049878 -0.32879660088216478 0 -0.28823329624350208 -0.31711313423980658 0 -0.30327184377803978 -0.31702509473566581 0 -0.28089299200049878 -0.32879660088216478 0 -0.29457520052377689 -0.33013191680287202 0 -0.30327184377803978 -0.31702509473566581 0 -0.28089299200049878 -0.32879660088216478 0 -0.30327184377803978 -0.31702509473566581 0 -0.28252008875028978 -0.31254235777143202 0 -0.28125105682705043 -0.31976055402590231 0 -0.28823329624350208 -0.31711313423980658 0 -0.28823329624350208 -0.31711313423980658 0 -0.30327184377803978 -0.31702509473566581 0 -0.29327146190654751 -0.30876504511160502 0 -0.28089299200049878 -0.32879660088216478 0 -0.28125105682705043 -0.31976055402590231 0 -0.28823329624350208 -0.31711313423980658 0 -0.28089299200049878 -0.32879660088216478 0 -0.28793737591580382 -0.33358531802794061 0 -0.27858368134566353 -0.33798527866036399 0 -0.28089299200049878 -0.32879660088216478 0 -0.28793737591580382 -0.33358531802794061 0 -0.28089299200049878 -0.32879660088216478 0 -0.28793737591580382 -0.33358531802794061 0 -0.29457520052377689 -0.33013191680287202 0 -0.27858368134566353 -0.33798527866036399 0 -0.28793737591580382 -0.33358531802794061 0 -0.28611540962297188 -0.3426453659285974 0 -0.28793737591580382 -0.33358531802794061 0 -0.28611540962297188 -0.3426453659285974 0 -0.29619358151489988 -0.34015641309103278 0 -0.28793737591580382 -0.33358531802794061 0 -0.29619358151489988 -0.34015641309103278 0 -0.29457520052377689 -0.33013191680287202 0 -0.29619358151489988 -0.34015641309103278 0 -0.29457520052377689 -0.33013191680287202 0 -0.30458020940964259 -0.3310961572775562 0 -0.30076474035813339 -0.34759465108555682 0 -0.29619358151489988 -0.34015641309103278 0 -0.30398917998114899 -0.33934800480643368 0 -0.29619358151489988 -0.34015641309103278 0 -0.30458020940964259 -0.3310961572775562 0 -0.30398917998114899 -0.33934800480643368 0 -0.31372637242327511 -0.33497634201883658 0 -0.30849554643820359 -0.34481279163420842 0 -0.30398917998114899 -0.33934800480643368 0 -0.31475841231360341 -0.32260943229412947 0 -0.31372637242327511 -0.33497634201883658 0 -0.30458020940964259 -0.3310961572775562 0 -0.31372637242327511 -0.33497634201883658 0 -0.30458020940964259 -0.3310961572775562 0 -0.30398917998114899 -0.33934800480643368 0 -0.31475841231360341 -0.32260943229412947 0 -0.30458020940964259 -0.3310961572775562 0 -0.30327184377803978 -0.31702509473566581 0 -0.29457520052377689 -0.33013191680287202 0 -0.30458020940964259 -0.3310961572775562 0 -0.30327184377803978 -0.31702509473566581 0 -0.30327184377803978 -0.31702509473566581 0 -0.30068554560480582 -0.30112982209441241 0 -0.31228269981280887 -0.29918463989613459 0 -0.30327184377803978 -0.31702509473566581 0 -0.30068554560480582 -0.30112982209441241 0 -0.29327146190654751 -0.30876504511160502 0 -0.30068554560480582 -0.30112982209441241 0 -0.30483638085835207 -0.28788342401786787 0 -0.28888361246081401 -0.29493054457851903 0 -0.30068554560480582 -0.30112982209441241 0 -0.31228269981280887 -0.29918463989613459 0 -0.30483638085835207 -0.28788342401786787 0 -0.28888361246081401 -0.29493054457851903 0 -0.28078806465599399 -0.28300047521785149 0 -0.29451735460655398 -0.27472288856989607 0 -0.30483638085835207 -0.28788342401786787 0 -0.28888361246081401 -0.29493054457851903 0 -0.29451735460655398 -0.27472288856989607 0 -0.28888361246081401 -0.29493054457851903 0 -0.28295382644196537 -0.3038897035906043 0 -0.27388309143310768 -0.29511411685975181 0 -0.28888361246081401 -0.29493054457851903 0 -0.28295382644196537 -0.3038897035906043 0 -0.29327146190654751 -0.30876504511160502 0 -0.30068554560480582 -0.30112982209441241 0 -0.28888361246081401 -0.29493054457851903 0 -0.29327146190654751 -0.30876504511160502 0 -0.28252008875028978 -0.31254235777143202 0 -0.28295382644196537 -0.3038897035906043 0 -0.29327146190654751 -0.30876504511160502 0 -0.27445713665833338 -0.31633796571173628 0 -0.28252008875028978 -0.31254235777143202 0 -0.27524002690986649 -0.30828041126704497 0 -0.28252008875028978 -0.31254235777143202 0 -0.28295382644196537 -0.3038897035906043 0 -0.27524002690986649 -0.30828041126704497 0 -0.28295382644196537 -0.3038897035906043 0 -0.27524002690986649 -0.30828041126704497 0 -0.27388309143310768 -0.29511411685975181 0 -0.26808679199009749 -0.30362992927208171 0 -0.26252268864995981 -0.29761987486456531 0 -0.27388309143310768 -0.29511411685975181 0 -0.27524002690986649 -0.30828041126704497 0 -0.26808679199009749 -0.30362992927208171 0 -0.27388309143310768 -0.29511411685975181 0 -0.27445713665833338 -0.31633796571173628 0 -0.27524002690986649 -0.30828041126704497 0 -0.26793999894844561 -0.31004618489902153 0 -0.27524002690986649 -0.30828041126704497 0 -0.26808679199009749 -0.30362992927208171 0 -0.26793999894844561 -0.31004618489902153 0 -0.26808679199009749 -0.30362992927208171 0 -0.26793999894844561 -0.31004618489902153 0 -0.26278193746552841 -0.30551063084933561 0 -0.26050456352867191 -0.3149367065078193 0 -0.25485564421046719 -0.30132045870319019 0 -0.24011613505684479 -0.30107681213347393 0 -0.26050456352867191 -0.3149367065078193 0 -0.24011613505684479 -0.30107681213347393 0 -0.26050456352867191 -0.3149367065078193 0 -0.26278193746552841 -0.30551063084933561 0 -0.25485564421046719 -0.30132045870319019 0 -0.26050456352867191 -0.3149367065078193 0 -0.26793999894844561 -0.31004618489902153 0 -0.26278193746552841 -0.30551063084933561 0 -0.26278193746552841 -0.30551063084933561 0 -0.26252268864995981 -0.29761987486456531 0 -0.25485564421046719 -0.30132045870319019 0 -0.26252268864995981 -0.29761987486456531 0 -0.25485564421046719 -0.30132045870319019 0 -0.2567143935458242 -0.29223768812186002 0 -0.26808679199009749 -0.30362992927208171 0 -0.26278193746552841 -0.30551063084933561 0 -0.26252268864995981 -0.29761987486456531 0 -0.25608276685525683 -0.28295324223861612 0 -0.2567143935458242 -0.29223768812186002 0 -0.24732420154209239 -0.29033586459568173 0 -0.25485564421046719 -0.30132045870319019 0 -0.2567143935458242 -0.29223768812186002 0 -0.24732420154209239 -0.29033586459568173 0 -0.26252268864995981 -0.29761987486456531 0 -0.2567143935458242 -0.29223768812186002 0 -0.26350989061834318 -0.28909490770035701 0 -0.25608276685525683 -0.28295324223861612 0 -0.26350989061834318 -0.28909490770035701 0 -0.26907982973782107 -0.2804670883869903 0 -0.25608276685525683 -0.28295324223861612 0 -0.2567143935458242 -0.29223768812186002 0 -0.26350989061834318 -0.28909490770035701 0 -0.26350989061834318 -0.28909490770035701 0 -0.27388309143310768 -0.29511411685975181 0 -0.26907982973782107 -0.2804670883869903 0 -0.26252268864995981 -0.29761987486456531 0 -0.26350989061834318 -0.28909490770035701 0 -0.27388309143310768 -0.29511411685975181 0 -0.28888361246081401 -0.29493054457851903 0 -0.27388309143310768 -0.29511411685975181 0 -0.28078806465599399 -0.28300047521785149 0 -0.27388309143310768 -0.29511411685975181 0 -0.28078806465599399 -0.28300047521785149 0 -0.26907982973782107 -0.2804670883869903 0 -0.27772768471542669 -0.26767482265106679 0 -0.26907982973782107 -0.2804670883869903 0 -0.25958550566062261 -0.27102626557679149 0 -0.28078806465599399 -0.28300047521785149 0 -0.27772768471542669 -0.26767482265106679 0 -0.26907982973782107 -0.2804670883869903 0 -0.25608276685525683 -0.28295324223861612 0 -0.26907982973782107 -0.2804670883869903 0 -0.25958550566062261 -0.27102626557679149 0 -0.25608276685525683 -0.28295324223861612 0 -0.25958550566062261 -0.27102626557679149 0 -0.2444485511135471 -0.27534046621033159 0 -0.26398002587916253 -0.25656090854441049 0 -0.24465976002352091 -0.25387891845332877 0 -0.25992972331208369 -0.2410680052130979 0 -0.25958550566062261 -0.27102626557679149 0 -0.26398002587916253 -0.25656090854441049 0 -0.24465976002352091 -0.25387891845332877 0 -0.27772768471542669 -0.26767482265106679 0 -0.26398002587916253 -0.25656090854441049 0 -0.27722523139620658 -0.24922189107985179 0 -0.27772768471542669 -0.26767482265106679 0 -0.25958550566062261 -0.27102626557679149 0 -0.26398002587916253 -0.25656090854441049 0 -0.27772768471542669 -0.26767482265106679 0 -0.29131753467172561 -0.25675805269722002 0 -0.27722523139620658 -0.24922189107985179 0 -0.28078806465599399 -0.28300047521785149 0 -0.27772768471542669 -0.26767482265106679 0 -0.29451735460655398 -0.27472288856989607 0 -0.27772768471542669 -0.26767482265106679 0 -0.29131753467172561 -0.25675805269722002 0 -0.29451735460655398 -0.27472288856989607 0 -0.31319680135340772 -0.27337899374224139 0 -0.29451735460655398 -0.27472288856989607 0 -0.30564385326437488 -0.26015983685037081 0 -0.31319680135340772 -0.27337899374224139 0 -0.30483638085835207 -0.28788342401786787 0 -0.29451735460655398 -0.27472288856989607 0 -0.29131753467172561 -0.25675805269722002 0 -0.29451735460655398 -0.27472288856989607 0 -0.30564385326437488 -0.26015983685037081 0 -0.29131753467172561 -0.25675805269722002 0 -0.30564385326437488 -0.26015983685037081 0 -0.30769212114973271 -0.24578220261295139 0 -0.31968345090478489 -0.25798973640781447 0 -0.30564385326437488 -0.26015983685037081 0 -0.30769212114973271 -0.24578220261295139 0 -0.34207866423036198 -0.45986413066326443 0 -0.33141508850449702 -0.45187214799378478 0 -0.32594289259428999 -0.46085836632795257 0 -0.34207866423036198 -0.45986413066326443 0 -0.32594289259428999 -0.46085836632795257 0 -0.33264581849560632 -0.47431014716802089 0 -0.34207866423036198 -0.45986413066326443 0 -0.34225571697252682 -0.42997304157067162 0 -0.34207866423036198 -0.45986413066326443 0 -0.33358626016413989 -0.44229992863572659 0 -0.33141508850449702 -0.45187214799378478 0 -0.34207866423036198 -0.45986413066326443 0 -0.33358626016413989 -0.44229992863572659 0 -0.34225571697252682 -0.42997304157067162 0 -0.33358626016413989 -0.44229992863572659 0 -0.33141508850449702 -0.45187214799378478 0 -0.32300139100864811 -0.44723989508536771 0 -0.33358626016413989 -0.44229992863572659 0 -0.32300139100864811 -0.44723989508536771 0 -0.32413493920603592 -0.43586432580396972 0 -0.32300139100864811 -0.44723989508536771 0 -0.31385630152515048 -0.44199725430357722 0 -0.32413493920603592 -0.43586432580396972 0 -0.32300139100864811 -0.44723989508536771 0 -0.31385630152515048 -0.44199725430357722 0 -0.31044958537109257 -0.45255960714027171 0 -0.32594289259428999 -0.46085836632795257 0 -0.31333683559556219 -0.46686726284272168 0 -0.31044958537109257 -0.45255960714027171 0 -0.32594289259428999 -0.46085836632795257 0 -0.31333683559556219 -0.46686726284272168 0 -0.32224857144892449 -0.47649828689453749 0 -0.32300139100864811 -0.44723989508536771 0 -0.32594289259428999 -0.46085836632795257 0 -0.31044958537109257 -0.45255960714027171 0 -0.33141508850449702 -0.45187214799378478 0 -0.32300139100864811 -0.44723989508536771 0 -0.32594289259428999 -0.46085836632795257 0 -0.31333683559556219 -0.46686726284272168 0 -0.32224857144892449 -0.47649828689453749 0 -0.30503152439861497 -0.48190266549989857 0 -0.32224857144892449 -0.47649828689453749 0 -0.32279626626388608 -0.48781718170045291 0 -0.30503152439861497 -0.48190266549989857 0 -0.32594289259428999 -0.46085836632795257 0 -0.32224857144892449 -0.47649828689453749 0 -0.33264581849560632 -0.47431014716802089 0 -0.32224857144892449 -0.47649828689453749 0 -0.32279626626388608 -0.48781718170045291 0 -0.33105735271625752 -0.4845747321984929 0 -0.32006214434654462 -0.5 0 -0.32279626626388608 -0.48781718170045291 0 -0.30503152439861497 -0.48190266549989857 0 -0.32006214434654462 -0.5 0 -0.32279626626388608 -0.48781718170045291 0 -0.33558173840908911 -0.49611022390933512 0 -0.32006214434654462 -0.5 0 -0.33558173840908911 -0.49611022390933512 0 -0.34657288766042038 -0.5 0 -0.33558173840908911 -0.49611022390933512 0 -0.34190161148819742 -0.48975521975585701 0 -0.35306908662498632 -0.4951847935385878 0 -0.32279626626388608 -0.48781718170045291 0 -0.33558173840908911 -0.49611022390933512 0 -0.33105735271625752 -0.4845747321984929 0 -0.33558173840908911 -0.49611022390933512 0 -0.33105735271625752 -0.4845747321984929 0 -0.34190161148819742 -0.48975521975585701 0 -0.34207866423036198 -0.45986413066326443 0 -0.34190161148819742 -0.48975521975585701 0 -0.34207866423036198 -0.45986413066326443 0 -0.34190161148819742 -0.48975521975585701 0 -0.33264581849560632 -0.47431014716802089 0 -0.33105735271625752 -0.4845747321984929 0 -0.34190161148819742 -0.48975521975585701 0 -0.33264581849560632 -0.47431014716802089 0 -0.32224857144892449 -0.47649828689453749 0 -0.33105735271625752 -0.4845747321984929 0 -0.33264581849560632 -0.47431014716802089 0 -0.34190161148819742 -0.48975521975585701 0 -0.35001641252228072 -0.47142734906239081 0 -0.35328963507943428 -0.48328499015431992 0 -0.34207866423036198 -0.45986413066326443 0 -0.34190161148819742 -0.48975521975585701 0 -0.35001641252228072 -0.47142734906239081 0 -0.35328963507943428 -0.48328499015431992 0 -0.35950950469085041 -0.48638993404071668 0 -0.36112286221809747 -0.47283058930211808 0 -0.35001641252228072 -0.47142734906239081 0 -0.35328963507943428 -0.48328499015431992 0 -0.36112286221809747 -0.47283058930211808 0 -0.33558173840908911 -0.49611022390933512 0 -0.35306908662498632 -0.4951847935385878 0 -0.33558173840908911 -0.49611022390933512 0 -0.34657288766042038 -0.5 0 -0.35306908662498632 -0.4951847935385878 0 -0.34657288766042038 -0.5 0 -0.35306908662498632 -0.4951847935385878 0 -0.37308363097429631 -0.50000000000000244 0 -0.34190161148819742 -0.48975521975585701 0 -0.35328963507943428 -0.48328499015431992 0 -0.35306908662498632 -0.4951847935385878 0 -0.35328963507943428 -0.48328499015431992 0 -0.35306908662498632 -0.4951847935385878 0 -0.35950950469085041 -0.48638993404071668 0 -0.35306908662498632 -0.4951847935385878 0 -0.35950950469085041 -0.48638993404071668 0 -0.37055643484088358 -0.49425936316784103 0 -0.35306908662498632 -0.4951847935385878 0 -0.37055643484088358 -0.49425936316784103 0 -0.35950950469085041 -0.48638993404071668 0 -0.37055643484088358 -0.49425936316784103 0 -0.36112286221809747 -0.47283058930211808 0 -0.35306908662498632 -0.4951847935385878 0 -0.37055643484088358 -0.49425936316784103 0 -0.37308363097429631 -0.50000000000000244 0 -0.37055643484088358 -0.49425936316784103 0 -0.37308363097429631 -0.50000000000000244 0 -0.38039451612360919 -0.47713749807852829 0 -0.37055643484088358 -0.49425936316784103 0 -0.36112286221809747 -0.47283058930211808 0 -0.37055643484088358 -0.49425936316784103 0 -0.36112286221809747 -0.47283058930211808 0 -0.38039451612360919 -0.47713749807852829 0 -0.36112286221809747 -0.47283058930211808 0 -0.37415472949075129 -0.45946062715310632 0 -0.37415472949075129 -0.45946062715310632 0 -0.3629811744391212 -0.45722253899736259 0 -0.36406731613876331 -0.44506275929787698 0 -0.36112286221809747 -0.47283058930211808 0 -0.37415472949075129 -0.45946062715310632 0 -0.3629811744391212 -0.45722253899736259 0 -0.36112286221809747 -0.47283058930211808 0 -0.3629811744391212 -0.45722253899736259 0 -0.35168928959531232 -0.4514018154363949 0 -0.36112286221809747 -0.47283058930211808 0 -0.35168928959531232 -0.4514018154363949 0 -0.35001641252228072 -0.47142734906239081 0 -0.36112286221809747 -0.47283058930211808 0 -0.35168928959531232 -0.4514018154363949 0 -0.34207866423036198 -0.45986413066326443 0 -0.35001641252228072 -0.47142734906239081 0 -0.35168928959531232 -0.4514018154363949 0 -0.35168928959531232 -0.4514018154363949 0 -0.34225571697252682 -0.42997304157067162 0 -0.35168928959531232 -0.4514018154363949 0 -0.36406731613876331 -0.44506275929787698 0 -0.34225571697252682 -0.42997304157067162 0 -0.34207866423036198 -0.45986413066326443 0 -0.35168928959531232 -0.4514018154363949 0 -0.34225571697252682 -0.42997304157067162 0 -0.38339996822118783 -0.44368928783448319 0 -0.36406731613876331 -0.44506275929787698 0 -0.36866352395763108 -0.4313760290561211 0 -0.38339996822118783 -0.44368928783448319 0 -0.37415472949075129 -0.45946062715310632 0 -0.36406731613876331 -0.44506275929787698 0 -0.3629811744391212 -0.45722253899736259 0 -0.35168928959531232 -0.4514018154363949 0 -0.36406731613876331 -0.44506275929787698 0 -0.38131756488089769 -0.42670085612339947 0 -0.36866352395763108 -0.4313760290561211 0 -0.36377437909963828 -0.41972983174959272 0 -0.38704143117499401 -0.40999023144455299 0 -0.3575105341832589 -0.40691374405003478 0 -0.38704143117499401 -0.40999023144455299 0 -0.36377437909963828 -0.41972983174959272 0 -0.3575105341832589 -0.40691374405003478 0 -0.35062038894632092 -0.41624612172537079 0 -0.34239786166265201 -0.40597533588911489 0 -0.34225571697252682 -0.42997304157067162 0 -0.36377437909963828 -0.41972983174959272 0 -0.3575105341832589 -0.40691374405003478 0 -0.35062038894632092 -0.41624612172537079 0 -0.3575105341832589 -0.40691374405003478 0 -0.35062038894632092 -0.41624612172537079 0 -0.34239786166265201 -0.40597533588911489 0 -0.36406731613876331 -0.44506275929787698 0 -0.36866352395763108 -0.4313760290561211 0 -0.34225571697252682 -0.42997304157067162 0 -0.36866352395763108 -0.4313760290561211 0 -0.36377437909963828 -0.41972983174959272 0 -0.34225571697252682 -0.42997304157067162 0 -0.36377437909963828 -0.41972983174959272 0 -0.35062038894632092 -0.41624612172537079 0 -0.34225571697252682 -0.42997304157067162 0 -0.37522403377147279 -0.38060127254172499 0 -0.37464038230528551 -0.396492613407532 0 -0.35879027536972019 -0.3891835699585654 0 -0.37522403377147279 -0.38060127254172499 0 -0.35964608014779109 -0.37334112637938882 0 -0.35879027536972019 -0.3891835699585654 0 -0.38704143117499401 -0.40999023144455299 0 -0.3575105341832589 -0.40691374405003478 0 -0.37464038230528551 -0.396492613407532 0 -0.3575105341832589 -0.40691374405003478 0 -0.37464038230528551 -0.396492613407532 0 -0.35879027536972019 -0.3891835699585654 0 -0.3575105341832589 -0.40691374405003478 0 -0.35030966939210212 -0.39601257002631829 0 -0.35879027536972019 -0.3891835699585654 0 -0.35030966939210212 -0.39601257002631829 0 -0.34254000635277743 -0.38197763020755832 0 -0.34239786166265201 -0.40597533588911489 0 -0.3575105341832589 -0.40691374405003478 0 -0.35030966939210212 -0.39601257002631829 0 -0.34239786166265201 -0.40597533588911489 0 -0.35964608014779109 -0.37334112637938882 0 -0.35879027536972019 -0.3891835699585654 0 -0.34254000635277743 -0.38197763020755832 0 -0.35030966939210212 -0.39601257002631829 0 -0.35879027536972019 -0.3891835699585654 0 -0.34254000635277743 -0.38197763020755832 0 -0.32270418411731933 -0.37181077970513959 0 -0.34254000635277743 -0.38197763020755832 0 -0.32435131947256218 -0.38428518727128619 0 -0.34254000635277743 -0.38197763020755832 0 -0.33211028503505757 -0.39455092735479258 0 -0.32435131947256218 -0.38428518727128619 0 -0.34254000635277743 -0.38197763020755832 0 -0.33211028503505757 -0.39455092735479258 0 -0.34239786166265201 -0.40597533588911489 0 -0.34254000635277743 -0.38197763020755832 0 -0.34239786166265201 -0.40597533588911489 0 -0.33211028503505757 -0.39455092735479258 0 -0.32627218782356721 -0.40254155632103228 0 -0.33325599186729038 -0.40952977136485508 0 -0.33211028503505757 -0.39455092735479258 0 -0.34239786166265201 -0.40597533588911489 0 -0.33325599186729038 -0.40952977136485508 0 -0.32627218782356721 -0.40254155632103228 0 -0.31778611784491262 -0.39429551077659458 0 -0.31836523457261151 -0.40628576827473822 0 -0.31778611784491262 -0.39429551077659458 0 -0.31836523457261151 -0.40628576827473822 0 -0.30856762168503782 -0.40330407176644772 0 -0.33211028503505757 -0.39455092735479258 0 -0.32627218782356721 -0.40254155632103228 0 -0.31778611784491262 -0.39429551077659458 0 -0.33211028503505757 -0.39455092735479258 0 -0.31778611784491262 -0.39429551077659458 0 -0.32435131947256218 -0.38428518727128619 0 -0.31778611784491262 -0.39429551077659458 0 -0.32435131947256218 -0.38428518727128619 0 -0.3103864423796594 -0.37828470113645102 0 -0.32270418411731933 -0.37181077970513959 0 -0.32435131947256218 -0.38428518727128619 0 -0.3103864423796594 -0.37828470113645102 0 -0.34225571697252682 -0.42997304157067162 0 -0.32127707919304882 -0.42450406978857058 0 -0.32413493920603592 -0.43586432580396972 0 -0.33358626016413989 -0.44229992863572659 0 -0.34225571697252682 -0.42997304157067162 0 -0.32413493920603592 -0.43586432580396972 0 -0.34225571697252682 -0.42997304157067162 0 -0.32547848823970138 -0.41505510354763547 0 -0.32127707919304882 -0.42450406978857058 0 -0.34225571697252682 -0.42997304157067162 0 -0.33325599186729038 -0.40952977136485508 0 -0.34239786166265201 -0.40597533588911489 0 -0.34225571697252682 -0.42997304157067162 0 -0.34225571697252682 -0.42997304157067162 0 -0.33325599186729038 -0.40952977136485508 0 -0.32547848823970138 -0.41505510354763547 0 -0.34239786166265201 -0.40597533588911489 0 -0.34225571697252682 -0.42997304157067162 0 -0.33325599186729038 -0.40952977136485508 0 -0.32627218782356721 -0.40254155632103228 0 -0.33325599186729038 -0.40952977136485508 0 -0.32547848823970138 -0.41505510354763547 0 -0.32547848823970138 -0.41505510354763547 0 -0.3149711123139971 -0.41411215899080989 0 -0.32127707919304882 -0.42450406978857058 0 -0.32627218782356721 -0.40254155632103228 0 -0.32547848823970138 -0.41505510354763547 0 -0.31836523457261151 -0.40628576827473822 0 -0.32547848823970138 -0.41505510354763547 0 -0.31836523457261151 -0.40628576827473822 0 -0.3149711123139971 -0.41411215899080989 0 -0.31836523457261151 -0.40628576827473822 0 -0.3149711123139971 -0.41411215899080989 0 -0.30856762168503782 -0.40330407176644772 0 -0.3149711123139971 -0.41411215899080989 0 -0.32127707919304882 -0.42450406978857058 0 -0.31068047406536009 -0.42124040027518911 0 -0.32127707919304882 -0.42450406978857058 0 -0.31073004788055869 -0.43167813375356229 0 -0.31068047406536009 -0.42124040027518911 0 -0.32127707919304882 -0.42450406978857058 0 -0.32413493920603592 -0.43586432580396972 0 -0.31073004788055869 -0.43167813375356229 0 -0.31385630152515048 -0.44199725430357722 0 -0.32413493920603592 -0.43586432580396972 0 -0.31073004788055869 -0.43167813375356229 0 -0.31073004788055869 -0.43167813375356229 0 -0.29829421210859891 -0.43220714453990322 0 -0.30286215921622678 -0.44210958888768459 0 -0.31073004788055869 -0.43167813375356229 0 -0.29829421210859891 -0.43220714453990322 0 -0.30293836312512551 -0.42244552438862548 0 -0.29829421210859891 -0.43220714453990322 0 -0.30293836312512551 -0.42244552438862548 0 -0.29038846928103268 -0.42353273433611682 0 -0.31073004788055869 -0.43167813375356229 0 -0.30293836312512551 -0.42244552438862548 0 -0.31068047406536009 -0.42124040027518911 0 -0.3149711123139971 -0.41411215899080989 0 -0.31068047406536009 -0.42124040027518911 0 -0.30545777612822328 -0.41428354029227837 0 -0.30293836312512551 -0.42244552438862548 0 -0.31068047406536009 -0.42124040027518911 0 -0.30545777612822328 -0.41428354029227837 0 -0.3149711123139971 -0.41411215899080989 0 -0.30545777612822328 -0.41428354029227837 0 -0.30856762168503782 -0.40330407176644772 0 -0.30545777612822328 -0.41428354029227837 0 -0.30856762168503782 -0.40330407176644772 0 -0.30079847364115991 -0.40578130343003371 0 -0.30545777612822328 -0.41428354029227837 0 -0.2987732092282892 -0.41413177709842958 0 -0.30079847364115991 -0.40578130343003371 0 -0.30293836312512551 -0.42244552438862548 0 -0.2987732092282892 -0.41413177709842958 0 -0.29038846928103268 -0.42353273433611682 0 -0.30293836312512551 -0.42244552438862548 0 -0.2987732092282892 -0.41413177709842958 0 -0.30293836312512551 -0.42244552438862548 0 -0.30545777612822328 -0.41428354029227837 0 -0.2987732092282892 -0.41413177709842958 0 -0.30545777612822328 -0.41428354029227837 0 -0.2987732092282892 -0.41413177709842958 0 -0.2987732092282892 -0.41413177709842958 0 -0.29092638885970451 -0.39846933503943821 0 -0.2987732092282892 -0.41413177709842958 0 -0.28243901841779939 -0.41376093348156762 0 -0.29092638885970451 -0.39846933503943821 0 -0.2987732092282892 -0.41413177709842958 0 -0.28243901841779939 -0.41376093348156762 0 -0.29038846928103268 -0.42353273433611682 0 -0.2987732092282892 -0.41413177709842958 0 -0.28243901841779939 -0.41376093348156762 0 -0.28243901841779939 -0.41376093348156762 0 -0.29038846928103268 -0.42353273433611682 0 -0.27500508569675858 -0.42792788340523652 0 -0.29038846928103268 -0.42353273433611682 0 -0.27500508569675858 -0.42792788340523652 0 -0.28620792983366777 -0.44117103379144762 0 -0.29829421210859891 -0.43220714453990322 0 -0.29038846928103268 -0.42353273433611682 0 -0.28620792983366777 -0.44117103379144762 0 -0.31778611784491262 -0.39429551077659458 0 -0.3103864423796594 -0.37828470113645102 0 -0.30424293331838692 -0.39073887816822978 0 -0.29584447723995128 -0.37444813956539807 0 -0.29713407365637251 -0.38186722723828942 0 -0.3103864423796594 -0.37828470113645102 0 -0.29713407365637251 -0.38186722723828942 0 -0.30424293331838692 -0.39073887816822978 0 -0.29406976999373469 -0.38920344929064732 0 -0.29713407365637251 -0.38186722723828942 0 -0.3103864423796594 -0.37828470113645102 0 -0.30424293331838692 -0.39073887816822978 0 -0.29998863005712628 -0.39809616774203599 0 -0.30424293331838692 -0.39073887816822978 0 -0.30856762168503782 -0.40330407176644772 0 -0.29998863005712628 -0.39809616774203599 0 -0.30424293331838692 -0.39073887816822978 0 -0.29406976999373469 -0.38920344929064732 0 -0.31778611784491262 -0.39429551077659458 0 -0.30424293331838692 -0.39073887816822978 0 -0.30856762168503782 -0.40330407176644772 0 -0.29998863005712628 -0.39809616774203599 0 -0.30079847364115991 -0.40578130343003371 0 -0.29092638885970451 -0.39846933503943821 0 -0.29998863005712628 -0.39809616774203599 0 -0.30856762168503782 -0.40330407176644772 0 -0.30079847364115991 -0.40578130343003371 0 -0.2987732092282892 -0.41413177709842958 0 -0.30079847364115991 -0.40578130343003371 0 -0.29092638885970451 -0.39846933503943821 0 -0.29092638885970451 -0.39846933503943821 0 -0.28307956849111848 -0.3828068929804474 0 -0.29092638885970451 -0.39846933503943821 0 -0.28307956849111848 -0.3828068929804474 0 -0.27459219804921331 -0.39809849142257658 0 -0.28243901841779939 -0.41376093348156762 0 -0.29092638885970451 -0.39846933503943821 0 -0.27459219804921331 -0.39809849142257658 0 -0.29998863005712628 -0.39809616774203599 0 -0.29092638885970451 -0.39846933503943821 0 -0.29406976999373469 -0.38920344929064732 0 -0.29092638885970451 -0.39846933503943821 0 -0.29406976999373469 -0.38920344929064732 0 -0.28307956849111848 -0.3828068929804474 0 -0.29713407365637251 -0.38186722723828942 0 -0.29406976999373469 -0.38920344929064732 0 -0.28307956849111848 -0.3828068929804474 0 -0.29584447723995128 -0.37444813956539807 0 -0.29713407365637251 -0.38186722723828942 0 -0.28307956849111848 -0.3828068929804474 0 -0.28307956849111848 -0.3828068929804474 0 -0.27459219804921331 -0.39809849142257658 0 -0.26050234447883253 -0.38027693877573482 0 -0.28307956849111848 -0.3828068929804474 0 -0.27459219804921331 -0.39809849142257658 0 -0.27459219804921331 -0.39809849142257658 0 -0.26610482760730952 -0.4133900898647066 0 -0.27459219804921331 -0.39809849142257658 0 -0.26088670843651829 -0.40068536336094251 0 -0.26610482760730952 -0.4133900898647066 0 -0.26088670843651829 -0.40068536336094251 0 -0.26050234447883253 -0.38027693877573482 0 -0.2487824818667288 -0.3954643368039899 0 -0.27459219804921331 -0.39809849142257658 0 -0.26088670843651829 -0.40068536336094251 0 -0.26050234447883253 -0.38027693877573482 0 -0.26088670843651829 -0.40068536336094251 0 -0.24694430377570939 -0.41295507854145541 0 -0.2487824818667288 -0.3954643368039899 0 -0.27500508569675858 -0.42792788340523652 0 -0.25298523514652932 -0.43702750984159111 0 -0.27028712802556781 -0.44002206955302048 0 -0.27500508569675858 -0.42792788340523652 0 -0.27028712802556781 -0.44002206955302048 0 -0.28620792983366777 -0.44117103379144762 0 -0.28243901841779939 -0.41376093348156762 0 -0.27500508569675858 -0.42792788340523652 0 -0.26610482760730952 -0.4133900898647066 0 -0.28243901841779939 -0.41376093348156762 0 -0.27459219804921331 -0.39809849142257658 0 -0.26610482760730952 -0.4133900898647066 0 -0.28243901841779939 -0.41376093348156762 0 -0.26610482760730952 -0.4133900898647066 0 -0.26610482760730952 -0.4133900898647066 0 -0.24694430377570939 -0.41295507854145541 0 -0.26610482760730952 -0.4133900898647066 0 -0.25298523514652932 -0.43702750984159111 0 -0.24694430377570939 -0.41295507854145541 0 -0.26088670843651829 -0.40068536336094251 0 -0.26610482760730952 -0.4133900898647066 0 -0.24694430377570939 -0.41295507854145541 0 -0.27500508569675858 -0.42792788340523652 0 -0.26610482760730952 -0.4133900898647066 0 -0.25298523514652932 -0.43702750984159111 0 -0.26610482760730952 -0.4133900898647066 0 -0.25298523514652932 -0.43702750984159111 0 -0.25298523514652932 -0.43702750984159111 0 -0.25823473398406083 -0.46259190486934387 0 -0.27139768853026319 -0.45350369328431828 0 -0.25298523514652932 -0.43702750984159111 0 -0.27139768853026319 -0.45350369328431828 0 -0.27028712802556781 -0.44002206955302048 0 -0.25298523514652932 -0.43702750984159111 0 -0.25823473398406083 -0.46259190486934387 0 -0.2398656426857485 -0.46066492981847512 0 -0.27139768853026319 -0.45350369328431828 0 -0.28665438526504589 -0.45880473289459528 0 -0.27499686831673542 -0.4693274569635677 0 -0.25823473398406083 -0.46259190486934387 0 -0.27139768853026319 -0.45350369328431828 0 -0.27499686831673542 -0.4693274569635677 0 -0.27139768853026319 -0.45350369328431828 0 -0.27028712802556781 -0.44002206955302048 0 -0.28620792983366777 -0.44117103379144762 0 -0.28620792983366777 -0.44117103379144762 0 -0.29665932401628559 -0.4519210782245337 0 -0.28665438526504589 -0.45880473289459528 0 -0.28620792983366777 -0.44117103379144762 0 -0.29665932401628559 -0.4519210782245337 0 -0.30286215921622678 -0.44210958888768459 0 -0.27139768853026319 -0.45350369328431828 0 -0.28620792983366777 -0.44117103379144762 0 -0.28665438526504589 -0.45880473289459528 0 -0.29829421210859891 -0.43220714453990322 0 -0.28620792983366777 -0.44117103379144762 0 -0.30286215921622678 -0.44210958888768459 0 -0.28665438526504589 -0.45880473289459528 0 -0.28928475434474438 -0.47221518125428918 0 -0.27499686831673542 -0.4693274569635677 0 -0.28665438526504589 -0.45880473289459528 0 -0.30029558254474148 -0.46389675841394568 0 -0.28928475434474438 -0.47221518125428918 0 -0.29665932401628559 -0.4519210782245337 0 -0.28665438526504589 -0.45880473289459528 0 -0.30029558254474148 -0.46389675841394568 0 -0.29665932401628559 -0.4519210782245337 0 -0.30029558254474148 -0.46389675841394568 0 -0.31044958537109257 -0.45255960714027171 0 -0.31333683559556219 -0.46686726284272168 0 -0.30029558254474148 -0.46389675841394568 0 -0.31044958537109257 -0.45255960714027171 0 -0.31385630152515048 -0.44199725430357722 0 -0.31044958537109257 -0.45255960714027171 0 -0.30286215921622678 -0.44210958888768459 0 -0.31385630152515048 -0.44199725430357722 0 -0.31073004788055869 -0.43167813375356229 0 -0.30286215921622678 -0.44210958888768459 0 -0.29665932401628559 -0.4519210782245337 0 -0.31044958537109257 -0.45255960714027171 0 -0.30286215921622678 -0.44210958888768459 0 -0.32006214434654462 -0.5 0 -0.30503152439861497 -0.48190266549989857 0 -0.29355140103266869 -0.5 0 -0.30029558254474148 -0.46389675841394568 0 -0.30503152439861497 -0.48190266549989857 0 -0.28928475434474438 -0.47221518125428918 0 -0.31333683559556219 -0.46686726284272168 0 -0.30029558254474148 -0.46389675841394568 0 -0.30503152439861497 -0.48190266549989857 0 -0.30503152439861497 -0.48190266549989857 0 -0.28928475434474438 -0.47221518125428918 0 -0.27944541119858413 -0.48714429249943858 0 -0.30503152439861497 -0.48190266549989857 0 -0.29355140103266869 -0.5 0 -0.27944541119858413 -0.48714429249943858 0 -0.26704065771879287 -0.5 0 -0.27944541119858413 -0.48714429249943858 0 -0.26377894750559139 -0.4817410620592058 0 -0.29355140103266869 -0.5 0 -0.26704065771879287 -0.5 0 -0.27944541119858413 -0.48714429249943858 0 -0.27944541119858413 -0.48714429249943858 0 -0.27499686831673542 -0.4693274569635677 0 -0.26377894750559139 -0.4817410620592058 0 -0.28928475434474438 -0.47221518125428918 0 -0.27944541119858413 -0.48714429249943858 0 -0.27499686831673542 -0.4693274569635677 0 -0.25823473398406083 -0.46259190486934387 0 -0.27499686831673542 -0.4693274569635677 0 -0.26377894750559139 -0.4817410620592058 0 -0.25823473398406083 -0.46259190486934387 0 -0.26377894750559139 -0.4817410620592058 0 -0.24769273461092009 -0.47775775457152359 0 -0.26704065771879287 -0.5 0 -0.26377894750559139 -0.4817410620592058 0 -0.24052991440491719 -0.5 0 -0.26377894750559139 -0.4817410620592058 0 -0.24052991440491719 -0.5 0 -0.24769273461092009 -0.47775775457152359 0 -0.24052991440491719 -0.5 0 -0.24769273461092009 -0.47775775457152359 0 -0.2238647917587385 -0.47868470982513422 0 -0.24769273461092009 -0.47775775457152359 0 -0.2238647917587385 -0.47868470982513422 0 -0.2253613830811457 -0.45761053917550981 0 -0.24052991440491719 -0.5 0 -0.2238647917587385 -0.47868470982513422 0 -0.2140191710910414 -0.49999999999999972 0 -0.25298523514652932 -0.43702750984159111 0 -0.23591515519085041 -0.44398209369878189 0 -0.2398656426857485 -0.46066492981847512 0 -0.25298523514652932 -0.43702750984159111 0 -0.2398656426857485 -0.46066492981847512 0 -0.25823473398406083 -0.46259190486934387 0 -0.24769273461092009 -0.47775775457152359 0 -0.2398656426857485 -0.46066492981847512 0 -0.24769273461092009 -0.47775775457152359 0 -0.2398656426857485 -0.46066492981847512 0 -0.2253613830811457 -0.45761053917550981 0 -0.24769273461092009 -0.47775775457152359 0 -0.2253613830811457 -0.45761053917550981 0 -0.2238647917587385 -0.47868470982513422 0 -0.2253613830811457 -0.45761053917550981 0 -0.20999779143719291 -0.46083672605530768 0 -0.23591515519085041 -0.44398209369878189 0 -0.2398656426857485 -0.46066492981847512 0 -0.2253613830811457 -0.45761053917550981 0 -0.23591515519085041 -0.44398209369878189 0 -0.2253613830811457 -0.45761053917550981 0 -0.22549954629610269 -0.43500765649169948 0 -0.2253613830811457 -0.45761053917550981 0 -0.20999779143719291 -0.46083672605530768 0 -0.2030300315513712 -0.43746332377949593 0 -0.2253613830811457 -0.45761053917550981 0 -0.2030300315513712 -0.43746332377949593 0 -0.20999779143719291 -0.46083672605530768 0 -0.19715634076338631 -0.4518064782969281 0 -0.2030300315513712 -0.43746332377949593 0 -0.2253613830811457 -0.45761053917550981 0 -0.2030300315513712 -0.43746332377949593 0 -0.22549954629610269 -0.43500765649169948 0 -0.20999779143719291 -0.46083672605530768 0 -0.19715634076338631 -0.4518064782969281 0 -0.2055877559272139 -0.47590323914846377 0 -0.19715634076338631 -0.4518064782969281 0 -0.2055877559272139 -0.47590323914846377 0 -0.19179305986328829 -0.46711759196808689 0 -0.19715634076338631 -0.4518064782969281 0 -0.2055877559272139 -0.47590323914846377 0 -0.19179305986328829 -0.46711759196808689 0 -0.19715634076338631 -0.4518064782969281 0 -0.184822707974968 -0.45592422963236362 0 -0.19715634076338631 -0.4518064782969281 0 -0.2030300315513712 -0.43746332377949593 0 -0.18872492559955881 -0.42770971744539221 0 -0.19715634076338631 -0.4518064782969281 0 -0.18872492559955881 -0.42770971744539221 0 -0.19715634076338631 -0.4518064782969281 0 -0.1870173619903012 -0.44414077979923022 0 -0.18872492559955881 -0.42770971744539221 0 -0.19715634076338631 -0.4518064782969281 0 -0.184822707974968 -0.45592422963236362 0 -0.1870173619903012 -0.44414077979923022 0 -0.2140191710910414 -0.49999999999999972 0 -0.2055877559272139 -0.47590323914846377 0 -0.2140191710910414 -0.49999999999999972 0 -0.2055877559272139 -0.47590323914846377 0 -0.1915741566131953 -0.48274482478870012 0 -0.2238647917587385 -0.47868470982513422 0 -0.2140191710910414 -0.49999999999999972 0 -0.2055877559272139 -0.47590323914846377 0 -0.2238647917587385 -0.47868470982513422 0 -0.20999779143719291 -0.46083672605530768 0 -0.2055877559272139 -0.47590323914846377 0 -0.19179305986328829 -0.46711759196808689 0 -0.2055877559272139 -0.47590323914846377 0 -0.1915741566131953 -0.48274482478870012 0 -0.19179305986328829 -0.46711759196808689 0 -0.1915741566131953 -0.48274482478870012 0 -0.17982433803767831 -0.46920918797397909 0 -0.2140191710910414 -0.49999999999999972 0 -0.1915741566131953 -0.48274482478870012 0 -0.1841956238768391 -0.5 0 -0.1915741566131953 -0.48274482478870012 0 -0.1841956238768391 -0.5 0 -0.17247084166804699 -0.48396500267038112 0 -0.1841956238768391 -0.5 0 -0.17247084166804699 -0.48396500267038112 0 -0.15437207666263669 -0.50000000000000022 0 -0.15669106487963419 -0.47716915445828201 0 -0.17247084166804699 -0.48396500267038112 0 -0.15437207666263669 -0.50000000000000022 0 -0.15669106487963419 -0.47716915445828201 0 -0.17247084166804699 -0.48396500267038112 0 -0.1680230602922401 -0.4683158249620154 0 -0.17247084166804699 -0.48396500267038112 0 -0.17982433803767831 -0.46920918797397909 0 -0.1680230602922401 -0.4683158249620154 0 -0.1915741566131953 -0.48274482478870012 0 -0.17247084166804699 -0.48396500267038112 0 -0.17982433803767831 -0.46920918797397909 0 -0.19179305986328829 -0.46711759196808689 0 -0.17982433803767831 -0.46920918797397909 0 -0.184822707974968 -0.45592422963236362 0 -0.17982433803767831 -0.46920918797397909 0 -0.184822707974968 -0.45592422963236362 0 -0.17211900377920919 -0.45689747079087062 0 -0.17982433803767831 -0.46920918797397909 0 -0.17211900377920919 -0.45689747079087062 0 -0.1680230602922401 -0.4683158249620154 0 -0.1870173619903012 -0.44414077979923022 0 -0.17843006300647921 -0.44542980211747812 0 -0.1823118302108766 -0.43680876328769058 0 -0.184822707974968 -0.45592422963236362 0 -0.1870173619903012 -0.44414077979923022 0 -0.17843006300647921 -0.44542980211747812 0 -0.17211900377920919 -0.45689747079087062 0 -0.17843006300647921 -0.44542980211747812 0 -0.16919262628862339 -0.44362555979768409 0 -0.184822707974968 -0.45592422963236362 0 -0.17211900377920919 -0.45689747079087062 0 -0.17843006300647921 -0.44542980211747812 0 -0.17843006300647921 -0.44542980211747812 0 -0.16919262628862339 -0.44362555979768409 0 -0.17507497024716731 -0.42995475378866199 0 -0.1590100530966318 -0.45433830891656402 0 -0.148881704538534 -0.44296791951084241 0 -0.1613290413136293 -0.43150746337484569 0 -0.1590100530966318 -0.45433830891656402 0 -0.1613290413136293 -0.43150746337484569 0 -0.16919262628862339 -0.44362555979768409 0 -0.1590100530966318 -0.45433830891656402 0 -0.1613290413136293 -0.43150746337484569 0 -0.17211900377920919 -0.45689747079087062 0 -0.16919262628862339 -0.44362555979768409 0 -0.1590100530966318 -0.45433830891656402 0 -0.15669106487963419 -0.47716915445828201 0 -0.1680230602922401 -0.4683158249620154 0 -0.1590100530966318 -0.45433830891656402 0 -0.15669106487963419 -0.47716915445828201 0 -0.1590100530966318 -0.45433830891656402 0 -0.17211900377920919 -0.45689747079087062 0 -0.1680230602922401 -0.4683158249620154 0 -0.1590100530966318 -0.45433830891656402 0 -0.15669106487963419 -0.47716915445828201 0 -0.1590100530966318 -0.45433830891656402 0 -0.1472923250818238 -0.46077477567243558 0 -0.1590100530966318 -0.45433830891656402 0 -0.1472923250818238 -0.46077477567243558 0 -0.148881704538534 -0.44296791951084241 0 -0.1472923250818238 -0.46077477567243558 0 -0.148881704538534 -0.44296791951084241 0 -0.13194602454298601 -0.43962244526902572 0 -0.13194602454298601 -0.43962244526902572 0 -0.13077987840644981 -0.46069854066347632 0 -0.11615585050415531 -0.45102464773050138 0 -0.1472923250818238 -0.46077477567243558 0 -0.13194602454298601 -0.43962244526902572 0 -0.1472923250818238 -0.46077477567243558 0 -0.13077987840644981 -0.46069854066347632 0 -0.13742439756140509 -0.48004162281001828 0 -0.1472923250818238 -0.46077477567243558 0 -0.13194602454298601 -0.43962244526902572 0 -0.13077987840644981 -0.46069854066347632 0 -0.13742439756140509 -0.48004162281001828 0 -0.12108079434187891 -0.47202921183540031 0 -0.1206292342060253 -0.48641385964910883 0 -0.13077987840644981 -0.46069854066347632 0 -0.13742439756140509 -0.48004162281001828 0 -0.12108079434187891 -0.47202921183540031 0 -0.13742439756140509 -0.48004162281001828 0 -0.131118449396015 -0.5 0 -0.1206292342060253 -0.48641385964910883 0 -0.15669106487963419 -0.47716915445828201 0 -0.13742439756140509 -0.48004162281001828 0 -0.15437207666263669 -0.50000000000000022 0 -0.15669106487963419 -0.47716915445828201 0 -0.15437207666263669 -0.50000000000000022 0 -0.13742439756140509 -0.48004162281001828 0 -0.131118449396015 -0.5 0 -0.15437207666263669 -0.50000000000000022 0 -0.15669106487963419 -0.47716915445828201 0 -0.1472923250818238 -0.46077477567243558 0 -0.13742439756140509 -0.48004162281001828 0 -0.13678826443221431 -0.39755243580027871 0 -0.14931675495270949 -0.41057852288770358 0 -0.15761740849691311 -0.38818340141201402 0 -0.1369224961495438 -0.38192389563367207 0 -0.13678826443221431 -0.39755243580027871 0 -0.15761740849691311 -0.38818340141201402 0 -0.1369224961495438 -0.38192389563367207 0 -0.15761740849691311 -0.38818340141201402 0 -0.148308101659717 -0.36695316985008092 0 -0.1369224961495438 -0.38192389563367207 0 -0.12526638733901391 -0.39147447277512609 0 -0.13678826443221431 -0.39755243580027871 0 -0.1369224961495438 -0.38192389563367207 0 -0.1303219987982592 -0.3665496015062627 0 -0.12201267174342199 -0.37938718301114999 0 -0.1369224961495438 -0.38192389563367207 0 -0.12526638733901391 -0.39147447277512609 0 -0.12201267174342199 -0.37938718301114999 0 -0.12526638733901391 -0.39147447277512609 0 -0.13678826443221431 -0.39755243580027871 0 -0.12592730430259419 -0.40432488328170318 0 -0.13678826443221431 -0.39755243580027871 0 -0.12592730430259419 -0.40432488328170318 0 -0.1345256340888337 -0.41538851269275129 0 -0.13678826443221431 -0.39755243580027871 0 -0.1345256340888337 -0.41538851269275129 0 -0.14931675495270949 -0.41057852288770358 0 -0.12592730430259419 -0.40432488328170318 0 -0.1345256340888337 -0.41538851269275129 0 -0.1165997240041481 -0.41847011486561592 0 -0.13194602454298601 -0.43962244526902572 0 -0.1345256340888337 -0.41538851269275129 0 -0.14483107865759889 -0.42859660432134139 0 -0.13194602454298601 -0.43962244526902572 0 -0.1345256340888337 -0.41538851269275129 0 -0.1165997240041481 -0.41847011486561592 0 -0.148881704538534 -0.44296791951084241 0 -0.14483107865759889 -0.42859660432134139 0 -0.1613290413136293 -0.43150746337484569 0 -0.148881704538534 -0.44296791951084241 0 -0.13194602454298601 -0.43962244526902572 0 -0.14483107865759889 -0.42859660432134139 0 -0.14483107865759889 -0.42859660432134139 0 -0.14931675495270949 -0.41057852288770358 0 -0.1613290413136293 -0.43150746337484569 0 -0.1345256340888337 -0.41538851269275129 0 -0.14483107865759889 -0.42859660432134139 0 -0.14931675495270949 -0.41057852288770358 0 -0.16364802953062679 -0.40867661783312748 0 -0.1613290413136293 -0.43150746337484569 0 -0.14931675495270949 -0.41057852288770358 0 -0.16364802953062679 -0.40867661783312748 0 -0.1613290413136293 -0.43150746337484569 0 -0.16364802953062679 -0.40867661783312748 0 -0.1613290413136293 -0.43150746337484569 0 -0.17507497024716731 -0.42995475378866199 0 -0.16919262628862339 -0.44362555979768409 0 -0.1613290413136293 -0.43150746337484569 0 -0.17507497024716731 -0.42995475378866199 0 -0.1870173619903012 -0.44414077979923022 0 -0.1823118302108766 -0.43680876328769058 0 -0.18872492559955881 -0.42770971744539221 0 -0.17843006300647921 -0.44542980211747812 0 -0.17507497024716731 -0.42995475378866199 0 -0.1823118302108766 -0.43680876328769058 0 -0.17507497024716731 -0.42995475378866199 0 -0.1806986800215967 -0.4173161083834821 0 -0.18872492559955881 -0.42770971744539221 0 -0.17507497024716731 -0.42995475378866199 0 -0.1823118302108766 -0.43680876328769058 0 -0.18872492559955881 -0.42770971744539221 0 -0.1806986800215967 -0.4173161083834821 0 -0.18228064084688081 -0.39610998094782668 0 -0.19209360216251761 -0.40824625574224149 0 -0.16364802953062679 -0.40867661783312748 0 -0.17507497024716731 -0.42995475378866199 0 -0.1806986800215967 -0.4173161083834821 0 -0.16364802953062679 -0.40867661783312748 0 -0.1806986800215967 -0.4173161083834821 0 -0.18228064084688081 -0.39610998094782668 0 -0.16364802953062679 -0.40867661783312748 0 -0.18228064084688081 -0.39610998094782668 0 -0.15761740849691311 -0.38818340141201402 0 -0.14931675495270949 -0.41057852288770358 0 -0.16364802953062679 -0.40867661783312748 0 -0.15761740849691311 -0.38818340141201402 0 -0.15761740849691311 -0.38818340141201402 0 -0.183603859264966 -0.3766054584014627 0 -0.1661931572416451 -0.36889933283976362 0 -0.18228064084688081 -0.39610998094782668 0 -0.15761740849691311 -0.38818340141201402 0 -0.183603859264966 -0.3766054584014627 0 -0.18228064084688081 -0.39610998094782668 0 -0.183603859264966 -0.3766054584014627 0 -0.20216487974800659 -0.3829991661375407 0 -0.18228064084688081 -0.39610998094782668 0 -0.20343785588976751 -0.39944649130885712 0 -0.19209360216251761 -0.40824625574224149 0 -0.18228064084688081 -0.39610998094782668 0 -0.20216487974800659 -0.3829991661375407 0 -0.20343785588976751 -0.39944649130885712 0 -0.20343785588976751 -0.39944649130885712 0 -0.21350444502423929 -0.40864471589815532 0 -0.22035180610084079 -0.39356726900625483 0 -0.20216487974800659 -0.3829991661375407 0 -0.20343785588976751 -0.39944649130885712 0 -0.22035180610084079 -0.39356726900625483 0 -0.20216487974800659 -0.3829991661375407 0 -0.22035180610084079 -0.39356726900625483 0 -0.219169022554425 -0.37113875127287832 0 -0.1806986800215967 -0.4173161083834821 0 -0.2030300315513712 -0.43746332377949593 0 -0.18872492559955881 -0.42770971744539221 0 -0.1806986800215967 -0.4173161083834821 0 -0.2030300315513712 -0.43746332377949593 0 -0.2030300315513712 -0.43746332377949593 0 -0.19369636752838881 -0.41903658901391427 0 -0.2031687955665597 -0.42354741618771741 0 -0.1806986800215967 -0.4173161083834821 0 -0.2030300315513712 -0.43746332377949593 0 -0.19369636752838881 -0.41903658901391427 0 -0.19369636752838881 -0.41903658901391427 0 -0.20299923128825029 -0.41376529568937459 0 -0.2031687955665597 -0.42354741618771741 0 -0.1806986800215967 -0.4173161083834821 0 -0.19369636752838881 -0.41903658901391427 0 -0.19209360216251761 -0.40824625574224149 0 -0.19369636752838881 -0.41903658901391427 0 -0.19209360216251761 -0.40824625574224149 0 -0.20299923128825029 -0.41376529568937459 0 -0.20343785588976751 -0.39944649130885712 0 -0.19209360216251761 -0.40824625574224149 0 -0.20299923128825029 -0.41376529568937459 0 -0.20343785588976751 -0.39944649130885712 0 -0.20299923128825029 -0.41376529568937459 0 -0.21350444502423929 -0.40864471589815532 0 -0.21350444502423929 -0.40864471589815532 0 -0.21294955189822859 -0.42392445626808489 0 -0.2277837799441092 -0.41252006721820539 0 -0.20299923128825029 -0.41376529568937459 0 -0.2031687955665597 -0.42354741618771741 0 -0.21294955189822859 -0.42392445626808489 0 -0.20299923128825029 -0.41376529568937459 0 -0.21350444502423929 -0.40864471589815532 0 -0.21294955189822859 -0.42392445626808489 0 -0.2030300315513712 -0.43746332377949593 0 -0.21294955189822859 -0.42392445626808489 0 -0.22549954629610269 -0.43500765649169948 0 -0.2030300315513712 -0.43746332377949593 0 -0.2031687955665597 -0.42354741618771741 0 -0.21294955189822859 -0.42392445626808489 0 -0.23591515519085041 -0.44398209369878189 0 -0.22549954629610269 -0.43500765649169948 0 -0.23735783041644329 -0.42609093398936743 0 -0.22549954629610269 -0.43500765649169948 0 -0.2277837799441092 -0.41252006721820539 0 -0.23735783041644329 -0.42609093398936743 0 -0.21294955189822859 -0.42392445626808489 0 -0.22549954629610269 -0.43500765649169948 0 -0.2277837799441092 -0.41252006721820539 0 -0.2277837799441092 -0.41252006721820539 0 -0.24694430377570939 -0.41295507854145541 0 -0.2277837799441092 -0.41252006721820539 0 -0.24694430377570939 -0.41295507854145541 0 -0.23735783041644329 -0.42609093398936743 0 -0.2277837799441092 -0.41252006721820539 0 -0.24694430377570939 -0.41295507854145541 0 -0.2359891007147569 -0.39914414181493052 0 -0.25298523514652932 -0.43702750984159111 0 -0.24694430377570939 -0.41295507854145541 0 -0.23735783041644329 -0.42609093398936743 0 -0.25298523514652932 -0.43702750984159111 0 -0.23591515519085041 -0.44398209369878189 0 -0.23735783041644329 -0.42609093398936743 0 -0.22035180610084079 -0.39356726900625483 0 -0.23802591309349369 -0.38358476956933441 0 -0.219169022554425 -0.37113875127287832 0 -0.22035180610084079 -0.39356726900625483 0 -0.2359891007147569 -0.39914414181493052 0 -0.23802591309349369 -0.38358476956933441 0 -0.21350444502423929 -0.40864471589815532 0 -0.2277837799441092 -0.41252006721820539 0 -0.22035180610084079 -0.39356726900625483 0 -0.2277837799441092 -0.41252006721820539 0 -0.22035180610084079 -0.39356726900625483 0 -0.2359891007147569 -0.39914414181493052 0 -0.2359891007147569 -0.39914414181493052 0 -0.2487824818667288 -0.3954643368039899 0 -0.23802591309349369 -0.38358476956933441 0 -0.24694430377570939 -0.41295507854145541 0 -0.2359891007147569 -0.39914414181493052 0 -0.2487824818667288 -0.3954643368039899 0 -0.26050234447883253 -0.38027693877573482 0 -0.2487824818667288 -0.3954643368039899 0 -0.23802591309349369 -0.38358476956933441 0 -0.26050234447883253 -0.38027693877573482 0 -0.23802591309349369 -0.38358476956933441 0 -0.24817767477162081 -0.36986654917455902 0 -0.23802591309349369 -0.38358476956933441 0 -0.24817767477162081 -0.36986654917455902 0 -0.23583729862822109 -0.36574384613307409 0 -0.24817767477162081 -0.36986654917455902 0 -0.23583729862822109 -0.36574384613307409 0 -0.24850069890613241 -0.35473287875334369 0 -0.23583729862822109 -0.36574384613307409 0 -0.219169022554425 -0.37113875127287832 0 -0.22531318381543361 -0.34939628189525529 0 -0.23802591309349369 -0.38358476956933441 0 -0.23583729862822109 -0.36574384613307409 0 -0.219169022554425 -0.37113875127287832 0 -0.22531318381543361 -0.34939628189525529 0 -0.24850069890613241 -0.35473287875334369 0 -0.24219101746094579 -0.34438554910399921 0 -0.23583729862822109 -0.36574384613307409 0 -0.22531318381543361 -0.34939628189525529 0 -0.24850069890613241 -0.35473287875334369 0 -0.22531318381543361 -0.34939628189525529 0 -0.24850069890613241 -0.35473287875334369 0 -0.25445926970156468 -0.34270101061729968 0 -0.24850069890613241 -0.35473287875334369 0 -0.24219101746094579 -0.34438554910399921 0 -0.25445926970156468 -0.34270101061729968 0 -0.24219101746094579 -0.34438554910399921 0 -0.2460450098649074 -0.33743905859998191 0 -0.25207330520806498 -0.33378255792528982 0 -0.2460450098649074 -0.33743905859998191 0 -0.24306356592407591 -0.32787829483024122 0 -0.2348359590034956 -0.33686915078515089 0 -0.24306356592407591 -0.32787829483024122 0 -0.23163603200856511 -0.32708080208212859 0 -0.2460450098649074 -0.33743905859998191 0 -0.2348359590034956 -0.33686915078515089 0 -0.24306356592407591 -0.32787829483024122 0 -0.24219101746094579 -0.34438554910399921 0 -0.2460450098649074 -0.33743905859998191 0 -0.2348359590034956 -0.33686915078515089 0 -0.25273748935779161 -0.32224337373924072 0 -0.24326482791746179 -0.31394285089519419 0 -0.24426682308287331 -0.30533572025667649 0 -0.25273748935779161 -0.32224337373924072 0 -0.24426682308287331 -0.30533572025667649 0 -0.25273748935779161 -0.32224337373924072 0 -0.24326482791746179 -0.31394285089519419 0 -0.2440208243134171 -0.32058552998791068 0 -0.25273748935779161 -0.32224337373924072 0 -0.24306356592407591 -0.32787829483024122 0 -0.2440208243134171 -0.32058552998791068 0 -0.25207330520806498 -0.33378255792528982 0 -0.25273748935779161 -0.32224337373924072 0 -0.24306356592407591 -0.32787829483024122 0 -0.24306356592407591 -0.32787829483024122 0 -0.2440208243134171 -0.32058552998791068 0 -0.23701741405433899 -0.31827760048696663 0 -0.24306356592407591 -0.32787829483024122 0 -0.23701741405433899 -0.31827760048696663 0 -0.23163603200856511 -0.32708080208212859 0 -0.24326482791746179 -0.31394285089519419 0 -0.23701741405433899 -0.31827760048696663 0 -0.2384772558931193 -0.30928307653082621 0 -0.24326482791746179 -0.31394285089519419 0 -0.2440208243134171 -0.32058552998791068 0 -0.23701741405433899 -0.31827760048696663 0 -0.22244826701882919 -0.32070202864358233 0 -0.22802593536356699 -0.30882837184141948 0 -0.21110805984082151 -0.30983785689108939 0 -0.23701741405433899 -0.31827760048696663 0 -0.22244826701882919 -0.32070202864358233 0 -0.22802593536356699 -0.30882837184141948 0 -0.23701741405433899 -0.31827760048696663 0 -0.23163603200856511 -0.32708080208212859 0 -0.22244826701882919 -0.32070202864358233 0 -0.23163603200856511 -0.32708080208212859 0 -0.22244826701882919 -0.32070202864358233 0 -0.22079431421521131 -0.33353493235345111 0 -0.22531318381543361 -0.34939628189525529 0 -0.2348359590034956 -0.33686915078515089 0 -0.22079431421521131 -0.33353493235345111 0 -0.22531318381543361 -0.34939628189525529 0 -0.24219101746094579 -0.34438554910399921 0 -0.2348359590034956 -0.33686915078515089 0 -0.2348359590034956 -0.33686915078515089 0 -0.23163603200856511 -0.32708080208212859 0 -0.22079431421521131 -0.33353493235345111 0 -0.22079431421521131 -0.33353493235345111 0 -0.20839645480677241 -0.32403064402179738 0 -0.20212566872473489 -0.34405968503716688 0 -0.22531318381543361 -0.34939628189525529 0 -0.22079431421521131 -0.33353493235345111 0 -0.20212566872473489 -0.34405968503716688 0 -0.22244826701882919 -0.32070202864358233 0 -0.20839645480677241 -0.32403064402179738 0 -0.21110805984082151 -0.30983785689108939 0 -0.22244826701882919 -0.32070202864358233 0 -0.22079431421521131 -0.33353493235345111 0 -0.20839645480677241 -0.32403064402179738 0 -0.20839645480677241 -0.32403064402179738 0 -0.19575919956014079 -0.31702437624003538 0 -0.21110805984082151 -0.30983785689108939 0 -0.20839645480677241 -0.32403064402179738 0 -0.19575919956014079 -0.31702437624003538 0 -0.19562896033857519 -0.33020038185646122 0 -0.19575919956014079 -0.31702437624003538 0 -0.19562896033857519 -0.33020038185646122 0 -0.18477851095256179 -0.32477614194451959 0 -0.20212566872473489 -0.34405968503716688 0 -0.1789381536340362 -0.33872308817907848 0 -0.19562896033857519 -0.33020038185646122 0 -0.20212566872473489 -0.34405968503716688 0 -0.1789381536340362 -0.33872308817907848 0 -0.20839645480677241 -0.32403064402179738 0 -0.19562896033857519 -0.33020038185646122 0 -0.20212566872473489 -0.34405968503716688 0 -0.20212566872473489 -0.34405968503716688 0 -0.2037839996862793 -0.36234410805543599 0 -0.1863350517553729 -0.35962674217565882 0 -0.20212566872473489 -0.34405968503716688 0 -0.1863350517553729 -0.35962674217565882 0 -0.1789381536340362 -0.33872308817907848 0 -0.183603859264966 -0.3766054584014627 0 -0.20216487974800659 -0.3829991661375407 0 -0.2037839996862793 -0.36234410805543599 0 -0.183603859264966 -0.3766054584014627 0 -0.2037839996862793 -0.36234410805543599 0 -0.1863350517553729 -0.35962674217565882 0 -0.219169022554425 -0.37113875127287832 0 -0.22531318381543361 -0.34939628189525529 0 -0.2037839996862793 -0.36234410805543599 0 -0.20216487974800659 -0.3829991661375407 0 -0.219169022554425 -0.37113875127287832 0 -0.2037839996862793 -0.36234410805543599 0 -0.22531318381543361 -0.34939628189525529 0 -0.20212566872473489 -0.34405968503716688 0 -0.2037839996862793 -0.36234410805543599 0 -0.22531318381543361 -0.34939628189525529 0 -0.20212566872473489 -0.34405968503716688 0 -0.24465976002352091 -0.25387891845332877 0 -0.23199225124923151 -0.26692477658714647 0 -0.21854221021918649 -0.25236034283526498 0 -0.23199225124923151 -0.26692477658714647 0 -0.21864709985809599 -0.27150291036173302 0 -0.21854221021918649 -0.25236034283526498 0 -0.24465976002352091 -0.25387891845332877 0 -0.2444485511135471 -0.27534046621033159 0 -0.23199225124923151 -0.26692477658714647 0 -0.25958550566062261 -0.27102626557679149 0 -0.24465976002352091 -0.25387891845332877 0 -0.2444485511135471 -0.27534046621033159 0 -0.2444485511135471 -0.27534046621033159 0 -0.23199225124923151 -0.26692477658714647 0 -0.23366363503180709 -0.28154124507507411 0 -0.2197277065850177 -0.2872169177591285 0 -0.23366363503180709 -0.28154124507507411 0 -0.21864709985809599 -0.27150291036173302 0 -0.23199225124923151 -0.26692477658714647 0 -0.23366363503180709 -0.28154124507507411 0 -0.21864709985809599 -0.27150291036173302 0 -0.2197277065850177 -0.2872169177591285 0 -0.23366363503180709 -0.28154124507507411 0 -0.24011613505684479 -0.30107681213347393 0 -0.2197277065850177 -0.2872169177591285 0 -0.24011613505684479 -0.30107681213347393 0 -0.2197277065850177 -0.2872169177591285 0 -0.24011613505684479 -0.30107681213347393 0 -0.2201073871300871 -0.30044142834658671 0 -0.2444485511135471 -0.27534046621033159 0 -0.23366363503180709 -0.28154124507507411 0 -0.24732420154209239 -0.29033586459568173 0 -0.23366363503180709 -0.28154124507507411 0 -0.24732420154209239 -0.29033586459568173 0 -0.24011613505684479 -0.30107681213347393 0 -0.25608276685525683 -0.28295324223861612 0 -0.2444485511135471 -0.27534046621033159 0 -0.24732420154209239 -0.29033586459568173 0 -0.26050456352867191 -0.3149367065078193 0 -0.24011613505684479 -0.30107681213347393 0 -0.24426682308287331 -0.30533572025667649 0 -0.25485564421046719 -0.30132045870319019 0 -0.24732420154209239 -0.29033586459568173 0 -0.24011613505684479 -0.30107681213347393 0 -0.24011613505684479 -0.30107681213347393 0 -0.2384772558931193 -0.30928307653082621 0 -0.22802593536356699 -0.30882837184141948 0 -0.24326482791746179 -0.31394285089519419 0 -0.24426682308287331 -0.30533572025667649 0 -0.2384772558931193 -0.30928307653082621 0 -0.24011613505684479 -0.30107681213347393 0 -0.24426682308287331 -0.30533572025667649 0 -0.2384772558931193 -0.30928307653082621 0 -0.23701741405433899 -0.31827760048696663 0 -0.2384772558931193 -0.30928307653082621 0 -0.22802593536356699 -0.30882837184141948 0 -0.22802593536356699 -0.30882837184141948 0 -0.2201073871300871 -0.30044142834658671 0 -0.21110805984082151 -0.30983785689108939 0 -0.24011613505684479 -0.30107681213347393 0 -0.22802593536356699 -0.30882837184141948 0 -0.2201073871300871 -0.30044142834658671 0 -0.2201073871300871 -0.30044142834658671 0 -0.21110805984082151 -0.30983785689108939 0 -0.20155909880418441 -0.29524718310782239 0 -0.21110805984082151 -0.30983785689108939 0 -0.2000775247532616 -0.30687463122530689 0 -0.20155909880418441 -0.29524718310782239 0 -0.19575919956014079 -0.31702437624003538 0 -0.21110805984082151 -0.30983785689108939 0 -0.2000775247532616 -0.30687463122530689 0 -0.18961770926909149 -0.30481471110084102 0 -0.20155909880418441 -0.29524718310782239 0 -0.1798976030385912 -0.29461474791537873 0 -0.19575919956014079 -0.31702437624003538 0 -0.2000775247532616 -0.30687463122530689 0 -0.18961770926909149 -0.30481471110084102 0 -0.19575919956014079 -0.31702437624003538 0 -0.18961770926909149 -0.30481471110084102 0 -0.1803928959391416 -0.31521744924658562 0 -0.2000775247532616 -0.30687463122530689 0 -0.18961770926909149 -0.30481471110084102 0 -0.20155909880418441 -0.29524718310782239 0 -0.19933927811319041 -0.27335702338478318 0 -0.1798976030385912 -0.29461474791537873 0 -0.20155909880418441 -0.29524718310782239 0 -0.19933927811319041 -0.27335702338478318 0 -0.1798976030385912 -0.29461474791537873 0 -0.2197277065850177 -0.2872169177591285 0 -0.20155909880418441 -0.29524718310782239 0 -0.19933927811319041 -0.27335702338478318 0 -0.2197277065850177 -0.2872169177591285 0 -0.2201073871300871 -0.30044142834658671 0 -0.20155909880418441 -0.29524718310782239 0 -0.21864709985809599 -0.27150291036173302 0 -0.19933927811319041 -0.27335702338478318 0 -0.21854221021918649 -0.25236034283526498 0 -0.2197277065850177 -0.2872169177591285 0 -0.21864709985809599 -0.27150291036173302 0 -0.19933927811319041 -0.27335702338478318 0 -0.2197277065850177 -0.2872169177591285 0 -0.19933927811319041 -0.27335702338478318 0 -0.19672455084482071 -0.27157955221738023 0 -0.19563648814007639 -0.2627950405098789 0 -0.1773613401945949 -0.28300380337564962 0 -0.19672455084482071 -0.27157955221738023 0 -0.19933927811319041 -0.27335702338478318 0 -0.1773613401945949 -0.28300380337564962 0 -0.19672455084482071 -0.27157955221738023 0 -0.19933927811319041 -0.27335702338478318 0 -0.19563648814007639 -0.2627950405098789 0 -0.19672455084482071 -0.27157955221738023 0 -0.19933927811319041 -0.27335702338478318 0 -0.19933927811319041 -0.27335702338478318 0 -0.19563648814007639 -0.2627950405098789 0 -0.2024770003035091 -0.25628481747185139 0 -0.19563648814007639 -0.2627950405098789 0 -0.19160736129165659 -0.25262396586623759 0 -0.18182513936558051 -0.25739227955256888 0 -0.19563648814007639 -0.2627950405098789 0 -0.19160736129165659 -0.25262396586623759 0 -0.2024770003035091 -0.25628481747185139 0 -0.19160736129165659 -0.25262396586623759 0 -0.2024770003035091 -0.25628481747185139 0 -0.19988453840298659 -0.24176205441804 0 -0.19933927811319041 -0.27335702338478318 0 -0.2024770003035091 -0.25628481747185139 0 -0.21854221021918649 -0.25236034283526498 0 -0.2024770003035091 -0.25628481747185139 0 -0.21854221021918649 -0.25236034283526498 0 -0.19988453840298659 -0.24176205441804 0 -0.19933927811319041 -0.27335702338478318 0 -0.21854221021918649 -0.25236034283526498 0 -0.16270034237907721 -0.26451024010365409 0 -0.1689202540561075 -0.25519621835756329 0 -0.15263230708737521 -0.24356194903458239 0 -0.16270034237907721 -0.26451024010365409 0 -0.15585924966824549 -0.27338725763800159 0 -0.15263230708737521 -0.24356194903458239 0 -0.16270034237907721 -0.26451024010365409 0 -0.1689202540561075 -0.25519621835756329 0 -0.17291740387759841 -0.2648938158906885 0 -0.1689202540561075 -0.25519621835756329 0 -0.18182513936558051 -0.25739227955256888 0 -0.1745260775709061 -0.24562280720632229 0 -0.19160736129165659 -0.25262396586623759 0 -0.18182513936558051 -0.25739227955256888 0 -0.1745260775709061 -0.24562280720632229 0 -0.19563648814007639 -0.2627950405098789 0 -0.18182513936558051 -0.25739227955256888 0 -0.18269465011250469 -0.26841637399603913 0 -0.1689202540561075 -0.25519621835756329 0 -0.18182513936558051 -0.25739227955256888 0 -0.17291740387759841 -0.2648938158906885 0 -0.18182513936558051 -0.25739227955256888 0 -0.17291740387759841 -0.2648938158906885 0 -0.18269465011250469 -0.26841637399603913 0 -0.19563648814007639 -0.2627950405098789 0 -0.18269465011250469 -0.26841637399603913 0 -0.1773613401945949 -0.28300380337564962 0 -0.17291740387759841 -0.2648938158906885 0 -0.17526212336935321 -0.27297056277525461 0 -0.1680750992927145 -0.27556825783864097 0 -0.19563648814007639 -0.2627950405098789 0 -0.1773613401945949 -0.28300380337564962 0 -0.17291740387759841 -0.2648938158906885 0 -0.17526212336935321 -0.27297056277525461 0 -0.18269465011250469 -0.26841637399603913 0 -0.17526212336935321 -0.27297056277525461 0 -0.18269465011250469 -0.26841637399603913 0 -0.1773613401945949 -0.28300380337564962 0 -0.17526212336935321 -0.27297056277525461 0 -0.1680750992927145 -0.27556825783864097 0 -0.1773613401945949 -0.28300380337564962 0 -0.1680750992927145 -0.27556825783864097 0 -0.1682011228878135 -0.28257539269247411 0 -0.1773613401945949 -0.28300380337564962 0 -0.1680750992927145 -0.27556825783864097 0 -0.1622412594804854 -0.28273310688964581 0 -0.1682011228878135 -0.28257539269247411 0 -0.16270034237907721 -0.26451024010365409 0 -0.17291740387759841 -0.2648938158906885 0 -0.1680750992927145 -0.27556825783864097 0 -0.16270034237907721 -0.26451024010365409 0 -0.1680750992927145 -0.27556825783864097 0 -0.16179622859894191 -0.27503335760685149 0 -0.16270034237907721 -0.26451024010365409 0 -0.16179622859894191 -0.27503335760685149 0 -0.15585924966824549 -0.27338725763800159 0 -0.16179622859894191 -0.27503335760685149 0 -0.1622412594804854 -0.28273310688964581 0 -0.15585924966824549 -0.27338725763800159 0 -0.1680750992927145 -0.27556825783864097 0 -0.16179622859894191 -0.27503335760685149 0 -0.1622412594804854 -0.28273310688964581 0 -0.1622412594804854 -0.28273310688964581 0 -0.16512679258345911 -0.28899640266596011 0 -0.15908619224911419 -0.30321256624142101 0 -0.1622412594804854 -0.28273310688964581 0 -0.15908619224911419 -0.30321256624142101 0 -0.15585924966824549 -0.27338725763800159 0 -0.15908619224911419 -0.30321256624142101 0 -0.15585924966824549 -0.27338725763800159 0 -0.16512679258345911 -0.28899640266596011 0 -0.1773613401945949 -0.28300380337564962 0 -0.15908619224911419 -0.30321256624142101 0 -0.1773613401945949 -0.28300380337564962 0 -0.15908619224911419 -0.30321256624142101 0 -0.16512679258345911 -0.28899640266596011 0 -0.1682011228878135 -0.28257539269247411 0 -0.1773613401945949 -0.28300380337564962 0 -0.1622412594804854 -0.28273310688964581 0 -0.16512679258345911 -0.28899640266596011 0 -0.1682011228878135 -0.28257539269247411 0 -0.1773613401945949 -0.28300380337564962 0 -0.1798976030385912 -0.29461474791537873 0 -0.15908619224911419 -0.30321256624142101 0 -0.19933927811319041 -0.27335702338478318 0 -0.1773613401945949 -0.28300380337564962 0 -0.1798976030385912 -0.29461474791537873 0 -0.1798976030385912 -0.29461474791537873 0 -0.17759103405270391 -0.30762984517719472 0 -0.16045592796399111 -0.3158724724459735 0 -0.18961770926909149 -0.30481471110084102 0 -0.1798976030385912 -0.29461474791537873 0 -0.17759103405270391 -0.30762984517719472 0 -0.18961770926909149 -0.30481471110084102 0 -0.17759103405270391 -0.30762984517719472 0 -0.1803928959391416 -0.31521744924658562 0 -0.1798976030385912 -0.29461474791537873 0 -0.16045592796399111 -0.3158724724459735 0 -0.1798976030385912 -0.29461474791537873 0 -0.15908619224911419 -0.30321256624142101 0 -0.16045592796399111 -0.3158724724459735 0 -0.15908619224911419 -0.30321256624142101 0 -0.16045592796399111 -0.3158724724459735 0 -0.1471380549162328 -0.30532142906175452 0 -0.14032160831301491 -0.30752887986621158 0 -0.14130665940473261 -0.32287327510069419 0 -0.15908619224911419 -0.30321256624142101 0 -0.1471380549162328 -0.30532142906175452 0 -0.14130665940473261 -0.32287327510069419 0 -0.15908619224911419 -0.30321256624142101 0 -0.1471380549162328 -0.30532142906175452 0 -0.1510678287434867 -0.29559461902651829 0 -0.14390798587081549 -0.29739780507392732 0 -0.1471380549162328 -0.30532142906175452 0 -0.1510678287434867 -0.29559461902651829 0 -0.14390798587081549 -0.29739780507392732 0 -0.1471380549162328 -0.30532142906175452 0 -0.14032160831301491 -0.30752887986621158 0 -0.14032160831301491 -0.30752887986621158 0 -0.13439128381467691 -0.29991683468539793 0 -0.13033731665847181 -0.31286393971371201 0 -0.13439128381467691 -0.29991683468539793 0 -0.13033731665847181 -0.31286393971371201 0 -0.12304085188452731 -0.29931348820209958 0 -0.14390798587081549 -0.29739780507392732 0 -0.14032160831301491 -0.30752887986621158 0 -0.13439128381467691 -0.29991683468539793 0 -0.14390798587081549 -0.29739780507392732 0 -0.13439128381467691 -0.29991683468539793 0 -0.14011095662501261 -0.28947786809128212 0 -0.13439128381467691 -0.29991683468539793 0 -0.14011095662501261 -0.28947786809128212 0 -0.12994370463312691 -0.28995419054763111 0 -0.13439128381467691 -0.29991683468539793 0 -0.12994370463312691 -0.28995419054763111 0 -0.12304085188452731 -0.29931348820209958 0 -0.12994370463312691 -0.28995419054763111 0 -0.13687965345326569 -0.27993872332247433 0 -0.1257911728949061 -0.280427018304516 0 -0.12994370463312691 -0.28995419054763111 0 -0.1257911728949061 -0.280427018304516 0 -0.1194571486541455 -0.28746452468861589 0 -0.14011095662501261 -0.28947786809128212 0 -0.12994370463312691 -0.28995419054763111 0 -0.13687965345326569 -0.27993872332247433 0 -0.15908619224911419 -0.30321256624142101 0 -0.15162645984294551 -0.28670064183700439 0 -0.15585924966824549 -0.27338725763800159 0 -0.14011095662501261 -0.28947786809128212 0 -0.1458827091329962 -0.28225219708249882 0 -0.13687965345326569 -0.27993872332247433 0 -0.15908619224911419 -0.30321256624142101 0 -0.1510678287434867 -0.29559461902651829 0 -0.15162645984294551 -0.28670064183700439 0 -0.1458827091329962 -0.28225219708249882 0 -0.1468811506158991 -0.28912565090950809 0 -0.15162645984294551 -0.28670064183700439 0 -0.14011095662501261 -0.28947786809128212 0 -0.1458827091329962 -0.28225219708249882 0 -0.1468811506158991 -0.28912565090950809 0 -0.14390798587081549 -0.29739780507392732 0 -0.1468811506158991 -0.28912565090950809 0 -0.1510678287434867 -0.29559461902651829 0 -0.14390798587081549 -0.29739780507392732 0 -0.14011095662501261 -0.28947786809128212 0 -0.1468811506158991 -0.28912565090950809 0 -0.1468811506158991 -0.28912565090950809 0 -0.1510678287434867 -0.29559461902651829 0 -0.15162645984294551 -0.28670064183700439 0 -0.1458827091329962 -0.28225219708249882 0 -0.15162645984294551 -0.28670064183700439 0 -0.15098162864793119 -0.27663156012407891 0 -0.15162645984294551 -0.28670064183700439 0 -0.15098162864793119 -0.27663156012407891 0 -0.15585924966824549 -0.27338725763800159 0 -0.15098162864793119 -0.27663156012407891 0 -0.1522527558101047 -0.27366235468835692 0 -0.14903370440966179 -0.27344637702894548 0 -0.15098162864793119 -0.27663156012407891 0 -0.1522527558101047 -0.27366235468835692 0 -0.15585924966824549 -0.27338725763800159 0 -0.14903370440966179 -0.27344637702894548 0 -0.1531364405145805 -0.27118422396240138 0 -0.14385763015454139 -0.26954128824380802 0 -0.1522527558101047 -0.27366235468835692 0 -0.15585924966824549 -0.27338725763800159 0 -0.1531364405145805 -0.27118422396240138 0 -0.1522527558101047 -0.27366235468835692 0 -0.14903370440966179 -0.27344637702894548 0 -0.1531364405145805 -0.27118422396240138 0 -0.14903370440966179 -0.27344637702894548 0 -0.14385763015454139 -0.26954128824380802 0 -0.1442805510697899 -0.27562940435382949 0 -0.14385763015454139 -0.26954128824380802 0 -0.1442805510697899 -0.27562940435382949 0 -0.13835653564694769 -0.27242798417408381 0 -0.1458827091329962 -0.28225219708249882 0 -0.1442805510697899 -0.27562940435382949 0 -0.13687965345326569 -0.27993872332247433 0 -0.15098162864793119 -0.27663156012407891 0 -0.14903370440966179 -0.27344637702894548 0 -0.1442805510697899 -0.27562940435382949 0 -0.1458827091329962 -0.28225219708249882 0 -0.15098162864793119 -0.27663156012407891 0 -0.1442805510697899 -0.27562940435382949 0 -0.13687965345326569 -0.27993872332247433 0 -0.12970248462840331 -0.2717774759070859 0 -0.13835653564694769 -0.27242798417408381 0 -0.1442805510697899 -0.27562940435382949 0 -0.13687965345326569 -0.27993872332247433 0 -0.13835653564694769 -0.27242798417408381 0 -0.13687965345326569 -0.27993872332247433 0 -0.1257911728949061 -0.280427018304516 0 -0.12970248462840331 -0.2717774759070859 0 -0.12970248462840331 -0.2717774759070859 0 -0.13570208279224111 -0.26528350045903498 0 -0.12855037573501921 -0.26115248962005239 0 -0.14385763015454139 -0.26954128824380802 0 -0.13835653564694769 -0.27242798417408381 0 -0.13570208279224111 -0.26528350045903498 0 -0.12970248462840331 -0.2717774759070859 0 -0.13835653564694769 -0.27242798417408381 0 -0.13570208279224111 -0.26528350045903498 0 -0.13570208279224111 -0.26528350045903498 0 -0.12855037573501921 -0.26115248962005239 0 -0.1377523016625678 -0.25581657194563601 0 -0.14385763015454139 -0.26954128824380802 0 -0.13570208279224111 -0.26528350045903498 0 -0.1377523016625678 -0.25581657194563601 0 -0.12855037573501921 -0.26115248962005239 0 -0.1377523016625678 -0.25581657194563601 0 -0.1223681628105569 -0.24044891992886891 0 -0.1531364405145805 -0.27118422396240138 0 -0.1377523016625678 -0.25581657194563601 0 -0.15263230708737521 -0.24356194903458239 0 -0.15585924966824549 -0.27338725763800159 0 -0.1531364405145805 -0.27118422396240138 0 -0.15263230708737521 -0.24356194903458239 0 -0.15585924966824549 -0.27338725763800159 0 -0.15263230708737521 -0.24356194903458239 0 -0.1531364405145805 -0.27118422396240138 0 -0.1377523016625678 -0.25581657194563601 0 -0.1531364405145805 -0.27118422396240138 0 -0.14385763015454139 -0.26954128824380802 0 -0.1377523016625678 -0.25581657194563601 0 -0.1661931572416451 -0.36889933283976362 0 -0.1633245426028184 -0.34238590264286861 0 -0.15433175674287769 -0.35458729317269139 0 -0.1661931572416451 -0.36889933283976362 0 -0.1633245426028184 -0.34238590264286861 0 -0.1661931572416451 -0.36889933283976362 0 -0.17388048196752651 -0.3522733272046466 0 -0.1633245426028184 -0.34238590264286861 0 -0.1661931572416451 -0.36889933283976362 0 -0.15433175674287769 -0.35458729317269139 0 -0.148308101659717 -0.36695316985008092 0 -0.15761740849691311 -0.38818340141201402 0 -0.1661931572416451 -0.36889933283976362 0 -0.148308101659717 -0.36695316985008092 0 -0.183603859264966 -0.3766054584014627 0 -0.1661931572416451 -0.36889933283976362 0 -0.1863350517553729 -0.35962674217565882 0 -0.1661931572416451 -0.36889933283976362 0 -0.1863350517553729 -0.35962674217565882 0 -0.17388048196752651 -0.3522733272046466 0 -0.1863350517553729 -0.35962674217565882 0 -0.17388048196752651 -0.3522733272046466 0 -0.1789381536340362 -0.33872308817907848 0 -0.17388048196752651 -0.3522733272046466 0 -0.1789381536340362 -0.33872308817907848 0 -0.1633245426028184 -0.34238590264286861 0 -0.19562896033857519 -0.33020038185646122 0 -0.1789381536340362 -0.33872308817907848 0 -0.18477851095256179 -0.32477614194451959 0 -0.1789381536340362 -0.33872308817907848 0 -0.18477851095256179 -0.32477614194451959 0 -0.1735479853981102 -0.32728394705986258 0 -0.1789381536340362 -0.33872308817907848 0 -0.1735479853981102 -0.32728394705986258 0 -0.1633245426028184 -0.34238590264286861 0 -0.17759103405270391 -0.30762984517719472 0 -0.1803928959391416 -0.31521744924658562 0 -0.16045592796399111 -0.3158724724459735 0 -0.19575919956014079 -0.31702437624003538 0 -0.1803928959391416 -0.31521744924658562 0 -0.18477851095256179 -0.32477614194451959 0 -0.1803928959391416 -0.31521744924658562 0 -0.18477851095256179 -0.32477614194451959 0 -0.1735479853981102 -0.32728394705986258 0 -0.1803928959391416 -0.31521744924658562 0 -0.1735479853981102 -0.32728394705986258 0 -0.16045592796399111 -0.3158724724459735 0 -0.1735479853981102 -0.32728394705986258 0 -0.16045592796399111 -0.3158724724459735 0 -0.1633245426028184 -0.34238590264286861 0 -0.16045592796399111 -0.3158724724459735 0 -0.1633245426028184 -0.34238590264286861 0 -0.1476770575246594 -0.3298450188736391 0 -0.16045592796399111 -0.3158724724459735 0 -0.1633245426028184 -0.34238590264286861 0 -0.1633245426028184 -0.34238590264286861 0 -0.15030263560259111 -0.34285112818916452 0 -0.1476770575246594 -0.3298450188736391 0 -0.1476770575246594 -0.3298450188736391 0 -0.14130665940473261 -0.32287327510069419 0 -0.13989838249203351 -0.33226752099114382 0 -0.1476770575246594 -0.3298450188736391 0 -0.14096893258994439 -0.33934882548262568 0 -0.13989838249203351 -0.33226752099114382 0 -0.15030263560259111 -0.34285112818916452 0 -0.1476770575246594 -0.3298450188736391 0 -0.14096893258994439 -0.33934882548262568 0 -0.15908619224911419 -0.30321256624142101 0 -0.14130665940473261 -0.32287327510069419 0 -0.16045592796399111 -0.3158724724459735 0 -0.1476770575246594 -0.3298450188736391 0 -0.14130665940473261 -0.32287327510069419 0 -0.15908619224911419 -0.30321256624142101 0 -0.16045592796399111 -0.3158724724459735 0 -0.14130665940473261 -0.32287327510069419 0 -0.16045592796399111 -0.3158724724459735 0 -0.1476770575246594 -0.3298450188736391 0 -0.14130665940473261 -0.32287327510069419 0 -0.12766342535057629 -0.32481504462803062 0 -0.13033731665847181 -0.31286393971371201 0 -0.14032160831301491 -0.30752887986621158 0 -0.14130665940473261 -0.32287327510069419 0 -0.13033731665847181 -0.31286393971371201 0 -0.14130665940473261 -0.32287327510069419 0 -0.12766342535057629 -0.32481504462803062 0 -0.12902917457320359 -0.33644978787578289 0 -0.12766342535057629 -0.32481504462803062 0 -0.12902917457320359 -0.33644978787578289 0 -0.123033176677132 -0.34308019655903149 0 -0.14096893258994439 -0.33934882548262568 0 -0.12902917457320359 -0.33644978787578289 0 -0.13366226850604379 -0.34759248760944123 0 -0.14096893258994439 -0.33934882548262568 0 -0.13989838249203351 -0.33226752099114382 0 -0.12902917457320359 -0.33644978787578289 0 -0.14130665940473261 -0.32287327510069419 0 -0.12902917457320359 -0.33644978787578289 0 -0.14130665940473261 -0.32287327510069419 0 -0.13989838249203351 -0.33226752099114382 0 -0.12902917457320359 -0.33644978787578289 0 -0.12902917457320359 -0.33644978787578289 0 -0.123033176677132 -0.34308019655903149 0 -0.12902917457320359 -0.33644978787578289 0 -0.13366226850604379 -0.34759248760944123 0 -0.123033176677132 -0.34308019655903149 0 -0.13366226850604379 -0.34759248760944123 0 -0.1303219987982592 -0.3665496015062627 0 -0.123033176677132 -0.34308019655903149 0 -0.1303219987982592 -0.3665496015062627 0 -0.123033176677132 -0.34308019655903149 0 -0.13366226850604379 -0.34759248760944123 0 -0.1435303466076166 -0.35184693234157938 0 -0.1303219987982592 -0.3665496015062627 0 -0.14096893258994439 -0.33934882548262568 0 -0.13366226850604379 -0.34759248760944123 0 -0.1435303466076166 -0.35184693234157938 0 -0.15030263560259111 -0.34285112818916452 0 -0.14096893258994439 -0.33934882548262568 0 -0.1435303466076166 -0.35184693234157938 0 -0.1435303466076166 -0.35184693234157938 0 -0.15433175674287769 -0.35458729317269139 0 -0.148308101659717 -0.36695316985008092 0 -0.1633245426028184 -0.34238590264286861 0 -0.15030263560259111 -0.34285112818916452 0 -0.15433175674287769 -0.35458729317269139 0 -0.15030263560259111 -0.34285112818916452 0 -0.1435303466076166 -0.35184693234157938 0 -0.15433175674287769 -0.35458729317269139 0 -0.1435303466076166 -0.35184693234157938 0 -0.148308101659717 -0.36695316985008092 0 -0.1303219987982592 -0.3665496015062627 0 -0.1369224961495438 -0.38192389563367207 0 -0.148308101659717 -0.36695316985008092 0 -0.1303219987982592 -0.3665496015062627 0 -0.1303219987982592 -0.3665496015062627 0 -0.1159926709000937 -0.36685414663024191 0 -0.11895596668836859 -0.34683008488337108 0 -0.1303219987982592 -0.3665496015062627 0 -0.1159926709000937 -0.36685414663024191 0 -0.12201267174342199 -0.37938718301114999 0 -0.1024060606807759 -0.36205135125861898 0 -0.1016559479587178 -0.38500202459504551 0 -0.1159926709000937 -0.36685414663024191 0 -0.1024060606807759 -0.36205135125861898 0 -0.1094440337948836 -0.37923577087639421 0 -0.1024060606807759 -0.36205135125861898 0 -0.1016559479587178 -0.38500202459504551 0 -0.095426438310298192 -0.37780241062099151 0 -0.1024060606807759 -0.36205135125861898 0 -0.090139611558562177 -0.37333304007799939 0 -0.095426438310298192 -0.37780241062099151 0 -0.1024060606807759 -0.36205135125861898 0 -0.093943439343664059 -0.36410026383479388 0 -0.090139611558562177 -0.37333304007799939 0 -0.1024060606807759 -0.36205135125861898 0 -0.093943439343664059 -0.36410026383479388 0 -0.095626283443773746 -0.35612124291623848 0 -0.1024060606807759 -0.36205135125861898 0 -0.090139611558562177 -0.37333304007799939 0 -0.1024060606807759 -0.36205135125861898 0 -0.1029439411344124 -0.34559419992324319 0 -0.1024060606807759 -0.36205135125861898 0 -0.1029439411344124 -0.34559419992324319 0 -0.11895596668836859 -0.34683008488337108 0 -0.1024060606807759 -0.36205135125861898 0 -0.095626283443773746 -0.35612124291623848 0 -0.1029439411344124 -0.34559419992324319 0 -0.095626283443773746 -0.35612124291623848 0 -0.1029439411344124 -0.34559419992324319 0 -0.093212578299404075 -0.34130700998995739 0 -0.1159926709000937 -0.36685414663024191 0 -0.1024060606807759 -0.36205135125861898 0 -0.11895596668836859 -0.34683008488337108 0 -0.1024060606807759 -0.36205135125861898 0 -0.11895596668836859 -0.34683008488337108 0 -0.1303219987982592 -0.3665496015062627 0 -0.11895596668836859 -0.34683008488337108 0 -0.123033176677132 -0.34308019655903149 0 -0.1029439411344124 -0.34559419992324319 0 -0.11895596668836859 -0.34683008488337108 0 -0.123033176677132 -0.34308019655903149 0 -0.11895596668836859 -0.34683008488337108 0 -0.123033176677132 -0.34308019655903149 0 -0.1029439411344124 -0.34559419992324319 0 -0.1137910684918501 -0.33520612369310882 0 -0.123033176677132 -0.34308019655903149 0 -0.123033176677132 -0.34308019655903149 0 -0.1159692764993048 -0.31568518943543378 0 -0.1137910684918501 -0.33520612369310882 0 -0.123033176677132 -0.34308019655903149 0 -0.1159692764993048 -0.31568518943543378 0 -0.12766342535057629 -0.32481504462803062 0 -0.123033176677132 -0.34308019655903149 0 -0.1159692764993048 -0.31568518943543378 0 -0.1137910684918501 -0.33520612369310882 0 -0.1159692764993048 -0.31568518943543378 0 -0.1034818215880495 -0.3291370485878673 0 -0.12766342535057629 -0.32481504462803062 0 -0.13033731665847181 -0.31286393971371201 0 -0.1159692764993048 -0.31568518943543378 0 -0.1159692764993048 -0.31568518943543378 0 -0.10079975883819629 -0.31506063040533638 0 -0.1034818215880495 -0.3291370485878673 0 -0.10079975883819629 -0.31506063040533638 0 -0.093212578299404075 -0.34130700998995739 0 -0.10079975883819629 -0.31506063040533638 0 -0.093212578299404075 -0.34130700998995739 0 -0.087373844159168004 -0.3291061545470132 0 -0.10079975883819629 -0.31506063040533638 0 -0.1034818215880495 -0.3291370485878673 0 -0.093212578299404075 -0.34130700998995739 0 -0.1029439411344124 -0.34559419992324319 0 -0.1034818215880495 -0.3291370485878673 0 -0.1029439411344124 -0.34559419992324319 0 -0.1034818215880495 -0.3291370485878673 0 -0.093212578299404075 -0.34130700998995739 0 -0.1029439411344124 -0.34559419992324319 0 -0.1137910684918501 -0.33520612369310882 0 -0.1034818215880495 -0.3291370485878673 0 -0.093212578299404075 -0.34130700998995739 0 -0.087373844159168004 -0.3291061545470132 0 -0.080908772255243899 -0.33898270124258217 0 -0.087373844159168004 -0.3291061545470132 0 -0.080908772255243899 -0.33898270124258217 0 -0.077490532230771417 -0.32991328235931511 0 -0.093212578299404075 -0.34130700998995739 0 -0.080908772255243899 -0.33898270124258217 0 -0.080378844364046895 -0.35001101873094542 0 -0.10079975883819629 -0.31506063040533638 0 -0.085305929108392881 -0.31951846990187233 0 -0.091873739319295072 -0.31122357941036211 0 -0.10079975883819629 -0.31506063040533638 0 -0.087373844159168004 -0.3291061545470132 0 -0.085305929108392881 -0.31951846990187233 0 -0.085305929108392881 -0.31951846990187233 0 -0.076805788315873161 -0.32077910918615782 0 -0.077490532230771417 -0.32991328235931511 0 -0.087373844159168004 -0.3291061545470132 0 -0.085305929108392881 -0.31951846990187233 0 -0.077490532230771417 -0.32991328235931511 0 -0.085305929108392881 -0.31951846990187233 0 -0.076805788315873161 -0.32077910918615782 0 -0.078544889372492196 -0.31002595631180607 0 -0.085305929108392881 -0.31951846990187233 0 -0.091873739319295072 -0.31122357941036211 0 -0.078544889372492196 -0.31002595631180607 0 -0.066882954587322394 -0.32486941793266988 0 -0.078544889372492196 -0.31002595631180607 0 -0.05424539878688571 -0.319762651601179 0 -0.078544889372492196 -0.31002595631180607 0 -0.05424539878688571 -0.319762651601179 0 -0.076805788315873161 -0.32077910918615782 0 -0.066882954587322394 -0.32486941793266988 0 -0.078544889372492196 -0.31002595631180607 0 -0.076805788315873161 -0.32077910918615782 0 -0.066882954587322394 -0.32486941793266988 0 -0.077490532230771417 -0.32991328235931511 0 -0.066882954587322394 -0.32486941793266988 0 -0.070160141916437824 -0.34098238217286791 0 -0.054527031800802053 -0.34042178362413461 0 -0.066882954587322394 -0.32486941793266988 0 -0.077490532230771417 -0.32991328235931511 0 -0.070160141916437824 -0.34098238217286791 0 -0.080908772255243899 -0.33898270124258217 0 -0.077490532230771417 -0.32991328235931511 0 -0.070160141916437824 -0.34098238217286791 0 -0.080908772255243899 -0.33898270124258217 0 -0.070160141916437824 -0.34098238217286791 0 -0.080378844364046895 -0.35001101873094542 0 -0.070160141916437824 -0.34098238217286791 0 -0.066522813126512412 -0.35680227137673098 0 -0.054527031800802053 -0.34042178362413461 0 -0.070160141916437824 -0.34098238217286791 0 -0.066522813126512412 -0.35680227137673098 0 -0.080378844364046895 -0.35001101873094542 0 -0.066522813126512412 -0.35680227137673098 0 -0.076582500297099523 -0.36039923154202719 0 -0.080378844364046895 -0.35001101873094542 0 -0.066522813126512412 -0.35680227137673098 0 -0.073802945937226916 -0.36723024648585417 0 -0.058387822440418388 -0.36975607908058028 0 -0.073802945937226916 -0.36723024648585417 0 -0.058387822440418388 -0.36975607908058028 0 -0.08170780991661282 -0.38109255286014232 0 -0.066522813126512412 -0.35680227137673098 0 -0.073802945937226916 -0.36723024648585417 0 -0.076582500297099523 -0.36039923154202719 0 -0.073802945937226916 -0.36723024648585417 0 -0.076582500297099523 -0.36039923154202719 0 -0.085625397760611066 -0.36755338957457828 0 -0.085625397760611066 -0.36755338957457828 0 -0.087954911787112483 -0.37534235041220648 0 -0.08170780991661282 -0.38109255286014232 0 -0.073802945937226916 -0.36723024648585417 0 -0.085625397760611066 -0.36755338957457828 0 -0.08170780991661282 -0.38109255286014232 0 -0.085625397760611066 -0.36755338957457828 0 -0.08170780991661282 -0.38109255286014232 0 -0.093943439343664059 -0.36410026383479388 0 -0.085625397760611066 -0.36755338957457828 0 -0.090139611558562177 -0.37333304007799939 0 -0.093943439343664059 -0.36410026383479388 0 -0.090139611558562177 -0.37333304007799939 0 -0.085625397760611066 -0.36755338957457828 0 -0.090139611558562177 -0.37333304007799939 0 -0.087954911787112483 -0.37534235041220648 0 -0.085625397760611066 -0.36755338957457828 0 -0.087954911787112483 -0.37534235041220648 0 -0.090139611558562177 -0.37333304007799939 0 -0.087954911787112483 -0.37534235041220648 0 -0.093943439343664059 -0.36410026383479388 0 -0.095626283443773746 -0.35612124291623848 0 -0.085625397760611066 -0.36755338957457828 0 -0.093212578299404075 -0.34130700998995739 0 -0.085625397760611066 -0.36755338957457828 0 -0.076582500297099523 -0.36039923154202719 0 -0.085625397760611066 -0.36755338957457828 0 -0.080378844364046895 -0.35001101873094542 0 -0.093212578299404075 -0.34130700998995739 0 -0.085625397760611066 -0.36755338957457828 0 -0.080378844364046895 -0.35001101873094542 0 -0.085625397760611066 -0.36755338957457828 0 -0.080378844364046895 -0.35001101873094542 0 -0.095626283443773746 -0.35612124291623848 0 -0.093212578299404075 -0.34130700998995739 0 -0.085625397760611066 -0.36755338957457828 0 -0.10474757541744149 -0.26087495970427582 0 -0.090174700483665673 -0.26498018187443112 0 -0.1005321994236209 -0.2431127607729493 0 -0.10474757541744149 -0.26087495970427582 0 -0.11757885349586771 -0.25701660664448461 0 -0.1005321994236209 -0.2431127607729493 0 -0.12855037573501921 -0.26115248962005239 0 -0.11757885349586771 -0.25701660664448461 0 -0.1127895441811773 -0.27358429336009982 0 -0.12855037573501921 -0.26115248962005239 0 -0.11757885349586771 -0.25701660664448461 0 -0.1223681628105569 -0.24044891992886891 0 -0.10474757541744149 -0.26087495970427582 0 -0.11757885349586771 -0.25701660664448461 0 -0.1127895441811773 -0.27358429336009982 0 -0.11757885349586771 -0.25701660664448461 0 -0.1127895441811773 -0.27358429336009982 0 -0.1257911728949061 -0.280427018304516 0 -0.12970248462840331 -0.2717774759070859 0 -0.1127895441811773 -0.27358429336009982 0 -0.12855037573501921 -0.26115248962005239 0 -0.1127895441811773 -0.27358429336009982 0 -0.12970248462840331 -0.2717774759070859 0 -0.12855037573501921 -0.26115248962005239 0 -0.1127895441811773 -0.27358429336009982 0 -0.1257911728949061 -0.280427018304516 0 -0.1127895441811773 -0.27358429336009982 0 -0.1194571486541455 -0.28746452468861589 0 -0.1127895441811773 -0.27358429336009982 0 -0.1083869393769897 -0.28881425082071571 0 -0.1127895441811773 -0.27358429336009982 0 -0.093274829049746905 -0.28897707944045958 0 -0.090174700483665673 -0.26498018187443112 0 -0.10474757541744149 -0.26087495970427582 0 -0.1127895441811773 -0.27358429336009982 0 -0.090174700483665673 -0.26498018187443112 0 -0.1127895441811773 -0.27358429336009982 0 -0.1067008731150054 -0.28283902414649681 0 -0.093274829049746905 -0.28897707944045958 0 -0.1127895441811773 -0.27358429336009982 0 -0.093274829049746905 -0.28897707944045958 0 -0.1083869393769897 -0.28881425082071571 0 -0.102844379958099 -0.30028926102243358 0 -0.093274829049746905 -0.28897707944045958 0 -0.1127895441811773 -0.27358429336009982 0 -0.1083869393769897 -0.28881425082071571 0 -0.1067008731150054 -0.28283902414649681 0 -0.1083869393769897 -0.28881425082071571 0 -0.1067008731150054 -0.28283902414649681 0 -0.1083869393769897 -0.28881425082071571 0 -0.1067008731150054 -0.28283902414649681 0 -0.093274829049746905 -0.28897707944045958 0 -0.1127895441811773 -0.27358429336009982 0 -0.1083869393769897 -0.28881425082071571 0 -0.1194571486541455 -0.28746452468861589 0 -0.12994370463312691 -0.28995419054763111 0 -0.1194571486541455 -0.28746452468861589 0 -0.12304085188452731 -0.29931348820209958 0 -0.1083869393769897 -0.28881425082071571 0 -0.1194571486541455 -0.28746452468861589 0 -0.12304085188452731 -0.29931348820209958 0 -0.1159692764993048 -0.31568518943543378 0 -0.1083869393769897 -0.28881425082071571 0 -0.12304085188452731 -0.29931348820209958 0 -0.1159692764993048 -0.31568518943543378 0 -0.1083869393769897 -0.28881425082071571 0 -0.13033731665847181 -0.31286393971371201 0 -0.1159692764993048 -0.31568518943543378 0 -0.12304085188452731 -0.29931348820209958 0 -0.1159692764993048 -0.31568518943543378 0 -0.10079975883819629 -0.31506063040533638 0 -0.1083869393769897 -0.28881425082071571 0 -0.10079975883819629 -0.31506063040533638 0 -0.1083869393769897 -0.28881425082071571 0 -0.10079975883819629 -0.31506063040533638 0 -0.1083869393769897 -0.28881425082071571 0 -0.102844379958099 -0.30028926102243358 0 -0.10079975883819629 -0.31506063040533638 0 -0.102844379958099 -0.30028926102243358 0 -0.091873739319295072 -0.31122357941036211 0 -0.078544889372492196 -0.31002595631180607 0 -0.073760113918316481 -0.30436986552081963 0 -0.093274829049746905 -0.28897707944045958 0 -0.102844379958099 -0.30028926102243358 0 -0.078544889372492196 -0.31002595631180607 0 -0.093274829049746905 -0.28897707944045958 0 -0.102844379958099 -0.30028926102243358 0 -0.091873739319295072 -0.31122357941036211 0 -0.078544889372492196 -0.31002595631180607 0 -0.102844379958099 -0.30028926102243358 0 -0.078544889372492196 -0.31002595631180607 0 -0.078544889372492196 -0.31002595631180607 0 -0.073760113918316481 -0.30436986552081963 0 -0.05424539878688571 -0.319762651601179 0 -0.073760113918316481 -0.30436986552081963 0 -0.05424539878688571 -0.319762651601179 0 -0.073760113918316481 -0.30436986552081963 0 -0.071188273097670243 -0.28513602236808322 0 -0.055748641784298267 -0.30178875706485681 0 -0.073760113918316481 -0.30436986552081963 0 -0.071188273097670243 -0.28513602236808322 0 -0.093274829049746905 -0.28897707944045958 0 -0.073760113918316481 -0.30436986552081963 0 -0.093274829049746905 -0.28897707944045958 0 -0.071188273097670243 -0.28513602236808322 0 -0.093274829049746905 -0.28897707944045958 0 -0.090174700483665673 -0.26498018187443112 0 -0.071188273097670243 -0.28513602236808322 0 -0.063484538676239377 -0.26413124226689111 0 -0.090174700483665673 -0.26498018187443112 0 -0.063484538676239377 -0.26413124226689111 0 -0.076282262678724011 -0.24169347649274159 0 -0.063484538676239377 -0.26413124226689111 0 -0.090174700483665673 -0.26498018187443112 0 -0.076282262678724011 -0.24169347649274159 0 -0.036942597034766073 -0.27265489088473938 0 -0.050686814673754729 -0.28656900804104057 0 -0.0185119813334658 -0.28327625011988139 0 -0.038581934025118947 -0.25114857380685968 0 -0.038334603868346327 -0.2604973367990705 0 -0.03064478186574425 -0.25326356670072259 0 -0.038334603868346327 -0.2604973367990705 0 -0.029413390480137139 -0.26518294325465769 0 -0.03064478186574425 -0.25326356670072259 0 -0.038334603868346327 -0.2604973367990705 0 -0.046517308340487992 -0.25474718453952289 0 -0.048289188575406587 -0.26955092917192058 0 -0.038581934025118947 -0.25114857380685968 0 -0.038334603868346327 -0.2604973367990705 0 -0.046517308340487992 -0.25474718453952289 0 -0.063484538676239377 -0.26413124226689111 0 -0.046517308340487992 -0.25474718453952289 0 -0.0567919256119837 -0.24387644547435741 0 -0.063484538676239377 -0.26413124226689111 0 -0.046517308340487992 -0.25474718453952289 0 -0.048289188575406587 -0.26955092917192058 0 -0.063484538676239377 -0.26413124226689111 0 -0.050686814673754729 -0.28656900804104057 0 -0.071188273097670243 -0.28513602236808322 0 -0.063484538676239377 -0.26413124226689111 0 -0.050686814673754729 -0.28656900804104057 0 -0.063484538676239377 -0.26413124226689111 0 -0.048289188575406587 -0.26955092917192058 0 -0.050686814673754729 -0.28656900804104057 0 -0.048289188575406587 -0.26955092917192058 0 -0.036942597034766073 -0.27265489088473938 0 -0.050686814673754729 -0.28656900804104057 0 -0.038334603868346327 -0.2604973367990705 0 -0.048289188575406587 -0.26955092917192058 0 -0.036942597034766073 -0.27265489088473938 0 -0.038334603868346327 -0.2604973367990705 0 -0.036942597034766073 -0.27265489088473938 0 -0.029413390480137139 -0.26518294325465769 0 -0.050686814673754729 -0.28656900804104057 0 -0.037889090671270123 -0.30900677381518998 0 -0.0185119813334658 -0.28327625011988139 0 -0.071188273097670243 -0.28513602236808322 0 -0.050686814673754729 -0.28656900804104057 0 -0.055748641784298267 -0.30178875706485681 0 -0.073760113918316481 -0.30436986552081963 0 -0.055748641784298267 -0.30178875706485681 0 -0.05424539878688571 -0.319762651601179 0 -0.055748641784298267 -0.30178875706485681 0 -0.037889090671270123 -0.30900677381518998 0 -0.05424539878688571 -0.319762651601179 0 -0.050686814673754729 -0.28656900804104057 0 -0.055748641784298267 -0.30178875706485681 0 -0.037889090671270123 -0.30900677381518998 0 -0.050686814673754729 -0.28656900804104057 0 -0.037889090671270123 -0.30900677381518998 0 -0.037889090671270123 -0.30900677381518998 0 -0.014390974368570029 -0.31032982847088841 0 -0.0185119813334658 -0.28327625011988139 0 -0.014390974368570029 -0.31032982847088841 0 0.001904989571353899 -0.32214434476741449 0 0.0019518825097332619 -0.30029273945570772 0 -0.014390974368570029 -0.31032982847088841 0 -0.0185119813334658 -0.28327625011988139 0 0.0019518825097332619 -0.30029273945570772 0 -0.0185119813334658 -0.28327625011988139 0 -0.0020851015340006161 -0.28052611142458661 0 0.0019518825097332619 -0.30029273945570772 0 -0.014390974368570029 -0.31032982847088841 0 -0.0185119813334658 -0.28327625011988139 0 -0.036942597034766073 -0.27265489088473938 0 -0.0185119813334658 -0.28327625011988139 0 -0.029413390480137139 -0.26518294325465769 0 -0.0185119813334658 -0.28327625011988139 0 -0.02263298829836323 -0.25622267176887481 0 -0.029413390480137139 -0.26518294325465769 0 -0.0185119813334658 -0.28327625011988139 0 -0.02263298829836323 -0.25622267176887481 0 -0.0185119813334658 -0.28327625011988139 0 -0.0093077836028632385 -0.27105033158696179 0 -0.02263298829836323 -0.25622267176887481 0 -0.0185119813334658 -0.28327625011988139 0 -0.0020851015340006161 -0.28052611142458661 0 -0.0093077836028632385 -0.27105033158696179 0 -0.0020851015340006161 -0.28052611142458661 0 -0.0093077836028632385 -0.27105033158696179 0 0.0055944649301708496 -0.26664830233551728 0 -0.014059514610042069 -0.25416210053859828 0 -0.02263298829836323 -0.25622267176887481 0 0.0055944649301708496 -0.26664830233551728 0 -0.0093077836028632385 -0.27105033158696179 0 -0.02263298829836323 -0.25622267176887481 0 0.0055944649301708496 -0.26664830233551728 0 -0.02263298829836323 -0.25622267176887481 0 0.0055944649301708496 -0.26664830233551728 0 -0.014059514610042069 -0.25416210053859828 0 -0.0080727856436109482 -0.2481099565327444 0 0.0055944649301708496 -0.26664830233551728 0 -0.014059514610042069 -0.25416210053859828 0 -0.01887874476148543 -0.24814250919209771 0 -0.0080727856436109482 -0.2481099565327444 0 -0.014059514610042069 -0.25416210053859828 0 -0.02263298829836323 -0.25622267176887481 0 -0.02285766608625657 -0.25474770747244752 0 -0.014059514610042069 -0.25416210053859828 0 -0.02285766608625657 -0.25474770747244752 0 -0.01887874476148543 -0.24814250919209771 0 -0.02285766608625657 -0.25474770747244752 0 -0.026067501294639708 -0.24850247980592871 0 -0.01887874476148543 -0.24814250919209771 0 -0.02263298829836323 -0.25622267176887481 0 -0.02285766608625657 -0.25474770747244752 0 -0.02263298829836323 -0.25622267176887481 0 -0.029413390480137139 -0.26518294325465769 0 -0.03064478186574425 -0.25326356670072259 0 -0.02263298829836323 -0.25622267176887481 0 -0.03064478186574425 -0.25326356670072259 0 -0.02263298829836323 -0.25622267176887481 0 -0.02285766608625657 -0.25474770747244752 0 -0.03064478186574425 -0.25326356670072259 0 -0.02285766608625657 -0.25474770747244752 0 -0.03064478186574425 -0.25326356670072259 0 -0.026067501294639708 -0.24850247980592871 0 -0.040780788735907937 -0.34809370153295588 0 -0.035070660285960877 -0.35841379707961513 0 -0.051335308585544609 -0.35442186843706669 0 -0.040780788735907937 -0.34809370153295588 0 -0.033802973987086503 -0.33588719504380232 0 -0.029167969020145641 -0.35132386348016093 0 -0.040780788735907937 -0.34809370153295588 0 -0.035070660285960877 -0.35841379707961513 0 -0.029167969020145641 -0.35132386348016093 0 -0.035070660285960877 -0.35841379707961513 0 -0.040000350022935588 -0.37213681664196291 0 -0.021437446366364531 -0.36359117576668931 0 -0.035070660285960877 -0.35841379707961513 0 -0.058387822440418388 -0.36975607908058028 0 -0.035070660285960877 -0.35841379707961513 0 -0.040000350022935588 -0.37213681664196291 0 -0.058387822440418388 -0.36975607908058028 0 -0.040000350022935588 -0.37213681664196291 0 -0.058387822440418388 -0.36975607908058028 0 -0.058563253679506787 -0.38068245751723601 0 -0.035070660285960877 -0.35841379707961513 0 -0.058387822440418388 -0.36975607908058028 0 -0.051335308585544609 -0.35442186843706669 0 -0.066522813126512412 -0.35680227137673098 0 -0.058387822440418388 -0.36975607908058028 0 -0.051335308585544609 -0.35442186843706669 0 -0.066522813126512412 -0.35680227137673098 0 -0.051335308585544609 -0.35442186843706669 0 -0.054527031800802053 -0.34042178362413461 0 -0.040780788735907937 -0.34809370153295588 0 -0.051335308585544609 -0.35442186843706669 0 -0.054527031800802053 -0.34042178362413461 0 -0.066882954587322394 -0.32486941793266988 0 -0.054527031800802053 -0.34042178362413461 0 -0.05424539878688571 -0.319762651601179 0 -0.054527031800802053 -0.34042178362413461 0 -0.05424539878688571 -0.319762651601179 0 -0.033802973987086503 -0.33588719504380232 0 -0.05424539878688571 -0.319762651601179 0 -0.039668382727836717 -0.32560359559526031 0 -0.05424539878688571 -0.319762651601179 0 -0.033802973987086503 -0.33588719504380232 0 -0.037889090671270123 -0.30900677381518998 0 -0.025091366668787349 -0.3314445395893405 0 -0.05424539878688571 -0.319762651601179 0 -0.039668382727836717 -0.32560359559526031 0 -0.033802973987086503 -0.33588719504380232 0 -0.037889090671270123 -0.30900677381518998 0 -0.05424539878688571 -0.319762651601179 0 -0.039668382727836717 -0.32560359559526031 0 -0.037889090671270123 -0.30900677381518998 0 -0.039668382727836717 -0.32560359559526031 0 -0.025091366668787349 -0.3314445395893405 0 -0.040780788735907937 -0.34809370153295588 0 -0.054527031800802053 -0.34042178362413461 0 -0.033802973987086503 -0.33588719504380232 0 -0.039668382727836717 -0.32560359559526031 0 -0.025091366668787349 -0.3314445395893405 0 -0.039668382727836717 -0.32560359559526031 0 -0.033802973987086503 -0.33588719504380232 0 -0.025091366668787349 -0.3314445395893405 0 -0.025091366668787349 -0.3314445395893405 0 -0.01336054918728761 -0.35201173848642592 0 -0.033802973987086503 -0.33588719504380232 0 -0.025091366668787349 -0.3314445395893405 0 -0.01336054918728761 -0.35201173848642592 0 -0.025091366668787349 -0.3314445395893405 0 -0.01532372128421448 -0.33535839064186268 0 -0.01336054918728761 -0.35201173848642592 0 -0.025091366668787349 -0.3314445395893405 0 -0.022734703789933738 -0.32728556430890232 0 -0.01532372128421448 -0.33535839064186268 0 -0.025091366668787349 -0.3314445395893405 0 -0.01532372128421448 -0.33535839064186268 0 -0.022734703789933738 -0.32728556430890232 0 -0.01532372128421448 -0.33535839064186268 0 -0.037889090671270123 -0.30900677381518998 0 -0.014390974368570029 -0.31032982847088841 0 -0.022734703789933738 -0.32728556430890232 0 -0.037889090671270123 -0.30900677381518998 0 -0.025091366668787349 -0.3314445395893405 0 -0.022734703789933738 -0.32728556430890232 0 -0.014390974368570029 -0.31032982847088841 0 -0.022734703789933738 -0.32728556430890232 0 -0.01532372128421448 -0.33535839064186268 0 -0.014390974368570029 -0.31032982847088841 0 -0.010269967403673339 -0.33738340682189533 0 -0.014390974368570029 -0.31032982847088841 0 -0.010269967403673339 -0.33738340682189533 0 -0.01532372128421448 -0.33535839064186268 0 -0.014390974368570029 -0.31032982847088841 0 -0.010269967403673339 -0.33738340682189533 0 0.001904989571353899 -0.32214434476741449 0 -0.010269967403673339 -0.33738340682189533 0 -0.0096343958099064687 -0.34155580596031437 0 0.0075807645751098419 -0.34453611388615663 0 -0.010269967403673339 -0.33738340682189533 0 0.0075807645751098419 -0.34453611388615663 0 -0.0096343958099064687 -0.34155580596031437 0 -0.01532372128421448 -0.33535839064186268 0 -0.01336054918728761 -0.35201173848642592 0 -0.010269967403673339 -0.33738340682189533 0 -0.0096343958099064687 -0.34155580596031437 0 -0.010269967403673339 -0.33738340682189533 0 -0.0096343958099064687 -0.34155580596031437 0 -0.01532372128421448 -0.33535839064186268 0 -0.0096343958099064687 -0.34155580596031437 0 -0.01532372128421448 -0.33535839064186268 0 -0.010269967403673339 -0.33738340682189533 0 -0.01532372128421448 -0.33535839064186268 0 -0.010269967403673339 -0.33738340682189533 0 0.0034794820758208261 -0.33361449123698089 0 0.001904989571353899 -0.32214434476741449 0 -0.0096343958099064687 -0.34155580596031437 0 -0.0070150904897389628 -0.35875101633193152 0 -0.0096343958099064687 -0.34155580596031437 0 -0.0070150904897389628 -0.35875101633193152 0 -0.01336054918728761 -0.35201173848642592 0 -0.0096343958099064687 -0.34155580596031437 0 -0.0070150904897389628 -0.35875101633193152 0 0.0099352179383349771 -0.36287309999936251 0 -0.033802973987086503 -0.33588719504380232 0 -0.01336054918728761 -0.35201173848642592 0 -0.029167969020145641 -0.35132386348016093 0 -0.01336054918728761 -0.35201173848642592 0 -0.029167969020145641 -0.35132386348016093 0 -0.021437446366364531 -0.36359117576668931 0 -0.033802973987086503 -0.33588719504380232 0 -0.01336054918728761 -0.35201173848642592 0 -0.035070660285960877 -0.35841379707961513 0 -0.029167969020145641 -0.35132386348016093 0 -0.021437446366364531 -0.36359117576668931 0 -0.040000350022935588 -0.37213681664196291 0 -0.021437446366364531 -0.36359117576668931 0 -0.02618172091304426 -0.37743656618445498 0 -0.021437446366364531 -0.36359117576668931 0 -0.002178803782163227 -0.37161627006544062 0 -0.02618172091304426 -0.37743656618445498 0 -0.040000350022935588 -0.37213681664196291 0 -0.021437446366364531 -0.36359117576668931 0 -0.01336054918728761 -0.35201173848642592 0 -0.021437446366364531 -0.36359117576668931 0 -0.002178803782163227 -0.37161627006544062 0 -0.01336054918728761 -0.35201173848642592 0 -0.002178803782163227 -0.37161627006544062 0 -0.0070150904897389628 -0.35875101633193152 0 -0.01336054918728761 -0.35201173848642592 0 -0.002178803782163227 -0.37161627006544062 0 -0.002178803782163227 -0.37161627006544062 0 -0.026336278995230201 -0.38905167830789189 0 -0.002178803782163227 -0.37161627006544062 0 -0.0066930742226519926 -0.39143820132839208 0 -0.026336278995230201 -0.38905167830789189 0 -0.0066930742226519926 -0.39143820132839208 0 -0.001728596279610697 -0.40597762003102339 0 -0.017737199096442072 -0.40073047040120602 0 -0.0066930742226519926 -0.39143820132839208 0 -0.017737199096442072 -0.40073047040120602 0 -0.026336278995230201 -0.38905167830789189 0 -0.017737199096442072 -0.40073047040120602 0 -0.026336278995230201 -0.38905167830789189 0 -0.033287388117186109 -0.40399871831440642 0 -0.002178803782163227 -0.37161627006544062 0 -0.026336278995230201 -0.38905167830789189 0 -0.02618172091304426 -0.37743656618445498 0 -0.026336278995230201 -0.38905167830789189 0 -0.02618172091304426 -0.37743656618445498 0 -0.033482850758781962 -0.383939184607547 0 -0.02618172091304426 -0.37743656618445498 0 -0.042372487296275553 -0.37905951185084519 0 -0.033482850758781962 -0.383939184607547 0 -0.02618172091304426 -0.37743656618445498 0 -0.042372487296275553 -0.37905951185084519 0 -0.040000350022935588 -0.37213681664196291 0 -0.02618172091304426 -0.37743656618445498 0 -0.042372487296275553 -0.37905951185084519 0 -0.042372487296275553 -0.37905951185084519 0 -0.039040915830577852 -0.39020898208699611 0 -0.049048127186911553 -0.38756594990863991 0 -0.042372487296275553 -0.37905951185084519 0 -0.039040915830577852 -0.39020898208699611 0 -0.033482850758781962 -0.383939184607547 0 -0.026336278995230201 -0.38905167830789189 0 -0.039040915830577852 -0.39020898208699611 0 -0.033482850758781962 -0.383939184607547 0 -0.026336278995230201 -0.38905167830789189 0 -0.050493754208297943 -0.40648708655034188 0 -0.039040915830577852 -0.39020898208699611 0 -0.048181286987745188 -0.3967611761759377 0 -0.050493754208297943 -0.40648708655034188 0 -0.026336278995230201 -0.38905167830789189 0 -0.039040915830577852 -0.39020898208699611 0 -0.050493754208297943 -0.40648708655034188 0 -0.026336278995230201 -0.38905167830789189 0 -0.033287388117186109 -0.40399871831440642 0 -0.050493754208297943 -0.40648708655034188 0 -0.039040915830577852 -0.39020898208699611 0 -0.048181286987745188 -0.3967611761759377 0 -0.049048127186911553 -0.38756594990863991 0 -0.048181286987745188 -0.3967611761759377 0 -0.055512870853615448 -0.39455951290216967 0 -0.049048127186911553 -0.38756594990863991 0 -0.055512870853615448 -0.39455951290216967 0 -0.052509649903146327 -0.40794203844841681 0 -0.074281153156084773 -0.38791836881244668 0 -0.048181286987745188 -0.3967611761759377 0 -0.055512870853615448 -0.39455951290216967 0 -0.050493754208297943 -0.40648708655034188 0 -0.055512870853615448 -0.39455951290216967 0 -0.052509649903146327 -0.40794203844841681 0 -0.050493754208297943 -0.40648708655034188 0 -0.048181286987745188 -0.3967611761759377 0 -0.050493754208297943 -0.40648708655034188 0 -0.040000350022935588 -0.37213681664196291 0 -0.042372487296275553 -0.37905951185084519 0 -0.058563253679506787 -0.38068245751723601 0 -0.042372487296275553 -0.37905951185084519 0 -0.058563253679506787 -0.38068245751723601 0 -0.040000350022935588 -0.37213681664196291 0 -0.058563253679506787 -0.38068245751723601 0 -0.042372487296275553 -0.37905951185084519 0 -0.058563253679506787 -0.38068245751723601 0 -0.049048127186911553 -0.38756594990863991 0 -0.055512870853615448 -0.39455951290216967 0 -0.058563253679506787 -0.38068245751723601 0 -0.049048127186911553 -0.38756594990863991 0 -0.055571169944573007 -0.4278419796903028 0 -0.060002998013559863 -0.44648162232419802 0 -0.069408814394604765 -0.42365151461769918 0 -0.055571169944573007 -0.4278419796903028 0 -0.060002998013559863 -0.44648162232419802 0 -0.055571169944573007 -0.4278419796903028 0 -0.04142135733128624 -0.43391233418184683 0 -0.048623679129421588 -0.44273110985945369 0 -0.055571169944573007 -0.4278419796903028 0 -0.059775586818595829 -0.41787661413097049 0 -0.069408814394604765 -0.42365151461769918 0 -0.055571169944573007 -0.4278419796903028 0 -0.059775586818595829 -0.41787661413097049 0 -0.052509649903146327 -0.40794203844841681 0 -0.055571169944573007 -0.4278419796903028 0 -0.052509649903146327 -0.40794203844841681 0 -0.038621424185474637 -0.4207153063468223 0 -0.055571169944573007 -0.4278419796903028 0 -0.052509649903146327 -0.40794203844841681 0 -0.052509649903146327 -0.40794203844841681 0 -0.070248957975066639 -0.42074520084202788 0 -0.059775586818595829 -0.41787661413097049 0 -0.052509649903146327 -0.40794203844841681 0 -0.070248957975066639 -0.42074520084202788 0 -0.052509649903146327 -0.40794203844841681 0 -0.050493754208297943 -0.40648708655034188 0 -0.041470954428671609 -0.41006675355118111 0 -0.052509649903146327 -0.40794203844841681 0 -0.050493754208297943 -0.40648708655034188 0 -0.052509649903146327 -0.40794203844841681 0 -0.038621424185474637 -0.4207153063468223 0 -0.033287388117186109 -0.40399871831440642 0 -0.050493754208297943 -0.40648708655034188 0 -0.041470954428671609 -0.41006675355118111 0 -0.052509649903146327 -0.40794203844841681 0 -0.041470954428671609 -0.41006675355118111 0 -0.038621424185474637 -0.4207153063468223 0 -0.033287388117186109 -0.40399871831440642 0 -0.041470954428671609 -0.41006675355118111 0 -0.027792962261932352 -0.41547375898907968 0 -0.041470954428671609 -0.41006675355118111 0 -0.038621424185474637 -0.4207153063468223 0 -0.027792962261932352 -0.41547375898907968 0 -0.055571169944573007 -0.4278419796903028 0 -0.038621424185474637 -0.4207153063468223 0 -0.04142135733128624 -0.43391233418184683 0 -0.038621424185474637 -0.4207153063468223 0 -0.026103506495360269 -0.43222827563723731 0 -0.038621424185474637 -0.4207153063468223 0 -0.04142135733128624 -0.43391233418184683 0 -0.026103506495360269 -0.43222827563723731 0 -0.04142135733128624 -0.43391233418184683 0 -0.026103506495360269 -0.43222827563723731 0 -0.035662081446574762 -0.44437129177822371 0 -0.026103506495360269 -0.43222827563723731 0 -0.027792962261932352 -0.41547375898907968 0 -0.009537301248459449 -0.42510302968362512 0 -0.026103506495360269 -0.43222827563723731 0 -0.009537301248459449 -0.42510302968362512 0 -0.019709463090837601 -0.44530454005801179 0 -0.038621424185474637 -0.4207153063468223 0 -0.026103506495360269 -0.43222827563723731 0 -0.027792962261932352 -0.41547375898907968 0 -0.017737199096442072 -0.40073047040120602 0 -0.027792962261932352 -0.41547375898907968 0 -0.009537301248459449 -0.42510302968362512 0 -0.017737199096442072 -0.40073047040120602 0 -0.033287388117186109 -0.40399871831440642 0 -0.027792962261932352 -0.41547375898907968 0 -0.001728596279610697 -0.40597762003102339 0 -0.017737199096442072 -0.40073047040120602 0 -0.009537301248459449 -0.42510302968362512 0 -0.017737199096442072 -0.40073047040120602 0 -0.009537301248459449 -0.42510302968362512 0 -0.001728596279610697 -0.40597762003102339 0 -0.009537301248459449 -0.42510302968362512 0 0.0082246319185010179 -0.41465428951275207 0 -0.009537301248459449 -0.42510302968362512 0 -0.0013374034004768371 -0.44947558896604423 0 -0.009537301248459449 -0.42510302968362512 0 -0.0013374034004768371 -0.44947558896604423 0 0.01039378864355619 -0.42848339288335913 0 -0.009537301248459449 -0.42510302968362512 0 -0.0013374034004768371 -0.44947558896604423 0 -0.019709463090837601 -0.44530454005801179 0 -0.0013374034004768371 -0.44947558896604423 0 -0.014612752260004851 -0.46155177919014362 0 -0.019709463090837601 -0.44530454005801179 0 -0.0013374034004768371 -0.44947558896604423 0 -0.014612752260004851 -0.46155177919014362 0 0.0068624944475057766 -0.47384814824846327 0 -0.014612752260004851 -0.46155177919014362 0 -0.028521420705905499 -0.4674310816654948 0 -0.030789477839635839 -0.45543267362212791 0 -0.014612752260004851 -0.46155177919014362 0 -0.030789477839635839 -0.45543267362212791 0 -0.019709463090837601 -0.44530454005801179 0 -0.030789477839635839 -0.45543267362212791 0 -0.019709463090837601 -0.44530454005801179 0 -0.035662081446574762 -0.44437129177822371 0 -0.026103506495360269 -0.43222827563723731 0 -0.019709463090837601 -0.44530454005801179 0 -0.035662081446574762 -0.44437129177822371 0 -0.015217900669161011 -0.5 0 -0.01418124297067914 -0.47781864258071971 0 0.0024053695883212941 -0.48891336768777249 0 -0.01418124297067914 -0.47781864258071971 0 0.0068624944475057766 -0.47384814824846327 0 0.0024053695883212941 -0.48891336768777249 0 -0.014612752260004851 -0.46155177919014362 0 -0.01418124297067914 -0.47781864258071971 0 0.0068624944475057766 -0.47384814824846327 0 -0.014612752260004851 -0.46155177919014362 0 -0.028521420705905499 -0.4674310816654948 0 -0.01418124297067914 -0.47781864258071971 0 -0.028521420705905499 -0.4674310816654948 0 -0.01418124297067914 -0.47781864258071971 0 -0.027752274071966478 -0.47742461628286209 0 -0.015217900669161011 -0.5 0 -0.027752274071966478 -0.47742461628286209 0 -0.038171784631523778 -0.48284131767108018 0 -0.015217900669161011 -0.5 0 -0.01418124297067914 -0.47781864258071971 0 -0.027752274071966478 -0.47742461628286209 0 -0.015217900669161011 -0.5 0 -0.043972809743024373 -0.5 0 -0.038171784631523778 -0.48284131767108018 0 -0.043972809743024373 -0.5 0 -0.038171784631523778 -0.48284131767108018 0 -0.049841179956411519 -0.48183723669954598 0 -0.038171784631523778 -0.48284131767108018 0 -0.048675315621036823 -0.47094071089761919 0 -0.038171784631523778 -0.48284131767108018 0 -0.048675315621036823 -0.47094071089761919 0 -0.049841179956411519 -0.48183723669954598 0 -0.027752274071966478 -0.47742461628286209 0 -0.038171784631523778 -0.48284131767108018 0 -0.038764373548703768 -0.47063519779216179 0 -0.028521420705905499 -0.4674310816654948 0 -0.027752274071966478 -0.47742461628286209 0 -0.038764373548703768 -0.47063519779216179 0 -0.038764373548703768 -0.47063519779216179 0 -0.048675315621036823 -0.47094071089761919 0 -0.045335619097383061 -0.46570514195792412 0 -0.038171784631523778 -0.48284131767108018 0 -0.038764373548703768 -0.47063519779216179 0 -0.048675315621036823 -0.47094071089761919 0 -0.048675315621036823 -0.47094071089761919 0 -0.055120034750126161 -0.47128965669693351 0 -0.049841179956411519 -0.48183723669954598 0 -0.048675315621036823 -0.47094071089761919 0 -0.055120034750126161 -0.47128965669693351 0 -0.057384894248553399 -0.46524593439390849 0 -0.055120034750126161 -0.47128965669693351 0 -0.059149819292987238 -0.47777467248794547 0 -0.064422500494955764 -0.4650694252783244 0 -0.059149819292987238 -0.47777467248794547 0 -0.049841179956411519 -0.48183723669954598 0 -0.058853327493046781 -0.48842932436532971 0 -0.055120034750126161 -0.47128965669693351 0 -0.059149819292987238 -0.47777467248794547 0 -0.049841179956411519 -0.48183723669954598 0 -0.059149819292987238 -0.47777467248794547 0 -0.058853327493046781 -0.48842932436532971 0 -0.068575109655922298 -0.48253471263916042 0 -0.043972809743024373 -0.5 0 -0.058853327493046781 -0.48842932436532971 0 -0.072727718816887776 -0.49999999999999672 0 -0.043972809743024373 -0.5 0 -0.049841179956411519 -0.48183723669954598 0 -0.058853327493046781 -0.48842932436532971 0 -0.045123684251444827 -0.45223268167437758 0 -0.035662081446574762 -0.44437129177822371 0 -0.048623679129421588 -0.44273110985945369 0 -0.04142135733128624 -0.43391233418184683 0 -0.035662081446574762 -0.44437129177822371 0 -0.048623679129421588 -0.44273110985945369 0 -0.030789477839635839 -0.45543267362212791 0 -0.045123684251444827 -0.45223268167437758 0 -0.035662081446574762 -0.44437129177822371 0 -0.030789477839635839 -0.45543267362212791 0 -0.045123684251444827 -0.45223268167437758 0 -0.04007978340352341 -0.46172459869688548 0 -0.028521420705905499 -0.4674310816654948 0 -0.030789477839635839 -0.45543267362212791 0 -0.04007978340352341 -0.46172459869688548 0 -0.028521420705905499 -0.4674310816654948 0 -0.038764373548703768 -0.47063519779216179 0 -0.04007978340352341 -0.46172459869688548 0 -0.038764373548703768 -0.47063519779216179 0 -0.04007978340352341 -0.46172459869688548 0 -0.045335619097383061 -0.46570514195792412 0 -0.04007978340352341 -0.46172459869688548 0 -0.045335619097383061 -0.46570514195792412 0 -0.047248161051959649 -0.4591011094540644 0 -0.045123684251444827 -0.45223268167437758 0 -0.04007978340352341 -0.46172459869688548 0 -0.047248161051959649 -0.4591011094540644 0 -0.045123684251444827 -0.45223268167437758 0 -0.050581796861615229 -0.45333412325219669 0 -0.047248161051959649 -0.4591011094540644 0 -0.050581796861615229 -0.45333412325219669 0 -0.047248161051959649 -0.4591011094540644 0 -0.051910461861691633 -0.46612409294888979 0 -0.051910461861691633 -0.46612409294888979 0 -0.05917884661055 -0.4590401041241583 0 -0.060002998013559863 -0.44648162232419802 0 -0.051910461861691633 -0.46612409294888979 0 -0.060002998013559863 -0.44648162232419802 0 -0.050581796861615229 -0.45333412325219669 0 -0.051910461861691633 -0.46612409294888979 0 -0.060002998013559863 -0.44648162232419802 0 -0.048675315621036823 -0.47094071089761919 0 -0.05917884661055 -0.4590401041241583 0 -0.048675315621036823 -0.47094071089761919 0 -0.051910461861691633 -0.46612409294888979 0 -0.05917884661055 -0.4590401041241583 0 -0.048675315621036823 -0.47094071089761919 0 -0.045335619097383061 -0.46570514195792412 0 -0.051910461861691633 -0.46612409294888979 0 -0.045335619097383061 -0.46570514195792412 0 -0.047248161051959649 -0.4591011094540644 0 -0.051910461861691633 -0.46612409294888979 0 -0.055120034750126161 -0.47128965669693351 0 -0.057384894248553399 -0.46524593439390849 0 -0.064422500494955764 -0.4650694252783244 0 -0.048675315621036823 -0.47094071089761919 0 -0.057384894248553399 -0.46524593439390849 0 -0.05917884661055 -0.4590401041241583 0 -0.057384894248553399 -0.46524593439390849 0 -0.05917884661055 -0.4590401041241583 0 -0.059237257045792073 -0.46090013765886428 0 -0.064422500494955764 -0.4650694252783244 0 -0.057384894248553399 -0.46524593439390849 0 -0.059237257045792073 -0.46090013765886428 0 -0.064422500494955764 -0.4650694252783244 0 -0.057384894248553399 -0.46524593439390849 0 -0.059237257045792073 -0.46090013765886428 0 -0.05917884661055 -0.4590401041241583 0 -0.059237257045792073 -0.46090013765886428 0 -0.062180371227510647 -0.45563934639583059 0 -0.064422500494955764 -0.4650694252783244 0 -0.059237257045792073 -0.46090013765886428 0 -0.05917884661055 -0.4590401041241583 0 -0.062180371227510647 -0.45563934639583059 0 -0.05917884661055 -0.4590401041241583 0 -0.062180371227510647 -0.45563934639583059 0 -0.05917884661055 -0.4590401041241583 0 -0.061269440441321127 -0.45180810022505591 0 -0.05917884661055 -0.4590401041241583 0 -0.062180371227510647 -0.45563934639583059 0 -0.061269440441321127 -0.45180810022505591 0 -0.062180371227510647 -0.45563934639583059 0 -0.061269440441321127 -0.45180810022505591 0 -0.055571169944573007 -0.4278419796903028 0 -0.060002998013559863 -0.44648162232419802 0 -0.048623679129421588 -0.44273110985945369 0 -0.05917884661055 -0.4590401041241583 0 -0.061269440441321127 -0.45180810022505591 0 -0.060002998013559863 -0.44648162232419802 0 -0.061269440441321127 -0.45180810022505591 0 -0.060002998013559863 -0.44648162232419802 0 -0.050581796861615229 -0.45333412325219669 0 -0.060002998013559863 -0.44648162232419802 0 -0.048623679129421588 -0.44273110985945369 0 -0.045123684251444827 -0.45223268167437758 0 -0.050581796861615229 -0.45333412325219669 0 -0.048623679129421588 -0.44273110985945369 0 -0.061269440441321127 -0.45180810022505591 0 -0.069408814394604765 -0.42365151461769918 0 -0.062180371227510647 -0.45563934639583059 0 -0.061269440441321127 -0.45180810022505591 0 -0.077098496045509793 -0.43873696019506903 0 -0.062180371227510647 -0.45563934639583059 0 -0.077098496045509793 -0.43873696019506903 0 -0.073769461018799692 -0.45951707792468061 0 -0.061269440441321127 -0.45180810022505591 0 -0.077098496045509793 -0.43873696019506903 0 -0.069408814394604765 -0.42365151461769918 0 -0.061269440441321127 -0.45180810022505591 0 -0.060002998013559863 -0.44648162232419802 0 -0.069408814394604765 -0.42365151461769918 0 -0.062180371227510647 -0.45563934639583059 0 -0.077098496045509793 -0.43873696019506903 0 -0.062180371227510647 -0.45563934639583059 0 -0.064422500494955764 -0.4650694252783244 0 -0.062180371227510647 -0.45563934639583059 0 -0.064422500494955764 -0.4650694252783244 0 -0.073769461018799692 -0.45951707792468061 0 -0.084521355142842869 -0.45759592347480388 0 -0.086143661312174283 -0.48253471263916248 0 -0.099165393688022629 -0.46120376842987459 0 -0.073769461018799692 -0.45951707792468061 0 -0.084521355142842869 -0.45759592347480388 0 -0.086143661312174283 -0.48253471263916248 0 -0.084521355142842869 -0.45759592347480388 0 -0.089624247433654214 -0.44685599598904568 0 -0.099165393688022629 -0.46120376842987459 0 -0.077098496045509793 -0.43873696019506903 0 -0.084521355142842869 -0.45759592347480388 0 -0.089624247433654214 -0.44685599598904568 0 -0.077098496045509793 -0.43873696019506903 0 -0.073769461018799692 -0.45951707792468061 0 -0.084521355142842869 -0.45759592347480388 0 -0.089624247433654214 -0.44685599598904568 0 -0.099878095611554862 -0.4393977270813314 0 -0.089545628933694749 -0.43673796215895883 0 -0.077098496045509793 -0.43873696019506903 0 -0.089624247433654214 -0.44685599598904568 0 -0.089545628933694749 -0.43673796215895883 0 -0.072727718816887776 -0.49999999999999672 0 -0.068575109655922298 -0.48253471263916042 0 -0.058853327493046781 -0.48842932436532971 0 -0.072727718816887776 -0.49999999999999672 0 -0.068575109655922298 -0.48253471263916042 0 -0.072727718816887776 -0.49999999999999672 0 -0.068575109655922298 -0.48253471263916042 0 -0.086143661312174283 -0.48253471263916248 0 -0.064422500494955764 -0.4650694252783244 0 -0.068575109655922298 -0.48253471263916042 0 -0.059149819292987238 -0.47777467248794547 0 -0.064422500494955764 -0.4650694252783244 0 -0.068575109655922298 -0.48253471263916042 0 -0.064422500494955764 -0.4650694252783244 0 -0.073769461018799692 -0.45951707792468061 0 -0.086143661312174283 -0.48253471263916248 0 -0.064422500494955764 -0.4650694252783244 0 -0.068575109655922298 -0.48253471263916042 0 -0.086143661312174283 -0.48253471263916248 0 -0.064422500494955764 -0.4650694252783244 0 -0.086143661312174283 -0.48253471263916248 0 -0.072727718816887776 -0.49999999999999672 0 -0.086143661312174283 -0.48253471263916248 0 -0.090296270473140428 -0.5 0 -0.086143661312174283 -0.48253471263916248 0 -0.090296270473140428 -0.5 0 -0.10786482212939311 -0.50000000000000011 0 -0.086143661312174283 -0.48253471263916248 0 -0.10786482212939311 -0.50000000000000011 0 -0.086143661312174283 -0.48253471263916248 0 -0.10786482212939311 -0.50000000000000011 0 -0.1056577076014347 -0.47999846360012538 0 -0.086143661312174283 -0.48253471263916248 0 -0.1056577076014347 -0.47999846360012538 0 -0.099165393688022629 -0.46120376842987459 0 -0.1056577076014347 -0.47999846360012538 0 -0.12108079434187891 -0.47202921183540031 0 -0.099165393688022629 -0.46120376842987459 0 -0.1056577076014347 -0.47999846360012538 0 -0.12108079434187891 -0.47202921183540031 0 -0.1206292342060253 -0.48641385964910883 0 -0.131118449396015 -0.5 0 -0.10786482212939311 -0.50000000000000011 0 -0.1206292342060253 -0.48641385964910883 0 -0.10786482212939311 -0.50000000000000011 0 -0.1056577076014347 -0.47999846360012538 0 -0.1206292342060253 -0.48641385964910883 0 -0.099878095611554862 -0.4393977270813314 0 -0.099165393688022629 -0.46120376842987459 0 -0.099878095611554862 -0.4393977270813314 0 -0.099165393688022629 -0.46120376842987459 0 -0.11615585050415531 -0.45102464773050138 0 -0.089624247433654214 -0.44685599598904568 0 -0.099878095611554862 -0.4393977270813314 0 -0.099165393688022629 -0.46120376842987459 0 -0.12108079434187891 -0.47202921183540031 0 -0.099165393688022629 -0.46120376842987459 0 -0.11615585050415531 -0.45102464773050138 0 -0.13077987840644981 -0.46069854066347632 0 -0.12108079434187891 -0.47202921183540031 0 -0.11615585050415531 -0.45102464773050138 0 -0.13194602454298601 -0.43962244526902572 0 -0.11615585050415531 -0.45102464773050138 0 -0.1129403580353462 -0.43280081863281078 0 -0.099878095611554862 -0.4393977270813314 0 -0.11615585050415531 -0.45102464773050138 0 -0.1129403580353462 -0.43280081863281078 0 -0.13194602454298601 -0.43962244526902572 0 -0.1165997240041481 -0.41847011486561592 0 -0.13194602454298601 -0.43962244526902572 0 -0.1129403580353462 -0.43280081863281078 0 -0.1165997240041481 -0.41847011486561592 0 -0.1129403580353462 -0.43280081863281078 0 -0.1079125428112538 -0.41892639524425412 0 -0.1165997240041481 -0.41847011486561592 0 -0.099878095611554862 -0.4393977270813314 0 -0.100590797535087 -0.41759168573278821 0 -0.092016620863508841 -0.4218345739943074 0 -0.099878095611554862 -0.4393977270813314 0 -0.089545628933694749 -0.43673796215895883 0 -0.092016620863508841 -0.4218345739943074 0 -0.099878095611554862 -0.4393977270813314 0 -0.1129403580353462 -0.43280081863281078 0 -0.10283731640903 -0.42510314405888588 0 -0.099878095611554862 -0.4393977270813314 0 -0.100590797535087 -0.41759168573278821 0 -0.099878095611554862 -0.4393977270813314 0 -0.10283731640903 -0.42510314405888588 0 -0.100590797535087 -0.41759168573278821 0 -0.1129403580353462 -0.43280081863281078 0 -0.10283731640903 -0.42510314405888588 0 -0.1079125428112538 -0.41892639524425412 0 -0.100590797535087 -0.41759168573278821 0 -0.1012534234653099 -0.39731778446220639 0 -0.1165997240041481 -0.41847011486561592 0 -0.1012534234653099 -0.39731778446220639 0 -0.100590797535087 -0.41759168573278821 0 -0.094499944748829334 -0.39722631626938482 0 -0.088610052547492879 -0.41006814396079783 0 -0.100590797535087 -0.41759168573278821 0 -0.1079125428112538 -0.41892639524425412 0 -0.1012534234653099 -0.39731778446220639 0 -0.100590797535087 -0.41759168573278821 0 -0.094499944748829334 -0.39722631626938482 0 -0.1079125428112538 -0.41892639524425412 0 -0.1165997240041481 -0.41847011486561592 0 -0.1012534234653099 -0.39731778446220639 0 -0.10283731640903 -0.42510314405888588 0 -0.100590797535087 -0.41759168573278821 0 -0.1079125428112538 -0.41892639524425412 0 -0.10283731640903 -0.42510314405888588 0 -0.100590797535087 -0.41759168573278821 0 -0.12592730430259419 -0.40432488328170318 0 -0.1165997240041481 -0.41847011486561592 0 -0.1152538145686829 -0.39895411709426332 0 -0.1165997240041481 -0.41847011486561592 0 -0.1152538145686829 -0.39895411709426332 0 -0.1012534234653099 -0.39731778446220639 0 -0.12526638733901391 -0.39147447277512609 0 -0.12592730430259419 -0.40432488328170318 0 -0.1152538145686829 -0.39895411709426332 0 -0.12526638733901391 -0.39147447277512609 0 -0.1152538145686829 -0.39895411709426332 0 -0.1147112201852714 -0.38836266809632891 0 -0.1152538145686829 -0.39895411709426332 0 -0.1147112201852714 -0.38836266809632891 0 -0.1077648281157602 -0.39377477908459929 0 -0.12526638733901391 -0.39147447277512609 0 -0.12201267174342199 -0.37938718301114999 0 -0.1147112201852714 -0.38836266809632891 0 -0.1147112201852714 -0.38836266809632891 0 -0.1094440337948836 -0.37923577087639421 0 -0.1073228884697877 -0.3875649225559597 0 -0.1147112201852714 -0.38836266809632891 0 -0.1073228884697877 -0.3875649225559597 0 -0.1077648281157602 -0.39377477908459929 0 -0.12201267174342199 -0.37938718301114999 0 -0.1147112201852714 -0.38836266809632891 0 -0.1094440337948836 -0.37923577087639421 0 -0.1159926709000937 -0.36685414663024191 0 -0.12201267174342199 -0.37938718301114999 0 -0.1094440337948836 -0.37923577087639421 0 -0.1024060606807759 -0.36205135125861898 0 -0.1094440337948836 -0.37923577087639421 0 -0.1016559479587178 -0.38500202459504551 0 -0.1094440337948836 -0.37923577087639421 0 -0.1016559479587178 -0.38500202459504551 0 -0.1073228884697877 -0.3875649225559597 0 -0.1016559479587178 -0.38500202459504551 0 -0.1014693111655476 -0.390712419775258 0 -0.1016559479587178 -0.38500202459504551 0 -0.1073228884697877 -0.3875649225559597 0 -0.1014693111655476 -0.390712419775258 0 -0.1016559479587178 -0.38500202459504551 0 -0.091585827134305964 -0.3839926061052007 0 -0.1016559479587178 -0.38500202459504551 0 -0.1014693111655476 -0.390712419775258 0 -0.093729726096669103 -0.3869476153003294 0 -0.1016559479587178 -0.38500202459504551 0 -0.091585827134305964 -0.3839926061052007 0 -0.093729726096669103 -0.3869476153003294 0 -0.1014693111655476 -0.390712419775258 0 -0.093729726096669103 -0.3869476153003294 0 -0.1016559479587178 -0.38500202459504551 0 -0.095426438310298192 -0.37780241062099151 0 -0.091585827134305964 -0.3839926061052007 0 -0.100590797535087 -0.41759168573278821 0 -0.1012534234653099 -0.39731778446220639 0 -0.099487365185966847 -0.39952233119993291 0 -0.100590797535087 -0.41759168573278821 0 -0.094499944748829334 -0.39722631626938482 0 -0.099487365185966847 -0.39952233119993291 0 -0.1152538145686829 -0.39895411709426332 0 -0.1077648281157602 -0.39377477908459929 0 -0.1012534234653099 -0.39731778446220639 0 -0.1073228884697877 -0.3875649225559597 0 -0.1077648281157602 -0.39377477908459929 0 -0.1014693111655476 -0.390712419775258 0 -0.1077648281157602 -0.39377477908459929 0 -0.1012534234653099 -0.39731778446220639 0 -0.1014693111655476 -0.390712419775258 0 -0.1077648281157602 -0.39377477908459929 0 -0.1014693111655476 -0.390712419775258 0 -0.1012534234653099 -0.39731778446220639 0 -0.094499944748829334 -0.39722631626938482 0 -0.099487365185966847 -0.39952233119993291 0 -0.1012534234653099 -0.39731778446220639 0 -0.094499944748829334 -0.39722631626938482 0 -0.093729726096669103 -0.3869476153003294 0 -0.1012534234653099 -0.39731778446220639 0 -0.1014693111655476 -0.390712419775258 0 -0.093729726096669103 -0.3869476153003294 0 -0.1012534234653099 -0.39731778446220639 0 -0.093729726096669103 -0.3869476153003294 0 -0.1012534234653099 -0.39731778446220639 0 -0.1014693111655476 -0.390712419775258 0 -0.094499944748829334 -0.39722631626938482 0 -0.099487365185966847 -0.39952233119993291 0 -0.094499944748829334 -0.39722631626938482 0 -0.085553154766675646 -0.40134027138503481 0 -0.088610052547492879 -0.41006814396079783 0 -0.094499944748829334 -0.39722631626938482 0 -0.082560309743270749 -0.39172977139542609 0 -0.085553154766675646 -0.40134027138503481 0 -0.094499944748829334 -0.39722631626938482 0 -0.082560309743270749 -0.39172977139542609 0 -0.091033556626635648 -0.38563610430902873 0 -0.094499944748829334 -0.39722631626938482 0 -0.082560309743270749 -0.39172977139542609 0 -0.094499944748829334 -0.39722631626938482 0 -0.091033556626635648 -0.38563610430902873 0 -0.082560309743270749 -0.39172977139542609 0 -0.079097438192195432 -0.39013559964190198 0 -0.074673198083630793 -0.40544040024196493 0 -0.082560309743270749 -0.39172977139542609 0 -0.079097438192195432 -0.39013559964190198 0 -0.082560309743270749 -0.39172977139542609 0 -0.076542312027108539 -0.406336853914531 0 -0.082560309743270749 -0.39172977139542609 0 -0.085553154766675646 -0.40134027138503481 0 -0.076542312027108539 -0.406336853914531 0 -0.085553154766675646 -0.40134027138503481 0 -0.076542312027108539 -0.406336853914531 0 -0.088610052547492879 -0.41006814396079783 0 -0.090139611558562177 -0.37333304007799939 0 -0.088525620654428705 -0.37725057202694517 0 -0.088525620654428705 -0.37725057202694517 0 -0.087954911787112483 -0.37534235041220648 0 -0.08170780991661282 -0.38109255286014232 0 -0.090139611558562177 -0.37333304007799939 0 -0.088525620654428705 -0.37725057202694517 0 -0.087954911787112483 -0.37534235041220648 0 -0.088525620654428705 -0.37725057202694517 0 -0.087954911787112483 -0.37534235041220648 0 -0.090139611558562177 -0.37333304007799939 0 -0.095426438310298192 -0.37780241062099151 0 -0.088525620654428705 -0.37725057202694517 0 -0.088525620654428705 -0.37725057202694517 0 -0.091585827134305964 -0.3839926061052007 0 -0.095426438310298192 -0.37780241062099151 0 -0.088525620654428705 -0.37725057202694517 0 -0.091585827134305964 -0.3839926061052007 0 -0.088525620654428705 -0.37725057202694517 0 -0.086634605294488312 -0.38349630075200858 0 -0.088525620654428705 -0.37725057202694517 0 -0.086634605294488312 -0.38349630075200858 0 -0.091585827134305964 -0.3839926061052007 0 -0.082560309743270749 -0.39172977139542609 0 -0.086634605294488312 -0.38349630075200858 0 -0.091033556626635648 -0.38563610430902873 0 -0.094499944748829334 -0.39722631626938482 0 -0.091033556626635648 -0.38563610430902873 0 -0.093729726096669103 -0.3869476153003294 0 -0.086634605294488312 -0.38349630075200858 0 -0.091585827134305964 -0.3839926061052007 0 -0.086634605294488312 -0.38349630075200858 0 -0.091033556626635648 -0.38563610430902873 0 -0.086634605294488312 -0.38349630075200858 0 -0.091585827134305964 -0.3839926061052007 0 -0.091033556626635648 -0.38563610430902873 0 -0.091585827134305964 -0.3839926061052007 0 -0.091033556626635648 -0.38563610430902873 0 -0.093729726096669103 -0.3869476153003294 0 -0.091033556626635648 -0.38563610430902873 0 -0.093729726096669103 -0.3869476153003294 0 -0.091585827134305964 -0.3839926061052007 0 -0.093729726096669103 -0.3869476153003294 0 -0.091585827134305964 -0.3839926061052007 0 -0.091033556626635648 -0.38563610430902873 0 -0.082560309743270749 -0.39172977139542609 0 -0.086634605294488312 -0.38349630075200858 0 -0.082560309743270749 -0.39172977139542609 0 -0.086634605294488312 -0.38349630075200858 0 -0.081174899406055781 -0.38294902548401538 0 -0.082560309743270749 -0.39172977139542609 0 -0.079097438192195432 -0.39013559964190198 0 -0.081174899406055781 -0.38294902548401538 0 -0.079097438192195432 -0.39013559964190198 0 -0.081174899406055781 -0.38294902548401538 0 -0.074281153156084773 -0.38791836881244668 0 -0.079097438192195432 -0.39013559964190198 0 -0.081174899406055781 -0.38294902548401538 0 -0.086634605294488312 -0.38349630075200858 0 -0.081174899406055781 -0.38294902548401538 0 -0.088525620654428705 -0.37725057202694517 0 -0.086634605294488312 -0.38349630075200858 0 -0.08170780991661282 -0.38109255286014232 0 -0.086634605294488312 -0.38349630075200858 0 -0.081174899406055781 -0.38294902548401538 0 -0.08170780991661282 -0.38109255286014232 0 -0.086634605294488312 -0.38349630075200858 0 -0.08170780991661282 -0.38109255286014232 0 -0.081174899406055781 -0.38294902548401538 0 -0.08170780991661282 -0.38109255286014232 0 -0.087954911787112483 -0.37534235041220648 0 -0.08170780991661282 -0.38109255286014232 0 -0.055512870853615448 -0.39455951290216967 0 -0.058563253679506787 -0.38068245751723601 0 -0.074281153156084773 -0.38791836881244668 0 -0.058563253679506787 -0.38068245751723601 0 -0.074281153156084773 -0.38791836881244668 0 -0.058387822440418388 -0.36975607908058028 0 -0.08170780991661282 -0.38109255286014232 0 -0.058387822440418388 -0.36975607908058028 0 -0.081174899406055781 -0.38294902548401538 0 -0.08170780991661282 -0.38109255286014232 0 -0.058563253679506787 -0.38068245751723601 0 -0.081174899406055781 -0.38294902548401538 0 -0.074281153156084773 -0.38791836881244668 0 -0.058563253679506787 -0.38068245751723601 0 -0.081174899406055781 -0.38294902548401538 0 -0.058387822440418388 -0.36975607908058028 0 -0.058563253679506787 -0.38068245751723601 0 -0.081174899406055781 -0.38294902548401538 0 -0.081174899406055781 -0.38294902548401538 0 -0.074281153156084773 -0.38791836881244668 0 -0.079097438192195432 -0.39013559964190198 0 -0.074281153156084773 -0.38791836881244668 0 -0.079097438192195432 -0.39013559964190198 0 -0.074281153156084773 -0.38791836881244668 0 -0.074673198083630793 -0.40544040024196493 0 -0.052509649903146327 -0.40794203844841681 0 -0.074281153156084773 -0.38791836881244668 0 -0.052509649903146327 -0.40794203844841681 0 -0.074281153156084773 -0.38791836881244668 0 -0.074673198083630793 -0.40544040024196493 0 -0.082560309743270749 -0.39172977139542609 0 -0.074673198083630793 -0.40544040024196493 0 -0.076542312027108539 -0.406336853914531 0 -0.079097438192195432 -0.39013559964190198 0 -0.074673198083630793 -0.40544040024196493 0 -0.052509649903146327 -0.40794203844841681 0 -0.074673198083630793 -0.40544040024196493 0 -0.070248957975066639 -0.42074520084202788 0 -0.076542312027108539 -0.406336853914531 0 -0.070248957975066639 -0.42074520084202788 0 -0.074673198083630793 -0.40544040024196493 0 -0.070248957975066639 -0.42074520084202788 0 -0.074673198083630793 -0.40544040024196493 0 -0.076542312027108539 -0.406336853914531 0 -0.070248957975066639 -0.42074520084202788 0 -0.070248957975066639 -0.42074520084202788 0 -0.077246521605040669 -0.42579562012280953 0 -0.078194253298280558 -0.41865647959270891 0 -0.076542312027108539 -0.406336853914531 0 -0.070248957975066639 -0.42074520084202788 0 -0.078194253298280558 -0.41865647959270891 0 -0.059775586818595829 -0.41787661413097049 0 -0.070248957975066639 -0.42074520084202788 0 -0.069408814394604765 -0.42365151461769918 0 -0.060002998013559863 -0.44648162232419802 0 -0.069408814394604765 -0.42365151461769918 0 -0.070248957975066639 -0.42074520084202788 0 -0.069408814394604765 -0.42365151461769918 0 -0.077098496045509793 -0.43873696019506903 0 -0.069408814394604765 -0.42365151461769918 0 -0.077246521605040669 -0.42579562012280953 0 -0.070248957975066639 -0.42074520084202788 0 -0.069408814394604765 -0.42365151461769918 0 -0.077246521605040669 -0.42579562012280953 0 -0.070248957975066639 -0.42074520084202788 0 -0.077246521605040669 -0.42579562012280953 0 -0.077246521605040669 -0.42579562012280953 0 -0.082943237868067593 -0.4239856173255338 0 -0.078194253298280558 -0.41865647959270891 0 -0.077098496045509793 -0.43873696019506903 0 -0.082943237868067593 -0.4239856173255338 0 -0.092016620863508841 -0.4218345739943074 0 -0.077098496045509793 -0.43873696019506903 0 -0.089545628933694749 -0.43673796215895883 0 -0.092016620863508841 -0.4218345739943074 0 -0.077098496045509793 -0.43873696019506903 0 -0.092016620863508841 -0.4218345739943074 0 -0.077098496045509793 -0.43873696019506903 0 -0.077246521605040669 -0.42579562012280953 0 -0.082943237868067593 -0.4239856173255338 0 -0.100590797535087 -0.41759168573278821 0 -0.092016620863508841 -0.4218345739943074 0 -0.088610052547492879 -0.41006814396079783 0 -0.082943237868067593 -0.4239856173255338 0 -0.092016620863508841 -0.4218345739943074 0 -0.083714880680240453 -0.41622037016703428 0 -0.092016620863508841 -0.4218345739943074 0 -0.088610052547492879 -0.41006814396079783 0 -0.083714880680240453 -0.41622037016703428 0 -0.076542312027108539 -0.406336853914531 0 -0.088610052547492879 -0.41006814396079783 0 -0.083714880680240453 -0.41622037016703428 0 -0.076542312027108539 -0.406336853914531 0 -0.078194253298280558 -0.41865647959270891 0 -0.083714880680240453 -0.41622037016703428 0 -0.082943237868067593 -0.4239856173255338 0 -0.078194253298280558 -0.41865647959270891 0 -0.083714880680240453 -0.41622037016703428 0 -0.081808777729522386 -0.083143660930833002 0 -0.073985000225153141 -0.099795971436559522 0 -0.085935801107842547 -0.09579043756499836 0 -0.081808777729522386 -0.083143660930833002 0 -0.085935801107842547 -0.09579043756499836 0 -0.094306078709463503 -0.087148618235937392 0 -0.081808777729522386 -0.083143660930833002 0 -0.094306078709463503 -0.087148618235937392 0 -0.095869533599057435 -0.074719864200214883 0 -0.081808777729522386 -0.083143660930833002 0 -0.087640100333796281 -0.066301869750421821 0 -0.076351800502585221 -0.068318825045574613 0 -0.081808777729522386 -0.083143660930833002 0 -0.087640100333796281 -0.066301869750421821 0 -0.095869533599057435 -0.074719864200214883 0 -0.087640100333796281 -0.066301869750421821 0 -0.095869533599057435 -0.074719864200214883 0 -0.097041901727127691 -0.062312633498474219 0 -0.087640100333796281 -0.066301869750421821 0 -0.076351800502585221 -0.068318825045574613 0 -0.079773765115028039 -0.057914828426178573 0 -0.081808777729522386 -0.083143660930833002 0 -0.076351800502585221 -0.068318825045574613 0 -0.068001603171865072 -0.074911341683796137 0 -0.068001603171865072 -0.074911341683796137 0 -0.065822825648978775 -0.060485584973140792 0 -0.05753372126900759 -0.073422836261521005 0 -0.076351800502585221 -0.068318825045574613 0 -0.068001603171865072 -0.074911341683796137 0 -0.065822825648978775 -0.060485584973140792 0 -0.068001603171865072 -0.074911341683796137 0 -0.066670257350634976 -0.085780572793309681 0 -0.05753372126900759 -0.073422836261521005 0 -0.081808777729522386 -0.083143660930833002 0 -0.066670257350634976 -0.085780572793309681 0 -0.073985000225153141 -0.099795971436559522 0 -0.081808777729522386 -0.083143660930833002 0 -0.068001603171865072 -0.074911341683796137 0 -0.066670257350634976 -0.085780572793309681 0 -0.066670257350634976 -0.085780572793309681 0 -0.073985000225153141 -0.099795971436559522 0 -0.05982498813170789 -0.10249801488187529 0 -0.073985000225153141 -0.099795971436559522 0 -0.065415314349395459 -0.11473522154729129 0 -0.05982498813170789 -0.10249801488187529 0 -0.073985000225153141 -0.099795971436559522 0 -0.065415314349395459 -0.11473522154729129 0 -0.07727601190464152 -0.1134926659633375 0 -0.065415314349395459 -0.11473522154729129 0 -0.060446148579459319 -0.1303024678998376 0 -0.071674103496310607 -0.1250344835198243 0 -0.07727601190464152 -0.1134926659633375 0 -0.082994471061899833 -0.1234246307735777 0 -0.071674103496310607 -0.1250344835198243 0 -0.065415314349395459 -0.11473522154729129 0 -0.07727601190464152 -0.1134926659633375 0 -0.071674103496310607 -0.1250344835198243 0 -0.07727601190464152 -0.1134926659633375 0 -0.082994471061899833 -0.1234246307735777 0 -0.08680817640523622 -0.1078855820033275 0 -0.082994471061899833 -0.1234246307735777 0 -0.08680817640523622 -0.1078855820033275 0 -0.095277368860953449 -0.1178446661751102 0 -0.082994471061899833 -0.1234246307735777 0 -0.095277368860953449 -0.1178446661751102 0 -0.095971306836852913 -0.13086642389395989 0 -0.085935801107842547 -0.09579043756499836 0 -0.08680817640523622 -0.1078855820033275 0 -0.1020424425883536 -0.1015565670732166 0 -0.073985000225153141 -0.099795971436559522 0 -0.085935801107842547 -0.09579043756499836 0 -0.08680817640523622 -0.1078855820033275 0 -0.073985000225153141 -0.099795971436559522 0 -0.07727601190464152 -0.1134926659633375 0 -0.08680817640523622 -0.1078855820033275 0 -0.085935801107842547 -0.09579043756499836 0 -0.1020424425883536 -0.1015565670732166 0 -0.094306078709463503 -0.087148618235937392 0 -0.08680817640523622 -0.1078855820033275 0 -0.1020424425883536 -0.1015565670732166 0 -0.095277368860953449 -0.1178446661751102 0 -0.1020424425883536 -0.1015565670732166 0 -0.095277368860953449 -0.1178446661751102 0 -0.1085913382140784 -0.11903379143832921 0 -0.095277368860953449 -0.1178446661751102 0 -0.1085913382140784 -0.11903379143832921 0 -0.095971306836852913 -0.13086642389395989 0 -0.1085913382140784 -0.11903379143832921 0 -0.11893842975153809 -0.10446969177473921 0 -0.12736410167423581 -0.1213878944680517 0 -0.1020424425883536 -0.1015565670732166 0 -0.11893842975153809 -0.10446969177473921 0 -0.1189291253072135 -0.086669643832799348 0 -0.1020424425883536 -0.1015565670732166 0 -0.1085913382140784 -0.11903379143832921 0 -0.11893842975153809 -0.10446969177473921 0 -0.1189291253072135 -0.086669643832799348 0 -0.1056068239719813 -0.08097964138995771 0 -0.1139735316209595 -0.069866863539540053 0 -0.1020424425883536 -0.1015565670732166 0 -0.1189291253072135 -0.086669643832799348 0 -0.1056068239719813 -0.08097964138995771 0 -0.1020424425883536 -0.1015565670732166 0 -0.1056068239719813 -0.08097964138995771 0 -0.094306078709463503 -0.087148618235937392 0 -0.1056068239719813 -0.08097964138995771 0 -0.094306078709463503 -0.087148618235937392 0 -0.095869533599057435 -0.074719864200214883 0 -0.095869533599057435 -0.074719864200214883 0 -0.1039382096783972 -0.069282752438140638 0 -0.097041901727127691 -0.062312633498474219 0 -0.1056068239719813 -0.08097964138995771 0 -0.1039382096783972 -0.069282752438140638 0 -0.1139735316209595 -0.069866863539540053 0 -0.1056068239719813 -0.08097964138995771 0 -0.095869533599057435 -0.074719864200214883 0 -0.1039382096783972 -0.069282752438140638 0 -0.1039382096783972 -0.069282752438140638 0 -0.097041901727127691 -0.062312633498474219 0 -0.1071992574728602 -0.058534759562516372 0 -0.1039382096783972 -0.069282752438140638 0 -0.1139735316209595 -0.069866863539540053 0 -0.1071992574728602 -0.058534759562516372 0 -0.1189291253072135 -0.086669643832799348 0 -0.1139735316209595 -0.069866863539540053 0 -0.12930964035960699 -0.069761515268982097 0 -0.1139735316209595 -0.069866863539540053 0 -0.1161384697585349 -0.056806249932135858 0 -0.12930964035960699 -0.069761515268982097 0 -0.1161384697585349 -0.056806249932135858 0 -0.1208541397454049 -0.045822468476665427 0 -0.12930964035960699 -0.069761515268982097 0 -0.1248214427799455 -0.0491876577223027 0 -0.1208541397454049 -0.045822468476665427 0 -0.12930964035960699 -0.069761515268982097 0 -0.1161384697585349 -0.056806249932135858 0 -0.10991932193075039 -0.048940588969216672 0 -0.1071992574728602 -0.058534759562516372 0 -0.1139735316209595 -0.069866863539540053 0 -0.1161384697585349 -0.056806249932135858 0 -0.1071992574728602 -0.058534759562516372 0 -0.1161384697585349 -0.056806249932135858 0 -0.10991932193075039 -0.048940588969216672 0 -0.1149357203506014 -0.047989794102068162 0 -0.1161384697585349 -0.056806249932135858 0 -0.1149357203506014 -0.047989794102068162 0 -0.1208541397454049 -0.045822468476665427 0 -0.1248214427799455 -0.0491876577223027 0 -0.1208541397454049 -0.045822468476665427 0 -0.1246368416492639 -0.024787675353444869 0 -0.1128309499677153 -0.040389869030254703 0 -0.10841128816168021 -0.033720593740292633 0 -0.11239863913120279 -0.021883421684348751 0 -0.1208541397454049 -0.045822468476665427 0 -0.11239863913120279 -0.021883421684348751 0 -0.1208541397454049 -0.045822468476665427 0 -0.1128309499677153 -0.040389869030254703 0 -0.11239863913120279 -0.021883421684348751 0 -0.1248214427799455 -0.0491876577223027 0 -0.1246368416492639 -0.024787675353444869 0 -0.1149357203506014 -0.047989794102068162 0 -0.1208541397454049 -0.045822468476665427 0 -0.1128309499677153 -0.040389869030254703 0 -0.10991932193075039 -0.048940588969216672 0 -0.1149357203506014 -0.047989794102068162 0 -0.1128309499677153 -0.040389869030254703 0 -0.10991932193075039 -0.048940588969216672 0 -0.1128309499677153 -0.040389869030254703 0 -0.1049963107845597 -0.040407454994133042 0 -0.10991932193075039 -0.048940588969216672 0 -0.1049963107845597 -0.040407454994133042 0 -0.1002598709818909 -0.049694841596422852 0 -0.1049963107845597 -0.040407454994133042 0 -0.10841128816168021 -0.033720593740292633 0 -0.1012581714839781 -0.029848849592015819 0 -0.1128309499677153 -0.040389869030254703 0 -0.1049963107845597 -0.040407454994133042 0 -0.10841128816168021 -0.033720593740292633 0 -0.097298262181343159 -0.039849987036595598 0 -0.1012581714839781 -0.029848849592015819 0 -0.091929659262116575 -0.033133953101480262 0 -0.1049963107845597 -0.040407454994133042 0 -0.097298262181343159 -0.039849987036595598 0 -0.1012581714839781 -0.029848849592015819 0 -0.1049963107845597 -0.040407454994133042 0 -0.097298262181343159 -0.039849987036595598 0 -0.1002598709818909 -0.049694841596422852 0 -0.097298262181343159 -0.039849987036595598 0 -0.1002598709818909 -0.049694841596422852 0 -0.087030839425688053 -0.044306376809862227 0 -0.1002598709818909 -0.049694841596422852 0 -0.097041901727127691 -0.062312633498474219 0 -0.1071992574728602 -0.058534759562516372 0 -0.1002598709818909 -0.049694841596422852 0 -0.097041901727127691 -0.062312633498474219 0 -0.090164156554830718 -0.055563028782557922 0 -0.10991932193075039 -0.048940588969216672 0 -0.1002598709818909 -0.049694841596422852 0 -0.1071992574728602 -0.058534759562516372 0 -0.1244522405185825 -0.00038769298458709092 0 -0.11239863913120279 -0.021883421684348751 0 -0.10394313851700079 0.0020556251079679459 0 -0.1244522405185825 -0.00038769298458709092 0 -0.1246368416492639 -0.024787675353444869 0 -0.1244522405185825 -0.00038769298458709092 0 -0.11239863913120279 -0.021883421684348751 0 -0.1246368416492639 -0.024787675353444869 0 -0.1208541397454049 -0.045822468476665427 0 -0.11239863913120279 -0.021883421684348751 0 -0.1246368416492639 -0.024787675353444869 0 -0.10841128816168021 -0.033720593740292633 0 -0.11239863913120279 -0.021883421684348751 0 -0.1012581714839781 -0.029848849592015819 0 -0.1012581714839781 -0.029848849592015819 0 -0.090677970328949406 -0.022917020247476879 0 -0.091929659262116575 -0.033133953101480262 0 -0.1012581714839781 -0.029848849592015819 0 -0.1001126671493681 -0.016491083843961009 0 -0.090677970328949406 -0.022917020247476879 0 -0.1001126671493681 -0.016491083843961009 0 -0.092285416285709382 -0.0098617528039315269 0 -0.090677970328949406 -0.022917020247476879 0 -0.11239863913120279 -0.021883421684348751 0 -0.1012581714839781 -0.029848849592015819 0 -0.1001126671493681 -0.016491083843961009 0 -0.1001126671493681 -0.016491083843961009 0 -0.092285416285709382 -0.0098617528039315269 0 -0.10394313851700079 0.0020556251079679459 0 -0.11239863913120279 -0.021883421684348751 0 -0.1001126671493681 -0.016491083843961009 0 -0.10394313851700079 0.0020556251079679459 0 -0.092285416285709382 -0.0098617528039315269 0 -0.10394313851700079 0.0020556251079679459 0 -0.085958893623968774 0.001514634656162053 0 -0.11239863913120279 -0.021883421684348751 0 -0.10394313851700079 0.0020556251079679459 0 -0.092285416285709382 -0.0098617528039315269 0 -0.077949881484559239 -0.01307625006729682 0 -0.085958893623968774 0.001514634656162053 0 -0.092285416285709382 -0.0098617528039315269 0 -0.090677970328949406 -0.022917020247476879 0 -0.077949881484559239 -0.01307625006729682 0 -0.090677970328949406 -0.022917020247476879 0 -0.073841780976804383 -0.025706854857452392 0 -0.077949881484559239 -0.01307625006729682 0 -0.090677970328949406 -0.022917020247476879 0 -0.073841780976804383 -0.025706854857452392 0 -0.082102255714859004 -0.034759692131612618 0 -0.090677970328949406 -0.022917020247476879 0 -0.091929659262116575 -0.033133953101480262 0 -0.082102255714859004 -0.034759692131612618 0 -0.073841780976804383 -0.025706854857452392 0 -0.077949881484559239 -0.01307625006729682 0 -0.060674527584339763 -0.015412449877807689 0 -0.073841780976804383 -0.025706854857452392 0 -0.060674527584339763 -0.015412449877807689 0 -0.060703590497751453 -0.03101491529774986 0 -0.077949881484559239 -0.01307625006729682 0 -0.085958893623968774 0.001514634656162053 0 -0.065648076432031049 0.00090955339710942099 0 -0.077949881484559239 -0.01307625006729682 0 -0.060674527584339763 -0.015412449877807689 0 -0.065648076432031049 0.00090955339710942099 0 -0.079773765115028039 -0.057914828426178573 0 -0.087030839425688053 -0.044306376809862227 0 -0.074827122987446398 -0.047817820925290022 0 -0.079773765115028039 -0.057914828426178573 0 -0.090164156554830718 -0.055563028782557922 0 -0.087030839425688053 -0.044306376809862227 0 -0.087640100333796281 -0.066301869750421821 0 -0.079773765115028039 -0.057914828426178573 0 -0.090164156554830718 -0.055563028782557922 0 -0.087640100333796281 -0.066301869750421821 0 -0.097041901727127691 -0.062312633498474219 0 -0.090164156554830718 -0.055563028782557922 0 -0.1002598709818909 -0.049694841596422852 0 -0.090164156554830718 -0.055563028782557922 0 -0.087030839425688053 -0.044306376809862227 0 -0.097298262181343159 -0.039849987036595598 0 -0.087030839425688053 -0.044306376809862227 0 -0.091929659262116575 -0.033133953101480262 0 -0.087030839425688053 -0.044306376809862227 0 -0.091929659262116575 -0.033133953101480262 0 -0.082102255714859004 -0.034759692131612618 0 -0.087030839425688053 -0.044306376809862227 0 -0.082102255714859004 -0.034759692131612618 0 -0.074827122987446398 -0.047817820925290022 0 -0.082102255714859004 -0.034759692131612618 0 -0.070942460250367517 -0.03706080152277047 0 -0.074827122987446398 -0.047817820925290022 0 -0.073841780976804383 -0.025706854857452392 0 -0.082102255714859004 -0.034759692131612618 0 -0.070942460250367517 -0.03706080152277047 0 -0.073841780976804383 -0.025706854857452392 0 -0.070942460250367517 -0.03706080152277047 0 -0.060703590497751453 -0.03101491529774986 0 -0.070942460250367517 -0.03706080152277047 0 -0.061850736208416378 -0.044087883634974623 0 -0.060703590497751453 -0.03101491529774986 0 -0.070942460250367517 -0.03706080152277047 0 -0.074827122987446398 -0.047817820925290022 0 -0.061850736208416378 -0.044087883634974623 0 -0.074827122987446398 -0.047817820925290022 0 -0.065822825648978775 -0.060485584973140792 0 -0.061850736208416378 -0.044087883634974623 0 -0.079773765115028039 -0.057914828426178573 0 -0.074827122987446398 -0.047817820925290022 0 -0.065822825648978775 -0.060485584973140792 0 -0.076351800502585221 -0.068318825045574613 0 -0.079773765115028039 -0.057914828426178573 0 -0.065822825648978775 -0.060485584973140792 0 -0.065822825648978775 -0.060485584973140792 0 -0.051906109188989122 -0.051634581827710108 0 -0.055146373663134192 -0.063188587977351315 0 -0.065822825648978775 -0.060485584973140792 0 -0.051906109188989122 -0.051634581827710108 0 -0.061850736208416378 -0.044087883634974623 0 -0.051906109188989122 -0.051634581827710108 0 -0.044968642856814678 -0.064628327886466996 0 -0.055146373663134192 -0.063188587977351315 0 -0.061850736208416378 -0.044087883634974623 0 -0.048286593140243993 -0.039377229684959138 0 -0.060703590497751453 -0.03101491529774986 0 -0.051906109188989122 -0.051634581827710108 0 -0.061850736208416378 -0.044087883634974623 0 -0.048286593140243993 -0.039377229684959138 0 -0.048286593140243993 -0.039377229684959138 0 -0.039642814346724391 -0.052475069278980747 0 -0.030584103036016622 -0.035608219704199993 0 -0.039642814346724391 -0.052475069278980747 0 -0.024435088609687641 -0.049746151716912712 0 -0.030584103036016622 -0.035608219704199993 0 -0.048286593140243993 -0.039377229684959138 0 -0.044331283213942488 -0.020119990811347448 0 -0.030584103036016622 -0.035608219704199993 0 -0.039642814346724391 -0.052475069278980747 0 -0.03034189778213453 -0.060014988360291517 0 -0.024435088609687641 -0.049746151716912712 0 -0.039642814346724391 -0.052475069278980747 0 -0.03034189778213453 -0.060014988360291517 0 -0.044968642856814678 -0.064628327886466996 0 -0.051906109188989122 -0.051634581827710108 0 -0.039642814346724391 -0.052475069278980747 0 -0.044968642856814678 -0.064628327886466996 0 -0.051906109188989122 -0.051634581827710108 0 -0.048286593140243993 -0.039377229684959138 0 -0.039642814346724391 -0.052475069278980747 0 -0.060674527584339763 -0.015412449877807689 0 -0.044331283213942488 -0.020119990811347448 0 -0.045118160941850949 -0.00049033847668307538 0 -0.060674527584339763 -0.015412449877807689 0 -0.045118160941850949 -0.00049033847668307538 0 -0.065648076432031049 0.00090955339710942099 0 -0.048286593140243993 -0.039377229684959138 0 -0.060703590497751453 -0.03101491529774986 0 -0.044331283213942488 -0.020119990811347448 0 -0.060674527584339763 -0.015412449877807689 0 -0.060703590497751453 -0.03101491529774986 0 -0.044331283213942488 -0.020119990811347448 0 -0.044331283213942488 -0.020119990811347448 0 -0.027025641752002061 -0.0079319500279313396 0 -0.030584103036016622 -0.035608219704199993 0 -0.044331283213942488 -0.020119990811347448 0 -0.045118160941850949 -0.00049033847668307538 0 -0.027025641752002061 -0.0079319500279313396 0 -0.027025641752002061 -0.0079319500279313396 0 -0.0118242871531395 -0.020545428430059291 0 -0.0091716063734174208 -0.003332990253060792 0 -0.027025641752002061 -0.0079319500279313396 0 -0.0091716063734174208 -0.003332990253060792 0 -0.01566814095190756 0.010235570601176981 0 -0.027025641752002061 -0.0079319500279313396 0 -0.0118242871531395 -0.020545428430059291 0 -0.030584103036016622 -0.035608219704199993 0 -0.0118242871531395 -0.020545428430059291 0 -0.030584103036016622 -0.035608219704199993 0 -0.0118242871531395 -0.020545428430059291 0 0.006935528729737548 -0.0054826371559186567 0 0.0027408304473846411 -0.028176541972939319 0 -0.0118242871531395 -0.020545428430059291 0 -0.01026660782967455 -0.041229232136501717 0 0.0027408304473846411 -0.028176541972939319 0 -0.0118242871531395 -0.020545428430059291 0 -0.0091716063734174208 -0.003332990253060792 0 0.006935528729737548 -0.0054826371559186567 0 -0.0118242871531395 -0.020545428430059291 0 0.006935528729737548 -0.0054826371559186567 0 -0.024435088609687641 -0.049746151716912712 0 -0.01026660782967455 -0.041229232136501717 0 -0.01499476028908407 -0.06055090283160456 0 -0.03034189778213453 -0.060014988360291517 0 -0.01499476028908407 -0.06055090283160456 0 -0.03034189778213453 -0.060014988360291517 0 -0.024435088609687641 -0.049746151716912712 0 -0.01499476028908407 -0.06055090283160456 0 -0.024435088609687641 -0.049746151716912712 0 -0.030584103036016622 -0.035608219704199993 0 -0.01026660782967455 -0.041229232136501717 0 -0.0118242871531395 -0.020545428430059291 0 -0.030584103036016622 -0.035608219704199993 0 -0.01026660782967455 -0.041229232136501717 0 -0.01026660782967455 -0.041229232136501717 0 0.0096258971738255473 -0.043108802377643002 0 0.00035237720396625368 -0.061086817302918282 0 -0.01026660782967455 -0.041229232136501717 0 -0.01499476028908407 -0.06055090283160456 0 0.00035237720396625368 -0.061086817302918282 0 -0.01499476028908407 -0.06055090283160456 0 0.00035237720396625368 -0.061086817302918282 0 -0.011408129540087309 -0.083886203777590068 0 0.0065051428120863272 -0.082127796022149757 0 0.00035237720396625368 -0.061086817302918282 0 -0.011408129540087309 -0.083886203777590068 0 0.00035237720396625368 -0.061086817302918282 0 -0.01499476028908407 -0.06055090283160456 0 -0.011408129540087309 -0.083886203777590068 0 0.00035237720396625368 -0.061086817302918282 0 -0.011408129540087309 -0.083886203777590068 0 0.001856719827670471 -0.098182337095309047 0 0.0065051428120863272 -0.082127796022149757 0 -0.011408129540087309 -0.083886203777590068 0 -0.03053113156520738 -0.089911417014305078 0 -0.02316863628414112 -0.10668559025226169 0 -0.011408129540087309 -0.083886203777590068 0 -0.03053113156520738 -0.089911417014305078 0 -0.026049830403481512 -0.075342802050597457 0 -0.01499476028908407 -0.06055090283160456 0 -0.011408129540087309 -0.083886203777590068 0 -0.026049830403481512 -0.075342802050597457 0 -0.03034189778213453 -0.060014988360291517 0 -0.01499476028908407 -0.06055090283160456 0 -0.026049830403481512 -0.075342802050597457 0 -0.03034189778213453 -0.060014988360291517 0 -0.026049830403481512 -0.075342802050597457 0 -0.041349905228919973 -0.078428718904655664 0 -0.03034189778213453 -0.060014988360291517 0 -0.044968642856814678 -0.064628327886466996 0 -0.041349905228919973 -0.078428718904655664 0 -0.03053113156520738 -0.089911417014305078 0 -0.026049830403481512 -0.075342802050597457 0 -0.041349905228919973 -0.078428718904655664 0 -0.03053113156520738 -0.089911417014305078 0 -0.041349905228919973 -0.078428718904655664 0 -0.047432501145458397 -0.097370211357339573 0 -0.041349905228919973 -0.078428718904655664 0 -0.053879666709155317 -0.08598560359304859 0 -0.05753372126900759 -0.073422836261521005 0 -0.041349905228919973 -0.078428718904655664 0 -0.053879666709155317 -0.08598560359304859 0 -0.047432501145458397 -0.097370211357339573 0 -0.066670257350634976 -0.085780572793309681 0 -0.053879666709155317 -0.08598560359304859 0 -0.05982498813170789 -0.10249801488187529 0 -0.066670257350634976 -0.085780572793309681 0 -0.053879666709155317 -0.08598560359304859 0 -0.05753372126900759 -0.073422836261521005 0 -0.044968642856814678 -0.064628327886466996 0 -0.041349905228919973 -0.078428718904655664 0 -0.05753372126900759 -0.073422836261521005 0 -0.065822825648978775 -0.060485584973140792 0 -0.05753372126900759 -0.073422836261521005 0 -0.055146373663134192 -0.063188587977351315 0 -0.044968642856814678 -0.064628327886466996 0 -0.05753372126900759 -0.073422836261521005 0 -0.055146373663134192 -0.063188587977351315 0 -0.065415314349395459 -0.11473522154729129 0 -0.048239208743362072 -0.1165718691901324 0 -0.05982498813170789 -0.10249801488187529 0 -0.065415314349395459 -0.11473522154729129 0 -0.048239208743362072 -0.1165718691901324 0 -0.060446148579459319 -0.1303024678998376 0 -0.048239208743362072 -0.1165718691901324 0 -0.05982498813170789 -0.10249801488187529 0 -0.047432501145458397 -0.097370211357339573 0 -0.053879666709155317 -0.08598560359304859 0 -0.05982498813170789 -0.10249801488187529 0 -0.047432501145458397 -0.097370211357339573 0 -0.048239208743362072 -0.1165718691901324 0 -0.047432501145458397 -0.097370211357339573 0 -0.02316863628414112 -0.10668559025226169 0 -0.03053113156520738 -0.089911417014305078 0 -0.047432501145458397 -0.097370211357339573 0 -0.02316863628414112 -0.10668559025226169 0 -0.048239208743362072 -0.1165718691901324 0 -0.02316863628414112 -0.10668559025226169 0 -0.029948833034415319 -0.13246817914486481 0 -0.02316863628414112 -0.10668559025226169 0 -0.01250087523651249 -0.12826546419306251 0 -0.029948833034415319 -0.13246817914486481 0 -0.011408129540087309 -0.083886203777590068 0 -0.02316863628414112 -0.10668559025226169 0 -0.02316863628414112 -0.10668559025226169 0 0.0015243557028834459 -0.11711868301268021 0 0.001856719827670471 -0.098182337095309047 0 -0.011408129540087309 -0.083886203777590068 0 -0.02316863628414112 -0.10668559025226169 0 0.001856719827670471 -0.098182337095309047 0 -0.02316863628414112 -0.10668559025226169 0 -0.01250087523651249 -0.12826546419306251 0 0.0015243557028834459 -0.11711868301268021 0 -0.01250087523651249 -0.12826546419306251 0 -0.013317386200938249 -0.14799664519887931 0 0.0088678229424013627 -0.13941235935176011 0 -0.01250087523651249 -0.12826546419306251 0 0.0088678229424013627 -0.13941235935176011 0 0.0015243557028834459 -0.11711868301268021 0 -0.01250087523651249 -0.12826546419306251 0 -0.029948833034415319 -0.13246817914486481 0 -0.013317386200938249 -0.14799664519887931 0 -0.013317386200938249 -0.14799664519887931 0 -0.035502595344277812 -0.15658093104599841 0 -0.029948833034415319 -0.13246817914486481 0 -0.013317386200938249 -0.14799664519887931 0 -0.035502595344277812 -0.15658093104599841 0 -0.013317386200938249 -0.14799664519887931 0 0.0088678229424013627 -0.13941235935176011 0 -0.013317386200938249 -0.14799664519887931 0 0.0027310736070901482 -0.15493719994590471 0 0.0088678229424013627 -0.13941235935176011 0 -0.013317386200938249 -0.14799664519887931 0 -0.0013673002328405961 -0.1767093328090546 0 0.0027310736070901482 -0.15493719994590471 0 -0.013317386200938249 -0.14799664519887931 0 -0.0013673002328405961 -0.1767093328090546 0 -0.029934926785222919 -0.1776443960910804 0 -0.0013673002328405961 -0.1767093328090546 0 -0.0217915143334447 -0.19785215020996011 0 -0.0013673002328405961 -0.1767093328090546 0 -0.029934926785222919 -0.1776443960910804 0 -0.0217915143334447 -0.19785215020996011 0 -0.013317386200938249 -0.14799664519887931 0 -0.029934926785222919 -0.1776443960910804 0 -0.035502595344277812 -0.15658093104599841 0 -0.035502595344277812 -0.15658093104599841 0 -0.057687804487617317 -0.16516521689311761 0 -0.029934926785222919 -0.1776443960910804 0 -0.035502595344277812 -0.15658093104599841 0 -0.057687804487617317 -0.16516521689311761 0 -0.029934926785222919 -0.1776443960910804 0 -0.048583433801033478 -0.18728911877980611 0 -0.034676635542126917 -0.191298641696723 0 -0.029934926785222919 -0.1776443960910804 0 -0.048583433801033478 -0.18728911877980611 0 -0.057687804487617317 -0.16516521689311761 0 -0.048583433801033478 -0.18728911877980611 0 -0.057687804487617317 -0.16516521689311761 0 -0.063770138428779252 -0.18079669395549949 0 -0.035502595344277812 -0.15658093104599841 0 -0.057687804487617317 -0.16516521689311761 0 -0.06059931965736505 -0.14742373122833671 0 -0.035502595344277812 -0.15658093104599841 0 -0.06059931965736505 -0.14742373122833671 0 -0.046947221071775923 -0.13666943570183401 0 -0.048239208743362072 -0.1165718691901324 0 -0.046947221071775923 -0.13666943570183401 0 -0.060446148579459319 -0.1303024678998376 0 -0.06059931965736505 -0.14742373122833671 0 -0.046947221071775923 -0.13666943570183401 0 -0.060446148579459319 -0.1303024678998376 0 -0.048239208743362072 -0.1165718691901324 0 -0.029948833034415319 -0.13246817914486481 0 -0.046947221071775923 -0.13666943570183401 0 -0.029948833034415319 -0.13246817914486481 0 -0.035502595344277812 -0.15658093104599841 0 -0.046947221071775923 -0.13666943570183401 0 -0.03064478186574425 -0.25326356670072259 0 -0.026067501294639708 -0.24850247980592871 0 -0.033387688564450117 -0.24425465961654741 0 -0.026067501294639708 -0.24850247980592871 0 -0.02456862519526215 -0.24210395604782819 0 -0.033387688564450117 -0.24425465961654741 0 -0.02974340118516787 -0.23585106297766359 0 -0.02456862519526215 -0.24210395604782819 0 -0.02062871475200042 -0.2320366992723622 0 -0.02974340118516787 -0.23585106297766359 0 -0.02456862519526215 -0.24210395604782819 0 -0.033387688564450117 -0.24425465961654741 0 -0.02456862519526215 -0.24210395604782819 0 -0.01660477195623393 -0.2403164687020414 0 -0.02062871475200042 -0.2320366992723622 0 -0.02456862519526215 -0.24210395604782819 0 -0.01660477195623393 -0.2403164687020414 0 -0.01887874476148543 -0.24814250919209771 0 -0.026067501294639708 -0.24850247980592871 0 -0.02456862519526215 -0.24210395604782819 0 -0.01887874476148543 -0.24814250919209771 0 -0.01660477195623393 -0.2403164687020414 0 -0.01887874476148543 -0.24814250919209771 0 -0.0080727856436109482 -0.2481099565327444 0 -0.0080727856436109482 -0.2481099565327444 0 -0.0084819670471955304 -0.2367225590632196 0 0.0055632338660241776 -0.24332209518663511 0 -0.01660477195623393 -0.2403164687020414 0 -0.0084819670471955304 -0.2367225590632196 0 -0.02062871475200042 -0.2320366992723622 0 -0.01660477195623393 -0.2403164687020414 0 -0.0080727856436109482 -0.2481099565327444 0 -0.0084819670471955304 -0.2367225590632196 0 -0.0084819670471955304 -0.2367225590632196 0 -0.0075276580997289226 -0.21896018305478171 0 0.0032521440618358652 -0.23009641691855939 0 -0.0084819670471955304 -0.2367225590632196 0 -0.0075276580997289226 -0.21896018305478171 0 -0.02062871475200042 -0.2320366992723622 0 -0.0075276580997289226 -0.21896018305478171 0 -0.02062871475200042 -0.2320366992723622 0 -0.024832472176938718 -0.21885173135413241 0 -0.02974340118516787 -0.23585106297766359 0 -0.02062871475200042 -0.2320366992723622 0 -0.031998745265470661 -0.22641465662269231 0 -0.02062871475200042 -0.2320366992723622 0 -0.024832472176938718 -0.21885173135413241 0 -0.031998745265470661 -0.22641465662269231 0 -0.0075276580997289226 -0.21896018305478171 0 -0.024832472176938718 -0.21885173135413241 0 -0.0217915143334447 -0.19785215020996011 0 -0.024832472176938718 -0.21885173135413241 0 -0.0217915143334447 -0.19785215020996011 0 -0.042215728434048867 -0.21899496761086559 0 -0.0075276580997289226 -0.21896018305478171 0 -0.0217915143334447 -0.19785215020996011 0 0.003555539334036632 -0.19934620758084881 0 -0.0013673002328405961 -0.1767093328090546 0 -0.0217915143334447 -0.19785215020996011 0 0.003555539334036632 -0.19934620758084881 0 -0.029934926785222919 -0.1776443960910804 0 -0.0217915143334447 -0.19785215020996011 0 -0.034676635542126917 -0.191298641696723 0 -0.0217915143334447 -0.19785215020996011 0 -0.034676635542126917 -0.191298641696723 0 -0.04224094911505525 -0.20168175555289891 0 -0.048583433801033478 -0.18728911877980611 0 -0.034676635542126917 -0.191298641696723 0 -0.04224094911505525 -0.20168175555289891 0 -0.048583433801033478 -0.18728911877980611 0 -0.058327232484387218 -0.2013044317948425 0 -0.063770138428779252 -0.18079669395549949 0 -0.048583433801033478 -0.18728911877980611 0 -0.04224094911505525 -0.20168175555289891 0 -0.058327232484387218 -0.2013044317948425 0 -0.058327232484387218 -0.2013044317948425 0 -0.04785115009529034 -0.21335122322519601 0 -0.065984069430329237 -0.21594808513783789 0 -0.04224094911505525 -0.20168175555289891 0 -0.058327232484387218 -0.2013044317948425 0 -0.04785115009529034 -0.21335122322519601 0 -0.04785115009529034 -0.21335122322519601 0 -0.065984069430329237 -0.21594808513783789 0 -0.04785115009529034 -0.21335122322519601 0 -0.050089297127046031 -0.22131182591420251 0 -0.065984069430329237 -0.21594808513783789 0 -0.0217915143334447 -0.19785215020996011 0 -0.042215728434048867 -0.21899496761086559 0 -0.0217915143334447 -0.19785215020996011 0 -0.04224094911505525 -0.20168175555289891 0 -0.042215728434048867 -0.21899496761086559 0 -0.04224094911505525 -0.20168175555289891 0 -0.04785115009529034 -0.21335122322519601 0 -0.042215728434048867 -0.21899496761086559 0 -0.04785115009529034 -0.21335122322519601 0 -0.042215728434048867 -0.21899496761086559 0 -0.050089297127046031 -0.22131182591420251 0 -0.024832472176938718 -0.21885173135413241 0 -0.031998745265470661 -0.22641465662269231 0 -0.042215728434048867 -0.21899496761086559 0 -0.031998745265470661 -0.22641465662269231 0 -0.042215728434048867 -0.21899496761086559 0 -0.041320068815934301 -0.22639292378782619 0 -0.031998745265470661 -0.22641465662269231 0 -0.041320068815934301 -0.22639292378782619 0 -0.038133232148655979 -0.23444534332888789 0 -0.02974340118516787 -0.23585106297766359 0 -0.031998745265470661 -0.22641465662269231 0 -0.038133232148655979 -0.23444534332888789 0 -0.041320068815934301 -0.22639292378782619 0 -0.052151212760384272 -0.22988480121754831 0 -0.038133232148655979 -0.23444534332888789 0 -0.042215728434048867 -0.21899496761086559 0 -0.041320068815934301 -0.22639292378782619 0 -0.050089297127046031 -0.22131182591420251 0 -0.041320068815934301 -0.22639292378782619 0 -0.050089297127046031 -0.22131182591420251 0 -0.052151212760384272 -0.22988480121754831 0 -0.0567919256119837 -0.24387644547435741 0 -0.065984069430329237 -0.21594808513783789 0 -0.050089297127046031 -0.22131182591420251 0 -0.052151212760384272 -0.22988480121754831 0 -0.065984069430329237 -0.21594808513783789 0 -0.052151212760384272 -0.22988480121754831 0 -0.0567919256119837 -0.24387644547435741 0 -0.065984069430329237 -0.21594808513783789 0 -0.052151212760384272 -0.22988480121754831 0 -0.0567919256119837 -0.24387644547435741 0 -0.045207486351244337 -0.24272005325013779 0 -0.046517308340487992 -0.25474718453952289 0 -0.0567919256119837 -0.24387644547435741 0 -0.045207486351244337 -0.24272005325013779 0 -0.038581934025118947 -0.25114857380685968 0 -0.046517308340487992 -0.25474718453952289 0 -0.045207486351244337 -0.24272005325013779 0 -0.052151212760384272 -0.22988480121754831 0 -0.045207486351244337 -0.24272005325013779 0 -0.038133232148655979 -0.23444534332888789 0 -0.02974340118516787 -0.23585106297766359 0 -0.038133232148655979 -0.23444534332888789 0 -0.033387688564450117 -0.24425465961654741 0 -0.045207486351244337 -0.24272005325013779 0 -0.038133232148655979 -0.23444534332888789 0 -0.033387688564450117 -0.24425465961654741 0 -0.038581934025118947 -0.25114857380685968 0 -0.03064478186574425 -0.25326356670072259 0 -0.033387688564450117 -0.24425465961654741 0 -0.038581934025118947 -0.25114857380685968 0 -0.045207486351244337 -0.24272005325013779 0 -0.033387688564450117 -0.24425465961654741 0 -0.076282262678724011 -0.24169347649274159 0 -0.094544528280961701 -0.23130979592197831 0 -0.1005321994236209 -0.2431127607729493 0 -0.090174700483665673 -0.26498018187443112 0 -0.076282262678724011 -0.24169347649274159 0 -0.1005321994236209 -0.2431127607729493 0 -0.063484538676239377 -0.26413124226689111 0 -0.0567919256119837 -0.24387644547435741 0 -0.076282262678724011 -0.24169347649274159 0 -0.0567919256119837 -0.24387644547435741 0 -0.076282262678724011 -0.24169347649274159 0 -0.076216545617433393 -0.2267874217425101 0 -0.0567919256119837 -0.24387644547435741 0 -0.076216545617433393 -0.2267874217425101 0 -0.065984069430329237 -0.21594808513783789 0 -0.076216545617433393 -0.2267874217425101 0 -0.089079986681209755 -0.21925571071859279 0 -0.065984069430329237 -0.21594808513783789 0 -0.076282262678724011 -0.24169347649274159 0 -0.076216545617433393 -0.2267874217425101 0 -0.089079986681209755 -0.21925571071859279 0 -0.076282262678724011 -0.24169347649274159 0 -0.089079986681209755 -0.21925571071859279 0 -0.076282262678724011 -0.24169347649274159 0 -0.089079986681209755 -0.21925571071859279 0 -0.094544528280961701 -0.23130979592197831 0 -0.089079986681209755 -0.21925571071859279 0 -0.087982693832912948 -0.20610030108417279 0 -0.065984069430329237 -0.21594808513783789 0 -0.089079986681209755 -0.21925571071859279 0 -0.091681034097487346 -0.21469539259619891 0 -0.087982693832912948 -0.20610030108417279 0 -0.089079986681209755 -0.21925571071859279 0 -0.091681034097487346 -0.21469539259619891 0 -0.089079986681209755 -0.21925571071859279 0 -0.065984069430329237 -0.21594808513783789 0 -0.058327232484387218 -0.2013044317948425 0 -0.065984069430329237 -0.21594808513783789 0 -0.072928541530643487 -0.1948487939390374 0 -0.065984069430329237 -0.21594808513783789 0 -0.072928541530643487 -0.1948487939390374 0 -0.087982693832912948 -0.20610030108417279 0 -0.065984069430329237 -0.21594808513783789 0 -0.072928541530643487 -0.1948487939390374 0 -0.058327232484387218 -0.2013044317948425 0 -0.072928541530643487 -0.1948487939390374 0 -0.063770138428779252 -0.18079669395549949 0 -0.087982693832912948 -0.20610030108417279 0 -0.072928541530643487 -0.1948487939390374 0 -0.088647710124579282 -0.1895137930351245 0 -0.087982693832912948 -0.20610030108417279 0 -0.088647710124579282 -0.1895137930351245 0 -0.098413722631135098 -0.19641739989264009 0 -0.088647710124579282 -0.1895137930351245 0 -0.098413722631135098 -0.19641739989264009 0 -0.1039428787252024 -0.18306303235069041 0 -0.087982693832912948 -0.20610030108417279 0 -0.098413722631135098 -0.19641739989264009 0 -0.1018219586260966 -0.2062222809526808 0 -0.098413722631135098 -0.19641739989264009 0 -0.10967337184688419 -0.19718759204053191 0 -0.1018219586260966 -0.2062222809526808 0 -0.098413722631135098 -0.19641739989264009 0 -0.10967337184688419 -0.19718759204053191 0 -0.1039428787252024 -0.18306303235069041 0 -0.1039428787252024 -0.18306303235069041 0 -0.1280127438194481 -0.19237656196114411 0 -0.10967337184688419 -0.19718759204053191 0 -0.1178174188303993 -0.20556040013348681 0 -0.1280127438194481 -0.19237656196114411 0 -0.10967337184688419 -0.19718759204053191 0 -0.1039428787252024 -0.18306303235069041 0 -0.1280127438194481 -0.19237656196114411 0 -0.10967337184688419 -0.19718759204053191 0 -0.10961342770230489 -0.21003706569406461 0 -0.1178174188303993 -0.20556040013348681 0 -0.1178174188303993 -0.20556040013348681 0 -0.1109550451866443 -0.21888036136960631 0 -0.13246178853905299 -0.20873151589840269 0 -0.1109550451866443 -0.21888036136960631 0 -0.13246178853905299 -0.20873151589840269 0 -0.1109550451866443 -0.21888036136960631 0 -0.12407830270498089 -0.22426790937284519 0 -0.13246178853905299 -0.20873151589840269 0 -0.10961342770230489 -0.21003706569406461 0 -0.1178174188303993 -0.20556040013348681 0 -0.1109550451866443 -0.21888036136960631 0 -0.10961342770230489 -0.21003706569406461 0 -0.103172625086798 -0.22127395363072039 0 -0.1109550451866443 -0.21888036136960631 0 -0.10961342770230489 -0.21003706569406461 0 -0.1018219586260966 -0.2062222809526808 0 -0.103172625086798 -0.22127395363072039 0 -0.10967337184688419 -0.19718759204053191 0 -0.10961342770230489 -0.21003706569406461 0 -0.1018219586260966 -0.2062222809526808 0 -0.091681034097487346 -0.21469539259619891 0 -0.087982693832912948 -0.20610030108417279 0 -0.103172625086798 -0.22127395363072039 0 -0.089079986681209755 -0.21925571071859279 0 -0.091681034097487346 -0.21469539259619891 0 -0.103172625086798 -0.22127395363072039 0 -0.087982693832912948 -0.20610030108417279 0 -0.103172625086798 -0.22127395363072039 0 -0.087982693832912948 -0.20610030108417279 0 -0.1018219586260966 -0.2062222809526808 0 -0.103172625086798 -0.22127395363072039 0 -0.094544528280961701 -0.23130979592197831 0 -0.103172625086798 -0.22127395363072039 0 -0.1005321994236209 -0.2431127607729493 0 -0.089079986681209755 -0.21925571071859279 0 -0.103172625086798 -0.22127395363072039 0 -0.089079986681209755 -0.21925571071859279 0 -0.094544528280961701 -0.23130979592197831 0 -0.103172625086798 -0.22127395363072039 0 -0.103172625086798 -0.22127395363072039 0 -0.1223681628105569 -0.24044891992886891 0 -0.103172625086798 -0.22127395363072039 0 -0.12407830270498089 -0.22426790937284519 0 -0.1238233973506119 -0.23541481827178831 0 -0.103172625086798 -0.22127395363072039 0 -0.1223681628105569 -0.24044891992886891 0 -0.1238233973506119 -0.23541481827178831 0 -0.103172625086798 -0.22127395363072039 0 -0.12407830270498089 -0.22426790937284519 0 -0.103172625086798 -0.22127395363072039 0 -0.1109550451866443 -0.21888036136960631 0 -0.12407830270498089 -0.22426790937284519 0 -0.11757885349586771 -0.25701660664448461 0 -0.1223681628105569 -0.24044891992886891 0 -0.1005321994236209 -0.2431127607729493 0 -0.11757885349586771 -0.25701660664448461 0 -0.1223681628105569 -0.24044891992886891 0 -0.1223681628105569 -0.24044891992886891 0 -0.1238233973506119 -0.23541481827178831 0 -0.103172625086798 -0.22127395363072039 0 -0.1223681628105569 -0.24044891992886891 0 -0.1005321994236209 -0.2431127607729493 0 -0.088441251280713618 -0.1477167476767523 0 -0.085474651021334253 -0.13655174303235951 0 -0.077236065216807342 -0.1460130695171887 0 -0.088441251280713618 -0.1477167476767523 0 -0.077236065216807342 -0.1460130695171887 0 -0.072985053953480025 -0.15595005707556001 0 -0.088441251280713618 -0.1477167476767523 0 -0.093538562727787294 -0.15940564464812701 0 -0.098894310772838973 -0.14952020789867901 0 -0.088441251280713618 -0.1477167476767523 0 -0.085474651021334253 -0.13655174303235951 0 -0.095252038160572317 -0.1406191133899993 0 -0.085474651021334253 -0.13655174303235951 0 -0.095971306836852913 -0.13086642389395989 0 -0.095252038160572317 -0.1406191133899993 0 -0.082994471061899833 -0.1234246307735777 0 -0.085474651021334253 -0.13655174303235951 0 -0.095971306836852913 -0.13086642389395989 0 -0.082994471061899833 -0.1234246307735777 0 -0.085474651021334253 -0.13655174303235951 0 -0.073596501371478315 -0.1364787996572045 0 -0.085474651021334253 -0.13655174303235951 0 -0.073596501371478315 -0.1364787996572045 0 -0.077236065216807342 -0.1460130695171887 0 -0.06059931965736505 -0.14742373122833671 0 -0.060446148579459319 -0.1303024678998376 0 -0.073596501371478315 -0.1364787996572045 0 -0.082994471061899833 -0.1234246307735777 0 -0.073596501371478315 -0.1364787996572045 0 -0.071674103496310607 -0.1250344835198243 0 -0.060446148579459319 -0.1303024678998376 0 -0.073596501371478315 -0.1364787996572045 0 -0.071674103496310607 -0.1250344835198243 0 -0.06059931965736505 -0.14742373122833671 0 -0.073596501371478315 -0.1364787996572045 0 -0.077236065216807342 -0.1460130695171887 0 -0.057687804487617317 -0.16516521689311761 0 -0.06059931965736505 -0.14742373122833671 0 -0.072985053953480025 -0.15595005707556001 0 -0.06059931965736505 -0.14742373122833671 0 -0.077236065216807342 -0.1460130695171887 0 -0.072985053953480025 -0.15595005707556001 0 -0.057687804487617317 -0.16516521689311761 0 -0.079873013630956835 -0.17374950274023659 0 -0.057687804487617317 -0.16516521689311761 0 -0.072985053953480025 -0.15595005707556001 0 -0.079873013630956835 -0.17374950274023659 0 -0.072928541530643487 -0.1948487939390374 0 -0.079873013630956835 -0.17374950274023659 0 -0.057687804487617317 -0.16516521689311761 0 -0.063770138428779252 -0.18079669395549949 0 -0.079873013630956835 -0.17374950274023659 0 -0.072928541530643487 -0.1948487939390374 0 -0.063770138428779252 -0.18079669395549949 0 -0.079873013630956835 -0.17374950274023659 0 -0.072928541530643487 -0.1948487939390374 0 -0.088647710124579282 -0.1895137930351245 0 -0.079873013630956835 -0.17374950274023659 0 -0.079873013630956835 -0.17374950274023659 0 -0.1039428787252024 -0.18306303235069041 0 -0.088647710124579282 -0.1895137930351245 0 -0.079873013630956835 -0.17374950274023659 0 -0.1039428787252024 -0.18306303235069041 0 -0.088441251280713618 -0.1477167476767523 0 -0.079873013630956835 -0.17374950274023659 0 -0.079873013630956835 -0.17374950274023659 0 -0.093538562727787294 -0.15940564464812701 0 -0.098088850166783578 -0.16700629557107341 0 -0.088441251280713618 -0.1477167476767523 0 -0.079873013630956835 -0.17374950274023659 0 -0.093538562727787294 -0.15940564464812701 0 -0.088441251280713618 -0.1477167476767523 0 -0.072985053953480025 -0.15595005707556001 0 -0.079873013630956835 -0.17374950274023659 0 -0.093538562727787294 -0.15940564464812701 0 -0.098088850166783578 -0.16700629557107341 0 -0.1023953877876435 -0.15903546935389351 0 -0.098088850166783578 -0.16700629557107341 0 -0.1039428787252024 -0.18306303235069041 0 -0.1119878388851908 -0.16231915977259129 0 -0.098088850166783578 -0.16700629557107341 0 -0.1023953877876435 -0.15903546935389351 0 -0.1119878388851908 -0.16231915977259129 0 -0.079873013630956835 -0.17374950274023659 0 -0.098088850166783578 -0.16700629557107341 0 -0.1039428787252024 -0.18306303235069041 0 -0.1039428787252024 -0.18306303235069041 0 -0.11859204859796291 -0.17560578940816099 0 -0.1119878388851908 -0.16231915977259129 0 -0.1039428787252024 -0.18306303235069041 0 -0.11859204859796291 -0.17560578940816099 0 -0.1280127438194481 -0.19237656196114411 0 -0.1023953877876435 -0.15903546935389351 0 -0.1119878388851908 -0.16231915977259129 0 -0.1169630623746598 -0.14907522687480429 0 -0.11859204859796291 -0.17560578940816099 0 -0.1119878388851908 -0.16231915977259129 0 -0.12588679133122799 -0.1624874708491951 0 -0.1119878388851908 -0.16231915977259129 0 -0.1169630623746598 -0.14907522687480429 0 -0.12588679133122799 -0.1624874708491951 0 -0.1119878388851908 -0.16231915977259129 0 -0.1169630623746598 -0.14907522687480429 0 -0.1023953877876435 -0.15903546935389351 0 -0.1169630623746598 -0.14907522687480429 0 -0.098894310772838973 -0.14952020789867901 0 -0.1169630623746598 -0.14907522687480429 0 -0.098894310772838973 -0.14952020789867901 0 -0.1169630623746598 -0.14907522687480429 0 -0.098894310772838973 -0.14952020789867901 0 -0.1074786708911218 -0.1384404444482458 0 -0.088441251280713618 -0.1477167476767523 0 -0.098894310772838973 -0.14952020789867901 0 -0.095252038160572317 -0.1406191133899993 0 -0.098894310772838973 -0.14952020789867901 0 -0.095252038160572317 -0.1406191133899993 0 -0.1074786708911218 -0.1384404444482458 0 -0.093538562727787294 -0.15940564464812701 0 -0.1023953877876435 -0.15903546935389351 0 -0.098894310772838973 -0.14952020789867901 0 -0.1085913382140784 -0.11903379143832921 0 -0.095971306836852913 -0.13086642389395989 0 -0.1074786708911218 -0.1384404444482458 0 -0.095971306836852913 -0.13086642389395989 0 -0.095252038160572317 -0.1406191133899993 0 -0.1074786708911218 -0.1384404444482458 0 -0.1085913382140784 -0.11903379143832921 0 -0.1074786708911218 -0.1384404444482458 0 -0.12736410167423581 -0.1213878944680517 0 -0.1169630623746598 -0.14907522687480429 0 -0.1074786708911218 -0.1384404444482458 0 -0.12736410167423581 -0.1213878944680517 0 -0.1169630623746598 -0.14907522687480429 0 -0.12736410167423581 -0.1213878944680517 0 -0.13746664940214659 -0.13470709103134659 0 -0.12736410167423581 -0.1213878944680517 0 -0.14737054533773081 -0.1208951937003558 0 -0.1169630623746598 -0.14907522687480429 0 -0.13746664940214659 -0.13470709103134659 0 -0.12736410167423581 -0.1213878944680517 0 -0.1569759497016511 -0.14808982533941309 0 -0.14737054533773081 -0.1208951937003558 0 -0.13746664940214659 -0.13470709103134659 0 -0.1569759497016511 -0.14808982533941309 0 -0.14737054533773081 -0.1208951937003558 0 -0.1369695060381555 -0.1485825261071109 0 -0.1526603788815559 -0.1573596194762775 0 -0.1569759497016511 -0.14808982533941309 0 -0.13746664940214659 -0.13470709103134659 0 -0.1369695060381555 -0.1485825261071109 0 -0.1569759497016511 -0.14808982533941309 0 -0.1369695060381555 -0.1485825261071109 0 -0.1569759497016511 -0.14808982533941309 0 -0.1169630623746598 -0.14907522687480429 0 -0.1369695060381555 -0.1485825261071109 0 -0.1169630623746598 -0.14907522687480429 0 -0.1369695060381555 -0.1485825261071109 0 -0.12588679133122799 -0.1624874708491951 0 -0.1169630623746598 -0.14907522687480429 0 -0.13746664940214659 -0.13470709103134659 0 -0.1369695060381555 -0.1485825261071109 0 -0.11859204859796291 -0.17560578940816099 0 -0.12588679133122799 -0.1624874708491951 0 -0.13147554750711021 -0.17522771154146191 0 -0.12588679133122799 -0.1624874708491951 0 -0.13147554750711021 -0.17522771154146191 0 -0.14107140235061469 -0.16358211752318311 0 -0.13147554750711021 -0.17522771154146191 0 -0.14520517551865919 -0.17294749126987599 0 -0.14107140235061469 -0.16358211752318311 0 -0.1369695060381555 -0.1485825261071109 0 -0.12588679133122799 -0.1624874708491951 0 -0.14107140235061469 -0.16358211752318311 0 -0.11859204859796291 -0.17560578940816099 0 -0.13147554750711021 -0.17522771154146191 0 -0.1280127438194481 -0.19237656196114411 0 -0.13147554750711021 -0.17522771154146191 0 -0.1398254013782112 -0.18365029146927231 0 -0.1280127438194481 -0.19237656196114411 0 -0.13147554750711021 -0.17522771154146191 0 -0.1398254013782112 -0.18365029146927231 0 -0.14520517551865919 -0.17294749126987599 0 -0.1398254013782112 -0.18365029146927231 0 -0.14820117369214661 -0.18035874543477601 0 -0.1498687104188495 -0.18767128888863599 0 -0.1398254013782112 -0.18365029146927231 0 -0.14820117369214661 -0.18035874543477601 0 -0.14520517551865919 -0.17294749126987599 0 -0.14820117369214661 -0.18035874543477601 0 -0.14520517551865919 -0.17294749126987599 0 -0.1568216795970071 -0.17538216601134321 0 -0.14820117369214661 -0.18035874543477601 0 -0.15608754076248521 -0.18190001438557629 0 -0.1568216795970071 -0.17538216601134321 0 -0.14520517551865919 -0.17294749126987599 0 -0.15263532751206779 -0.16758471640843459 0 -0.1568216795970071 -0.17538216601134321 0 -0.14820117369214661 -0.18035874543477601 0 -0.15608754076248521 -0.18190001438557629 0 -0.1498687104188495 -0.18767128888863599 0 -0.15608754076248521 -0.18190001438557629 0 -0.1607184616130248 -0.18728683910860641 0 -0.1498687104188495 -0.18767128888863599 0 -0.1369695060381555 -0.1485825261071109 0 -0.14107140235061469 -0.16358211752318311 0 -0.1526603788815559 -0.1573596194762775 0 -0.14520517551865919 -0.17294749126987599 0 -0.14107140235061469 -0.16358211752318311 0 -0.15263532751206779 -0.16758471640843459 0 -0.15263532751206779 -0.16758471640843459 0 -0.1526603788815559 -0.1573596194762775 0 -0.16142564196989831 -0.16655703171874039 0 -0.14107140235061469 -0.16358211752318311 0 -0.15263532751206779 -0.16758471640843459 0 -0.1526603788815559 -0.1573596194762775 0 -0.1526603788815559 -0.1573596194762775 0 -0.16142564196989831 -0.16655703171874039 0 -0.16326087804426159 -0.16588359066980229 0 -0.16326087804426159 -0.16588359066980229 0 -0.1569759497016511 -0.14808982533941309 0 -0.1526603788815559 -0.1573596194762775 0 -0.16326087804426159 -0.16588359066980229 0 -0.1569759497016511 -0.14808982533941309 0 -0.1594122663447772 -0.17133307891758459 0 -0.16142564196989831 -0.16655703171874039 0 -0.16676641630013581 -0.17580840153182001 0 -0.15263532751206779 -0.16758471640843459 0 -0.1594122663447772 -0.17133307891758459 0 -0.16142564196989831 -0.16655703171874039 0 -0.16142564196989831 -0.16655703171874039 0 -0.16326087804426159 -0.16588359066980229 0 -0.16676641630013581 -0.17580840153182001 0 -0.15263532751206779 -0.16758471640843459 0 -0.1594122663447772 -0.17133307891758459 0 -0.1568216795970071 -0.17538216601134321 0 -0.16142564196989831 -0.16655703171874039 0 -0.16326087804426159 -0.16588359066980229 0 -0.16326087804426159 -0.16588359066980229 0 -0.16676641630013581 -0.17580840153182001 0 -0.1783922457352059 -0.17293489930968209 0 -0.16326087804426159 -0.16588359066980229 0 -0.16676641630013581 -0.17580840153182001 0 -0.15608754076248521 -0.18190001438557629 0 -0.1607184616130248 -0.18728683910860641 0 -0.16676641630013581 -0.17580840153182001 0 -0.15608754076248521 -0.18190001438557629 0 -0.1568216795970071 -0.17538216601134321 0 -0.16676641630013581 -0.17580840153182001 0 -0.1594122663447772 -0.17133307891758459 0 -0.1568216795970071 -0.17538216601134321 0 -0.16676641630013581 -0.17580840153182001 0 -0.1607184616130248 -0.18728683910860641 0 -0.16676641630013581 -0.17580840153182001 0 -0.17547527524387041 -0.1884338249559952 0 -0.17547527524387041 -0.1884338249559952 0 -0.1969820185962792 -0.17828497948479149 0 -0.1783922457352059 -0.17293489930968209 0 -0.17547527524387041 -0.1884338249559952 0 -0.1969820185962792 -0.17828497948479149 0 -0.16676641630013581 -0.17580840153182001 0 -0.1783922457352059 -0.17293489930968209 0 -0.17547527524387041 -0.1884338249559952 0 -0.16326087804426159 -0.16588359066980229 0 -0.18947664049148261 -0.1562636999060015 0 -0.16326087804426159 -0.16588359066980229 0 -0.18633417632017751 -0.14736681724080919 0 -0.18947664049148261 -0.1562636999060015 0 -0.16326087804426159 -0.16588359066980229 0 -0.1783922457352059 -0.17293489930968209 0 -0.18947664049148261 -0.1562636999060015 0 -0.18633417632017751 -0.14736681724080919 0 -0.16621773075288121 -0.1295318635244681 0 -0.18400621351090571 -0.1217110611121094 0 -0.16621773075288121 -0.1295318635244681 0 -0.1569759497016511 -0.14808982533941309 0 -0.14737054533773081 -0.1208951937003558 0 -0.18633417632017751 -0.14736681724080919 0 -0.16621773075288121 -0.1295318635244681 0 -0.1569759497016511 -0.14808982533941309 0 -0.18633417632017751 -0.14736681724080919 0 -0.1569759497016511 -0.14808982533941309 0 -0.16326087804426159 -0.16588359066980229 0 -0.18633417632017751 -0.14736681724080919 0 -0.1569759497016511 -0.14808982533941309 0 -0.1377523016625678 -0.25581657194563601 0 -0.15263230708737521 -0.24356194903458239 0 -0.13476861079800859 -0.2391754021203874 0 -0.15263230708737521 -0.24356194903458239 0 -0.13476861079800859 -0.2391754021203874 0 -0.14055595197029169 -0.22979662500526149 0 -0.1377523016625678 -0.25581657194563601 0 -0.1223681628105569 -0.24044891992886891 0 -0.13476861079800859 -0.2391754021203874 0 -0.1377523016625678 -0.25581657194563601 0 -0.1223681628105569 -0.24044891992886891 0 -0.1238233973506119 -0.23541481827178831 0 -0.13476861079800859 -0.2391754021203874 0 -0.13139441447274411 -0.22962184130071481 0 -0.1223681628105569 -0.24044891992886891 0 -0.1238233973506119 -0.23541481827178831 0 -0.13476861079800859 -0.2391754021203874 0 -0.13476861079800859 -0.2391754021203874 0 -0.14055595197029169 -0.22979662500526149 0 -0.13139441447274411 -0.22962184130071481 0 -0.12407830270498089 -0.22426790937284519 0 -0.1238233973506119 -0.23541481827178831 0 -0.13139441447274411 -0.22962184130071481 0 -0.12407830270498089 -0.22426790937284519 0 -0.13139441447274411 -0.22962184130071481 0 -0.13441394179160859 -0.22010184774946731 0 -0.14055595197029169 -0.22979662500526149 0 -0.13139441447274411 -0.22962184130071481 0 -0.13441394179160859 -0.22010184774946731 0 -0.14055595197029169 -0.22979662500526149 0 -0.13441394179160859 -0.22010184774946731 0 -0.14940536450650499 -0.21373664043116339 0 -0.15263230708737521 -0.24356194903458239 0 -0.14940536450650499 -0.21373664043116339 0 -0.15263230708737521 -0.24356194903458239 0 -0.14940536450650499 -0.21373664043116339 0 -0.16621803193972459 -0.22739125443424221 0 -0.15263230708737521 -0.24356194903458239 0 -0.14055595197029169 -0.22979662500526149 0 -0.14940536450650499 -0.21373664043116339 0 -0.14940536450650499 -0.21373664043116339 0 -0.13246178853905299 -0.20873151589840269 0 -0.1539685318914617 -0.1985826704271989 0 -0.13246178853905299 -0.20873151589840269 0 -0.1539685318914617 -0.1985826704271989 0 -0.13441394179160859 -0.22010184774946731 0 -0.14940536450650499 -0.21373664043116339 0 -0.13246178853905299 -0.20873151589840269 0 -0.12407830270498089 -0.22426790937284519 0 -0.13441394179160859 -0.22010184774946731 0 -0.13246178853905299 -0.20873151589840269 0 -0.1178174188303993 -0.20556040013348681 0 -0.13246178853905299 -0.20873151589840269 0 -0.1280127438194481 -0.19237656196114411 0 -0.13246178853905299 -0.20873151589840269 0 -0.1280127438194481 -0.19237656196114411 0 -0.14041115317576749 -0.19424917250638599 0 -0.1398254013782112 -0.18365029146927231 0 -0.1280127438194481 -0.19237656196114411 0 -0.14041115317576749 -0.19424917250638599 0 -0.13246178853905299 -0.20873151589840269 0 -0.14041115317576749 -0.19424917250638599 0 -0.1539685318914617 -0.1985826704271989 0 -0.14041115317576749 -0.19424917250638599 0 -0.1539685318914617 -0.1985826704271989 0 -0.1498687104188495 -0.18767128888863599 0 -0.1398254013782112 -0.18365029146927231 0 -0.14041115317576749 -0.19424917250638599 0 -0.1498687104188495 -0.18767128888863599 0 -0.1607184616130248 -0.18728683910860641 0 -0.1539685318914617 -0.1985826704271989 0 -0.1498687104188495 -0.18767128888863599 0 -0.1607184616130248 -0.18728683910860641 0 -0.1539685318914617 -0.1985826704271989 0 -0.17547527524387041 -0.1884338249559952 0 -0.1539685318914617 -0.1985826704271989 0 -0.17547527524387041 -0.1884338249559952 0 -0.16825702714884239 -0.20885775366498019 0 -0.1539685318914617 -0.1985826704271989 0 -0.17547527524387041 -0.1884338249559952 0 -0.17547527524387041 -0.1884338249559952 0 -0.18277425339256639 -0.2026996383603622 0 -0.16825702714884239 -0.20885775366498019 0 -0.17547527524387041 -0.1884338249559952 0 -0.18277425339256639 -0.2026996383603622 0 -0.1902080517791363 -0.1917922864575213 0 -0.18277425339256639 -0.2026996383603622 0 -0.16825702714884239 -0.20885775366498019 0 -0.18626938338499441 -0.22517712183416291 0 -0.14940536450650499 -0.21373664043116339 0 -0.1539685318914617 -0.1985826704271989 0 -0.16825702714884239 -0.20885775366498019 0 -0.14940536450650499 -0.21373664043116339 0 -0.16825702714884239 -0.20885775366498019 0 -0.16621803193972459 -0.22739125443424221 0 -0.16825702714884239 -0.20885775366498019 0 -0.16621803193972459 -0.22739125443424221 0 -0.18626938338499441 -0.22517712183416291 0 -0.16621803193972459 -0.22739125443424221 0 -0.18626938338499441 -0.22517712183416291 0 -0.1745260775709061 -0.24562280720632229 0 -0.18626938338499441 -0.22517712183416291 0 -0.1745260775709061 -0.24562280720632229 0 -0.19988453840298659 -0.24176205441804 0 -0.18626938338499441 -0.22517712183416291 0 -0.1745260775709061 -0.24562280720632229 0 -0.15263230708737521 -0.24356194903458239 0 -0.16621803193972459 -0.22739125443424221 0 -0.1745260775709061 -0.24562280720632229 0 -0.1689202540561075 -0.25519621835756329 0 -0.15263230708737521 -0.24356194903458239 0 -0.1745260775709061 -0.24562280720632229 0 -0.21854221021918649 -0.25236034283526498 0 -0.19988453840298659 -0.24176205441804 0 -0.21493562756427159 -0.22243862284749449 0 -0.19160736129165659 -0.25262396586623759 0 -0.1745260775709061 -0.24562280720632229 0 -0.19988453840298659 -0.24176205441804 0 -0.18626938338499441 -0.22517712183416291 0 -0.19988453840298659 -0.24176205441804 0 -0.21493562756427159 -0.22243862284749449 0 -0.21493562756427159 -0.22243862284749449 0 -0.19801268919908249 -0.2047314364620034 0 -0.21541309520260529 -0.20113031717637361 0 -0.18626938338499441 -0.22517712183416291 0 -0.19801268919908249 -0.2047314364620034 0 -0.18277425339256639 -0.2026996383603622 0 -0.18626938338499441 -0.22517712183416291 0 -0.19801268919908249 -0.2047314364620034 0 -0.18626938338499441 -0.22517712183416291 0 -0.21493562756427159 -0.22243862284749449 0 -0.19801268919908249 -0.2047314364620034 0 -0.19801268919908249 -0.2047314364620034 0 -0.1902080517791363 -0.1917922864575213 0 -0.20975599501317069 -0.18428575108984399 0 -0.18277425339256639 -0.2026996383603622 0 -0.19801268919908249 -0.2047314364620034 0 -0.1902080517791363 -0.1917922864575213 0 -0.21541309520260529 -0.20113031717637361 0 -0.20975599501317069 -0.18428575108984399 0 -0.229896455205026 -0.18225842567294781 0 -0.19801268919908249 -0.2047314364620034 0 -0.21541309520260529 -0.20113031717637361 0 -0.20975599501317069 -0.18428575108984399 0 -0.19801268919908249 -0.2047314364620034 0 -0.20975599501317069 -0.18428575108984399 0 -0.21541309520260529 -0.20113031717637361 0 -0.23384346774119599 -0.2034651679104556 0 -0.229896455205026 -0.18225842567294781 0 -0.24262172765942899 -0.19089247064050549 0 -0.25644706280453389 -0.1995927939493197 0 -0.25029992488695979 -0.1782534950292988 0 -0.24262172765942899 -0.19089247064050549 0 -0.23384346774119599 -0.2034651679104556 0 -0.25644706280453389 -0.1995927939493197 0 -0.24262172765942899 -0.19089247064050549 0 -0.23384346774119599 -0.2034651679104556 0 -0.229896455205026 -0.18225842567294781 0 -0.23384346774119599 -0.2034651679104556 0 -0.2377451423251814 -0.23136366228574551 0 -0.25674041691710447 -0.22108212323078871 0 -0.23384346774119599 -0.2034651679104556 0 -0.25674041691710447 -0.22108212323078871 0 -0.25644706280453389 -0.1995927939493197 0 -0.21493562756427159 -0.22243862284749449 0 -0.21541309520260529 -0.20113031717637361 0 -0.23384346774119599 -0.2034651679104556 0 -0.21493562756427159 -0.22243862284749449 0 -0.23384346774119599 -0.2034651679104556 0 -0.2377451423251814 -0.23136366228574551 0 -0.24465976002352091 -0.25387891845332877 0 -0.2377451423251814 -0.23136366228574551 0 -0.25992972331208369 -0.2410680052130979 0 -0.24465976002352091 -0.25387891845332877 0 -0.21854221021918649 -0.25236034283526498 0 -0.2377451423251814 -0.23136366228574551 0 -0.21854221021918649 -0.25236034283526498 0 -0.21493562756427159 -0.22243862284749449 0 -0.2377451423251814 -0.23136366228574551 0 -0.21854221021918649 -0.25236034283526498 0 -0.2377451423251814 -0.23136366228574551 0 -0.21569240293870359 -0.1466438091422006 0 -0.18947664049148261 -0.1562636999060015 0 -0.2105647825198341 -0.15627799774793921 0 -0.2105647825198341 -0.15627799774793921 0 -0.22149930082725899 -0.1638400657176845 0 -0.22047208921520459 -0.14652609931143951 0 -0.21569240293870359 -0.1466438091422006 0 -0.2105647825198341 -0.15627799774793921 0 -0.22047208921520459 -0.14652609931143951 0 -0.21569240293870359 -0.1466438091422006 0 -0.22047208921520459 -0.14652609931143951 0 -0.20228853596836749 -0.13187567246267581 0 -0.2244809527826766 -0.1321180186971766 0 -0.2129261089666101 -0.1196792574727195 0 -0.21569240293870359 -0.1466438091422006 0 -0.20228853596836749 -0.13187567246267581 0 -0.2244809527826766 -0.1321180186971766 0 -0.18633417632017751 -0.14736681724080919 0 -0.20228853596836749 -0.13187567246267581 0 -0.18400621351090571 -0.1217110611121094 0 -0.21569240293870359 -0.1466438091422006 0 -0.18947664049148261 -0.1562636999060015 0 -0.18633417632017751 -0.14736681724080919 0 -0.21569240293870359 -0.1466438091422006 0 -0.18947664049148261 -0.1562636999060015 0 -0.18633417632017751 -0.14736681724080919 0 -0.21569240293870359 -0.1466438091422006 0 -0.18633417632017751 -0.14736681724080919 0 -0.21569240293870359 -0.1466438091422006 0 -0.20228853596836749 -0.13187567246267581 0 -0.1783922457352059 -0.17293489930968209 0 -0.18947664049148261 -0.1562636999060015 0 -0.1969820185962792 -0.17828497948479149 0 -0.18947664049148261 -0.1562636999060015 0 -0.1969820185962792 -0.17828497948479149 0 -0.20568347912652049 -0.16811631466237001 0 -0.18947664049148261 -0.1562636999060015 0 -0.20568347912652049 -0.16811631466237001 0 -0.2105647825198341 -0.15627799774793921 0 -0.1902080517791363 -0.1917922864575213 0 -0.1969820185962792 -0.17828497948479149 0 -0.20975599501317069 -0.18428575108984399 0 -0.17547527524387041 -0.1884338249559952 0 -0.1902080517791363 -0.1917922864575213 0 -0.1969820185962792 -0.17828497948479149 0 -0.20975599501317069 -0.18428575108984399 0 -0.22149930082725899 -0.1638400657176845 0 -0.20975599501317069 -0.18428575108984399 0 -0.20568347912652049 -0.16811631466237001 0 -0.22149930082725899 -0.1638400657176845 0 -0.1969820185962792 -0.17828497948479149 0 -0.20975599501317069 -0.18428575108984399 0 -0.20568347912652049 -0.16811631466237001 0 -0.20568347912652049 -0.16811631466237001 0 -0.2105647825198341 -0.15627799774793921 0 -0.22149930082725899 -0.1638400657176845 0 -0.22149930082725899 -0.1638400657176845 0 -0.2402834514435094 -0.1667894474332684 0 -0.2341322288468432 -0.15422277024092529 0 -0.22149930082725899 -0.1638400657176845 0 -0.229896455205026 -0.18225842567294781 0 -0.2402834514435094 -0.1667894474332684 0 -0.20975599501317069 -0.18428575108984399 0 -0.22149930082725899 -0.1638400657176845 0 -0.229896455205026 -0.18225842567294781 0 -0.229896455205026 -0.18225842567294781 0 -0.2402834514435094 -0.1667894474332684 0 -0.25029992488695979 -0.1782534950292988 0 -0.24262172765942899 -0.19089247064050549 0 -0.229896455205026 -0.18225842567294781 0 -0.25029992488695979 -0.1782534950292988 0 -0.2402834514435094 -0.1667894474332684 0 -0.25029992488695979 -0.1782534950292988 0 -0.25761979100978533 -0.16665415002795461 0 -0.2402834514435094 -0.1667894474332684 0 -0.24825300788518309 -0.1555077779107997 0 -0.25761979100978533 -0.16665415002795461 0 -0.2402834514435094 -0.1667894474332684 0 -0.24825300788518309 -0.1555077779107997 0 -0.2341322288468432 -0.15422277024092529 0 -0.24825300788518309 -0.1555077779107997 0 -0.2405789555143194 -0.1375116727892334 0 -0.25601133851015478 -0.1487044986697981 0 -0.24825300788518309 -0.1555077779107997 0 -0.2341322288468432 -0.15422277024092529 0 -0.2405789555143194 -0.1375116727892334 0 -0.21569240293870359 -0.1466438091422006 0 -0.22047208921520459 -0.14652609931143951 0 -0.2405789555143194 -0.1375116727892334 0 -0.22149930082725899 -0.1638400657176845 0 -0.2341322288468432 -0.15422277024092529 0 -0.22047208921520459 -0.14652609931143951 0 -0.21569240293870359 -0.1466438091422006 0 -0.2405789555143194 -0.1375116727892334 0 -0.2341322288468432 -0.15422277024092529 0 -0.22047208921520459 -0.14652609931143951 0 -0.2405789555143194 -0.1375116727892334 0 -0.21569240293870359 -0.1466438091422006 0 -0.2244809527826766 -0.1321180186971766 0 -0.2405789555143194 -0.1375116727892334 0 -0.2244809527826766 -0.1321180186971766 0 -0.2405789555143194 -0.1375116727892334 0 -0.23651179230599079 -0.1199754775459997 0 -0.2405789555143194 -0.1375116727892334 0 -0.23651179230599079 -0.1199754775459997 0 -0.25054446979338107 -0.12912519928877991 0 -0.23651179230599079 -0.1199754775459997 0 -0.24959534238117709 -0.1078054475449232 0 -0.26009747564537128 -0.1202716976192799 0 -0.23651179230599079 -0.1199754775459997 0 -0.26009747564537128 -0.1202716976192799 0 -0.23651179230599079 -0.1199754775459997 0 -0.26009747564537128 -0.1202716976192799 0 -0.25054446979338107 -0.12912519928877991 0 -0.23651179230599079 -0.1199754775459997 0 -0.24959534238117709 -0.1078054475449232 0 -0.23746734258601571 -0.1067534300414448 0 -0.24098124084432149 -0.095291905336151436 0 -0.23746734258601571 -0.1067534300414448 0 -0.22473934926471251 -0.1042306158888877 0 -0.24959534238117709 -0.1078054475449232 0 -0.24098124084432149 -0.095291905336151436 0 -0.25687551172258971 -0.095275519396915032 0 -0.24959534238117709 -0.1078054475449232 0 -0.24098124084432149 -0.095291905336151436 0 -0.23746734258601571 -0.1067534300414448 0 -0.22473934926471251 -0.1042306158888877 0 -0.22774604229393439 -0.087804120453188278 0 -0.20897213189474381 -0.093424031558921927 0 -0.24098124084432149 -0.095291905336151436 0 -0.22473934926471251 -0.1042306158888877 0 -0.22774604229393439 -0.087804120453188278 0 -0.2244809527826766 -0.1321180186971766 0 -0.23651179230599079 -0.1199754775459997 0 -0.2129261089666101 -0.1196792574727195 0 -0.23651179230599079 -0.1199754775459997 0 -0.2129261089666101 -0.1196792574727195 0 -0.23651179230599079 -0.1199754775459997 0 -0.23746734258601571 -0.1067534300414448 0 -0.22473934926471251 -0.1042306158888877 0 -0.23651179230599079 -0.1199754775459997 0 -0.22473934926471251 -0.1042306158888877 0 -0.2129261089666101 -0.1196792574727195 0 -0.2466384096447127 -0.069214282175018252 0 -0.23144064811545881 -0.071679072189906365 0 -0.24006258296416741 -0.059977364163272567 0 -0.2466384096447127 -0.069214282175018252 0 -0.23867713564867771 -0.0818228939715063 0 -0.25106785873748549 -0.083001848322642804 0 -0.2466384096447127 -0.069214282175018252 0 -0.23867713564867771 -0.0818228939715063 0 -0.23144064811545881 -0.071679072189906365 0 -0.24098124084432149 -0.095291905336151436 0 -0.25106785873748549 -0.083001848322642804 0 -0.25687551172258971 -0.095275519396915032 0 -0.24098124084432149 -0.095291905336151436 0 -0.23867713564867771 -0.0818228939715063 0 -0.25106785873748549 -0.083001848322642804 0 -0.24098124084432149 -0.095291905336151436 0 -0.23867713564867771 -0.0818228939715063 0 -0.22774604229393439 -0.087804120453188278 0 -0.22048160989483939 -0.080833284582646742 0 -0.22774604229393439 -0.087804120453188278 0 -0.23144064811545881 -0.071679072189906365 0 -0.23867713564867771 -0.0818228939715063 0 -0.22774604229393439 -0.087804120453188278 0 -0.23144064811545881 -0.071679072189906365 0 -0.22048160989483939 -0.080833284582646742 0 -0.22774604229393439 -0.087804120453188278 0 -0.20897213189474381 -0.093424031558921927 0 -0.23144064811545881 -0.071679072189906365 0 -0.2137676172752207 -0.070425914128570383 0 -0.21856310265569601 -0.047427796698218422 0 -0.22048160989483939 -0.080833284582646742 0 -0.23144064811545881 -0.071679072189906365 0 -0.2137676172752207 -0.070425914128570383 0 -0.23144064811545881 -0.071679072189906365 0 -0.23092663332862359 -0.057189961691847993 0 -0.24006258296416741 -0.059977364163272567 0 -0.20335705558913081 -0.063140738221072371 0 -0.2137676172752207 -0.070425914128570383 0 -0.20224544779007569 -0.076575791796341275 0 -0.2137676172752207 -0.070425914128570383 0 -0.20897213189474381 -0.093424031558921927 0 -0.20224544779007569 -0.076575791796341275 0 -0.2137676172752207 -0.070425914128570383 0 -0.20897213189474381 -0.093424031558921927 0 -0.22048160989483939 -0.080833284582646742 0 -0.2137676172752207 -0.070425914128570383 0 -0.20897213189474381 -0.093424031558921927 0 -0.20897213189474381 -0.093424031558921927 0 -0.18864483179057751 -0.079783658531738119 0 -0.20224544779007569 -0.076575791796341275 0 -0.20897213189474381 -0.093424031558921927 0 -0.18864483179057751 -0.079783658531738119 0 -0.1843208979706715 -0.098582101900239388 0 -0.20335705558913081 -0.063140738221072371 0 -0.18864483179057751 -0.079783658531738119 0 -0.20224544779007569 -0.076575791796341275 0 -0.20335705558913081 -0.063140738221072371 0 -0.18864483179057751 -0.079783658531738119 0 -0.20335705558913081 -0.063140738221072371 0 -0.18864483179057751 -0.079783658531738119 0 -0.18476368522970901 -0.060313507398174523 0 -0.22473934926471251 -0.1042306158888877 0 -0.2129261089666101 -0.1196792574727195 0 -0.1994025973422491 -0.10829052452779669 0 -0.20228853596836749 -0.13187567246267581 0 -0.2129261089666101 -0.1196792574727195 0 -0.1994025973422491 -0.10829052452779669 0 -0.22473934926471251 -0.1042306158888877 0 -0.20897213189474381 -0.093424031558921927 0 -0.1994025973422491 -0.10829052452779669 0 -0.20897213189474381 -0.093424031558921927 0 -0.1994025973422491 -0.10829052452779669 0 -0.1843208979706715 -0.098582101900239388 0 -0.20228853596836749 -0.13187567246267581 0 -0.1994025973422491 -0.10829052452779669 0 -0.18400621351090571 -0.1217110611121094 0 -0.1994025973422491 -0.10829052452779669 0 -0.18400621351090571 -0.1217110611121094 0 -0.1843208979706715 -0.098582101900239388 0 -0.16621773075288121 -0.1295318635244681 0 -0.18400621351090571 -0.1217110611121094 0 -0.16647442841019139 -0.11035058163789351 0 -0.18400621351090571 -0.1217110611121094 0 -0.16647442841019139 -0.11035058163789351 0 -0.1843208979706715 -0.098582101900239388 0 -0.16621773075288121 -0.1295318635244681 0 -0.16647442841019139 -0.11035058163789351 0 -0.14737054533773081 -0.1208951937003558 0 -0.16647442841019139 -0.11035058163789351 0 -0.16521255597131029 -0.094363556792246006 0 -0.15171862691764881 -0.097019712797942706 0 -0.16647442841019139 -0.11035058163789351 0 -0.16521255597131029 -0.094363556792246006 0 -0.1843208979706715 -0.098582101900239388 0 -0.16521255597131029 -0.094363556792246006 0 -0.1843208979706715 -0.098582101900239388 0 -0.1718657805157274 -0.077566403117392158 0 -0.18864483179057751 -0.079783658531738119 0 -0.1843208979706715 -0.098582101900239388 0 -0.1718657805157274 -0.077566403117392158 0 -0.18864483179057751 -0.079783658531738119 0 -0.1718657805157274 -0.077566403117392158 0 -0.18476368522970901 -0.060313507398174523 0 -0.1718657805157274 -0.077566403117392158 0 -0.16766997596840549 -0.055069670457126463 0 -0.18476368522970901 -0.060313507398174523 0 -0.1718657805157274 -0.077566403117392158 0 -0.1555984100513392 -0.067553704814911478 0 -0.16766997596840549 -0.055069670457126463 0 -0.1718657805157274 -0.077566403117392158 0 -0.15451520526235171 -0.083858215916353424 0 -0.1555984100513392 -0.067553704814911478 0 -0.16521255597131029 -0.094363556792246006 0 -0.1718657805157274 -0.077566403117392158 0 -0.15451520526235171 -0.083858215916353424 0 -0.16521255597131029 -0.094363556792246006 0 -0.15451520526235171 -0.083858215916353424 0 -0.15171862691764881 -0.097019712797942706 0 -0.15451520526235171 -0.083858215916353424 0 -0.14334301715898221 -0.074859018030624863 0 -0.13903100861317999 -0.090330850909877913 0 -0.15451520526235171 -0.083858215916353424 0 -0.13903100861317999 -0.090330850909877913 0 -0.15171862691764881 -0.097019712797942706 0 -0.1377651409738101 -0.093700562061298426 0 -0.13903100861317999 -0.090330850909877913 0 -0.15171862691764881 -0.097019712797942706 0 -0.15451520526235171 -0.083858215916353424 0 -0.1555984100513392 -0.067553704814911478 0 -0.14334301715898221 -0.074859018030624863 0 -0.1555984100513392 -0.067553704814911478 0 -0.14334301715898221 -0.074859018030624863 0 -0.13945189113323761 -0.059806177835795588 0 -0.14334301715898221 -0.074859018030624863 0 -0.12930964035960699 -0.069761515268982097 0 -0.13945189113323761 -0.059806177835795588 0 -0.12930964035960699 -0.069761515268982097 0 -0.1377651409738101 -0.093700562061298426 0 -0.12930964035960699 -0.069761515268982097 0 -0.1377651409738101 -0.093700562061298426 0 -0.13903100861317999 -0.090330850909877913 0 -0.1189291253072135 -0.086669643832799348 0 -0.12930964035960699 -0.069761515268982097 0 -0.1377651409738101 -0.093700562061298426 0 -0.14334301715898221 -0.074859018030624863 0 -0.12930964035960699 -0.069761515268982097 0 -0.13903100861317999 -0.090330850909877913 0 -0.1377651409738101 -0.093700562061298426 0 -0.13903100861317999 -0.090330850909877913 0 -0.11893842975153809 -0.10446969177473921 0 -0.1377651409738101 -0.093700562061298426 0 -0.12736410167423581 -0.1213878944680517 0 -0.1377651409738101 -0.093700562061298426 0 -0.12736410167423581 -0.1213878944680517 0 -0.11893842975153809 -0.10446969177473921 0 -0.1189291253072135 -0.086669643832799348 0 -0.1377651409738101 -0.093700562061298426 0 -0.1377651409738101 -0.093700562061298426 0 -0.12736410167423581 -0.1213878944680517 0 -0.14737054533773081 -0.1208951937003558 0 -0.16647442841019139 -0.11035058163789351 0 -0.14737054533773081 -0.1208951937003558 0 -0.15171862691764881 -0.097019712797942706 0 -0.1377651409738101 -0.093700562061298426 0 -0.14737054533773081 -0.1208951937003558 0 -0.15171862691764881 -0.097019712797942706 0 -0.1377651409738101 -0.093700562061298426 0 -0.14737054533773081 -0.1208951937003558 0 -0.14925834278157041 -0.027771983247297551 0 -0.15381676672243971 -0.0048344028756085976 0 -0.16158573310271521 -0.019122381719964599 0 -0.14925834278157041 -0.027771983247297551 0 -0.15381676672243971 -0.0048344028756085976 0 -0.14925834278157041 -0.027771983247297551 0 -0.13622810944285851 -0.025664644749336048 0 -0.13728148428220571 -0.03631729474545041 0 -0.15381676672243971 -0.0048344028756085976 0 -0.13373576905839379 -0.01378162565115138 0 -0.13796817939809339 -7.5853332940862265e-05 0 -0.14925834278157041 -0.027771983247297551 0 -0.15381676672243971 -0.0048344028756085976 0 -0.13373576905839379 -0.01378162565115138 0 -0.1244522405185825 -0.00038769298458709092 0 -0.1246368416492639 -0.024787675353444869 0 -0.13373576905839379 -0.01378162565115138 0 -0.1244522405185825 -0.00038769298458709092 0 -0.13373576905839379 -0.01378162565115138 0 -0.13796817939809339 -7.5853332940862265e-05 0 -0.1244522405185825 -0.00038769298458709092 0 -0.13373576905839379 -0.01378162565115138 0 -0.1246368416492639 -0.024787675353444869 0 -0.13373576905839379 -0.01378162565115138 0 -0.13622810944285851 -0.025664644749336048 0 -0.14925834278157041 -0.027771983247297551 0 -0.13373576905839379 -0.01378162565115138 0 -0.13622810944285851 -0.025664644749336048 0 -0.1246368416492639 -0.024787675353444869 0 -0.13622810944285851 -0.025664644749336048 0 -0.13728148428220571 -0.03631729474545041 0 -0.1248214427799455 -0.0491876577223027 0 -0.1246368416492639 -0.024787675353444869 0 -0.13067566527459321 -0.039597081228004503 0 -0.1246368416492639 -0.024787675353444869 0 -0.13067566527459321 -0.039597081228004503 0 -0.13728148428220571 -0.03631729474545041 0 -0.1248214427799455 -0.0491876577223027 0 -0.13067566527459321 -0.039597081228004503 0 -0.1359628923869578 -0.048095697090820053 0 -0.13067566527459321 -0.039597081228004503 0 -0.13728148428220571 -0.03631729474545041 0 -0.1359628923869578 -0.048095697090820053 0 -0.13728148428220571 -0.03631729474545041 0 -0.1359628923869578 -0.048095697090820053 0 -0.14767594406259391 -0.049379474087132447 0 -0.1248214427799455 -0.0491876577223027 0 -0.12930964035960699 -0.069761515268982097 0 -0.13945189113323761 -0.059806177835795588 0 -0.1208541397454049 -0.045822468476665427 0 -0.12930964035960699 -0.069761515268982097 0 -0.1248214427799455 -0.0491876577223027 0 -0.1359628923869578 -0.048095697090820053 0 -0.13945189113323761 -0.059806177835795588 0 -0.1555984100513392 -0.067553704814911478 0 -0.13945189113323761 -0.059806177835795588 0 -0.14767594406259391 -0.049379474087132447 0 -0.1359628923869578 -0.048095697090820053 0 -0.13945189113323761 -0.059806177835795588 0 -0.14767594406259391 -0.049379474087132447 0 -0.14925834278157041 -0.027771983247297551 0 -0.14767594406259391 -0.049379474087132447 0 -0.16346190388351911 -0.035477368974388322 0 -0.14925834278157041 -0.027771983247297551 0 -0.13728148428220571 -0.03631729474545041 0 -0.14767594406259391 -0.049379474087132447 0 -0.14767594406259391 -0.049379474087132447 0 -0.16346190388351911 -0.035477368974388322 0 -0.16766997596840549 -0.055069670457126463 0 -0.16346190388351911 -0.035477368974388322 0 -0.16766997596840549 -0.055069670457126463 0 -0.1792130821544009 -0.041655239440509813 0 -0.1555984100513392 -0.067553704814911478 0 -0.14767594406259391 -0.049379474087132447 0 -0.16766997596840549 -0.055069670457126463 0 -0.16766997596840549 -0.055069670457126463 0 -0.18476368522970901 -0.060313507398174523 0 -0.1792130821544009 -0.041655239440509813 0 -0.18476368522970901 -0.060313507398174523 0 -0.1792130821544009 -0.041655239440509813 0 -0.19607578221694649 -0.043845816873478577 0 -0.16346190388351911 -0.035477368974388322 0 -0.1792130821544009 -0.041655239440509813 0 -0.1747539590121796 -0.02148713112583673 0 -0.1792130821544009 -0.041655239440509813 0 -0.1747539590121796 -0.02148713112583673 0 -0.18874747204970219 -0.028974905836781941 0 -0.1747539590121796 -0.02148713112583673 0 -0.18814241231787171 -0.014961103822567131 0 -0.18874747204970219 -0.028974905836781941 0 -0.14925834278157041 -0.027771983247297551 0 -0.16346190388351911 -0.035477368974388322 0 -0.16158573310271521 -0.019122381719964599 0 -0.16346190388351911 -0.035477368974388322 0 -0.1747539590121796 -0.02148713112583673 0 -0.16158573310271521 -0.019122381719964599 0 -0.1747539590121796 -0.02148713112583673 0 -0.16158573310271521 -0.019122381719964599 0 -0.1670666400728934 -0.0075955490013497832 0 -0.15381676672243971 -0.0048344028756085976 0 -0.1670666400728934 -0.0075955490013497832 0 -0.16872927738725291 0.0066655648670224509 0 -0.15381676672243971 -0.0048344028756085976 0 -0.16158573310271521 -0.019122381719964599 0 -0.1670666400728934 -0.0075955490013497832 0 -0.1670666400728934 -0.0075955490013497832 0 -0.1785064095432054 -0.0066611219507198768 0 -0.16872927738725291 0.0066655648670224509 0 -0.1747539590121796 -0.02148713112583673 0 -0.1670666400728934 -0.0075955490013497832 0 -0.1785064095432054 -0.0066611219507198768 0 -0.1747539590121796 -0.02148713112583673 0 -0.1785064095432054 -0.0066611219507198768 0 -0.18814241231787171 -0.014961103822567131 0 -0.1785064095432054 -0.0066611219507198768 0 -0.18814241231787171 -0.014961103822567131 0 -0.193034969706537 0.00064734206737222756 0 -0.20555212454711219 -0.022925237921517471 0 -0.20993853639106591 -0.0035380738047605968 0 -0.193034969706537 0.00064734206737222756 0 -0.18814241231787171 -0.014961103822567131 0 -0.20555212454711219 -0.022925237921517471 0 -0.193034969706537 0.00064734206737222756 0 -0.20555212454711219 -0.022925237921517471 0 -0.193034969706537 0.00064734206737222756 0 -0.20993853639106591 -0.0035380738047605968 0 -0.193034969706537 0.00064734206737222756 0 -0.18814241231787171 -0.014961103822567131 0 -0.18874747204970219 -0.028974905836781941 0 -0.20555212454711219 -0.022925237921517471 0 -0.20555212454711219 -0.022925237921517471 0 -0.21630961893328751 -0.01519709454307171 0 -0.22290571171937651 -0.026601576769118469 0 -0.20993853639106591 -0.0035380738047605968 0 -0.22684210307559549 -0.0077234896768903086 0 -0.21568563774484731 0.0082874278720449449 0 -0.20993853639106591 -0.0035380738047605968 0 -0.21630961893328751 -0.01519709454307171 0 -0.22684210307559549 -0.0077234896768903086 0 -0.20555212454711219 -0.022925237921517471 0 -0.20993853639106591 -0.0035380738047605968 0 -0.21630961893328751 -0.01519709454307171 0 -0.20993853639106591 -0.0035380738047605968 0 -0.22684210307559549 -0.0077234896768903086 0 -0.20335705558913081 -0.063140738221072371 0 -0.18476368522970901 -0.060313507398174523 0 -0.19607578221694649 -0.043845816873478577 0 -0.1792130821544009 -0.041655239440509813 0 -0.18874747204970219 -0.028974905836781941 0 -0.19607578221694649 -0.043845816873478577 0 -0.18874747204970219 -0.028974905836781941 0 -0.20555212454711219 -0.022925237921517471 0 -0.19607578221694649 -0.043845816873478577 0 -0.20555212454711219 -0.022925237921517471 0 -0.21856310265569601 -0.047427796698218422 0 -0.20555212454711219 -0.022925237921517471 0 -0.21856310265569601 -0.047427796698218422 0 -0.21896932036315811 -0.045479663861346789 0 -0.20555212454711219 -0.022925237921517471 0 -0.19607578221694649 -0.043845816873478577 0 -0.21856310265569601 -0.047427796698218422 0 -0.20555212454711219 -0.022925237921517471 0 -0.21896932036315811 -0.045479663861346789 0 -0.22290571171937651 -0.026601576769118469 0 -0.2137676172752207 -0.070425914128570383 0 -0.21856310265569601 -0.047427796698218422 0 -0.20335705558913081 -0.063140738221072371 0 -0.2137676172752207 -0.070425914128570383 0 -0.21856310265569601 -0.047427796698218422 0 -0.20335705558913081 -0.063140738221072371 0 -0.19607578221694649 -0.043845816873478577 0 -0.21856310265569601 -0.047427796698218422 0 -0.20335705558913081 -0.063140738221072371 0 -0.21856310265569601 -0.047427796698218422 0 -0.23144064811545881 -0.071679072189906365 0 -0.21856310265569601 -0.047427796698218422 0 -0.23092663332862359 -0.057189961691847993 0 -0.23144064811545881 -0.071679072189906365 0 -0.21856310265569601 -0.047427796698218422 0 -0.21856310265569601 -0.047427796698218422 0 -0.23092663332862359 -0.057189961691847993 0 -0.22458774444026389 -0.046948698447319907 0 -0.23092663332862359 -0.057189961691847993 0 -0.2320274706224234 -0.04981915803055513 0 -0.23892230415514151 -0.050781370399802413 0 -0.23092663332862359 -0.057189961691847993 0 -0.22458774444026389 -0.046948698447319907 0 -0.2320274706224234 -0.04981915803055513 0 -0.21896932036315811 -0.045479663861346789 0 -0.2306307955349908 -0.032287844280089482 0 -0.22290571171937651 -0.026601576769118469 0 -0.21896932036315811 -0.045479663861346789 0 -0.22290571171937651 -0.026601576769118469 0 -0.22458774444026389 -0.046948698447319907 0 -0.2320274706224234 -0.04981915803055513 0 -0.23529860714157019 -0.041169280456794459 0 -0.22458774444026389 -0.046948698447319907 0 -0.2306307955349908 -0.032287844280089482 0 -0.23529860714157019 -0.041169280456794459 0 -0.22458774444026389 -0.046948698447319907 0 -0.21896932036315811 -0.045479663861346789 0 -0.2306307955349908 -0.032287844280089482 0 -0.21856310265569601 -0.047427796698218422 0 -0.22458774444026389 -0.046948698447319907 0 -0.21896932036315811 -0.045479663861346789 0 -0.21856310265569601 -0.047427796698218422 0 -0.21896932036315811 -0.045479663861346789 0 -0.21896932036315811 -0.045479663861346789 0 -0.2306307955349908 -0.032287844280089482 0 -0.2306307955349908 -0.032287844280089482 0 -0.23529860714157019 -0.041169280456794459 0 -0.241537864008738 -0.030171217790278881 0 -0.24798951326795751 -0.035882587373858313 0 -0.23529860714157019 -0.041169280456794459 0 -0.241537864008738 -0.030171217790278881 0 -0.24798951326795751 -0.035882587373858313 0 -0.24357205858261219 -0.044359355700093257 0 -0.23529860714157019 -0.041169280456794459 0 -0.24798951326795751 -0.035882587373858313 0 -0.24357205858261219 -0.044359355700093257 0 -0.25238491957690051 -0.051022134359787842 0 -0.24357205858261219 -0.044359355700093257 0 -0.23529860714157019 -0.041169280456794459 0 -0.23892230415514151 -0.050781370399802413 0 -0.2466384096447127 -0.069214282175018252 0 -0.24006258296416741 -0.059977364163272567 0 -0.25238491957690051 -0.051022134359787842 0 -0.2320274706224234 -0.04981915803055513 0 -0.23529860714157019 -0.041169280456794459 0 -0.23892230415514151 -0.050781370399802413 0 -0.23892230415514151 -0.050781370399802413 0 -0.24006258296416741 -0.059977364163272567 0 -0.25238491957690051 -0.051022134359787842 0 -0.24357205858261219 -0.044359355700093257 0 -0.23892230415514151 -0.050781370399802413 0 -0.25238491957690051 -0.051022134359787842 0 -0.23092663332862359 -0.057189961691847993 0 -0.23892230415514151 -0.050781370399802413 0 -0.24006258296416741 -0.059977364163272567 0 -0.21630961893328751 -0.01519709454307171 0 -0.22684210307559549 -0.0077234896768903086 0 -0.22290571171937651 -0.026601576769118469 0 -0.22684210307559549 -0.0077234896768903086 0 -0.22290571171937651 -0.026601576769118469 0 -0.23226271327452069 -0.02198020745377605 0 -0.22684210307559549 -0.0077234896768903086 0 -0.22290571171937651 -0.026601576769118469 0 -0.2306307955349908 -0.032287844280089482 0 -0.22290571171937651 -0.026601576769118469 0 -0.23226271327452069 -0.02198020745377605 0 -0.22684210307559549 -0.0077234896768903086 0 -0.23226271327452069 -0.02198020745377605 0 -0.24229227070682269 -0.019096024698831499 0 -0.2306307955349908 -0.032287844280089482 0 -0.241537864008738 -0.030171217790278881 0 -0.24229227070682269 -0.019096024698831499 0 -0.2306307955349908 -0.032287844280089482 0 -0.23226271327452069 -0.02198020745377605 0 -0.24229227070682269 -0.019096024698831499 0 -0.2306307955349908 -0.032287844280089482 0 -0.24229227070682269 -0.019096024698831499 0 -0.24798951326795751 -0.035882587373858313 0 -0.241537864008738 -0.030171217790278881 0 -0.25387676547985721 -0.02452441136234379 0 -0.241537864008738 -0.030171217790278881 0 -0.24229227070682269 -0.019096024698831499 0 -0.25387676547985721 -0.02452441136234379 0 -0.24229227070682269 -0.019096024698831499 0 -0.24826461013585729 -0.013027819984466921 0 -0.25387676547985721 -0.02452441136234379 0 -0.22684210307559549 -0.0077234896768903086 0 -0.24826461013585729 -0.013027819984466921 0 -0.24598119983726671 0.0037338506766126851 0 -0.22684210307559549 -0.0077234896768903086 0 -0.24229227070682269 -0.019096024698831499 0 -0.24826461013585729 -0.013027819984466921 0 -0.22684210307559549 -0.0077234896768903086 0 -0.24826461013585729 -0.013027819984466921 0 -0.24826461013585729 -0.013027819984466921 0 -0.26003022337954462 -0.0038093911555793728 0 -0.24598119983726671 0.0037338506766126851 0 -0.24826461013585729 -0.013027819984466921 0 -0.26003022337954462 -0.0038093911555793728 0 -0.26968711719611937 -0.018332150292041979 0 -0.24826461013585729 -0.013027819984466921 0 -0.26968711719611937 -0.018332150292041979 0 -0.25387676547985721 -0.02452441136234379 0 -0.26968711719611937 -0.018332150292041979 0 -0.26155562347943467 -0.037861138146123199 0 -0.24826461013585729 -0.013027819984466921 0 -0.25387676547985721 -0.02452441136234379 0 -0.26968711719611937 -0.018332150292041979 0 -0.26968711719611937 -0.018332150292041979 0 -0.28953187906397732 -0.034281883787379987 0 -0.27524211720584768 -0.038538427260779863 0 -0.26003022337954462 -0.0038093911555793728 0 -0.26968711719611937 -0.018332150292041979 0 -0.27433688946420332 -0.0007833753365484626 0 -0.26968711719611937 -0.018332150292041979 0 -0.27433688946420332 -0.0007833753365484626 0 -0.28631392786639209 -0.0070506759659385472 0 -0.28631392786639209 -0.0070506759659385472 0 -0.29653674479957171 -0.021015146411400301 0 -0.3025805037907468 -0.0027432771802810229 0 -0.28631392786639209 -0.0070506759659385472 0 -0.3025805037907468 -0.0027432771802810229 0 -0.28842838408131971 0.0076205693905790281 0 -0.27433688946420332 -0.0007833753365484626 0 -0.28631392786639209 -0.0070506759659385472 0 -0.28842838408131971 0.0076205693905790281 0 -0.26968711719611937 -0.018332150292041979 0 -0.28631392786639209 -0.0070506759659385472 0 -0.29653674479957171 -0.021015146411400301 0 -0.26968711719611937 -0.018332150292041979 0 -0.29653674479957171 -0.021015146411400301 0 -0.28953187906397732 -0.034281883787379987 0 -0.29653674479957171 -0.021015146411400301 0 -0.28953187906397732 -0.034281883787379987 0 -0.31718310516035308 -0.038172790333745737 0 -0.29653674479957171 -0.021015146411400301 0 -0.31459326366374579 -0.01532774276474733 0 -0.31718310516035308 -0.038172790333745737 0 -0.29653674479957171 -0.021015146411400301 0 -0.3025805037907468 -0.0027432771802810229 0 -0.31459326366374579 -0.01532774276474733 0 -0.30229462048881822 -0.056161209871372138 0 -0.29850594913894141 -0.055440370537233663 0 -0.30849544073550722 -0.074776909133231664 0 -0.30229462048881822 -0.056161209871372138 0 -0.29366820665513949 -0.048519954280836622 0 -0.31370341578724742 -0.051143824177853653 0 -0.30229462048881822 -0.056161209871372138 0 -0.29850594913894141 -0.055440370537233663 0 -0.29366820665513949 -0.048519954280836622 0 -0.30229462048881822 -0.056161209871372138 0 -0.31629816603535338 -0.060261719535131632 0 -0.30229462048881822 -0.056161209871372138 0 -0.31178497446605258 -0.064623658022855565 0 -0.31629816603535338 -0.060261719535131632 0 -0.30229462048881822 -0.056161209871372138 0 -0.31370341578724742 -0.051143824177853653 0 -0.31629816603535338 -0.060261719535131632 0 -0.29366820665513949 -0.048519954280836622 0 -0.31718310516035308 -0.038172790333745737 0 -0.29366820665513949 -0.048519954280836622 0 -0.31718310516035308 -0.038172790333745737 0 -0.31370341578724742 -0.051143824177853653 0 -0.28953187906397732 -0.034281883787379987 0 -0.29366820665513949 -0.048519954280836622 0 -0.31718310516035308 -0.038172790333745737 0 -0.28953187906397732 -0.034281883787379987 0 -0.29366820665513949 -0.048519954280836622 0 -0.27524211720584768 -0.038538427260779863 0 -0.29366820665513949 -0.048519954280836622 0 -0.27015330814992611 -0.058867118227927437 0 -0.29366820665513949 -0.048519954280836622 0 -0.28660483069534037 -0.061918496488246169 0 -0.27015330814992611 -0.058867118227927437 0 -0.29850594913894141 -0.055440370537233663 0 -0.28660483069534037 -0.061918496488246169 0 -0.29557893925590151 -0.069462416794053169 0 -0.29850594913894141 -0.055440370537233663 0 -0.29366820665513949 -0.048519954280836622 0 -0.28660483069534037 -0.061918496488246169 0 -0.29366820665513949 -0.048519954280836622 0 -0.27015330814992611 -0.058867118227927437 0 -0.27524211720584768 -0.038538427260779863 0 -0.26968711719611937 -0.018332150292041979 0 -0.27524211720584768 -0.038538427260779863 0 -0.26155562347943467 -0.037861138146123199 0 -0.27015330814992611 -0.058867118227927437 0 -0.27524211720584768 -0.038538427260779863 0 -0.26155562347943467 -0.037861138146123199 0 -0.24798951326795751 -0.035882587373858313 0 -0.26155562347943467 -0.037861138146123199 0 -0.25238491957690051 -0.051022134359787842 0 -0.24798951326795751 -0.035882587373858313 0 -0.25387676547985721 -0.02452441136234379 0 -0.26155562347943467 -0.037861138146123199 0 -0.27015330814992611 -0.058867118227927437 0 -0.26155562347943467 -0.037861138146123199 0 -0.25238491957690051 -0.051022134359787842 0 -0.2466384096447127 -0.069214282175018252 0 -0.27015330814992611 -0.058867118227927437 0 -0.25238491957690051 -0.051022134359787842 0 -0.2466384096447127 -0.069214282175018252 0 -0.27015330814992611 -0.058867118227927437 0 -0.26102584033089798 -0.073534373921212107 0 -0.2466384096447127 -0.069214282175018252 0 -0.27015330814992611 -0.058867118227927437 0 -0.2466384096447127 -0.069214282175018252 0 -0.26102584033089798 -0.073534373921212107 0 -0.25106785873748549 -0.083001848322642804 0 -0.25106785873748549 -0.083001848322642804 0 -0.26431637422662529 -0.083961298504163229 0 -0.25687551172258971 -0.095275519396915032 0 -0.26431637422662529 -0.083961298504163229 0 -0.25687551172258971 -0.095275519396915032 0 -0.26922948176741379 -0.094556007429682482 0 -0.26102584033089798 -0.073534373921212107 0 -0.25106785873748549 -0.083001848322642804 0 -0.26431637422662529 -0.083961298504163229 0 -0.26431637422662529 -0.083961298504163229 0 -0.27622487875609619 -0.085738752979791055 0 -0.27411142324960069 -0.07331497732508381 0 -0.26431637422662529 -0.083961298504163229 0 -0.27622487875609619 -0.085738752979791055 0 -0.26922948176741379 -0.094556007429682482 0 -0.27622487875609619 -0.085738752979791055 0 -0.26922948176741379 -0.094556007429682482 0 -0.28208733676033698 -0.099544680508420066 0 -0.27622487875609619 -0.085738752979791055 0 -0.27411142324960069 -0.07331497732508381 0 -0.28634330733871821 -0.075869823829162894 0 -0.28660483069534037 -0.061918496488246169 0 -0.27015330814992611 -0.058867118227927437 0 -0.27411142324960069 -0.07331497732508381 0 -0.27015330814992611 -0.058867118227927437 0 -0.26102584033089798 -0.073534373921212107 0 -0.27411142324960069 -0.07331497732508381 0 -0.26102584033089798 -0.073534373921212107 0 -0.26431637422662529 -0.083961298504163229 0 -0.27411142324960069 -0.07331497732508381 0 -0.24959534238117709 -0.1078054475449232 0 -0.26009747564537128 -0.1202716976192799 0 -0.26511094786836592 -0.1069062435210571 0 -0.24959534238117709 -0.1078054475449232 0 -0.26511094786836592 -0.1069062435210571 0 -0.25687551172258971 -0.095275519396915032 0 -0.26511094786836592 -0.1069062435210571 0 -0.25687551172258971 -0.095275519396915032 0 -0.26922948176741379 -0.094556007429682482 0 -0.26511094786836592 -0.1069062435210571 0 -0.27676276389741278 -0.11052104179975 0 -0.28208733676033698 -0.099544680508420066 0 -0.26511094786836592 -0.1069062435210571 0 -0.26922948176741379 -0.094556007429682482 0 -0.28208733676033698 -0.099544680508420066 0 -0.26511094786836592 -0.1069062435210571 0 -0.28208733676033698 -0.099544680508420066 0 -0.26009747564537128 -0.1202716976192799 0 -0.28368315898475188 -0.1205679176925603 0 -0.26697405985724948 -0.1304210152969853 0 -0.26009747564537128 -0.1202716976192799 0 -0.27676276389741278 -0.11052104179975 0 -0.28368315898475188 -0.1205679176925603 0 -0.26009747564537128 -0.1202716976192799 0 -0.28368315898475188 -0.1205679176925603 0 -0.26009747564537128 -0.1202716976192799 0 -0.26511094786836592 -0.1069062435210571 0 -0.27676276389741278 -0.11052104179975 0 -0.28368315898475188 -0.1205679176925603 0 -0.30807566230962469 -0.12087427087378499 0 -0.28368315898475188 -0.1205679176925603 0 -0.29137344231852969 -0.1063755175941712 0 -0.30807566230962469 -0.12087427087378499 0 -0.27676276389741278 -0.11052104179975 0 -0.28368315898475188 -0.1205679176925603 0 -0.29137344231852969 -0.1063755175941712 0 -0.28368315898475188 -0.1205679176925603 0 -0.29137344231852969 -0.1063755175941712 0 -0.29137344231852969 -0.1063755175941712 0 -0.28208733676033698 -0.099544680508420066 0 -0.29906372565230788 -0.092183117495782341 0 -0.28208733676033698 -0.099544680508420066 0 -0.29906372565230788 -0.092183117495782341 0 -0.27676276389741278 -0.11052104179975 0 -0.29137344231852969 -0.1063755175941712 0 -0.28208733676033698 -0.099544680508420066 0 -0.29137344231852969 -0.1063755175941712 0 -0.29906372565230788 -0.092183117495782341 0 -0.30690970986333499 -0.10413412755240679 0 -0.29906372565230788 -0.092183117495782341 0 -0.31411573014289268 -0.085656035662949492 0 -0.29137344231852969 -0.1063755175941712 0 -0.30690970986333499 -0.10413412755240679 0 -0.29906372565230788 -0.092183117495782341 0 -0.28368315898475188 -0.1205679176925603 0 -0.30807566230962469 -0.12087427087378499 0 -0.30140371581860798 -0.1292511186866305 0 -0.29137344231852969 -0.1063755175941712 0 -0.30690970986333499 -0.10413412755240679 0 -0.30807566230962469 -0.12087427087378499 0 -0.29557893925590151 -0.069462416794053169 0 -0.28634330733871821 -0.075869823829162894 0 -0.29528406594296941 -0.079953964946478426 0 -0.28660483069534037 -0.061918496488246169 0 -0.29557893925590151 -0.069462416794053169 0 -0.28634330733871821 -0.075869823829162894 0 -0.28660483069534037 -0.061918496488246169 0 -0.27411142324960069 -0.07331497732508381 0 -0.28634330733871821 -0.075869823829162894 0 -0.27622487875609619 -0.085738752979791055 0 -0.28634330733871821 -0.075869823829162894 0 -0.28693891673241251 -0.08747755748016231 0 -0.28208733676033698 -0.099544680508420066 0 -0.28693891673241251 -0.08747755748016231 0 -0.29906372565230788 -0.092183117495782341 0 -0.27622487875609619 -0.085738752979791055 0 -0.28208733676033698 -0.099544680508420066 0 -0.28693891673241251 -0.08747755748016231 0 -0.28693891673241251 -0.08747755748016231 0 -0.29528406594296941 -0.079953964946478426 0 -0.29906372565230788 -0.092183117495782341 0 -0.28634330733871821 -0.075869823829162894 0 -0.28693891673241251 -0.08747755748016231 0 -0.29528406594296941 -0.079953964946478426 0 -0.29528406594296941 -0.079953964946478426 0 -0.29906372565230788 -0.092183117495782341 0 -0.30849544073550722 -0.074776909133231664 0 -0.29906372565230788 -0.092183117495782341 0 -0.30849544073550722 -0.074776909133231664 0 -0.29906372565230788 -0.092183117495782341 0 -0.30849544073550722 -0.074776909133231664 0 -0.31411573014289268 -0.085656035662949492 0 -0.29906372565230788 -0.092183117495782341 0 -0.31411573014289268 -0.085656035662949492 0 -0.30849544073550722 -0.074776909133231664 0 -0.31411573014289268 -0.085656035662949492 0 -0.30229462048881822 -0.056161209871372138 0 -0.30849544073550722 -0.074776909133231664 0 -0.31178497446605258 -0.064623658022855565 0 -0.29850594913894141 -0.055440370537233663 0 -0.29557893925590151 -0.069462416794053169 0 -0.30849544073550722 -0.074776909133231664 0 -0.30849544073550722 -0.074776909133231664 0 -0.31286059459191501 -0.066721027791507209 0 -0.29850594913894141 -0.055440370537233663 0 -0.30849544073550722 -0.074776909133231664 0 -0.29557893925590151 -0.069462416794053169 0 -0.29528406594296941 -0.079953964946478426 0 -0.30849544073550722 -0.074776909133231664 0 -0.30849544073550722 -0.074776909133231664 0 -0.31178497446605258 -0.064623658022855565 0 -0.31286059459191501 -0.066721027791507209 0 -0.31178497446605258 -0.064623658022855565 0 -0.31286059459191501 -0.066721027791507209 0 -0.31286059459191501 -0.066721027791507209 0 -0.32103296817657878 -0.082656476452658639 0 -0.31286059459191501 -0.066721027791507209 0 -0.32103296817657878 -0.082656476452658639 0 -0.32352590008436471 -0.062378140209921912 0 -0.31178497446605258 -0.064623658022855565 0 -0.31286059459191501 -0.066721027791507209 0 -0.31629816603535338 -0.060261719535131632 0 -0.30849544073550722 -0.074776909133231664 0 -0.31286059459191501 -0.066721027791507209 0 -0.32103296817657878 -0.082656476452658639 0 -0.31286059459191501 -0.066721027791507209 0 -0.31629816603535338 -0.060261719535131632 0 -0.31286059459191501 -0.066721027791507209 0 -0.31629816603535338 -0.060261719535131632 0 -0.32352590008436471 -0.062378140209921912 0 -0.32103296817657878 -0.082656476452658639 0 -0.33093834944883532 -0.101971145942244 0 -0.30849544073550722 -0.074776909133231664 0 -0.31411573014289268 -0.085656035662949492 0 -0.32103296817657878 -0.082656476452658639 0 -0.31411573014289268 -0.085656035662949492 0 -0.32103296817657878 -0.082656476452658639 0 -0.32329194788869442 -0.1034183298589804 0 -0.31411573014289268 -0.085656035662949492 0 -0.32103296817657878 -0.082656476452658639 0 -0.32103296817657878 -0.082656476452658639 0 -0.33692687914299491 -0.089632102483736459 0 -0.33093834944883532 -0.101971145942244 0 -0.32103296817657878 -0.082656476452658639 0 -0.33692687914299491 -0.089632102483736459 0 -0.3453529791357649 -0.07211045902320197 0 -0.32103296817657878 -0.082656476452658639 0 -0.3453529791357649 -0.07211045902320197 0 -0.32352590008436471 -0.062378140209921912 0 -0.34475717967991132 -0.068595070548471249 0 -0.3453529791357649 -0.07211045902320197 0 -0.32352590008436471 -0.062378140209921912 0 -0.34475717967991132 -0.068595070548471249 0 -0.32352590008436471 -0.062378140209921912 0 -0.32103296817657878 -0.082656476452658639 0 -0.3453529791357649 -0.07211045902320197 0 -0.30807566230962469 -0.12087427087378499 0 -0.32329194788869442 -0.1034183298589804 0 -0.33246816563449738 -0.1211806240550105 0 -0.30807566230962469 -0.12087427087378499 0 -0.33246816563449738 -0.1211806240550105 0 -0.30807566230962469 -0.12087427087378499 0 -0.32007374605487132 -0.12494213909402439 0 -0.33246816563449738 -0.1211806240550105 0 -0.30690970986333499 -0.10413412755240679 0 -0.30807566230962469 -0.12087427087378499 0 -0.32329194788869442 -0.1034183298589804 0 -0.32329194788869442 -0.1034183298589804 0 -0.33246816563449738 -0.1211806240550105 0 -0.32007374605487132 -0.12494213909402439 0 -0.33441303965894859 -0.1249452932850653 0 -0.30690970986333499 -0.10413412755240679 0 -0.31411573014289268 -0.085656035662949492 0 -0.32329194788869442 -0.1034183298589804 0 -0.32103296817657878 -0.082656476452658639 0 -0.32329194788869442 -0.1034183298589804 0 -0.33093834944883532 -0.101971145942244 0 -0.31411573014289268 -0.085656035662949492 0 -0.32329194788869442 -0.1034183298589804 0 -0.32329194788869442 -0.1034183298589804 0 -0.33093834944883532 -0.101971145942244 0 -0.33246816563449738 -0.1211806240550105 0 -0.33692687914299491 -0.089632102483736459 0 -0.33093834944883532 -0.101971145942244 0 -0.35038321981080389 -0.10179032851684799 0 -0.33093834944883532 -0.101971145942244 0 -0.34773438721257438 -0.1121772477149196 0 -0.35038321981080389 -0.10179032851684799 0 -0.33093834944883532 -0.101971145942244 0 -0.3408437307210912 -0.1212858154318297 0 -0.33093834944883532 -0.101971145942244 0 -0.3408437307210912 -0.1212858154318297 0 -0.33246816563449738 -0.1211806240550105 0 -0.33093834944883532 -0.101971145942244 0 -0.3408437307210912 -0.1212858154318297 0 -0.34773438721257438 -0.1121772477149196 0 -0.34272140335036932 -0.124947120862287 0 -0.3408437307210912 -0.1212858154318297 0 -0.33441303965894859 -0.1249452932850653 0 -0.3408437307210912 -0.1212858154318297 0 -0.33246816563449738 -0.1211806240550105 0 -0.34272140335036932 -0.124947120862287 0 -0.33441303965894859 -0.1249452932850653 0 -0.34272140335036932 -0.124947120862287 0 -0.3408437307210912 -0.1212858154318297 0 -0.32007374605487132 -0.12494213909402439 0 -0.33441303965894859 -0.1249452932850653 0 -0.33246816563449738 -0.1211806240550105 0 -0.3408437307210912 -0.1212858154318297 0 -0.33441303965894859 -0.1249452932850653 0 -0.33246816563449738 -0.1211806240550105 0 -0.33441303965894859 -0.1249452932850653 0 -0.33246816563449738 -0.1211806240550105 0 -0.34272140335036932 -0.124947120862287 0 -0.35433435295871402 -0.1214552484327875 0 -0.36893450279197471 -0.1249528869149899 0 -0.34272140335036932 -0.124947120862287 0 -0.36893450279197471 -0.1249528869149899 0 -0.3408437307210912 -0.1212858154318297 0 -0.35433435295871402 -0.1214552484327875 0 -0.3408437307210912 -0.1212858154318297 0 -0.35433435295871402 -0.1214552484327875 0 -0.34773438721257438 -0.1121772477149196 0 -0.34272140335036932 -0.124947120862287 0 -0.3408437307210912 -0.1212858154318297 0 -0.35433435295871402 -0.1214552484327875 0 -0.35433435295871402 -0.1214552484327875 0 -0.34773438721257438 -0.1121772477149196 0 -0.3623387343604032 -0.1125517513480446 0 -0.34773438721257438 -0.1121772477149196 0 -0.35038321981080389 -0.10179032851684799 0 -0.3623387343604032 -0.1125517513480446 0 -0.37380044498630338 -0.100392191664622 0 -0.3623387343604032 -0.1125517513480446 0 -0.3789649235099295 -0.11270856972454819 0 -0.35038321981080389 -0.10179032851684799 0 -0.37380044498630338 -0.100392191664622 0 -0.36747037526515469 -0.088210616938563927 0 -0.35038321981080389 -0.10179032851684799 0 -0.37380044498630338 -0.100392191664622 0 -0.3623387343604032 -0.1125517513480446 0 -0.3623387343604032 -0.1125517513480446 0 -0.36893450279197471 -0.1249528869149899 0 -0.3789649235099295 -0.11270856972454819 0 -0.35433435295871402 -0.1214552484327875 0 -0.3623387343604032 -0.1125517513480446 0 -0.36893450279197471 -0.1249528869149899 0 -0.34995192587724822 -0.070116192960804249 0 -0.35645509357982358 -0.081628608772215283 0 -0.36843110820579178 -0.075527255856609146 0 -0.34995192587724822 -0.070116192960804249 0 -0.36608399240098949 -0.063120758007335118 0 -0.35494834161021771 -0.06194377696909157 0 -0.34995192587724822 -0.070116192960804249 0 -0.36843110820579178 -0.075527255856609146 0 -0.34995192587724822 -0.070116192960804249 0 -0.36608399240098949 -0.063120758007335118 0 -0.34995192587724822 -0.070116192960804249 0 -0.34475717967991132 -0.068595070548471249 0 -0.35494834161021771 -0.06194377696909157 0 -0.34995192587724822 -0.070116192960804249 0 -0.34475717967991132 -0.068595070548471249 0 -0.34995192587724822 -0.070116192960804249 0 -0.34475717967991132 -0.068595070548471249 0 -0.3453529791357649 -0.07211045902320197 0 -0.34995192587724822 -0.070116192960804249 0 -0.3453529791357649 -0.07211045902320197 0 -0.34995192587724822 -0.070116192960804249 0 -0.3453529791357649 -0.07211045902320197 0 -0.35645509357982358 -0.081628608772215283 0 -0.34475717967991132 -0.068595070548471249 0 -0.3453529791357649 -0.07211045902320197 0 -0.35038321981080389 -0.10179032851684799 0 -0.35645509357982358 -0.081628608772215283 0 -0.36747037526515469 -0.088210616938563927 0 -0.35038321981080389 -0.10179032851684799 0 -0.3453529791357649 -0.07211045902320197 0 -0.35645509357982358 -0.081628608772215283 0 -0.33692687914299491 -0.089632102483736459 0 -0.35038321981080389 -0.10179032851684799 0 -0.3453529791357649 -0.07211045902320197 0 -0.35038321981080389 -0.10179032851684799 0 -0.3453529791357649 -0.07211045902320197 0 -0.36747037526515469 -0.088210616938563927 0 -0.36843110820579178 -0.075527255856609146 0 -0.38691029053433551 -0.080938318752413793 0 -0.35645509357982358 -0.081628608772215283 0 -0.36747037526515469 -0.088210616938563927 0 -0.36843110820579178 -0.075527255856609146 0 -0.34995192587724822 -0.070116192960804249 0 -0.36843110820579178 -0.075527255856609146 0 -0.36608399240098949 -0.063120758007335118 0 -0.36843110820579178 -0.075527255856609146 0 -0.36608399240098949 -0.063120758007335118 0 -0.37978412082390189 -0.068029865631836883 0 -0.36608399240098949 -0.063120758007335118 0 -0.37085155020467431 -0.050438611479832557 0 -0.38221605892473098 -0.056125323053866277 0 -0.36608399240098949 -0.063120758007335118 0 -0.38221605892473098 -0.056125323053866277 0 -0.37085155020467431 -0.050438611479832557 0 -0.36177701350261748 -0.054750595911384127 0 -0.36329546327126672 -0.041142767418341691 0 -0.36608399240098949 -0.063120758007335118 0 -0.36177701350261748 -0.054750595911384127 0 -0.35494834161021771 -0.06194377696909157 0 -0.36608399240098949 -0.063120758007335118 0 -0.37085155020467431 -0.050438611479832557 0 -0.36177701350261748 -0.054750595911384127 0 -0.36177701350261748 -0.054750595911384127 0 -0.35494834161021771 -0.06194377696909157 0 -0.35217159659032232 -0.05313626741746251 0 -0.34475717967991132 -0.068595070548471249 0 -0.35217159659032232 -0.05313626741746251 0 -0.34008173660725832 -0.04100860914713586 0 -0.36177701350261748 -0.054750595911384127 0 -0.35217159659032232 -0.05313626741746251 0 -0.36329546327126672 -0.041142767418341691 0 -0.34475717967991132 -0.068595070548471249 0 -0.35494834161021771 -0.06194377696909157 0 -0.35217159659032232 -0.05313626741746251 0 -0.35217159659032232 -0.05313626741746251 0 -0.35233090603521772 -0.034345905606361089 0 -0.36329546327126672 -0.041142767418341691 0 -0.35217159659032232 -0.05313626741746251 0 -0.35233090603521772 -0.034345905606361089 0 -0.34008173660725832 -0.04100860914713586 0 -0.35233090603521772 -0.034345905606361089 0 -0.34677261788783459 -0.022263095799622792 0 -0.34008173660725832 -0.04100860914713586 0 -0.35233090603521772 -0.034345905606361089 0 -0.36329546327126672 -0.041142767418341691 0 -0.36125368123050811 -0.029816691131076791 0 -0.36329546327126672 -0.041142767418341691 0 -0.37015544225173291 -0.03012439130571171 0 -0.36125368123050811 -0.029816691131076791 0 -0.37085155020467431 -0.050438611479832557 0 -0.36329546327126672 -0.041142767418341691 0 -0.37439980638912518 -0.038891661293645137 0 -0.36329546327126672 -0.041142767418341691 0 -0.37439980638912518 -0.038891661293645137 0 -0.37015544225173291 -0.03012439130571171 0 -0.37439980638912518 -0.038891661293645137 0 -0.37015544225173291 -0.03012439130571171 0 -0.37866743010551202 -0.02906954498465647 0 -0.37015544225173291 -0.03012439130571171 0 -0.37402384376206249 -0.023759624541515059 0 -0.37866743010551202 -0.02906954498465647 0 -0.37015544225173291 -0.03012439130571171 0 -0.37402384376206249 -0.023759624541515059 0 -0.36652472594663232 -0.022500501643346649 0 -0.37402384376206249 -0.023759624541515059 0 -0.37465439862472261 -0.016787835852634068 0 -0.36652472594663232 -0.022500501643346649 0 -0.37465439862472261 -0.016787835852634068 0 -0.36652472594663232 -0.022500501643346649 0 -0.3596530522362773 -0.017262546391789129 0 -0.36652472594663232 -0.022500501643346649 0 -0.3596530522362773 -0.017262546391789129 0 -0.35649867437881472 -0.022585523222405649 0 -0.36652472594663232 -0.022500501643346649 0 -0.36125368123050811 -0.029816691131076791 0 -0.35649867437881472 -0.022585523222405649 0 -0.37015544225173291 -0.03012439130571171 0 -0.36652472594663232 -0.022500501643346649 0 -0.36125368123050811 -0.029816691131076791 0 -0.37465439862472261 -0.016787835852634068 0 -0.3596530522362773 -0.017262546391789129 0 -0.34857824671955512 -0.007874197240844389 0 -0.37465439862472261 -0.016787835852634068 0 -0.3597652811465577 -0.0058215117475868012 0 -0.34857824671955512 -0.007874197240844389 0 -0.37465439862472261 -0.016787835852634068 0 -0.34857824671955512 -0.007874197240844389 0 -0.37126952376897032 -0.00085078512189483576 0 -0.36867541047690239 -0.006920070417115203 0 -0.36494834593608783 -0.001298186014321303 0 -0.37126952376897032 -0.00085078512189483576 0 -0.37464851222799189 -0.0076089195940836872 0 -0.37774077980655368 -0.001289555558904682 0 -0.37126952376897032 -0.00085078512189483576 0 -0.37464851222799189 -0.0076089195940836872 0 -0.36867541047690239 -0.006920070417115203 0 -0.37465439862472261 -0.016787835852634068 0 -0.36867541047690239 -0.006920070417115203 0 -0.3597652811465577 -0.0058215117475868012 0 -0.37465439862472261 -0.016787835852634068 0 -0.37464851222799189 -0.0076089195940836872 0 -0.36867541047690239 -0.006920070417115203 0 -0.36867541047690239 -0.006920070417115203 0 -0.3597652811465577 -0.0058215117475868012 0 -0.36494834593608783 -0.001298186014321303 0 -0.3597652811465577 -0.0058215117475868012 0 -0.36494834593608783 -0.001298186014321303 0 -0.35900139338342918 0.0020097317905480609 0 -0.3597652811465577 -0.0058215117475868012 0 -0.35221409618436439 -0.0049109655465913588 0 -0.34857824671955512 -0.007874197240844389 0 -0.3597652811465577 -0.0058215117475868012 0 -0.35509488683577939 -0.0004162838960613095 0 -0.35900139338342918 0.0020097317905480609 0 -0.3597652811465577 -0.0058215117475868012 0 -0.35509488683577939 -0.0004162838960613095 0 -0.35221409618436439 -0.0049109655465913588 0 -0.3596530522362773 -0.017262546391789129 0 -0.34857824671955512 -0.007874197240844389 0 -0.35200921551166209 -0.0165646739997149 0 -0.34857824671955512 -0.007874197240844389 0 -0.34618108527798752 -0.01472783018749277 0 -0.35200921551166209 -0.0165646739997149 0 -0.35233090603521772 -0.034345905606361089 0 -0.36125368123050811 -0.029816691131076791 0 -0.35649867437881472 -0.022585523222405649 0 -0.35233090603521772 -0.034345905606361089 0 -0.35649867437881472 -0.022585523222405649 0 -0.34677261788783459 -0.022263095799622792 0 -0.35649867437881472 -0.022585523222405649 0 -0.35200921551166209 -0.0165646739997149 0 -0.34677261788783459 -0.022263095799622792 0 -0.3596530522362773 -0.017262546391789129 0 -0.35649867437881472 -0.022585523222405649 0 -0.35200921551166209 -0.0165646739997149 0 -0.34618108527798752 -0.01472783018749277 0 -0.35200921551166209 -0.0165646739997149 0 -0.34677261788783459 -0.022263095799622792 0 -0.33540629353460438 -0.01342214774580049 0 -0.31718310516035308 -0.038172790333745737 0 -0.34008173660725832 -0.04100860914713586 0 -0.33540629353460438 -0.01342214774580049 0 -0.34008173660725832 -0.04100860914713586 0 -0.34677261788783459 -0.022263095799622792 0 -0.33540629353460438 -0.01342214774580049 0 -0.34008173660725832 -0.04100860914713586 0 -0.34618108527798752 -0.01472783018749277 0 -0.34677261788783459 -0.022263095799622792 0 -0.33540629353460438 -0.01342214774580049 0 -0.33540629353460438 -0.01342214774580049 0 -0.3204068892458079 -0.0014125807301150939 0 -0.33073085046195078 0.01416431365553468 0 -0.34857824671955512 -0.007874197240844389 0 -0.33540629353460438 -0.01342214774580049 0 -0.33073085046195078 0.01416431365553468 0 -0.34857824671955512 -0.007874197240844389 0 -0.34618108527798752 -0.01472783018749277 0 -0.33540629353460438 -0.01342214774580049 0 -0.3025805037907468 -0.0027432771802810229 0 -0.31459326366374579 -0.01532774276474733 0 -0.3204068892458079 -0.0014125807301150939 0 -0.33540629353460438 -0.01342214774580049 0 -0.31459326366374579 -0.01532774276474733 0 -0.3204068892458079 -0.0014125807301150939 0 -0.33540629353460438 -0.01342214774580049 0 -0.31459326366374579 -0.01532774276474733 0 -0.31718310516035308 -0.038172790333745737 0 -0.31718310516035308 -0.038172790333745737 0 -0.3268834079531176 -0.05023453433316457 0 -0.34008173660725832 -0.04100860914713586 0 -0.31718310516035308 -0.038172790333745737 0 -0.31370341578724742 -0.051143824177853653 0 -0.3268834079531176 -0.05023453433316457 0 -0.31370341578724742 -0.051143824177853653 0 -0.31629816603535338 -0.060261719535131632 0 -0.32352590008436471 -0.062378140209921912 0 -0.31629816603535338 -0.060261719535131632 0 -0.32352590008436471 -0.062378140209921912 0 -0.32352590008436471 -0.062378140209921912 0 -0.3268834079531176 -0.05023453433316457 0 -0.33381205608116321 -0.055554088559673351 0 -0.31370341578724742 -0.051143824177853653 0 -0.32352590008436471 -0.062378140209921912 0 -0.3268834079531176 -0.05023453433316457 0 -0.34475717967991132 -0.068595070548471249 0 -0.32352590008436471 -0.062378140209921912 0 -0.33381205608116321 -0.055554088559673351 0 -0.34475717967991132 -0.068595070548471249 0 -0.33381205608116321 -0.055554088559673351 0 -0.34008173660725832 -0.04100860914713586 0 -0.3268834079531176 -0.05023453433316457 0 -0.33381205608116321 -0.055554088559673351 0 -0.34008173660725832 -0.04100860914713586 0 -0.34475717967991132 -0.068595070548471249 0 -0.34008173660725832 -0.04100860914713586 0 -0.29131753467172561 -0.25675805269722002 0 -0.30769212114973271 -0.24578220261295139 0 -0.29241592956139478 -0.23974284613727589 0 -0.30769212114973271 -0.24578220261295139 0 -0.30829656048542242 -0.23127198481015249 0 -0.29241592956139478 -0.23974284613727589 0 -0.30829656048542242 -0.23127198481015249 0 -0.29279532374442052 -0.2217612167757172 0 -0.3129652712195421 -0.2114706657937139 0 -0.30829656048542242 -0.23127198481015249 0 -0.29279532374442052 -0.2217612167757172 0 -0.29241592956139478 -0.23974284613727589 0 -0.29279532374442052 -0.2217612167757172 0 -0.29241592956139478 -0.23974284613727589 0 -0.27798049023744681 -0.23352671123603991 0 -0.29279532374442052 -0.2217612167757172 0 -0.27798049023744681 -0.23352671123603991 0 -0.27449661508218531 -0.21747639879007349 0 -0.29131753467172561 -0.25675805269722002 0 -0.29241592956139478 -0.23974284613727589 0 -0.27722523139620658 -0.24922189107985179 0 -0.29241592956139478 -0.23974284613727589 0 -0.27722523139620658 -0.24922189107985179 0 -0.27798049023744681 -0.23352671123603991 0 -0.27722523139620658 -0.24922189107985179 0 -0.25992972331208369 -0.2410680052130979 0 -0.27798049023744681 -0.23352671123603991 0 -0.26398002587916253 -0.25656090854441049 0 -0.27722523139620658 -0.24922189107985179 0 -0.25992972331208369 -0.2410680052130979 0 -0.25992972331208369 -0.2410680052130979 0 -0.25674041691710447 -0.22108212323078871 0 -0.27798049023744681 -0.23352671123603991 0 -0.2377451423251814 -0.23136366228574551 0 -0.25992972331208369 -0.2410680052130979 0 -0.25674041691710447 -0.22108212323078871 0 -0.25674041691710447 -0.22108212323078871 0 -0.27798049023744681 -0.23352671123603991 0 -0.27449661508218531 -0.21747639879007349 0 -0.27449661508218531 -0.21747639879007349 0 -0.25644706280453389 -0.1995927939493197 0 -0.27817485521465529 -0.19463925610534399 0 -0.27449661508218531 -0.21747639879007349 0 -0.27817485521465529 -0.19463925610534399 0 -0.25674041691710447 -0.22108212323078871 0 -0.27449661508218531 -0.21747639879007349 0 -0.25644706280453389 -0.1995927939493197 0 -0.25644706280453389 -0.1995927939493197 0 -0.27817485521465529 -0.19463925610534399 0 -0.26629571781906192 -0.18034234132084431 0 -0.27817485521465529 -0.19463925610534399 0 -0.29367807880863189 -0.20345752952089671 0 -0.29386082525749962 -0.1848532680646672 0 -0.27449661508218531 -0.21747639879007349 0 -0.27817485521465529 -0.19463925610534399 0 -0.29367807880863189 -0.20345752952089671 0 -0.29279532374442052 -0.2217612167757172 0 -0.27449661508218531 -0.21747639879007349 0 -0.29367807880863189 -0.20345752952089671 0 -0.29279532374442052 -0.2217612167757172 0 -0.29367807880863189 -0.20345752952089671 0 -0.3129652712195421 -0.2114706657937139 0 -0.29367807880863189 -0.20345752952089671 0 -0.30717411826112789 -0.1920401195635244 0 -0.29386082525749962 -0.1848532680646672 0 -0.29367807880863189 -0.20345752952089671 0 -0.30717411826112789 -0.1920401195635244 0 -0.3129652712195421 -0.2114706657937139 0 -0.30551265723832022 -0.17938492804960809 0 -0.29677214667513702 -0.1677956617280158 0 -0.29386082525749962 -0.1848532680646672 0 -0.30717411826112789 -0.1920401195635244 0 -0.30551265723832022 -0.17938492804960809 0 -0.29386082525749962 -0.1848532680646672 0 -0.30717411826112789 -0.1920401195635244 0 -0.30551265723832022 -0.17938492804960809 0 -0.31489114071409963 -0.18333745750317351 0 -0.30551265723832022 -0.17938492804960809 0 -0.31220508881165993 -0.16846949012138551 0 -0.29677214667513702 -0.1677956617280158 0 -0.30551265723832022 -0.17938492804960809 0 -0.31220508881165993 -0.16846949012138551 0 -0.31489114071409963 -0.18333745750317351 0 -0.31220508881165993 -0.16846949012138551 0 -0.2949530938874384 -0.15245549241185349 0 -0.31498630483336881 -0.15987728715749039 0 -0.31220508881165993 -0.16846949012138551 0 -0.2949530938874384 -0.15245549241185349 0 -0.31220508881165993 -0.16846949012138551 0 -0.29677214667513702 -0.1677956617280158 0 -0.2949530938874384 -0.15245549241185349 0 -0.28185309534712533 -0.17180211342061449 0 -0.28553133547959519 -0.14896497073588499 0 -0.29677214667513702 -0.1677956617280158 0 -0.28185309534712533 -0.17180211342061449 0 -0.2949530938874384 -0.15245549241185349 0 -0.28185309534712533 -0.17180211342061449 0 -0.28553133547959519 -0.14896497073588499 0 -0.2949530938874384 -0.15245549241185349 0 -0.27817485521465529 -0.19463925610534399 0 -0.28185309534712533 -0.17180211342061449 0 -0.29386082525749962 -0.1848532680646672 0 -0.29677214667513702 -0.1677956617280158 0 -0.28185309534712533 -0.17180211342061449 0 -0.29386082525749962 -0.1848532680646672 0 -0.27817485521465529 -0.19463925610534399 0 -0.28185309534712533 -0.17180211342061449 0 -0.27817485521465529 -0.19463925610534399 0 -0.28185309534712533 -0.17180211342061449 0 -0.26629571781906192 -0.18034234132084431 0 -0.26629571781906192 -0.18034234132084431 0 -0.25029992488695979 -0.1782534950292988 0 -0.25761979100978533 -0.16665415002795461 0 -0.25644706280453389 -0.1995927939493197 0 -0.26629571781906192 -0.18034234132084431 0 -0.25029992488695979 -0.1782534950292988 0 -0.26629571781906192 -0.18034234132084431 0 -0.25761979100978533 -0.16665415002795461 0 -0.26933386928146391 -0.16300442301689841 0 -0.24825300788518309 -0.1555077779107997 0 -0.25761979100978533 -0.16665415002795461 0 -0.26108146703715113 -0.15708396540124031 0 -0.25761979100978533 -0.16665415002795461 0 -0.26108146703715113 -0.15708396540124031 0 -0.26933386928146391 -0.16300442301689841 0 -0.28185309534712533 -0.17180211342061449 0 -0.27598770130958522 -0.15333886838191951 0 -0.28553133547959519 -0.14896497073588499 0 -0.28185309534712533 -0.17180211342061449 0 -0.26629571781906192 -0.18034234132084431 0 -0.26933386928146391 -0.16300442301689841 0 -0.26108146703715113 -0.15708396540124031 0 -0.26933386928146391 -0.16300442301689841 0 -0.26726071412102442 -0.15087550168963329 0 -0.28185309534712533 -0.17180211342061449 0 -0.26933386928146391 -0.16300442301689841 0 -0.27598770130958522 -0.15333886838191951 0 -0.27598770130958522 -0.15333886838191951 0 -0.271177428866754 -0.14364721368904659 0 -0.28553133547959519 -0.14896497073588499 0 -0.271177428866754 -0.14364721368904659 0 -0.28662611268527088 -0.1421678116724244 0 -0.28553133547959519 -0.14896497073588499 0 -0.271177428866754 -0.14364721368904659 0 -0.28553133547959519 -0.14896497073588499 0 -0.271177428866754 -0.14364721368904659 0 -0.26726071412102442 -0.15087550168963329 0 -0.25891484533836889 -0.13910423861407881 0 -0.271177428866754 -0.14364721368904659 0 -0.26726071412102442 -0.15087550168963329 0 -0.27598770130958522 -0.15333886838191951 0 -0.271177428866754 -0.14364721368904659 0 -0.26726071412102442 -0.15087550168963329 0 -0.26933386928146391 -0.16300442301689841 0 -0.27598770130958522 -0.15333886838191951 0 -0.26726071412102442 -0.15087550168963329 0 -0.2405789555143194 -0.1375116727892334 0 -0.25601133851015478 -0.1487044986697981 0 -0.25891484533836889 -0.13910423861407881 0 -0.26108146703715113 -0.15708396540124031 0 -0.26726071412102442 -0.15087550168963329 0 -0.25601133851015478 -0.1487044986697981 0 -0.271177428866754 -0.14364721368904659 0 -0.25891484533836889 -0.13910423861407881 0 -0.26726071412102442 -0.15087550168963329 0 -0.25601133851015478 -0.1487044986697981 0 -0.25891484533836889 -0.13910423861407881 0 -0.24825300788518309 -0.1555077779107997 0 -0.26108146703715113 -0.15708396540124031 0 -0.25601133851015478 -0.1487044986697981 0 -0.26009747564537128 -0.1202716976192799 0 -0.25054446979338107 -0.12912519928877991 0 -0.26697405985724948 -0.1304210152969853 0 -0.25054446979338107 -0.12912519928877991 0 -0.25891484533836889 -0.13910423861407881 0 -0.26697405985724948 -0.1304210152969853 0 -0.2405789555143194 -0.1375116727892334 0 -0.25054446979338107 -0.12912519928877991 0 -0.25891484533836889 -0.13910423861407881 0 -0.28368315898475188 -0.1205679176925603 0 -0.271177428866754 -0.14364721368904659 0 -0.26697405985724948 -0.1304210152969853 0 -0.28368315898475188 -0.1205679176925603 0 -0.271177428866754 -0.14364721368904659 0 -0.28514813781506088 -0.1345929107172644 0 -0.28368315898475188 -0.1205679176925603 0 -0.271177428866754 -0.14364721368904659 0 -0.271177428866754 -0.14364721368904659 0 -0.25891484533836889 -0.13910423861407881 0 -0.26697405985724948 -0.1304210152969853 0 -0.271177428866754 -0.14364721368904659 0 -0.28514813781506088 -0.1345929107172644 0 -0.28662611268527088 -0.1421678116724244 0 -0.28368315898475188 -0.1205679176925603 0 -0.29492821592448881 -0.13453805291007029 0 -0.28514813781506088 -0.1345929107172644 0 -0.28368315898475188 -0.1205679176925603 0 -0.29492821592448881 -0.13453805291007029 0 -0.30140371581860798 -0.1292511186866305 0 -0.29492821592448881 -0.13453805291007029 0 -0.2912775948780732 -0.1389862943003273 0 -0.28514813781506088 -0.1345929107172644 0 -0.29657756063899582 -0.140013172184488 0 -0.29492821592448881 -0.13453805291007029 0 -0.2912775948780732 -0.1389862943003273 0 -0.2912775948780732 -0.1389862943003273 0 -0.28514813781506088 -0.1345929107172644 0 -0.28662611268527088 -0.1421678116724244 0 -0.28662611268527088 -0.1421678116724244 0 -0.28553133547959519 -0.14896497073588499 0 -0.28662611268527088 -0.1421678116724244 0 -0.28553133547959519 -0.14896497073588499 0 -0.28937009998544028 -0.14621975116982991 0 -0.28553133547959519 -0.14896497073588499 0 -0.2922536480049423 -0.1499497578362777 0 -0.28937009998544028 -0.14621975116982991 0 -0.28553133547959519 -0.14896497073588499 0 -0.2922536480049423 -0.1499497578362777 0 -0.2949530938874384 -0.15245549241185349 0 -0.28553133547959519 -0.14896497073588499 0 -0.2949530938874384 -0.15245549241185349 0 -0.2922536480049423 -0.1499497578362777 0 -0.2949530938874384 -0.15245549241185349 0 -0.29617843115691228 -0.14802272380236281 0 -0.2922536480049423 -0.1499497578362777 0 -0.2949530938874384 -0.15245549241185349 0 -0.2912775948780732 -0.1389862943003273 0 -0.28662611268527088 -0.1421678116724244 0 -0.29310794732654949 -0.1436195240173895 0 -0.28662611268527088 -0.1421678116724244 0 -0.28937009998544028 -0.14621975116982991 0 -0.29310794732654949 -0.1436195240173895 0 -0.2922536480049423 -0.1499497578362777 0 -0.28937009998544028 -0.14621975116982991 0 -0.29310794732654949 -0.1436195240173895 0 -0.29617843115691228 -0.14802272380236281 0 -0.29310794732654949 -0.1436195240173895 0 -0.29956135480037449 -0.14472193576336759 0 -0.2922536480049423 -0.1499497578362777 0 -0.29617843115691228 -0.14802272380236281 0 -0.29310794732654949 -0.1436195240173895 0 -0.29657756063899582 -0.140013172184488 0 -0.2912775948780732 -0.1389862943003273 0 -0.29310794732654949 -0.1436195240173895 0 -0.29657756063899582 -0.140013172184488 0 -0.29310794732654949 -0.1436195240173895 0 -0.29956135480037449 -0.14472193576336759 0 -0.29956135480037449 -0.14472193576336759 0 -0.30554397810907652 -0.146919348525368 0 -0.30456114821214081 -0.13888567554976469 0 -0.2949530938874384 -0.15245549241185349 0 -0.30620642865757891 -0.15285211384445899 0 -0.31498630483336881 -0.15987728715749039 0 -0.2949530938874384 -0.15245549241185349 0 -0.31498630483336881 -0.15987728715749039 0 -0.29657756063899582 -0.140013172184488 0 -0.29956135480037449 -0.14472193576336759 0 -0.30456114821214081 -0.13888567554976469 0 -0.29617843115691228 -0.14802272380236281 0 -0.29956135480037449 -0.14472193576336759 0 -0.30052761464898298 -0.14908162957255741 0 -0.29956135480037449 -0.14472193576336759 0 -0.30052761464898298 -0.14908162957255741 0 -0.30554397810907652 -0.146919348525368 0 -0.2949530938874384 -0.15245549241185349 0 -0.30052761464898298 -0.14908162957255741 0 -0.30620642865757891 -0.15285211384445899 0 -0.2949530938874384 -0.15245549241185349 0 -0.29617843115691228 -0.14802272380236281 0 -0.30052761464898298 -0.14908162957255741 0 -0.30052761464898298 -0.14908162957255741 0 -0.30620642865757891 -0.15285211384445899 0 -0.30554397810907652 -0.146919348525368 0 -0.30620642865757891 -0.15285211384445899 0 -0.31211863317072019 -0.1538765410016501 0 -0.31498630483336881 -0.15987728715749039 0 -0.30620642865757891 -0.15285211384445899 0 -0.31071230574427161 -0.15022116190891349 0 -0.30554397810907652 -0.146919348525368 0 -0.30620642865757891 -0.15285211384445899 0 -0.31071230574427161 -0.15022116190891349 0 -0.31211863317072019 -0.1538765410016501 0 -0.31246836027323899 -0.14497521722301901 0 -0.31246708178415561 -0.13872402753426441 0 -0.30456114821214081 -0.13888567554976469 0 -0.30554397810907652 -0.146919348525368 0 -0.31246836027323899 -0.14497521722301901 0 -0.30456114821214081 -0.13888567554976469 0 -0.31071230574427161 -0.15022116190891349 0 -0.30554397810907652 -0.146919348525368 0 -0.31246836027323899 -0.14497521722301901 0 -0.30140371581860798 -0.1292511186866305 0 -0.30456114821214081 -0.13888567554976469 0 -0.31280589771709483 -0.13181614145056869 0 -0.31246708178415561 -0.13872402753426441 0 -0.30456114821214081 -0.13888567554976469 0 -0.31280589771709483 -0.13181614145056869 0 -0.30807566230962469 -0.12087427087378499 0 -0.30140371581860798 -0.1292511186866305 0 -0.31280589771709483 -0.13181614145056869 0 -0.29657756063899582 -0.140013172184488 0 -0.29492821592448881 -0.13453805291007029 0 -0.30456114821214081 -0.13888567554976469 0 -0.29492821592448881 -0.13453805291007029 0 -0.30140371581860798 -0.1292511186866305 0 -0.30456114821214081 -0.13888567554976469 0 -0.3226930215385343 -0.13395567837890529 0 -0.31855308997834159 -0.13934265221991729 0 -0.32506280578504959 -0.14064102607364051 0 -0.3226930215385343 -0.13395567837890529 0 -0.32506280578504959 -0.14064102607364051 0 -0.33047387389575927 -0.1369340691945744 0 -0.3226930215385343 -0.13395567837890529 0 -0.32807010768985068 -0.12986880773923029 0 -0.33047387389575927 -0.1369340691945744 0 -0.32007374605487132 -0.12494213909402439 0 -0.33441303965894859 -0.1249452932850653 0 -0.32807010768985068 -0.12986880773923029 0 -0.32007374605487132 -0.12494213909402439 0 -0.3226930215385343 -0.13395567837890529 0 -0.32807010768985068 -0.12986880773923029 0 -0.32007374605487132 -0.12494213909402439 0 -0.3226930215385343 -0.13395567837890529 0 -0.31280589771709483 -0.13181614145056869 0 -0.30807566230962469 -0.12087427087378499 0 -0.32007374605487132 -0.12494213909402439 0 -0.31280589771709483 -0.13181614145056869 0 -0.3226930215385343 -0.13395567837890529 0 -0.31280589771709483 -0.13181614145056869 0 -0.31855308997834159 -0.13934265221991729 0 -0.31246708178415561 -0.13872402753426441 0 -0.31280589771709483 -0.13181614145056869 0 -0.31855308997834159 -0.13934265221991729 0 -0.31246836027323899 -0.14497521722301901 0 -0.31246708178415561 -0.13872402753426441 0 -0.31855308997834159 -0.13934265221991729 0 -0.31246836027323899 -0.14497521722301901 0 -0.31855308997834159 -0.13934265221991729 0 -0.32096396999162452 -0.14503749675666289 0 -0.31246836027323899 -0.14497521722301901 0 -0.31722412851074311 -0.15248258895007169 0 -0.32096396999162452 -0.14503749675666289 0 -0.31211863317072019 -0.1538765410016501 0 -0.31722412851074311 -0.15248258895007169 0 -0.31498630483336881 -0.15987728715749039 0 -0.31071230574427161 -0.15022116190891349 0 -0.31246836027323899 -0.14497521722301901 0 -0.31722412851074311 -0.15248258895007169 0 -0.31071230574427161 -0.15022116190891349 0 -0.31211863317072019 -0.1538765410016501 0 -0.31722412851074311 -0.15248258895007169 0 -0.32096396999162452 -0.14503749675666289 0 -0.32506280578504959 -0.14064102607364051 0 -0.33039285730051032 -0.1475567648151897 0 -0.31722412851074311 -0.15248258895007169 0 -0.32096396999162452 -0.14503749675666289 0 -0.33039285730051032 -0.1475567648151897 0 -0.31855308997834159 -0.13934265221991729 0 -0.32096396999162452 -0.14503749675666289 0 -0.32506280578504959 -0.14064102607364051 0 -0.33039285730051032 -0.1475567648151897 0 -0.33813688440009898 -0.15615522653291031 0 -0.34198145815712638 -0.1395953898376964 0 -0.32506280578504959 -0.14064102607364051 0 -0.33039285730051032 -0.1475567648151897 0 -0.33047387389575927 -0.1369340691945744 0 -0.31722412851074311 -0.15248258895007169 0 -0.33039285730051032 -0.1475567648151897 0 -0.33813688440009898 -0.15615522653291031 0 -0.33039285730051032 -0.1475567648151897 0 -0.34198145815712638 -0.1395953898376964 0 -0.33047387389575927 -0.1369340691945744 0 -0.33813688440009898 -0.15615522653291031 0 -0.34198145815712638 -0.1395953898376964 0 -0.34954987665533299 -0.15424548639031271 0 -0.34198145815712638 -0.1395953898376964 0 -0.3337346198504213 -0.1328358900141379 0 -0.33047387389575927 -0.1369340691945744 0 -0.32807010768985068 -0.12986880773923029 0 -0.3337346198504213 -0.1328358900141379 0 -0.33047387389575927 -0.1369340691945744 0 -0.33441303965894859 -0.1249452932850653 0 -0.32807010768985068 -0.12986880773923029 0 -0.3337346198504213 -0.1328358900141379 0 -0.33441303965894859 -0.1249452932850653 0 -0.34198145815712638 -0.1395953898376964 0 -0.34272140335036932 -0.124947120862287 0 -0.33441303965894859 -0.1249452932850653 0 -0.34198145815712638 -0.1395953898376964 0 -0.33441303965894859 -0.1249452932850653 0 -0.34198145815712638 -0.1395953898376964 0 -0.3337346198504213 -0.1328358900141379 0 -0.34272140335036932 -0.124947120862287 0 -0.35413341494744088 -0.14719959415449421 0 -0.34272140335036932 -0.124947120862287 0 -0.35599685079288468 -0.13305792836185981 0 -0.35413341494744088 -0.14719959415449421 0 -0.34272140335036932 -0.124947120862287 0 -0.34198145815712638 -0.1395953898376964 0 -0.35413341494744088 -0.14719959415449421 0 -0.34272140335036932 -0.124947120862287 0 -0.36893450279197471 -0.1249528869149899 0 -0.35599685079288468 -0.13305792836185981 0 -0.35599685079288468 -0.13305792836185981 0 -0.36484224068191412 -0.14157370685753851 0 -0.35413341494744088 -0.14719959415449421 0 -0.36893450279197471 -0.1249528869149899 0 -0.35599685079288468 -0.13305792836185981 0 -0.36484224068191412 -0.14157370685753851 0 -0.36893450279197471 -0.1249528869149899 0 -0.36484224068191412 -0.14157370685753851 0 -0.3777566452334315 -0.14913711856379011 0 -0.3679743334396014 -0.15408772885571331 0 -0.37696591512674532 -0.1609827341034305 0 -0.3777566452334315 -0.14913711856379011 0 -0.3679743334396014 -0.15408772885571331 0 -0.36484224068191412 -0.14157370685753851 0 -0.3777566452334315 -0.14913711856379011 0 -0.3679743334396014 -0.15408772885571331 0 -0.36484224068191412 -0.14157370685753851 0 -0.35413341494744088 -0.14719959415449421 0 -0.35413341494744088 -0.14719959415449421 0 -0.34954987665533299 -0.15424548639031271 0 -0.35445721343992059 -0.1619675590177023 0 -0.34198145815712638 -0.1395953898376964 0 -0.34954987665533299 -0.15424548639031271 0 -0.34198145815712638 -0.1395953898376964 0 -0.35413341494744088 -0.14719959415449421 0 -0.34954987665533299 -0.15424548639031271 0 -0.33813688440009898 -0.15615522653291031 0 -0.34954987665533299 -0.15424548639031271 0 -0.34648545334868369 -0.16311147615285329 0 -0.34648545334868369 -0.16311147615285329 0 -0.35788001493839611 -0.17576831496813999 0 -0.33501951577929873 -0.16729908190312789 0 -0.34954987665533299 -0.15424548639031271 0 -0.34648545334868369 -0.16311147615285329 0 -0.35445721343992059 -0.1619675590177023 0 -0.35413341494744088 -0.14719959415449421 0 -0.35445721343992059 -0.1619675590177023 0 -0.36554542654456429 -0.16945206744667471 0 -0.35788001493839611 -0.17576831496813999 0 -0.33501951577929873 -0.16729908190312789 0 -0.34648545334868369 -0.16311147615285329 0 -0.35445721343992059 -0.1619675590177023 0 -0.35788001493839611 -0.17576831496813999 0 -0.35445721343992059 -0.1619675590177023 0 -0.36554542654456429 -0.16945206744667471 0 -0.35788001493839611 -0.17576831496813999 0 -0.35413341494744088 -0.14719959415449421 0 -0.36554542654456429 -0.16945206744667471 0 -0.3679743334396014 -0.15408772885571331 0 -0.35413341494744088 -0.14719959415449421 0 -0.36554542654456429 -0.16945206744667471 0 -0.3679743334396014 -0.15408772885571331 0 -0.36554542654456429 -0.16945206744667471 0 -0.37696591512674532 -0.1609827341034305 0 -0.37016556171889331 -0.18126023377528719 0 -0.3536864721015115 -0.18284124587119119 0 -0.37235342842372432 -0.19838340983925429 0 -0.36554542654456429 -0.16945206744667471 0 -0.37016556171889331 -0.18126023377528719 0 -0.38426477739238413 -0.17192867897072969 0 -0.37016556171889331 -0.18126023377528719 0 -0.3536864721015115 -0.18284124587119119 0 -0.35788001493839611 -0.17576831496813999 0 -0.36554542654456429 -0.16945206744667471 0 -0.37016556171889331 -0.18126023377528719 0 -0.35788001493839611 -0.17576831496813999 0 -0.3536864721015115 -0.18284124587119119 0 -0.33501951577929873 -0.16729908190312789 0 -0.3536864721015115 -0.18284124587119119 0 -0.35788001493839611 -0.17576831496813999 0 -0.33501951577929873 -0.16729908190312789 0 -0.3536864721015115 -0.18284124587119119 0 -0.32945708373588178 -0.18448348783091689 0 -0.33501951577929873 -0.16729908190312789 0 -0.31722412851074311 -0.15248258895007169 0 -0.33813688440009898 -0.15615522653291031 0 -0.33501951577929873 -0.16729908190312789 0 -0.33813688440009898 -0.15615522653291031 0 -0.34648545334868369 -0.16311147615285329 0 -0.33501951577929873 -0.16729908190312789 0 -0.31722412851074311 -0.15248258895007169 0 -0.33501951577929873 -0.16729908190312789 0 -0.31722412851074311 -0.15248258895007169 0 -0.33501951577929873 -0.16729908190312789 0 -0.31498630483336881 -0.15987728715749039 0 -0.31220508881165993 -0.16846949012138551 0 -0.33501951577929873 -0.16729908190312789 0 -0.31498630483336881 -0.15987728715749039 0 -0.33501951577929873 -0.16729908190312789 0 -0.31498630483336881 -0.15987728715749039 0 -0.31220508881165993 -0.16846949012138551 0 -0.32945708373588178 -0.18448348783091689 0 -0.31489114071409963 -0.18333745750317351 0 -0.31220508881165993 -0.16846949012138551 0 -0.32945708373588178 -0.18448348783091689 0 -0.31220508881165993 -0.16846949012138551 0 -0.32945708373588178 -0.18448348783091689 0 -0.33501951577929873 -0.16729908190312789 0 -0.32945708373588178 -0.18448348783091689 0 -0.31489114071409963 -0.18333745750317351 0 -0.32010675552350842 -0.19230926195043291 0 -0.30717411826112789 -0.1920401195635244 0 -0.32010675552350842 -0.19230926195043291 0 -0.3129652712195421 -0.2114706657937139 0 -0.32945708373588178 -0.18448348783091689 0 -0.32010675552350842 -0.19230926195043291 0 -0.32566449460190838 -0.20326261146105551 0 -0.32010675552350842 -0.19230926195043291 0 -0.3129652712195421 -0.2114706657937139 0 -0.32566449460190838 -0.20326261146105551 0 -0.30717411826112789 -0.1920401195635244 0 -0.31489114071409963 -0.18333745750317351 0 -0.32010675552350842 -0.19230926195043291 0 -0.3129652712195421 -0.2114706657937139 0 -0.32566449460190838 -0.20326261146105551 0 -0.33208474862113468 -0.21873250337862821 0 -0.33208474862113468 -0.21873250337862821 0 -0.34670907866010381 -0.20049748554044841 0 -0.34896881396179619 -0.22434135344573131 0 -0.32566449460190838 -0.20326261146105551 0 -0.33208474862113468 -0.21873250337862821 0 -0.34670907866010381 -0.20049748554044841 0 -0.3536864721015115 -0.18284124587119119 0 -0.32945708373588178 -0.18448348783091689 0 -0.34670907866010381 -0.20049748554044841 0 -0.32945708373588178 -0.18448348783091689 0 -0.32566449460190838 -0.20326261146105551 0 -0.34670907866010381 -0.20049748554044841 0 -0.32945708373588178 -0.18448348783091689 0 -0.34670907866010381 -0.20049748554044841 0 -0.3536864721015115 -0.18284124587119119 0 -0.35917751319241631 -0.19955840612521841 0 -0.34670907866010381 -0.20049748554044841 0 -0.3536864721015115 -0.18284124587119119 0 -0.37235342842372432 -0.19838340983925429 0 -0.3536864721015115 -0.18284124587119119 0 -0.35917751319241631 -0.19955840612521841 0 -0.37235342842372432 -0.19838340983925429 0 -0.37235342842372432 -0.19838340983925429 0 -0.36396107358432572 -0.21651148324997979 0 -0.37772562505684643 -0.22219038377974651 0 -0.35917751319241631 -0.19955840612521841 0 -0.37235342842372432 -0.19838340983925429 0 -0.36396107358432572 -0.21651148324997979 0 -0.34670907866010381 -0.20049748554044841 0 -0.36396107358432572 -0.21651148324997979 0 -0.34896881396179619 -0.22434135344573131 0 -0.34670907866010381 -0.20049748554044841 0 -0.36396107358432572 -0.21651148324997979 0 -0.35917751319241631 -0.19955840612521841 0 -0.34670907866010381 -0.20049748554044841 0 -0.36396107358432572 -0.21651148324997979 0 -0.34896881396179619 -0.22434135344573131 0 -0.36764811873304098 -0.23322730847002751 0 -0.35305879752332059 -0.24486073726717009 0 -0.36396107358432572 -0.21651148324997979 0 -0.36764811873304098 -0.23322730847002751 0 -0.37772562505684643 -0.22219038377974651 0 -0.36396107358432572 -0.21651148324997979 0 -0.34896881396179619 -0.22434135344573131 0 -0.36764811873304098 -0.23322730847002751 0 -0.37533687834285862 -0.25417213976024849 0 -0.36764811873304098 -0.23322730847002751 0 -0.35305879752332059 -0.24486073726717009 0 -0.34896881396179619 -0.22434135344573131 0 -0.35305879752332059 -0.24486073726717009 0 -0.33568364413539042 -0.23615154195274179 0 -0.33623326073948312 -0.25365348176558788 0 -0.33568364413539042 -0.23615154195274179 0 -0.32213598881581812 -0.2442700999577708 0 -0.33623326073948312 -0.25365348176558788 0 -0.35305879752332059 -0.24486073726717009 0 -0.33568364413539042 -0.23615154195274179 0 -0.33208474862113468 -0.21873250337862821 0 -0.33568364413539042 -0.23615154195274179 0 -0.32219037366776621 -0.22897372759534659 0 -0.33208474862113468 -0.21873250337862821 0 -0.34896881396179619 -0.22434135344573131 0 -0.33568364413539042 -0.23615154195274179 0 -0.30829656048542242 -0.23127198481015249 0 -0.3129652712195421 -0.2114706657937139 0 -0.32219037366776621 -0.22897372759534659 0 -0.3129652712195421 -0.2114706657937139 0 -0.33208474862113468 -0.21873250337862821 0 -0.32219037366776621 -0.22897372759534659 0 -0.30769212114973271 -0.24578220261295139 0 -0.30829656048542242 -0.23127198481015249 0 -0.32213598881581812 -0.2442700999577708 0 -0.30829656048542242 -0.23127198481015249 0 -0.32219037366776621 -0.22897372759534659 0 -0.32213598881581812 -0.2442700999577708 0 -0.31968345090478489 -0.25798973640781447 0 -0.30769212114973271 -0.24578220261295139 0 -0.32213598881581812 -0.2442700999577708 0 -0.33568364413539042 -0.23615154195274179 0 -0.32219037366776621 -0.22897372759534659 0 -0.32213598881581812 -0.2442700999577708 0 -0.43598079583492633 -0.24721882136819351 0 -0.42311134176242837 -0.2304528026464861 0 -0.41615383063077721 -0.2466412503256647 0 -0.43598079583492633 -0.24721882136819351 0 -0.42311134176242837 -0.2304528026464861 0 -0.43908324849522451 -0.2287046610080686 0 -0.42311134176242837 -0.2304528026464861 0 -0.41411505562058892 -0.2091502018577929 0 -0.42948217154750851 -0.21815887616964899 0 -0.42311134176242837 -0.2304528026464861 0 -0.42948217154750851 -0.21815887616964899 0 -0.43908324849522451 -0.2287046610080686 0 -0.42948217154750851 -0.21815887616964899 0 -0.43955036875351089 -0.21658504913102711 0 -0.43908324849522451 -0.2287046610080686 0 -0.40619246279161347 -0.2313797712556602 0 -0.41411505562058892 -0.2091502018577929 0 -0.42311134176242837 -0.2304528026464861 0 -0.40619246279161347 -0.2313797712556602 0 -0.41411505562058892 -0.2091502018577929 0 -0.39826986996263802 -0.25360934065352753 0 -0.41615383063077721 -0.2466412503256647 0 -0.40619246279161347 -0.2313797712556602 0 -0.42311134176242837 -0.2304528026464861 0 -0.41615383063077721 -0.2466412503256647 0 -0.40619246279161347 -0.2313797712556602 0 -0.39826986996263802 -0.25360934065352753 0 -0.38632210934187061 -0.2364082567837591 0 -0.40619246279161347 -0.2313797712556602 0 -0.39826986996263802 -0.25360934065352753 0 -0.40619246279161347 -0.2313797712556602 0 -0.37533687834285862 -0.25417213976024849 0 -0.36764811873304098 -0.23322730847002751 0 -0.38632210934187061 -0.2364082567837591 0 -0.37533687834285862 -0.25417213976024849 0 -0.39826986996263802 -0.25360934065352753 0 -0.38632210934187061 -0.2364082567837591 0 -0.36764811873304098 -0.23322730847002751 0 -0.38632210934187061 -0.2364082567837591 0 -0.37772562505684643 -0.22219038377974651 0 -0.38632210934187061 -0.2364082567837591 0 -0.37772562505684643 -0.22219038377974651 0 -0.39102038474593709 -0.2139255738073175 0 -0.38632210934187061 -0.2364082567837591 0 -0.40619246279161347 -0.2313797712556602 0 -0.39102038474593709 -0.2139255738073175 0 -0.39102038474593709 -0.2139255738073175 0 -0.40351751052996843 -0.1957217498792192 0 -0.41411505562058892 -0.2091502018577929 0 -0.40619246279161347 -0.2313797712556602 0 -0.39102038474593709 -0.2139255738073175 0 -0.41411505562058892 -0.2091502018577929 0 -0.37235342842372432 -0.19838340983925429 0 -0.39102038474593709 -0.2139255738073175 0 -0.37235342842372432 -0.19838340983925429 0 -0.37772562505684643 -0.22219038377974651 0 -0.39102038474593709 -0.2139255738073175 0 -0.37016556171889331 -0.18126023377528719 0 -0.37235342842372432 -0.19838340983925429 0 -0.38726325091278008 -0.18918768555573329 0 -0.37235342842372432 -0.19838340983925429 0 -0.39102038474593709 -0.2139255738073175 0 -0.38726325091278008 -0.18918768555573329 0 -0.38726325091278008 -0.18918768555573329 0 -0.40351751052996843 -0.1957217498792192 0 -0.40315121292097328 -0.17942465571532731 0 -0.39102038474593709 -0.2139255738073175 0 -0.38726325091278008 -0.18918768555573329 0 -0.40351751052996843 -0.1957217498792192 0 -0.41411505562058892 -0.2091502018577929 0 -0.42203764844956237 -0.18692063245992491 0 -0.40351751052996843 -0.1957217498792192 0 -0.41411505562058892 -0.2091502018577929 0 -0.42203764844956237 -0.18692063245992491 0 -0.41411505562058892 -0.2091502018577929 0 -0.42948217154750851 -0.21815887616964899 0 -0.43155084310578928 -0.2059016662048701 0 -0.42948217154750851 -0.21815887616964899 0 -0.43155084310578928 -0.2059016662048701 0 -0.43955036875351089 -0.21658504913102711 0 -0.42203764844956237 -0.18692063245992491 0 -0.44484374680150301 -0.19597231310248839 0 -0.41411505562058892 -0.2091502018577929 0 -0.43155084310578928 -0.2059016662048701 0 -0.42203764844956237 -0.18692063245992491 0 -0.43155084310578928 -0.2059016662048701 0 -0.42203764844956237 -0.18692063245992491 0 -0.44484374680150301 -0.19597231310248839 0 -0.42203764844956237 -0.18692063245992491 0 -0.44134853753678083 -0.18159229851429221 0 -0.44484374680150301 -0.19597231310248839 0 -0.42203764844956237 -0.18692063245992491 0 -0.42880774722037651 -0.1679247830322266 0 -0.42203764844956237 -0.18692063245992491 0 -0.42880774722037651 -0.1679247830322266 0 -0.44134853753678083 -0.18159229851429221 0 -0.42880774722037651 -0.1679247830322266 0 -0.43557784599118871 -0.14892893360452769 0 -0.44631139980808621 -0.1631836851414229 0 -0.42880774722037651 -0.1679247830322266 0 -0.43557784599118871 -0.14892893360452769 0 -0.42880774722037651 -0.1679247830322266 0 -0.41236960909879722 -0.16540507401591409 0 -0.42079860369606048 -0.15043713941075901 0 -0.42203764844956237 -0.18692063245992491 0 -0.42880774722037651 -0.1679247830322266 0 -0.41236960909879722 -0.16540507401591409 0 -0.40351751052996843 -0.1957217498792192 0 -0.42203764844956237 -0.18692063245992491 0 -0.40315121292097328 -0.17942465571532731 0 -0.42203764844956237 -0.18692063245992491 0 -0.40315121292097328 -0.17942465571532731 0 -0.42203764844956237 -0.18692063245992491 0 -0.41236960909879722 -0.16540507401591409 0 -0.40315121292097328 -0.17942465571532731 0 -0.38726325091278008 -0.18918768555573329 0 -0.40315121292097328 -0.17942465571532731 0 -0.38426477739238413 -0.17192867897072969 0 -0.40315121292097328 -0.17942465571532731 0 -0.38426477739238413 -0.17192867897072969 0 -0.37016556171889331 -0.18126023377528719 0 -0.38726325091278008 -0.18918768555573329 0 -0.38426477739238413 -0.17192867897072969 0 -0.36554542654456429 -0.16945206744667471 0 -0.38426477739238413 -0.17192867897072969 0 -0.37696591512674532 -0.1609827341034305 0 -0.38426477739238413 -0.17192867897072969 0 -0.37696591512674532 -0.1609827341034305 0 -0.39230106084837368 -0.15838844905994759 0 -0.40315121292097328 -0.17942465571532731 0 -0.38426477739238413 -0.17192867897072969 0 -0.39230106084837368 -0.15838844905994759 0 -0.41236960909879722 -0.16540507401591409 0 -0.39230106084837368 -0.15838844905994759 0 -0.40587711449475489 -0.1449624873806776 0 -0.41236960909879722 -0.16540507401591409 0 -0.40315121292097328 -0.17942465571532731 0 -0.39230106084837368 -0.15838844905994759 0 -0.39230106084837368 -0.15838844905994759 0 -0.39162863389564362 -0.14105630786861159 0 -0.40587711449475489 -0.1449624873806776 0 -0.39230106084837368 -0.15838844905994759 0 -0.39162863389564362 -0.14105630786861159 0 -0.3777566452334315 -0.14913711856379011 0 -0.37696591512674532 -0.1609827341034305 0 -0.39230106084837368 -0.15838844905994759 0 -0.3777566452334315 -0.14913711856379011 0 -0.36893450279197471 -0.1249528869149899 0 -0.39162863389564362 -0.14105630786861159 0 -0.3777566452334315 -0.14913711856379011 0 -0.36893450279197471 -0.1249528869149899 0 -0.39162863389564362 -0.14105630786861159 0 -0.39514760223357998 -0.1249586529677193 0 -0.39162863389564362 -0.14105630786861159 0 -0.40587711449475489 -0.1449624873806776 0 -0.39514760223357998 -0.1249586529677193 0 -0.40587711449475489 -0.1449624873806776 0 -0.39514760223357998 -0.1249586529677193 0 -0.42136070167518519 -0.1249644190204488 0 -0.40587711449475489 -0.1449624873806776 0 -0.42079860369606048 -0.15043713941075901 0 -0.42136070167518519 -0.1249644190204488 0 -0.41236960909879722 -0.16540507401591409 0 -0.40587711449475489 -0.1449624873806776 0 -0.42079860369606048 -0.15043713941075901 0 -0.42079860369606048 -0.15043713941075901 0 -0.43557784599118871 -0.14892893360452769 0 -0.42136070167518519 -0.1249644190204488 0 -0.42880774722037651 -0.1679247830322266 0 -0.42079860369606048 -0.15043713941075901 0 -0.43557784599118871 -0.14892893360452769 0 -0.43557784599118871 -0.14892893360452769 0 -0.42136070167518519 -0.1249644190204488 0 -0.44757380111679052 -0.12497018507317829 0 -0.43557784599118871 -0.14892893360452769 0 -0.45596445488588 -0.14427568033770541 0 -0.44757380111679052 -0.12497018507317829 0 -0.43557784599118871 -0.14892893360452769 0 -0.45596445488588 -0.14427568033770541 0 -0.44631139980808621 -0.1631836851414229 0 -0.45596445488588 -0.14427568033770541 0 -0.46278066629215481 -0.1610158872753634 0 -0.44631139980808621 -0.1631836851414229 0 -0.45596445488588 -0.14427568033770541 0 -0.47930750267908417 -0.1480635854121114 0 -0.46278066629215481 -0.1610158872753634 0 -0.45596445488588 -0.14427568033770541 0 -0.44757380111679052 -0.12497018507317829 0 -0.47378690055839578 -0.1249759511259078 0 -0.48827360080937021 -0.13531742911399189 0 -0.47930750267908417 -0.1480635854121114 0 -0.47378690055839578 -0.1249759511259078 0 -0.45596445488588 -0.14427568033770541 0 -0.47930750267908417 -0.1480635854121114 0 -0.47378690055839578 -0.1249759511259078 0 -0.48827360080937021 -0.13531742911399189 0 -0.5 -0.14324846273931111 0 -0.50000000000000111 -0.12498171717863731 0 -0.48827360080937021 -0.13531742911399189 0 -0.47378690055839578 -0.1249759511259078 0 -0.50000000000000111 -0.12498171717863731 0 -0.5 -0.14324846273931111 0 -0.47930750267908417 -0.1480635854121114 0 -0.49999999999999961 -0.161515208299985 0 -0.48827360080937021 -0.13531742911399189 0 -0.5 -0.14324846273931111 0 -0.47930750267908417 -0.1480635854121114 0 -0.47930750267908417 -0.1480635854121114 0 -0.47738728335761421 -0.1682509267597351 0 -0.46278066629215481 -0.1610158872753634 0 -0.47738728335761421 -0.1682509267597351 0 -0.49999999999999961 -0.161515208299985 0 -0.48839409620634278 -0.18039624849769001 0 -0.49999999999999961 -0.161515208299985 0 -0.48839409620634278 -0.18039624849769001 0 -0.47930750267908417 -0.1480635854121114 0 -0.47738728335761421 -0.1682509267597351 0 -0.49999999999999961 -0.161515208299985 0 -0.49999999999999961 -0.161515208299985 0 -0.5 -0.18618779176616679 0 -0.48839409620634278 -0.18039624849769001 0 -0.5 -0.18618779176616679 0 -0.48839409620634278 -0.18039624849769001 0 -0.48957789370491162 -0.19386933705848941 0 -0.47738728335761421 -0.1682509267597351 0 -0.48839409620634278 -0.18039624849769001 0 -0.47328693949397721 -0.18411760774338479 0 -0.47738728335761421 -0.1682509267597351 0 -0.47328693949397721 -0.18411760774338479 0 -0.45860677246597031 -0.17520894370368309 0 -0.47328693949397721 -0.18411760774338479 0 -0.45860677246597031 -0.17520894370368309 0 -0.45906836497473352 -0.19043479360484361 0 -0.47738728335761421 -0.1682509267597351 0 -0.45860677246597031 -0.17520894370368309 0 -0.46278066629215481 -0.1610158872753634 0 -0.45860677246597031 -0.17520894370368309 0 -0.46278066629215481 -0.1610158872753634 0 -0.44631139980808621 -0.1631836851414229 0 -0.42880774722037651 -0.1679247830322266 0 -0.44631139980808621 -0.1631836851414229 0 -0.44134853753678083 -0.18159229851429221 0 -0.45860677246597031 -0.17520894370368309 0 -0.44631139980808621 -0.1631836851414229 0 -0.44134853753678083 -0.18159229851429221 0 -0.45860677246597031 -0.17520894370368309 0 -0.44134853753678083 -0.18159229851429221 0 -0.45906836497473352 -0.19043479360484361 0 -0.44134853753678083 -0.18159229851429221 0 -0.45906836497473352 -0.19043479360484361 0 -0.44134853753678083 -0.18159229851429221 0 -0.44484374680150301 -0.19597231310248839 0 -0.45906836497473352 -0.19043479360484361 0 -0.43155084310578928 -0.2059016662048701 0 -0.44484374680150301 -0.19597231310248839 0 -0.44343463088850471 -0.20721188330797369 0 -0.43155084310578928 -0.2059016662048701 0 -0.44343463088850471 -0.20721188330797369 0 -0.43955036875351089 -0.21658504913102711 0 -0.44343463088850471 -0.20721188330797369 0 -0.43955036875351089 -0.21658504913102711 0 -0.44966782191270221 -0.21345696714665749 0 -0.44966782191270221 -0.21345696714665749 0 -0.45691127413918359 -0.218140336649912 0 -0.44903912237987481 -0.22310222333220869 0 -0.43955036875351089 -0.21658504913102711 0 -0.44966782191270221 -0.21345696714665749 0 -0.44903912237987481 -0.22310222333220869 0 -0.44484374680150301 -0.19597231310248839 0 -0.44343463088850471 -0.20721188330797369 0 -0.45285363365211462 -0.2065344908709397 0 -0.44343463088850471 -0.20721188330797369 0 -0.44966782191270221 -0.21345696714665749 0 -0.45285363365211462 -0.2065344908709397 0 -0.45285363365211462 -0.2065344908709397 0 -0.4586721235044201 -0.2110072970525271 0 -0.46764984515344349 -0.20502399374505181 0 -0.44966782191270221 -0.21345696714665749 0 -0.45285363365211462 -0.2065344908709397 0 -0.4586721235044201 -0.2110072970525271 0 -0.44966782191270221 -0.21345696714665749 0 -0.4586721235044201 -0.2110072970525271 0 -0.45691127413918359 -0.218140336649912 0 -0.4586721235044201 -0.2110072970525271 0 -0.45691127413918359 -0.218140336649912 0 -0.46757130244775341 -0.21427176676618889 0 -0.4586721235044201 -0.2110072970525271 0 -0.46757130244775341 -0.21427176676618889 0 -0.46764984515344349 -0.20502399374505181 0 -0.44484374680150301 -0.19597231310248839 0 -0.46764984515344349 -0.20502399374505181 0 -0.45906836497473352 -0.19043479360484361 0 -0.44484374680150301 -0.19597231310248839 0 -0.45285363365211462 -0.2065344908709397 0 -0.46764984515344349 -0.20502399374505181 0 -0.45906836497473352 -0.19043479360484361 0 -0.47678819241268611 -0.1992772886953951 0 -0.44484374680150301 -0.19597231310248839 0 -0.46764984515344349 -0.20502399374505181 0 -0.46764984515344349 -0.20502399374505181 0 -0.45906836497473352 -0.19043479360484361 0 -0.47678819241268611 -0.1992772886953951 0 -0.47328693949397721 -0.18411760774338479 0 -0.45906836497473352 -0.19043479360484361 0 -0.47678819241268611 -0.1992772886953951 0 -0.48839409620634278 -0.18039624849769001 0 -0.47328693949397721 -0.18411760774338479 0 -0.47678819241268611 -0.1992772886953951 0 -0.48839409620634278 -0.18039624849769001 0 -0.47678819241268611 -0.1992772886953951 0 -0.47678819241268611 -0.1992772886953951 0 -0.48957789370491162 -0.19386933705848941 0 -0.50000000000000222 -0.21086037523234849 0 -0.48839409620634278 -0.18039624849769001 0 -0.47678819241268611 -0.1992772886953951 0 -0.48957789370491162 -0.19386933705848941 0 -0.5 -0.18618779176616679 0 -0.48957789370491162 -0.19386933705848941 0 -0.50000000000000222 -0.21086037523234849 0 -0.50000000000000222 -0.21086037523234849 0 -0.48101414991814051 -0.21220490785157131 0 -0.4775447229854059 -0.22535576830415929 0 -0.47678819241268611 -0.1992772886953951 0 -0.50000000000000222 -0.21086037523234849 0 -0.47678819241268611 -0.1992772886953951 0 -0.50000000000000222 -0.21086037523234849 0 -0.48101414991814051 -0.21220490785157131 0 -0.46757130244775341 -0.21427176676618889 0 -0.47678819241268611 -0.1992772886953951 0 -0.48101414991814051 -0.21220490785157131 0 -0.46757130244775341 -0.21427176676618889 0 -0.47678819241268611 -0.1992772886953951 0 -0.46757130244775341 -0.21427176676618889 0 -0.46764984515344349 -0.20502399374505181 0 -0.47678819241268611 -0.1992772886953951 0 -0.46757130244775341 -0.21427176676618889 0 -0.48101414991814051 -0.21220490785157131 0 -0.4775447229854059 -0.22535576830415929 0 -0.46757130244775341 -0.21427176676618889 0 -0.4775447229854059 -0.22535576830415929 0 -0.46571952953094348 -0.22577651025912229 0 -0.4775447229854059 -0.22535576830415929 0 -0.4726071657750785 -0.240360200228666 0 -0.45676275941016609 -0.23628729483617639 0 -0.50000000000000222 -0.21086037523234849 0 -0.4775447229854059 -0.22535576830415929 0 -0.48548116721245049 -0.23774912910784329 0 -0.50000000000000222 -0.21086037523234849 0 -0.5 -0.2401545466321974 0 -0.48548116721245049 -0.23774912910784329 0 -0.48050148842732221 -0.25523221810557922 0 -0.5 -0.2401545466321974 0 -0.48548116721245049 -0.23774912910784329 0 -0.48050148842732221 -0.25523221810557922 0 -0.4726071657750785 -0.240360200228666 0 -0.46267023581878858 -0.24817136713935201 0 -0.48050148842732221 -0.25523221810557922 0 -0.48548116721245049 -0.23774912910784329 0 -0.4726071657750785 -0.240360200228666 0 -0.4775447229854059 -0.22535576830415929 0 -0.48548116721245049 -0.23774912910784329 0 -0.4726071657750785 -0.240360200228666 0 -0.4726071657750785 -0.240360200228666 0 -0.46267023581878858 -0.24817136713935201 0 -0.45676275941016609 -0.23628729483617639 0 -0.46267023581878858 -0.24817136713935201 0 -0.45676275941016609 -0.23628729483617639 0 -0.45139902778349827 -0.24711062934306771 0 -0.4775447229854059 -0.22535576830415929 0 -0.45676275941016609 -0.23628729483617639 0 -0.46571952953094348 -0.22577651025912229 0 -0.4775447229854059 -0.22535576830415929 0 -0.45676275941016609 -0.23628729483617639 0 -0.46757130244775341 -0.21427176676618889 0 -0.45835441248282049 -0.22926624483698249 0 -0.45691127413918359 -0.218140336649912 0 -0.46757130244775341 -0.21427176676618889 0 -0.45835441248282049 -0.22926624483698249 0 -0.46757130244775341 -0.21427176676618889 0 -0.46571952953094348 -0.22577651025912229 0 -0.45835441248282049 -0.22926624483698249 0 -0.45691127413918359 -0.218140336649912 0 -0.45835441248282049 -0.22926624483698249 0 -0.44903912237987481 -0.22310222333220869 0 -0.45676275941016609 -0.23628729483617639 0 -0.46571952953094348 -0.22577651025912229 0 -0.45835441248282049 -0.22926624483698249 0 -0.45676275941016609 -0.23628729483617639 0 -0.45835441248282049 -0.22926624483698249 0 -0.44784406772060242 -0.23291584907632601 0 -0.45835441248282049 -0.22926624483698249 0 -0.44784406772060242 -0.23291584907632601 0 -0.44903912237987481 -0.22310222333220869 0 -0.44784406772060242 -0.23291584907632601 0 -0.44903912237987481 -0.22310222333220869 0 -0.43908324849522451 -0.2287046610080686 0 -0.43955036875351089 -0.21658504913102711 0 -0.44903912237987481 -0.22310222333220869 0 -0.43908324849522451 -0.2287046610080686 0 -0.43598079583492633 -0.24721882136819351 0 -0.44784406772060242 -0.23291584907632601 0 -0.43908324849522451 -0.2287046610080686 0 -0.43598079583492633 -0.24721882136819351 0 -0.45676275941016609 -0.23628729483617639 0 -0.45139902778349827 -0.24711062934306771 0 -0.43598079583492633 -0.24721882136819351 0 -0.45676275941016609 -0.23628729483617639 0 -0.44784406772060242 -0.23291584907632601 0 -0.43598079583492633 -0.24721882136819351 0 -0.45676275941016609 -0.23628729483617639 0 -0.41513049604948221 -0.033942569896895612 0 -0.42680670243505803 -0.034615113076212713 0 -0.40073055052989021 -0.025701474464423758 0 -0.41513049604948221 -0.033942569896895612 0 -0.42462943043776058 -0.041038039404546971 0 -0.40237332615973681 -0.030676944162886681 0 -0.42462943043776058 -0.041038039404546971 0 -0.40237332615973681 -0.030676944162886681 0 -0.41105872637709778 -0.041104419315527559 0 -0.42462943043776058 -0.041038039404546971 0 -0.40237332615973681 -0.030676944162886681 0 -0.41795689190558921 -0.046390941043723911 0 -0.41105872637709778 -0.041104419315527559 0 -0.42462943043776058 -0.041038039404546971 0 -0.41513049604948221 -0.033942569896895612 0 -0.42462943043776058 -0.041038039404546971 0 -0.4243569293735685 -0.037306081984415762 0 -0.41105872637709778 -0.041104419315527559 0 -0.4050251302254127 -0.045922345921936697 0 -0.40306291723554027 -0.039039715031688543 0 -0.41795689190558921 -0.046390941043723911 0 -0.41105872637709778 -0.041104419315527559 0 -0.41174405323292163 -0.047949206462353358 0 -0.41105872637709778 -0.041104419315527559 0 -0.41174405323292163 -0.047949206462353358 0 -0.4050251302254127 -0.045922345921936697 0 -0.41174405323292163 -0.047949206462353358 0 -0.4050251302254127 -0.045922345921936697 0 -0.40603099279739802 -0.054788986838451827 0 -0.41174405323292163 -0.047949206462353358 0 -0.4187470457232762 -0.053937065845881961 0 -0.40603099279739802 -0.054788986838451827 0 -0.4187470457232762 -0.053937065845881961 0 -0.40603099279739802 -0.054788986838451827 0 -0.41284572228237681 -0.064006668923108523 0 -0.4187470457232762 -0.053937065845881961 0 -0.41284572228237681 -0.064006668923108523 0 -0.42746868386642678 -0.066478460468227696 0 -0.41795689190558921 -0.046390941043723911 0 -0.41174405323292163 -0.047949206462353358 0 -0.4187470457232762 -0.053937065845881961 0 -0.41795689190558921 -0.046390941043723911 0 -0.4187470457232762 -0.053937065845881961 0 -0.42320145590089769 -0.048540393412862697 0 -0.42320145590089769 -0.048540393412862697 0 -0.43147245553696489 -0.05279552735729795 0 -0.42462943043776058 -0.041038039404546971 0 -0.4187470457232762 -0.053937065845881961 0 -0.42320145590089769 -0.048540393412862697 0 -0.43147245553696489 -0.05279552735729795 0 -0.43147245553696489 -0.05279552735729795 0 -0.42462943043776058 -0.041038039404546971 0 -0.44688553471578463 -0.051399134646207288 0 -0.4187470457232762 -0.053937065845881961 0 -0.43147245553696489 -0.05279552735729795 0 -0.42746868386642678 -0.066478460468227696 0 -0.43147245553696489 -0.05279552735729795 0 -0.42746868386642678 -0.066478460468227696 0 -0.43950717444435422 -0.063784996514660589 0 -0.42818951741271921 -0.038310772776573528 0 -0.43628267576141971 -0.035329403205585218 0 -0.44688553471578463 -0.051399134646207288 0 -0.42462943043776058 -0.041038039404546971 0 -0.42818951741271921 -0.038310772776573528 0 -0.44688553471578463 -0.051399134646207288 0 -0.42462943043776058 -0.041038039404546971 0 -0.44688553471578463 -0.051399134646207288 0 -0.41795689190558921 -0.046390941043723911 0 -0.42320145590089769 -0.048540393412862697 0 -0.42462943043776058 -0.041038039404546971 0 -0.41513049604948221 -0.033942569896895612 0 -0.4243569293735685 -0.037306081984415762 0 -0.42680670243505803 -0.034615113076212713 0 -0.42462943043776058 -0.041038039404546971 0 -0.4243569293735685 -0.037306081984415762 0 -0.42818951741271921 -0.038310772776573528 0 -0.42818951741271921 -0.038310772776573528 0 -0.42680670243505803 -0.034615113076212713 0 -0.4243569293735685 -0.037306081984415762 0 -0.42818951741271921 -0.038310772776573528 0 -0.42680670243505803 -0.034615113076212713 0 -0.42818951741271921 -0.038310772776573528 0 -0.42680670243505803 -0.034615113076212713 0 -0.42995577540377822 -0.032900560567165532 0 -0.42818951741271921 -0.038310772776573528 0 -0.42995577540377822 -0.032900560567165532 0 -0.43628267576141971 -0.035329403205585218 0 -0.42995577540377822 -0.032900560567165532 0 -0.43628267576141971 -0.035329403205585218 0 -0.4327931004709421 -0.029092843067932112 0 -0.42680670243505803 -0.034615113076212713 0 -0.4285090787839364 -0.025262373234060161 0 -0.41794895562780338 -0.01094222954485795 0 -0.42680670243505803 -0.034615113076212713 0 -0.41794895562780338 -0.01094222954485795 0 -0.43628267576141971 -0.035329403205585218 0 -0.4327931004709421 -0.029092843067932112 0 -0.43710875721387199 -0.026668229939385779 0 -0.42995577540377822 -0.032900560567165532 0 -0.4327931004709421 -0.029092843067932112 0 -0.4285090787839364 -0.025262373234060161 0 -0.43210921519170409 -0.025303648393463829 0 -0.43710875721387199 -0.026668229939385779 0 -0.43108579893039811 -0.01948839847471974 0 -0.4327931004709421 -0.029092843067932112 0 -0.43210921519170409 -0.025303648393463829 0 -0.4285090787839364 -0.025262373234060161 0 -0.4327931004709421 -0.029092843067932112 0 -0.43210921519170409 -0.025303648393463829 0 -0.43710875721387199 -0.026668229939385779 0 -0.43108579893039811 -0.01948839847471974 0 -0.43397544616601241 -0.014244232554068349 0 -0.43928417642389239 -0.017661557407765791 0 -0.43710875721387199 -0.026668229939385779 0 -0.43108579893039811 -0.01948839847471974 0 -0.43928417642389239 -0.017661557407765791 0 -0.43210921519170409 -0.025303648393463829 0 -0.43108579893039811 -0.01948839847471974 0 -0.4285090787839364 -0.025262373234060161 0 -0.43108579893039811 -0.01948839847471974 0 -0.4285090787839364 -0.025262373234060161 0 -0.41794895562780338 -0.01094222954485795 0 -0.42680670243505803 -0.034615113076212713 0 -0.42995577540377822 -0.032900560567165532 0 -0.4285090787839364 -0.025262373234060161 0 -0.43591977417237449 -0.008065469867085449 0 -0.42907061680018699 -0.010664914002041091 0 -0.42583279771702431 0.00046528033667210148 0 -0.43108579893039811 -0.01948839847471974 0 -0.43397544616601241 -0.014244232554068349 0 -0.42907061680018699 -0.010664914002041091 0 -0.43591977417237449 -0.008065469867085449 0 -0.43397544616601241 -0.014244232554068349 0 -0.43928417642389239 -0.017661557407765791 0 -0.43591977417237449 -0.008065469867085449 0 -0.43397544616601241 -0.014244232554068349 0 -0.42907061680018699 -0.010664914002041091 0 -0.43108579893039811 -0.01948839847471974 0 -0.42907061680018699 -0.010664914002041091 0 -0.41794895562780338 -0.01094222954485795 0 -0.42907061680018699 -0.010664914002041091 0 -0.41794895562780338 -0.01094222954485795 0 -0.42583279771702431 0.00046528033667210148 0 -0.41794895562780338 -0.01094222954485795 0 -0.4102220184461346 -0.019351118920435541 0 -0.40021295305484711 -0.013852611056198059 0 -0.41794895562780338 -0.01094222954485795 0 -0.40352261506359649 -0.001038070178381474 0 -0.40021295305484711 -0.013852611056198059 0 -0.42680670243505803 -0.034615113076212713 0 -0.41794895562780338 -0.01094222954485795 0 -0.4102220184461346 -0.019351118920435541 0 -0.42680670243505803 -0.034615113076212713 0 -0.4102220184461346 -0.019351118920435541 0 -0.40073055052989021 -0.025701474464423758 0 -0.42680670243505803 -0.034615113076212713 0 -0.40073055052989021 -0.025701474464423758 0 -0.41513049604948221 -0.033942569896895612 0 -0.40073055052989021 -0.025701474464423758 0 -0.40237332615973681 -0.030676944162886681 0 -0.40073055052989021 -0.025701474464423758 0 -0.40237332615973681 -0.030676944162886681 0 -0.38011722188171299 -0.020315848921226409 0 -0.40237332615973681 -0.030676944162886681 0 -0.38011722188171299 -0.020315848921226409 0 -0.4102220184461346 -0.019351118920435541 0 -0.40073055052989021 -0.025701474464423758 0 -0.40021295305484711 -0.013852611056198059 0 -0.40073055052989021 -0.025701474464423758 0 -0.40021295305484711 -0.013852611056198059 0 -0.38745402304870558 -0.01483805838738575 0 -0.40352261506359649 -0.001038070178381474 0 -0.40021295305484711 -0.013852611056198059 0 -0.39408165103759368 -0.0019794594859314238 0 -0.40021295305484711 -0.013852611056198059 0 -0.39408165103759368 -0.0019794594859314238 0 -0.39005949432245718 -0.0085411321607220259 0 -0.40021295305484711 -0.013852611056198059 0 -0.39005949432245718 -0.0085411321607220259 0 -0.38745402304870558 -0.01483805838738575 0 -0.39408165103759368 -0.0019794594859314238 0 -0.3848191179490616 -0.0027051675553946518 0 -0.39005949432245718 -0.0085411321607220259 0 -0.3848191179490616 -0.0027051675553946518 0 -0.38372972652207787 -0.0093303643187002475 0 -0.39005949432245718 -0.0085411321607220259 0 -0.38372972652207787 -0.0093303643187002475 0 -0.38745402304870558 -0.01483805838738575 0 -0.3791207175096093 -0.01135650732177081 0 -0.38372972652207787 -0.0093303643187002475 0 -0.39005949432245718 -0.0085411321607220259 0 -0.38745402304870558 -0.01483805838738575 0 -0.37465439862472261 -0.016787835852634068 0 -0.37464851222799189 -0.0076089195940836872 0 -0.3791207175096093 -0.01135650732177081 0 -0.37465439862472261 -0.016787835852634068 0 -0.38745402304870558 -0.01483805838738575 0 -0.3791207175096093 -0.01135650732177081 0 -0.37464851222799189 -0.0076089195940836872 0 -0.3791207175096093 -0.01135650732177081 0 -0.37960876280762101 -0.0064231604720931881 0 -0.38372972652207787 -0.0093303643187002475 0 -0.3791207175096093 -0.01135650732177081 0 -0.37960876280762101 -0.0064231604720931881 0 -0.3848191179490616 -0.0027051675553946518 0 -0.38372972652207787 -0.0093303643187002475 0 -0.37960876280762101 -0.0064231604720931881 0 -0.37464851222799189 -0.0076089195940836872 0 -0.37960876280762101 -0.0064231604720931881 0 -0.37774077980655368 -0.001289555558904682 0 -0.3848191179490616 -0.0027051675553946518 0 -0.37960876280762101 -0.0064231604720931881 0 -0.37774077980655368 -0.001289555558904682 0 -0.37465439862472261 -0.016787835852634068 0 -0.40073055052989021 -0.025701474464423758 0 -0.38745402304870558 -0.01483805838738575 0 -0.40237332615973681 -0.030676944162886681 0 -0.38781453024876661 -0.02996800237218563 0 -0.38011722188171299 -0.020315848921226409 0 -0.37465439862472261 -0.016787835852634068 0 -0.40073055052989021 -0.025701474464423758 0 -0.38011722188171299 -0.020315848921226409 0 -0.37465439862472261 -0.016787835852634068 0 -0.40073055052989021 -0.025701474464423758 0 -0.37402384376206249 -0.023759624541515059 0 -0.37465439862472261 -0.016787835852634068 0 -0.38011722188171299 -0.020315848921226409 0 -0.37402384376206249 -0.023759624541515059 0 -0.38011722188171299 -0.020315848921226409 0 -0.37866743010551202 -0.02906954498465647 0 -0.38781453024876661 -0.02996800237218563 0 -0.38011722188171299 -0.020315848921226409 0 -0.37866743010551202 -0.02906954498465647 0 -0.37439980638912518 -0.038891661293645137 0 -0.37866743010551202 -0.02906954498465647 0 -0.38394575501216083 -0.036535335565972972 0 -0.37439980638912518 -0.038891661293645137 0 -0.37993408630244868 -0.045501240077299353 0 -0.38394575501216083 -0.036535335565972972 0 -0.37085155020467431 -0.050438611479832557 0 -0.37439980638912518 -0.038891661293645137 0 -0.37993408630244868 -0.045501240077299353 0 -0.37993408630244868 -0.045501240077299353 0 -0.38895054345211377 -0.045335196083553769 0 -0.38394575501216083 -0.036535335565972972 0 -0.38895054345211377 -0.045335196083553769 0 -0.38394575501216083 -0.036535335565972972 0 -0.39396365166307989 -0.03445798481758762 0 -0.38781453024876661 -0.02996800237218563 0 -0.38394575501216083 -0.036535335565972972 0 -0.39396365166307989 -0.03445798481758762 0 -0.38781453024876661 -0.02996800237218563 0 -0.37866743010551202 -0.02906954498465647 0 -0.38394575501216083 -0.036535335565972972 0 -0.40237332615973681 -0.030676944162886681 0 -0.38781453024876661 -0.02996800237218563 0 -0.39396365166307989 -0.03445798481758762 0 -0.39396365166307989 -0.03445798481758762 0 -0.39750411751227832 -0.042292212187568533 0 -0.39928834571923882 -0.035924112998793431 0 -0.38895054345211377 -0.045335196083553769 0 -0.39396365166307989 -0.03445798481758762 0 -0.39750411751227832 -0.042292212187568533 0 -0.39750411751227832 -0.042292212187568533 0 -0.4050251302254127 -0.045922345921936697 0 -0.40306291723554027 -0.039039715031688543 0 -0.39750411751227832 -0.042292212187568533 0 -0.40306291723554027 -0.039039715031688543 0 -0.39928834571923882 -0.035924112998793431 0 -0.40237332615973681 -0.030676944162886681 0 -0.39396365166307989 -0.03445798481758762 0 -0.39928834571923882 -0.035924112998793431 0 -0.41105872637709778 -0.041104419315527559 0 -0.40237332615973681 -0.030676944162886681 0 -0.40306291723554027 -0.039039715031688543 0 -0.40237332615973681 -0.030676944162886681 0 -0.40306291723554027 -0.039039715031688543 0 -0.39928834571923882 -0.035924112998793431 0 -0.40603099279739802 -0.054788986838451827 0 -0.39527915405366182 -0.064437672488960096 0 -0.41284572228237681 -0.064006668923108523 0 -0.40603099279739802 -0.054788986838451827 0 -0.39443592701229091 -0.053019652188425637 0 -0.39527915405366182 -0.064437672488960096 0 -0.4050251302254127 -0.045922345921936697 0 -0.40603099279739802 -0.054788986838451827 0 -0.39443592701229091 -0.053019652188425637 0 -0.39750411751227832 -0.042292212187568533 0 -0.4050251302254127 -0.045922345921936697 0 -0.39443592701229091 -0.053019652188425637 0 -0.38895054345211377 -0.045335196083553769 0 -0.39750411751227832 -0.042292212187568533 0 -0.39443592701229091 -0.053019652188425637 0 -0.39443592701229091 -0.053019652188425637 0 -0.38221605892473098 -0.056125323053866277 0 -0.39527915405366182 -0.064437672488960096 0 -0.36608399240098949 -0.063120758007335118 0 -0.38221605892473098 -0.056125323053866277 0 -0.37978412082390189 -0.068029865631836883 0 -0.38895054345211377 -0.045335196083553769 0 -0.39443592701229091 -0.053019652188425637 0 -0.38221605892473098 -0.056125323053866277 0 -0.37993408630244868 -0.045501240077299353 0 -0.38895054345211377 -0.045335196083553769 0 -0.38221605892473098 -0.056125323053866277 0 -0.37085155020467431 -0.050438611479832557 0 -0.37993408630244868 -0.045501240077299353 0 -0.38221605892473098 -0.056125323053866277 0 -0.36843110820579178 -0.075527255856609146 0 -0.37978412082390189 -0.068029865631836883 0 -0.38691029053433551 -0.080938318752413793 0 -0.37978412082390189 -0.068029865631836883 0 -0.38691029053433551 -0.080938318752413793 0 -0.39527915405366182 -0.064437672488960096 0 -0.38221605892473098 -0.056125323053866277 0 -0.37978412082390189 -0.068029865631836883 0 -0.39527915405366182 -0.064437672488960096 0 -0.37380044498630338 -0.100392191664622 0 -0.36747037526515469 -0.088210616938563927 0 -0.38691029053433551 -0.080938318752413793 0 -0.36843110820579178 -0.075527255856609146 0 -0.38691029053433551 -0.080938318752413793 0 -0.40007542381043809 -0.086939242353532731 0 -0.39460333317738627 -0.1006873657273652 0 -0.41352047356827321 -0.0909948847898496 0 -0.38691029053433551 -0.080938318752413793 0 -0.40007542381043809 -0.086939242353532731 0 -0.40767355229219521 -0.074626636544090755 0 -0.38691029053433551 -0.080938318752413793 0 -0.40007542381043809 -0.086939242353532731 0 -0.39460333317738627 -0.1006873657273652 0 -0.38691029053433551 -0.080938318752413793 0 -0.39527915405366182 -0.064437672488960096 0 -0.40767355229219521 -0.074626636544090755 0 -0.39527915405366182 -0.064437672488960096 0 -0.41284572228237681 -0.064006668923108523 0 -0.40767355229219521 -0.074626636544090755 0 -0.36893450279197471 -0.1249528869149899 0 -0.3789649235099295 -0.11270856972454819 0 -0.39514760223357998 -0.1249586529677193 0 -0.36893450279197471 -0.1249528869149899 0 -0.39514760223357998 -0.1249586529677193 0 -0.3789649235099295 -0.11270856972454819 0 -0.39460333317738627 -0.1006873657273652 0 -0.39514760223357998 -0.1249586529677193 0 -0.37380044498630338 -0.100392191664622 0 -0.38691029053433551 -0.080938318752413793 0 -0.39460333317738627 -0.1006873657273652 0 -0.37380044498630338 -0.100392191664622 0 -0.3789649235099295 -0.11270856972454819 0 -0.39460333317738627 -0.1006873657273652 0 -0.39460333317738627 -0.1006873657273652 0 -0.39514760223357998 -0.1249586529677193 0 -0.4114708495464785 -0.1093321351213095 0 -0.42136070167518519 -0.1249644190204488 0 -0.4114708495464785 -0.1093321351213095 0 -0.43272213707796769 -0.1050553531011644 0 -0.39514760223357998 -0.1249586529677193 0 -0.42136070167518519 -0.1249644190204488 0 -0.39514760223357998 -0.1249586529677193 0 -0.42136070167518519 -0.1249644190204488 0 -0.4114708495464785 -0.1093321351213095 0 -0.39460333317738627 -0.1006873657273652 0 -0.4114708495464785 -0.1093321351213095 0 -0.41352047356827321 -0.0909948847898496 0 -0.4114708495464785 -0.1093321351213095 0 -0.43272213707796769 -0.1050553531011644 0 -0.41352047356827321 -0.0909948847898496 0 -0.42136070167518519 -0.1249644190204488 0 -0.43272213707796769 -0.1050553531011644 0 -0.44757380111679052 -0.12497018507317829 0 -0.42136070167518519 -0.1249644190204488 0 -0.44757380111679052 -0.12497018507317829 0 -0.42023793718526542 -0.076451056482049876 0 -0.41284572228237681 -0.064006668923108523 0 -0.42746868386642678 -0.066478460468227696 0 -0.42023793718526542 -0.076451056482049876 0 -0.41284572228237681 -0.064006668923108523 0 -0.40767355229219521 -0.074626636544090755 0 -0.42023793718526542 -0.076451056482049876 0 -0.40767355229219521 -0.074626636544090755 0 -0.41352047356827321 -0.0909948847898496 0 -0.40007542381043809 -0.086939242353532731 0 -0.40767355229219521 -0.074626636544090755 0 -0.41352047356827321 -0.0909948847898496 0 -0.42023793718526542 -0.076451056482049876 0 -0.41352047356827321 -0.0909948847898496 0 -0.43051036701793649 -0.083964229305721505 0 -0.43272213707796769 -0.1050553531011644 0 -0.41352047356827321 -0.0909948847898496 0 -0.43051036701793649 -0.083964229305721505 0 -0.43272213707796769 -0.1050553531011644 0 -0.43051036701793649 -0.083964229305721505 0 -0.44869793539396702 -0.090613631575090198 0 -0.43051036701793649 -0.083964229305721505 0 -0.42746868386642678 -0.066478460468227696 0 -0.43938561630945938 -0.075374003134316428 0 -0.42023793718526542 -0.076451056482049876 0 -0.43051036701793649 -0.083964229305721505 0 -0.42746868386642678 -0.066478460468227696 0 -0.42746868386642678 -0.066478460468227696 0 -0.43950717444435422 -0.063784996514660589 0 -0.43938561630945938 -0.075374003134316428 0 -0.43950717444435422 -0.063784996514660589 0 -0.45074392082461212 -0.072028697807882153 0 -0.43938561630945938 -0.075374003134316428 0 -0.43051036701793649 -0.083964229305721505 0 -0.43938561630945938 -0.075374003134316428 0 -0.44869793539396702 -0.090613631575090198 0 -0.45074392082461212 -0.072028697807882153 0 -0.43938561630945938 -0.075374003134316428 0 -0.44869793539396702 -0.090613631575090198 0 -0.45074392082461212 -0.072028697807882153 0 -0.44869793539396702 -0.090613631575090198 0 -0.4647336852437608 -0.080388630180202481 0 -0.44869793539396702 -0.090613631575090198 0 -0.4647336852437608 -0.080388630180202481 0 -0.47380622041468068 -0.096022360055862885 0 -0.4647336852437608 -0.080388630180202481 0 -0.46264955769922828 -0.069236149835977229 0 -0.47254815090776853 -0.069469283055039688 0 -0.45074392082461212 -0.072028697807882153 0 -0.46264955769922828 -0.069236149835977229 0 -0.44688553471578463 -0.051399134646207288 0 -0.46264955769922828 -0.069236149835977229 0 -0.47254815090776853 -0.069469283055039688 0 -0.46914163899380801 -0.061760229887868598 0 -0.45074392082461212 -0.072028697807882153 0 -0.4647336852437608 -0.080388630180202481 0 -0.46264955769922828 -0.069236149835977229 0 -0.43272213707796769 -0.1050553531011644 0 -0.44757380111679052 -0.12497018507317829 0 -0.46022938895027038 -0.10869066194517669 0 -0.43272213707796769 -0.1050553531011644 0 -0.44869793539396702 -0.090613631575090198 0 -0.46022938895027038 -0.10869066194517669 0 -0.44869793539396702 -0.090613631575090198 0 -0.46022938895027038 -0.10869066194517669 0 -0.47380622041468068 -0.096022360055862885 0 -0.44757380111679052 -0.12497018507317829 0 -0.47378690055839578 -0.1249759511259078 0 -0.44757380111679052 -0.12497018507317829 0 -0.46022938895027038 -0.10869066194517669 0 -0.47378690055839578 -0.1249759511259078 0 -0.46022938895027038 -0.10869066194517669 0 -0.47378690055839578 -0.1249759511259078 0 -0.48374478807960558 -0.1092121363906397 0 -0.46022938895027038 -0.10869066194517669 0 -0.48374478807960558 -0.1092121363906397 0 -0.47380622041468068 -0.096022360055862885 0 -0.48374478807960558 -0.1092121363906397 0 -0.47380622041468068 -0.096022360055862885 0 -0.48832582805197727 -0.092109142267116931 0 -0.48374478807960558 -0.1092121363906397 0 -0.5 -0.10055386622176241 0 -0.48832582805197727 -0.092109142267116931 0 -0.47378690055839578 -0.1249759511259078 0 -0.48374478807960558 -0.1092121363906397 0 -0.50000000000000111 -0.12498171717863731 0 -0.48374478807960558 -0.1092121363906397 0 -0.5 -0.10055386622176241 0 -0.50000000000000111 -0.12498171717863731 0 -0.47378690055839578 -0.1249759511259078 0 -0.50000000000000111 -0.12498171717863731 0 -0.47254815090776853 -0.069469283055039688 0 -0.47913967023945842 -0.082463322467565006 0 -0.48457081949690362 -0.068943122576377761 0 -0.47913967023945842 -0.082463322467565006 0 -0.48808502354595151 -0.080031310268457945 0 -0.48457081949690362 -0.068943122576377761 0 -0.48457081949690362 -0.068943122576377761 0 -0.46914163899380801 -0.061760229887868598 0 -0.48457081949690362 -0.068943122576377761 0 -0.48230491698392047 -0.057318093012348498 0 -0.46914163899380801 -0.061760229887868598 0 -0.47254815090776853 -0.069469283055039688 0 -0.48457081949690362 -0.068943122576377761 0 -0.46914163899380801 -0.061760229887868598 0 -0.47254815090776853 -0.069469283055039688 0 -0.46914163899380801 -0.061760229887868598 0 -0.4647336852437608 -0.080388630180202481 0 -0.47254815090776853 -0.069469283055039688 0 -0.47913967023945842 -0.082463322467565006 0 -0.4647336852437608 -0.080388630180202481 0 -0.47380622041468068 -0.096022360055862885 0 -0.47913967023945842 -0.082463322467565006 0 -0.47380622041468068 -0.096022360055862885 0 -0.47913967023945842 -0.082463322467565006 0 -0.48832582805197727 -0.092109142267116931 0 -0.5 -0.10055386622176241 0 -0.48832582805197727 -0.092109142267116931 0 -0.499999999999999 -0.07612601526488752 0 -0.48808502354595151 -0.080031310268457945 0 -0.48832582805197727 -0.092109142267116931 0 -0.499999999999999 -0.07612601526488752 0 -0.47913967023945842 -0.082463322467565006 0 -0.48808502354595151 -0.080031310268457945 0 -0.48832582805197727 -0.092109142267116931 0 -0.499999999999999 -0.07612601526488752 0 -0.48457081949690362 -0.068943122576377761 0 -0.499999999999999 -0.07612601526488752 0 -0.48457081949690362 -0.068943122576377761 0 -0.5 -0.055081012739928707 0 -0.48808502354595151 -0.080031310268457945 0 -0.499999999999999 -0.07612601526488752 0 -0.48457081949690362 -0.068943122576377761 0 -0.48457081949690362 -0.068943122576377761 0 -0.5 -0.055081012739928707 0 -0.48230491698392047 -0.057318093012348498 0 -0.5 -0.055081012739928707 0 -0.48157039955536241 -0.044558511477442143 0 -0.48230491698392047 -0.057318093012348498 0 -0.5 -0.055081012739928707 0 -0.500000000000004 -0.034036010214970061 0 -0.48157039955536241 -0.044558511477442143 0 -0.500000000000004 -0.034036010214970061 0 -0.48157039955536241 -0.044558511477442143 0 -0.48148290990478199 -0.029591545163434652 0 -0.48157039955536241 -0.044558511477442143 0 -0.45768975774058179 -0.035844230274481748 0 -0.48148290990478199 -0.029591545163434652 0 -0.48157039955536241 -0.044558511477442143 0 -0.46914163899380801 -0.061760229887868598 0 -0.45768975774058179 -0.035844230274481748 0 -0.48157039955536241 -0.044558511477442143 0 -0.48230491698392047 -0.057318093012348498 0 -0.46914163899380801 -0.061760229887868598 0 -0.46914163899380801 -0.061760229887868598 0 -0.45768975774058179 -0.035844230274481748 0 -0.44688553471578463 -0.051399134646207288 0 -0.46914163899380801 -0.061760229887868598 0 -0.45768975774058179 -0.035844230274481748 0 -0.46264955769922828 -0.069236149835977229 0 -0.46914163899380801 -0.061760229887868598 0 -0.44688553471578463 -0.051399134646207288 0 -0.46914163899380801 -0.061760229887868598 0 -0.44688553471578463 -0.051399134646207288 0 -0.43628267576141971 -0.035329403205585218 0 -0.44354830351403418 -0.034418653902415733 0 -0.44688553471578463 -0.051399134646207288 0 -0.45768975774058179 -0.035844230274481748 0 -0.44354830351403418 -0.034418653902415733 0 -0.44688553471578463 -0.051399134646207288 0 -0.45768975774058179 -0.035844230274481748 0 -0.44354830351403418 -0.034418653902415733 0 -0.44312252706978628 -0.024928407146411868 0 -0.43628267576141971 -0.035329403205585218 0 -0.43710875721387199 -0.026668229939385779 0 -0.44354830351403418 -0.034418653902415733 0 -0.43950717444435422 -0.063784996514660589 0 -0.45074392082461212 -0.072028697807882153 0 -0.44688553471578463 -0.051399134646207288 0 -0.43147245553696489 -0.05279552735729795 0 -0.43950717444435422 -0.063784996514660589 0 -0.44688553471578463 -0.051399134646207288 0 -0.43591977417237449 -0.008065469867085449 0 -0.44623787648735791 -0.0099282306610938807 0 -0.43740981058492812 0.01004998492246997 0 -0.43591977417237449 -0.008065469867085449 0 -0.44623787648735791 -0.0099282306610938807 0 -0.43928417642389239 -0.017661557407765791 0 -0.43591977417237449 -0.008065469867085449 0 -0.44623787648735791 -0.0099282306610938807 0 -0.43710875721387199 -0.026668229939385779 0 -0.43928417642389239 -0.017661557407765791 0 -0.44312252706978628 -0.024928407146411868 0 -0.45768975774058179 -0.035844230274481748 0 -0.44623787648735791 -0.0099282306610938807 0 -0.44312252706978628 -0.024928407146411868 0 -0.45768975774058179 -0.035844230274481748 0 -0.44623787648735791 -0.0099282306610938807 0 -0.44623787648735791 -0.0099282306610938807 0 -0.43928417642389239 -0.017661557407765791 0 -0.44312252706978628 -0.024928407146411868 0 -0.43710875721387199 -0.026668229939385779 0 -0.44354830351403418 -0.034418653902415733 0 -0.44312252706978628 -0.024928407146411868 0 -0.45768975774058179 -0.035844230274481748 0 -0.44623787648735791 -0.0099282306610938807 0 -0.47146408957177099 -0.01448240150379307 0 -0.44623787648735791 -0.0099282306610938807 0 -0.47146408957177099 -0.01448240150379307 0 -0.44623787648735791 -0.0099282306610938807 0 -0.47146408957177099 -0.01448240150379307 0 -0.46048772545436639 0.0043098071123656434 0 -0.47146408957177099 -0.01448240150379307 0 -0.47882554305316488 -0.0018417715126103191 0 -0.46048772545436639 0.0043098071123656434 0 -0.47146408957177099 -0.01448240150379307 0 -0.47882554305316488 -0.0018417715126103191 0 -0.49669030265618502 -0.01903657234648758 0 -0.47146408957177099 -0.01448240150379307 0 -0.49669030265618502 -0.01903657234648758 0 -0.47146408957177099 -0.01448240150379307 0 -0.48148290990478199 -0.029591545163434652 0 -0.49669030265618502 -0.01903657234648758 0 -0.45768975774058179 -0.035844230274481748 0 -0.47146408957177099 -0.01448240150379307 0 -0.48148290990478199 -0.029591545163434652 0 -0.500000000000004 -0.034036010214970061 0 -0.48148290990478199 -0.029591545163434652 0 -0.49669030265618502 -0.01903657234648758 0 -0.49669030265618502 -0.01903657234648758 0 -0.50000000000000056 -0.019634082844440681 0 -0.500000000000004 -0.034036010214970061 0 -0.49669030265618502 -0.01903657234648758 0 -0.500000000000004 -0.034036010214970061 0 -0.49669030265618502 -0.01903657234648758 0 -0.50000000000000056 -0.019634082844440681 0 -0.47882554305316488 -0.0018417715126103191 0 -0.49669030265618502 -0.01903657234648758 0 -0.49160980924365538 0.0039880541876541054 0 -0.49669030265618502 -0.01903657234648758 0 -0.49160980924365538 0.0039880541876541054 0 -0.49669030265618502 -0.01903657234648758 0 -0.50000000000000056 -0.019634082844440681 0 -0.49160980924365538 0.0039880541876541054 0 -0.50000000000000056 -0.019634082844440681 0 -0.49160980924365538 0.0039880541876541054 0 -0.50000000000000033 0.009303662189531537 0 -0.49160980924365538 0.0039880541876541054 0 -0.48652931583112352 0.027012680721795381 0 -0.49160980924365538 0.0039880541876541054 0 -0.50000000000000033 0.009303662189531537 0 -0.48652931583112352 0.027012680721795381 0 -0.50000000000000033 0.009303662189531537 0 -0.5 0.03611151152349279 0 -0.49175907743105379 0.031398254416965428 0 -0.50000000000000033 0.009303662189531537 0 -0.49175907743105379 0.031398254416965428 0 -0.50000000000000033 0.009303662189531537 0 -0.48652931583112352 0.027012680721795381 0 -0.49175907743105379 0.031398254416965428 0 -0.48652931583112352 0.027012680721795381 0 -0.47387578833984401 0.016012254987208822 0 -0.46815351836101687 0.031449839152918539 0 -0.49160980924365538 0.0039880541876541054 0 -0.48652931583112352 0.027012680721795381 0 -0.47387578833984401 0.016012254987208822 0 -0.47882554305316488 -0.0018417715126103191 0 -0.49160980924365538 0.0039880541876541054 0 -0.47387578833984401 0.016012254987208822 0 -0.47882554305316488 -0.0018417715126103191 0 -0.47387578833984401 0.016012254987208822 0 -0.46048772545436639 0.0043098071123656434 0 -0.49282352307895688 0.045257754500502748 0 -0.5 0.03611151152349279 0 -0.5 0.062919360857453976 0 -0.49282352307895688 0.045257754500502748 0 -0.48351815486210709 0.053492846644399093 0 -0.5 0.062919360857453976 0 -0.49175907743105379 0.031398254416965428 0 -0.48144882241859149 0.050037307255936581 0 -0.48351815486210709 0.053492846644399093 0 -0.48652931583112352 0.027012680721795381 0 -0.49175907743105379 0.031398254416965428 0 -0.48144882241859149 0.050037307255936581 0 -0.49175907743105379 0.031398254416965428 0 -0.48351815486210709 0.053492846644399093 0 -0.49282352307895688 0.045257754500502748 0 -0.49175907743105379 0.031398254416965428 0 -0.48351815486210709 0.053492846644399093 0 -0.49282352307895688 0.045257754500502748 0 -0.5 0.03611151152349279 0 -0.49175907743105379 0.031398254416965428 0 -0.48144882241859149 0.050037307255936581 0 -0.4639696453013944 0.043374392403556838 0 -0.46815351836101687 0.031449839152918539 0 -0.48652931583112352 0.027012680721795381 0 -0.48144882241859149 0.050037307255936581 0 -0.48652931583112352 0.027012680721795381 0 -0.48144882241859149 0.050037307255936581 0 -0.46815351836101687 0.031449839152918539 0 -0.48144882241859149 0.050037307255936581 0 -0.45709786057011947 0.055708105081253657 0 -0.47636832900606041 0.073061933790077832 0 -0.48144882241859149 0.050037307255936581 0 -0.48351815486210709 0.053492846644399093 0 -0.47636832900606041 0.073061933790077832 0 -0.48144882241859149 0.050037307255936581 0 -0.47636832900606041 0.073061933790077832 0 -0.48144882241859149 0.050037307255936581 0 -0.45709786057011947 0.055708105081253657 0 -0.4639696453013944 0.043374392403556838 0 -0.45709786057011947 0.055708105081253657 0 -0.4639696453013944 0.043374392403556838 0 -0.45299045524759751 0.034902057762674861 0 -0.4639696453013944 0.043374392403556838 0 -0.46815351836101687 0.031449839152918539 0 -0.45299045524759751 0.034902057762674861 0 -0.46815351836101687 0.031449839152918539 0 -0.45299045524759751 0.034902057762674861 0 -0.45709786057011947 0.055708105081253657 0 -0.45299045524759751 0.034902057762674861 0 -0.43782739213417787 0.038354276372430232 0 -0.45299045524759751 0.034902057762674861 0 -0.43782739213417787 0.038354276372430232 0 -0.45299045524759751 0.034902057762674861 0 -0.43782739213417787 0.038354276372430232 0 -0.44297011017848281 0.02707887027054981 0 -0.45709786057011947 0.055708105081253657 0 -0.43782739213417787 0.038354276372430232 0 -0.43187248081207541 0.055496176207803817 0 -0.45709786057011947 0.055708105081253657 0 -0.43782739213417787 0.038354276372430232 0 -0.45709786057011947 0.055708105081253657 0 -0.43187248081207541 0.055496176207803817 0 -0.43763284036668942 0.072255399145110422 0 -0.47387578833984401 0.016012254987208822 0 -0.46048772545436639 0.0043098071123656434 0 -0.45598123469437257 0.020633802368031268 0 -0.47387578833984401 0.016012254987208822 0 -0.46815351836101687 0.031449839152918539 0 -0.45598123469437257 0.020633802368031268 0 -0.46815351836101687 0.031449839152918539 0 -0.45299045524759751 0.034902057762674861 0 -0.45598123469437257 0.020633802368031268 0 -0.45598123469437257 0.020633802368031268 0 -0.44297011017848281 0.02707887027054981 0 -0.43740981058492812 0.01004998492246997 0 -0.45299045524759751 0.034902057762674861 0 -0.45598123469437257 0.020633802368031268 0 -0.44297011017848281 0.02707887027054981 0 -0.46048772545436639 0.0043098071123656434 0 -0.45598123469437257 0.020633802368031268 0 -0.43740981058492812 0.01004998492246997 0 -0.44623787648735791 -0.0099282306610938807 0 -0.46048772545436639 0.0043098071123656434 0 -0.43740981058492812 0.01004998492246997 0 -0.44623787648735791 -0.0099282306610938807 0 -0.43740981058492812 0.01004998492246997 0 -0.43591977417237449 -0.008065469867085449 0 -0.43740981058492812 0.01004998492246997 0 -0.42583279771702431 0.00046528033667210148 0 -0.43740981058492812 0.01004998492246997 0 -0.42292027786463471 0.01349413118407828 0 -0.42583279771702431 0.00046528033667210148 0 -0.41794895562780338 -0.01094222954485795 0 -0.40909120882054839 0.01273065398649661 0 -0.41794895562780338 -0.01094222954485795 0 -0.40352261506359649 -0.001038070178381474 0 -0.40909120882054839 0.01273065398649661 0 -0.42292027786463471 0.01349413118407828 0 -0.42583279771702431 0.00046528033667210148 0 -0.40909120882054839 0.01273065398649661 0 -0.41794895562780338 -0.01094222954485795 0 -0.42583279771702431 0.00046528033667210148 0 -0.40909120882054839 0.01273065398649661 0 -0.40909120882054839 0.01273065398649661 0 -0.41494363987246979 0.023236645495722939 0 -0.40023346201329341 0.036403537517851137 0 -0.41494363987246979 0.023236645495722939 0 -0.41436175989852531 0.033604495869393458 0 -0.40023346201329341 0.036403537517851137 0 -0.42292027786463471 0.01349413118407828 0 -0.41494363987246979 0.023236645495722939 0 -0.424969395700869 0.026775135554755129 0 -0.42292027786463471 0.01349413118407828 0 -0.40909120882054839 0.01273065398649661 0 -0.41494363987246979 0.023236645495722939 0 -0.41494363987246979 0.023236645495722939 0 -0.41896391809246269 0.029132761591660509 0 -0.41436175989852531 0.033604495869393458 0 -0.41494363987246979 0.023236645495722939 0 -0.41896391809246269 0.029132761591660509 0 -0.424969395700869 0.026775135554755129 0 -0.41896391809246269 0.029132761591660509 0 -0.424969395700869 0.026775135554755129 0 -0.42158087689798668 0.032914769446770492 0 -0.424969395700869 0.026775135554755129 0 -0.42858174468249838 0.030028200506033911 0 -0.42158087689798668 0.032914769446770492 0 -0.44297011017848281 0.02707887027054981 0 -0.43740981058492812 0.01004998492246997 0 -0.42858174468249838 0.030028200506033911 0 -0.43740981058492812 0.01004998492246997 0 -0.42292027786463471 0.01349413118407828 0 -0.424969395700869 0.026775135554755129 0 -0.43740981058492812 0.01004998492246997 0 -0.42858174468249838 0.030028200506033911 0 -0.43740981058492812 0.01004998492246997 0 -0.424969395700869 0.026775135554755129 0 -0.42858174468249838 0.030028200506033911 0 -0.424969395700869 0.026775135554755129 0 -0.42858174468249838 0.030028200506033911 0 -0.43782739213417787 0.038354276372430232 0 -0.44297011017848281 0.02707887027054981 0 -0.42858174468249838 0.030028200506033911 0 -0.43782739213417787 0.038354276372430232 0 -0.42858174468249838 0.030028200506033911 0 -0.42345682706553001 0.041626064651069543 0 -0.43782739213417787 0.038354276372430232 0 -0.42345682706553001 0.041626064651069543 0 -0.43187248081207541 0.055496176207803817 0 -0.43782739213417787 0.038354276372430232 0 -0.42858174468249838 0.030028200506033911 0 -0.43782739213417787 0.038354276372430232 0 -0.42345682706553001 0.041626064651069543 0 -0.42858174468249838 0.030028200506033911 0 -0.42345682706553001 0.041626064651069543 0 -0.42158087689798668 0.032914769446770492 0 -0.42858174468249838 0.030028200506033911 0 -0.42345682706553001 0.041626064651069543 0 -0.42345682706553001 0.041626064651069543 0 -0.43187248081207541 0.055496176207803817 0 -0.4177568865966339 0.054525225210098782 0 -0.43187248081207541 0.055496176207803817 0 -0.4177568865966339 0.054525225210098782 0 -0.41753301535116211 0.067129086497859855 0 -0.42345682706553001 0.041626064651069543 0 -0.4177568865966339 0.054525225210098782 0 -0.40276573021624068 0.046336866753853997 0 -0.4177568865966339 0.054525225210098782 0 -0.40750332447406851 0.057375884956624552 0 -0.41753301535116211 0.067129086497859855 0 -0.42345682706553001 0.041626064651069543 0 -0.4177568865966339 0.054525225210098782 0 -0.4177568865966339 0.054525225210098782 0 -0.40750332447406851 0.057375884956624552 0 -0.40276573021624068 0.046336866753853997 0 -0.42345682706553001 0.041626064651069543 0 -0.40276573021624068 0.046336866753853997 0 -0.42345682706553001 0.041626064651069543 0 -0.41020444479839763 0.039492741198042178 0 -0.40276573021624068 0.046336866753853997 0 -0.42345682706553001 0.041626064651069543 0 -0.41436175989852531 0.033604495869393458 0 -0.42158087689798668 0.032914769446770492 0 -0.42345682706553001 0.041626064651069543 0 -0.41436175989852531 0.033604495869393458 0 -0.41020444479839763 0.039492741198042178 0 -0.41896391809246269 0.029132761591660509 0 -0.41436175989852531 0.033604495869393458 0 -0.42158087689798668 0.032914769446770492 0 -0.41436175989852531 0.033604495869393458 0 -0.41020444479839763 0.039492741198042178 0 -0.40023346201329341 0.036403537517851137 0 -0.40276573021624068 0.046336866753853997 0 -0.38207463336695202 0.051047668856640811 0 -0.38772007791329738 0.03985096685417347 0 -0.41020444479839763 0.039492741198042178 0 -0.40023346201329341 0.036403537517851137 0 -0.40276573021624068 0.046336866753853997 0 -0.40023346201329341 0.036403537517851137 0 -0.40276573021624068 0.046336866753853997 0 -0.38772007791329738 0.03985096685417347 0 -0.40023346201329341 0.036403537517851137 0 -0.38772007791329738 0.03985096685417347 0 -0.38925836826538629 0.030805614435688099 0 -0.40276573021624068 0.046336866753853997 0 -0.38207463336695202 0.051047668856640811 0 -0.40276573021624068 0.046336866753853997 0 -0.39689466156197101 0.057407184083191301 0 -0.38207463336695202 0.051047668856640811 0 -0.40750332447406851 0.057375884956624552 0 -0.39689466156197101 0.057407184083191301 0 -0.40210564328563447 0.066115584712721373 0 -0.40750332447406851 0.057375884956624552 0 -0.40276573021624068 0.046336866753853997 0 -0.39689466156197101 0.057407184083191301 0 -0.38207463336695202 0.051047668856640811 0 -0.38848633305814179 0.065600711414542545 0 -0.36891219827968119 0.060077996683558232 0 -0.39689466156197101 0.057407184083191301 0 -0.38207463336695202 0.051047668856640811 0 -0.38848633305814179 0.065600711414542545 0 -0.38772007791329738 0.03985096685417347 0 -0.37937813184432773 0.031366277704107569 0 -0.38925836826538629 0.030805614435688099 0 -0.38207463336695202 0.051047668856640811 0 -0.38772007791329738 0.03985096685417347 0 -0.37261014177358448 0.043145835856899219 0 -0.38772007791329738 0.03985096685417347 0 -0.37937813184432773 0.031366277704107569 0 -0.37261014177358448 0.043145835856899219 0 -0.37937813184432773 0.031366277704107569 0 -0.38391758338059062 0.022870450659759161 0 -0.37479293228070759 0.022502646493578662 0 -0.37937813184432773 0.031366277704107569 0 -0.38925836826538629 0.030805614435688099 0 -0.38391758338059062 0.022870450659759161 0 -0.38925836826538629 0.030805614435688099 0 -0.38391758338059062 0.022870450659759161 0 -0.3946160130735708 0.021551959563878339 0 -0.38391758338059062 0.022870450659759161 0 -0.38667067902898572 0.013842153393714489 0 -0.3946160130735708 0.021551959563878339 0 -0.38391758338059062 0.022870450659759161 0 -0.3778438638662554 0.014761087644765769 0 -0.38667067902898572 0.013842153393714489 0 -0.38391758338059062 0.022870450659759161 0 -0.3778438638662554 0.014761087644765769 0 -0.37479293228070759 0.022502646493578662 0 -0.3778438638662554 0.014761087644765769 0 -0.38165634421242611 0.0056742618597281089 0 -0.38667067902898572 0.013842153393714489 0 -0.3778438638662554 0.014761087644765769 0 -0.38165634421242611 0.0056742618597281089 0 -0.37464316483836829 0.0066416053135349984 0 -0.37774077980655368 -0.001289555558904682 0 -0.38165634421242611 0.0056742618597281089 0 -0.37464316483836829 0.0066416053135349984 0 -0.3848191179490616 -0.0027051675553946518 0 -0.37774077980655368 -0.001289555558904682 0 -0.38165634421242611 0.0056742618597281089 0 -0.3848191179490616 -0.0027051675553946518 0 -0.38165634421242611 0.0056742618597281089 0 -0.38845980705381639 0.0057813395070211177 0 -0.39408165103759368 -0.0019794594859314238 0 -0.3848191179490616 -0.0027051675553946518 0 -0.38845980705381639 0.0057813395070211177 0 -0.38845980705381639 0.0057813395070211177 0 -0.38667067902898572 0.013842153393714489 0 -0.39627830677719 0.008853295208583448 0 -0.38165634421242611 0.0056742618597281089 0 -0.38845980705381639 0.0057813395070211177 0 -0.38667067902898572 0.013842153393714489 0 -0.38667067902898572 0.013842153393714489 0 -0.39627830677719 0.008853295208583448 0 -0.3946160130735708 0.021551959563878339 0 -0.39408165103759368 -0.0019794594859314238 0 -0.38845980705381639 0.0057813395070211177 0 -0.39627830677719 0.008853295208583448 0 -0.40352261506359649 -0.001038070178381474 0 -0.39408165103759368 -0.0019794594859314238 0 -0.39627830677719 0.008853295208583448 0 -0.40352261506359649 -0.001038070178381474 0 -0.40909120882054839 0.01273065398649661 0 -0.39627830677719 0.008853295208583448 0 -0.40909120882054839 0.01273065398649661 0 -0.39627830677719 0.008853295208583448 0 -0.3946160130735708 0.021551959563878339 0 -0.40909120882054839 0.01273065398649661 0 -0.40023346201329341 0.036403537517851137 0 -0.3946160130735708 0.021551959563878339 0 -0.40909120882054839 0.01273065398649661 0 -0.40023346201329341 0.036403537517851137 0 -0.40023346201329341 0.036403537517851137 0 -0.38925836826538629 0.030805614435688099 0 -0.3946160130735708 0.021551959563878339 0 -0.38696142946532958 0.1003701901717608 0 -0.40164011277457379 0.081352107660276216 0 -0.40864304721671202 0.1107171055473533 0 -0.38750957741872682 0.11885909540365321 0 -0.40864304721671202 0.1107171055473533 0 -0.39401402549175851 0.1361747599337243 0 -0.38750957741872682 0.11885909540365321 0 -0.38696142946532958 0.1003701901717608 0 -0.40864304721671202 0.1107171055473533 0 -0.38750957741872682 0.11885909540365321 0 -0.38696142946532958 0.1003701901717608 0 -0.36904533532088801 0.1177582563576956 0 -0.38696142946532958 0.1003701901717608 0 -0.37090825683648998 0.098456277756480637 0 -0.36904533532088801 0.1177582563576956 0 -0.37929074908003868 0.077603726490867345 0 -0.40164011277457379 0.081352107660276216 0 -0.38696142946532958 0.1003701901717608 0 -0.37929074908003868 0.077603726490867345 0 -0.40164011277457379 0.081352107660276216 0 -0.38696142946532958 0.1003701901717608 0 -0.37929074908003868 0.077603726490867345 0 -0.37090825683648998 0.098456277756480637 0 -0.37929074908003868 0.077603726490867345 0 -0.38848633305814179 0.065600711414542545 0 -0.36891219827968119 0.060077996683558232 0 -0.37929074908003868 0.077603726490867345 0 -0.38848633305814179 0.065600711414542545 0 -0.40164011277457379 0.081352107660276216 0 -0.38848633305814179 0.065600711414542545 0 -0.40210564328563447 0.066115584712721373 0 -0.40164011277457379 0.081352107660276216 0 -0.39689466156197101 0.057407184083191301 0 -0.38848633305814179 0.065600711414542545 0 -0.40210564328563447 0.066115584712721373 0 -0.40164011277457379 0.081352107660276216 0 -0.42398947646910912 0.085100488829685086 0 -0.40164011277457379 0.081352107660276216 0 -0.42398947646910912 0.085100488829685086 0 -0.40864304721671202 0.1107171055473533 0 -0.40210564328563447 0.066115584712721373 0 -0.40164011277457379 0.081352107660276216 0 -0.41753301535116211 0.067129086497859855 0 -0.40164011277457379 0.081352107660276216 0 -0.41753301535116211 0.067129086497859855 0 -0.42398947646910912 0.085100488829685086 0 -0.40750332447406851 0.057375884956624552 0 -0.40210564328563447 0.066115584712721373 0 -0.41753301535116211 0.067129086497859855 0 -0.41753301535116211 0.067129086497859855 0 -0.42398947646910912 0.085100488829685086 0 -0.43763284036668942 0.072255399145110422 0 -0.43187248081207541 0.055496176207803817 0 -0.41753301535116211 0.067129086497859855 0 -0.43763284036668942 0.072255399145110422 0 -0.42398947646910912 0.085100488829685086 0 -0.44633884016364428 0.088848869999093971 0 -0.42398947646910912 0.085100488829685086 0 -0.43763284036668942 0.072255399145110422 0 -0.44633884016364428 0.088848869999093971 0 -0.42398947646910912 0.085100488829685086 0 -0.42906186480059683 0.10519001099972999 0 -0.44633884016364428 0.088848869999093971 0 -0.42398947646910912 0.085100488829685086 0 -0.42906186480059683 0.10519001099972999 0 -0.40864304721671202 0.1107171055473533 0 -0.40864304721671202 0.1107171055473533 0 -0.43267942878230348 0.12559175737704789 0 -0.42906186480059683 0.10519001099972999 0 -0.40864304721671202 0.1107171055473533 0 -0.43267942878230348 0.12559175737704789 0 -0.42906186480059683 0.10519001099972999 0 -0.4489383204882843 0.11104189391905871 0 -0.43267942878230348 0.12559175737704789 0 -0.4489383204882843 0.11104189391905871 0 -0.45289828098281221 0.1241297055338681 0 -0.43267942878230348 0.12559175737704789 0 -0.4489383204882843 0.11104189391905871 0 -0.43267942878230348 0.12559175737704789 0 -0.42906186480059683 0.10519001099972999 0 -0.4489383204882843 0.11104189391905871 0 -0.44633884016364428 0.088848869999093971 0 -0.4489383204882843 0.11104189391905871 0 -0.44633884016364428 0.088848869999093971 0 -0.47121921728662652 0.096397536200283296 0 -0.46607010556719342 0.11973313861048911 0 -0.47121921728662652 0.096397536200283296 0 -0.4489383204882843 0.11104189391905871 0 -0.46607010556719342 0.11973313861048911 0 -0.47121921728662652 0.096397536200283296 0 -0.4489383204882843 0.11104189391905871 0 -0.45289828098281221 0.1241297055338681 0 -0.46607010556719342 0.11973313861048911 0 -0.45709786057011947 0.055708105081253657 0 -0.43763284036668942 0.072255399145110422 0 -0.45544766770060358 0.07348919590478746 0 -0.43763284036668942 0.072255399145110422 0 -0.44633884016364428 0.088848869999093971 0 -0.45544766770060358 0.07348919590478746 0 -0.44633884016364428 0.088848869999093971 0 -0.45544766770060358 0.07348919590478746 0 -0.47121921728662652 0.096397536200283296 0 -0.45544766770060358 0.07348919590478746 0 -0.47636832900606041 0.073061933790077832 0 -0.47121921728662652 0.096397536200283296 0 -0.45709786057011947 0.055708105081253657 0 -0.47636832900606041 0.073061933790077832 0 -0.45709786057011947 0.055708105081253657 0 -0.45544766770060358 0.07348919590478746 0 -0.47636832900606041 0.073061933790077832 0 -0.48351815486210709 0.053492846644399093 0 -0.47636832900606041 0.073061933790077832 0 -0.49140909277123612 0.074197219851226057 0 -0.47636832900606041 0.073061933790077832 0 -0.48274454235378189 0.091705374172880549 0 -0.47121921728662652 0.096397536200283296 0 -0.47636832900606041 0.073061933790077832 0 -0.47121921728662652 0.096397536200283296 0 -0.47636832900606041 0.073061933790077832 0 -0.49715897998801373 0.091784747772784503 0 -0.5 0.089727210191415163 0 -0.49715897998801373 0.091784747772784503 0 -0.49140909277123612 0.074197219851226057 0 -0.47636832900606041 0.073061933790077832 0 -0.48274454235378189 0.091705374172880549 0 -0.49715897998801373 0.091784747772784503 0 -0.47636832900606041 0.073061933790077832 0 -0.49715897998801373 0.091784747772784503 0 -0.49140909277123612 0.074197219851226057 0 -0.5 0.089727210191415163 0 -0.5 0.062919360857453976 0 -0.49140909277123612 0.074197219851226057 0 -0.48351815486210709 0.053492846644399093 0 -0.5 0.062919360857453976 0 -0.49140909277123612 0.074197219851226057 0 -0.46607010556719342 0.11973313861048911 0 -0.48623164313442779 0.1055772789283768 0 -0.48453668432005692 0.123143207324586 0 -0.46607010556719342 0.11973313861048911 0 -0.47121921728662652 0.096397536200283296 0 -0.48623164313442779 0.1055772789283768 0 -0.48274454235378189 0.091705374172880549 0 -0.47121921728662652 0.096397536200283296 0 -0.48623164313442779 0.1055772789283768 0 -0.5 0.089727210191415163 0 -0.49715897998801373 0.091784747772784503 0 -0.5 0.1165350595253765 0 -0.49715897998801373 0.091784747772784503 0 -0.48623164313442779 0.1055772789283768 0 -0.5 0.1165350595253765 0 -0.48274454235378189 0.091705374172880549 0 -0.49715897998801373 0.091784747772784503 0 -0.48623164313442779 0.1055772789283768 0 -0.48623164313442779 0.1055772789283768 0 -0.5 0.1165350595253765 0 -0.48453668432005692 0.123143207324586 0 -0.5 0.1165350595253765 0 -0.48453668432005692 0.123143207324586 0 -0.5 0.1433429088593379 0 -0.48453668432005692 0.123143207324586 0 -0.48049738108946538 0.1379484740379 0 -0.5 0.1433429088593379 0 -0.46607010556719342 0.11973313861048911 0 -0.48453668432005692 0.123143207324586 0 -0.48049738108946538 0.1379484740379 0 -0.46607010556719342 0.11973313861048911 0 -0.48049738108946538 0.1379484740379 0 -0.46092099384776192 0.14306874102069511 0 -0.48464943840857888 0.15775282940309851 0 -0.46990863904630059 0.1670362475492525 0 -0.46092099384776192 0.14306874102069511 0 -0.48464943840857888 0.15775282940309851 0 -0.46092099384776192 0.14306874102069511 0 -0.48049738108946538 0.1379484740379 0 -0.48464943840857888 0.15775282940309851 0 -0.46092099384776192 0.14306874102069511 0 -0.48049738108946538 0.1379484740379 0 -0.5 0.1433429088593379 0 -0.48464943840857888 0.15775282940309851 0 -0.48464943840857888 0.15775282940309851 0 -0.5 0.17015075819329931 0 -0.4898809761324775 0.17912292006808481 0 -0.5 0.1433429088593379 0 -0.48464943840857888 0.15775282940309851 0 -0.5 0.17015075819329931 0 -0.48464943840857888 0.15775282940309851 0 -0.4898809761324775 0.17912292006808481 0 -0.47865635922375932 0.17909963177513319 0 -0.5 0.17015075819329931 0 -0.4898809761324775 0.17912292006808481 0 -0.5 0.19695860752726069 0 -0.4898809761324775 0.17912292006808481 0 -0.47865635922375932 0.17909963177513319 0 -0.48609908303004917 0.1916527734416324 0 -0.47865635922375932 0.17909963177513319 0 -0.47279817792341111 0.1948006201282925 0 -0.47865635922375932 0.17909963177513319 0 -0.46589335310649882 0.18744802338852329 0 -0.47279817792341111 0.1948006201282925 0 -0.47865635922375932 0.17909963177513319 0 -0.46927870962167312 0.17493875400548389 0 -0.46990863904630059 0.1670362475492525 0 -0.47865635922375932 0.17909963177513319 0 -0.46927870962167312 0.17493875400548389 0 -0.46555461593459269 0.18128722400797501 0 -0.47865635922375932 0.17909963177513319 0 -0.46589335310649882 0.18744802338852329 0 -0.46555461593459269 0.18128722400797501 0 -0.48464943840857888 0.15775282940309851 0 -0.47865635922375932 0.17909963177513319 0 -0.46990863904630059 0.1670362475492525 0 -0.45742932361540911 0.15889287394486271 0 -0.45393765338305497 0.17471700686903011 0 -0.46990863904630059 0.1670362475492525 0 -0.45742932361540911 0.15889287394486271 0 -0.46092099384776192 0.14306874102069511 0 -0.45742932361540911 0.15889287394486271 0 -0.46299522428203971 0.17233191268957501 0 -0.45393765338305497 0.17471700686903011 0 -0.46927870962167312 0.17493875400548389 0 -0.46990863904630059 0.1670362475492525 0 -0.46299522428203971 0.17233191268957501 0 -0.46990863904630059 0.1670362475492525 0 -0.45742932361540911 0.15889287394486271 0 -0.46299522428203971 0.17233191268957501 0 -0.46589335310649882 0.18744802338852329 0 -0.46555461593459269 0.18128722400797501 0 -0.45393765338305497 0.17471700686903011 0 -0.46589335310649882 0.18744802338852329 0 -0.46555461593459269 0.18128722400797501 0 -0.46927870962167312 0.17493875400548389 0 -0.46555461593459269 0.18128722400797501 0 -0.46299522428203971 0.17233191268957501 0 -0.46555461593459269 0.18128722400797501 0 -0.46299522428203971 0.17233191268957501 0 -0.45393765338305497 0.17471700686903011 0 -0.46589335310649882 0.18744802338852329 0 -0.45393765338305497 0.17471700686903011 0 -0.45393765338305497 0.17471700686903011 0 -0.44047241453070329 0.18324079402305421 0 -0.44820564853932793 0.20069426145875721 0 -0.45393765338305497 0.17471700686903011 0 -0.44047241453070329 0.18324079402305421 0 -0.44174290600336708 0.16173144065936321 0 -0.45742932361540911 0.15889287394486271 0 -0.44174290600336708 0.16173144065936321 0 -0.44616928685712581 0.1494742970518641 0 -0.45742932361540911 0.15889287394486271 0 -0.45393765338305497 0.17471700686903011 0 -0.44174290600336708 0.16173144065936321 0 -0.45393765338305497 0.17471700686903011 0 -0.44174290600336708 0.16173144065936321 0 -0.44174290600336708 0.16173144065936321 0 -0.44616928685712581 0.1494742970518641 0 -0.43187713239064979 0.1573343508491826 0 -0.44616928685712581 0.1494742970518641 0 -0.43700896048386301 0.14249666109927989 0 -0.43187713239064979 0.1573343508491826 0 -0.44616928685712581 0.1494742970518641 0 -0.44680021131503311 0.13433024919887079 0 -0.46092099384776192 0.14306874102069511 0 -0.44616928685712581 0.1494742970518641 0 -0.44680021131503311 0.13433024919887079 0 -0.43700896048386301 0.14249666109927989 0 -0.45289828098281221 0.1241297055338681 0 -0.44680021131503311 0.13433024919887079 0 -0.43267942878230348 0.12559175737704789 0 -0.44680021131503311 0.13433024919887079 0 -0.43267942878230348 0.12559175737704789 0 -0.43700896048386301 0.14249666109927989 0 -0.44680021131503311 0.13433024919887079 0 -0.43267942878230348 0.12559175737704789 0 -0.45289828098281221 0.1241297055338681 0 -0.44680021131503311 0.13433024919887079 0 -0.46092099384776192 0.14306874102069511 0 -0.46607010556719342 0.11973313861048911 0 -0.46092099384776192 0.14306874102069511 0 -0.45289828098281221 0.1241297055338681 0 -0.46607010556719342 0.11973313861048911 0 -0.46092099384776192 0.14306874102069511 0 -0.44680021131503311 0.13433024919887079 0 -0.46092099384776192 0.14306874102069511 0 -0.45742932361540911 0.15889287394486271 0 -0.46092099384776192 0.14306874102069511 0 -0.45742932361540911 0.15889287394486271 0 -0.44616928685712581 0.1494742970518641 0 -0.46092099384776192 0.14306874102069511 0 -0.46853242371352971 0.23544625301742969 0 -0.46993231893463527 0.26090691788180947 0 -0.48177750529808522 0.24619974485466931 0 -0.46853242371352971 0.23544625301742969 0 -0.46993231893463527 0.26090691788180947 0 -0.48177750529808522 0.24619974485466931 0 -0.48375626182904402 0.22755154475287301 0 -0.46853242371352971 0.23544625301742969 0 -0.48177750529808522 0.24619974485466931 0 -0.5 0.2461359573144368 0 -0.48375626182904402 0.22755154475287301 0 -0.5 0.2461359573144368 0 -0.48375626182904402 0.22755154475287301 0 -0.49999999999999978 0.22376645686122221 0 -0.48375626182904402 0.22755154475287301 0 -0.48639908896170481 0.20928353849475789 0 -0.5 0.2461359573144368 0 -0.49999999999999978 0.22376645686122221 0 -0.48375626182904402 0.22755154475287301 0 -0.47173343442327142 0.22048762952866541 0 -0.46713252849242448 0.20998558815304991 0 -0.46853242371352971 0.23544625301742969 0 -0.48375626182904402 0.22755154475287301 0 -0.47173343442327142 0.22048762952866541 0 -0.4670472636537164 0.20843482960316059 0 -0.48375626182904402 0.22755154475287301 0 -0.47173343442327142 0.22048762952866541 0 -0.46853242371352971 0.23544625301742969 0 -0.48375626182904402 0.22755154475287301 0 -0.4670472636537164 0.20843482960316059 0 -0.48639908896170481 0.20928353849475789 0 -0.47279817792341111 0.1948006201282925 0 -0.4670472636537164 0.20843482960316059 0 -0.48375626182904402 0.22755154475287301 0 -0.48639908896170481 0.20928353849475789 0 -0.4670472636537164 0.20843482960316059 0 -0.49999999999999978 0.22376645686122221 0 -0.48639908896170481 0.20928353849475789 0 -0.5 0.19695860752726069 0 -0.49999999999999978 0.22376645686122221 0 -0.48639908896170481 0.20928353849475789 0 -0.48639908896170481 0.20928353849475789 0 -0.5 0.19695860752726069 0 -0.48609908303004917 0.1916527734416324 0 -0.4898809761324775 0.17912292006808481 0 -0.5 0.19695860752726069 0 -0.48609908303004917 0.1916527734416324 0 -0.48639908896170481 0.20928353849475789 0 -0.48609908303004917 0.1916527734416324 0 -0.47279817792341111 0.1948006201282925 0 -0.47865635922375932 0.17909963177513319 0 -0.48609908303004917 0.1916527734416324 0 -0.47279817792341111 0.1948006201282925 0 -0.48639908896170481 0.20928353849475789 0 -0.47279817792341111 0.1948006201282925 0 -0.47279817792341111 0.1948006201282925 0 -0.4670472636537164 0.20843482960316059 0 -0.46589335310649882 0.18744802338852329 0 -0.47279817792341111 0.1948006201282925 0 -0.46589335310649882 0.18744802338852329 0 -0.4603250720810298 0.20074399020462361 0 -0.4670472636537164 0.20843482960316059 0 -0.46589335310649882 0.18744802338852329 0 -0.45393765338305497 0.17471700686903011 0 -0.44820564853932793 0.20069426145875721 0 -0.46589335310649882 0.18744802338852329 0 -0.4603250720810298 0.20074399020462361 0 -0.44820564853932793 0.20069426145875721 0 -0.46589335310649882 0.18744802338852329 0 -0.47279817792341111 0.1948006201282925 0 -0.4670472636537164 0.20843482960316059 0 -0.46589335310649882 0.18744802338852329 0 -0.4670472636537164 0.20843482960316059 0 -0.45393765338305497 0.17471700686903011 0 -0.44820564853932793 0.20069426145875721 0 -0.44820564853932793 0.20069426145875721 0 -0.45427794118362658 0.21265328965042851 0 -0.44247364369559788 0.22667151604848371 0 -0.44820564853932793 0.20069426145875721 0 -0.44247364369559788 0.22667151604848371 0 -0.44820564853932793 0.20069426145875721 0 -0.44247364369559788 0.22667151604848371 0 -0.42336320141575168 0.21609666274764849 0 -0.45880341375183131 0.2186303689721085 0 -0.45427794118362658 0.21265328965042851 0 -0.46188137931700068 0.21002659871962689 0 -0.45880341375183131 0.2186303689721085 0 -0.45427794118362658 0.21265328965042851 0 -0.4536201791639074 0.2236252940046442 0 -0.4603250720810298 0.20074399020462361 0 -0.45427794118362658 0.21265328965042851 0 -0.46188137931700068 0.21002659871962689 0 -0.4603250720810298 0.20074399020462361 0 -0.44820564853932793 0.20069426145875721 0 -0.45427794118362658 0.21265328965042851 0 -0.4603250720810298 0.20074399020462361 0 -0.46188137931700068 0.21002659871962689 0 -0.4670472636537164 0.20843482960316059 0 -0.4603250720810298 0.20074399020462361 0 -0.4670472636537164 0.20843482960316059 0 -0.46188137931700068 0.21002659871962689 0 -0.4670472636537164 0.20843482960316059 0 -0.46713252849242448 0.20998558815304991 0 -0.4670472636537164 0.20843482960316059 0 -0.46713252849242448 0.20998558815304991 0 -0.47173343442327142 0.22048762952866541 0 -0.4670472636537164 0.20843482960316059 0 -0.46713252849242448 0.20998558815304991 0 -0.45880341375183131 0.2186303689721085 0 -0.46188137931700068 0.21002659871962689 0 -0.46713252849242448 0.20998558815304991 0 -0.46713252849242448 0.20998558815304991 0 -0.45710504060219709 0.23686107433279269 0 -0.46713252849242448 0.20998558815304991 0 -0.45710504060219709 0.23686107433279269 0 -0.46853242371352971 0.23544625301742969 0 -0.45880341375183131 0.2186303689721085 0 -0.46713252849242448 0.20998558815304991 0 -0.45710504060219709 0.23686107433279269 0 -0.45880341375183131 0.2186303689721085 0 -0.4536201791639074 0.2236252940046442 0 -0.45710504060219709 0.23686107433279269 0 -0.46713252849242448 0.20998558815304991 0 -0.46853242371352971 0.23544625301742969 0 -0.45427794118362658 0.21265328965042851 0 -0.4536201791639074 0.2236252940046442 0 -0.44247364369559788 0.22667151604848371 0 -0.4536201791639074 0.2236252940046442 0 -0.44247364369559788 0.22667151604848371 0 -0.45710504060219709 0.23686107433279269 0 -0.44247364369559788 0.22667151604848371 0 -0.4367416388518679 0.25264877063821017 0 -0.44247364369559788 0.22667151604848371 0 -0.45710504060219709 0.23686107433279269 0 -0.4367416388518679 0.25264877063821017 0 -0.45710504060219709 0.23686107433279269 0 -0.46853242371352971 0.23544625301742969 0 -0.46993231893463527 0.26090691788180947 0 -0.41931835140954682 0.23739665832436521 0 -0.40367044579520373 0.24132688110038639 0 -0.41175872593851298 0.2549478601346914 0 -0.41931835140954682 0.23739665832436521 0 -0.40790513800462019 0.22799805468035339 0 -0.40367044579520373 0.24132688110038639 0 -0.41931835140954682 0.23739665832436521 0 -0.4367416388518679 0.25264877063821017 0 -0.41175872593851298 0.2549478601346914 0 -0.44247364369559788 0.22667151604848371 0 -0.41931835140954682 0.23739665832436521 0 -0.4367416388518679 0.25264877063821017 0 -0.44247364369559788 0.22667151604848371 0 -0.41931835140954682 0.23739665832436521 0 -0.42336320141575168 0.21609666274764849 0 -0.41931835140954682 0.23739665832436521 0 -0.40790513800462019 0.22799805468035339 0 -0.42336320141575168 0.21609666274764849 0 -0.40790513800462019 0.22799805468035339 0 -0.42336320141575168 0.21609666274764849 0 -0.40538393777915788 0.2123952851453417 0 -0.42336320141575168 0.21609666274764849 0 -0.42071240458675369 0.1920614743917832 0 -0.40538393777915788 0.2123952851453417 0 -0.44820564853932793 0.20069426145875721 0 -0.42336320141575168 0.21609666274764849 0 -0.42071240458675369 0.1920614743917832 0 -0.44047241453070329 0.18324079402305421 0 -0.44820564853932793 0.20069426145875721 0 -0.42071240458675369 0.1920614743917832 0 -0.42071240458675369 0.1920614743917832 0 -0.40538393777915788 0.2123952851453417 0 -0.42071240458675369 0.1920614743917832 0 -0.4022878927449296 0.1970928012265635 0 -0.40298680868332198 0.18508216307238631 0 -0.42071240458675369 0.1920614743917832 0 -0.4022878927449296 0.1970928012265635 0 -0.40538393777915788 0.2123952851453417 0 -0.4022878927449296 0.1970928012265635 0 -0.39286614404695941 0.1920732104686422 0 -0.40298680868332198 0.18508216307238631 0 -0.4022878927449296 0.1970928012265635 0 -0.39286614404695941 0.1920732104686422 0 -0.39380007669083689 0.206464460861051 0 -0.38422654444444693 0.2008322729754812 0 -0.38088029112643113 0.1825210369279657 0 -0.38422654444444693 0.2008322729754812 0 -0.38088029112643113 0.1825210369279657 0 -0.36802074197771562 0.19700904511440151 0 -0.38422654444444693 0.2008322729754812 0 -0.37368745339656201 0.20924711939208951 0 -0.36802074197771562 0.19700904511440151 0 -0.39286614404695941 0.1920732104686422 0 -0.38422654444444693 0.2008322729754812 0 -0.38088029112643113 0.1825210369279657 0 -0.39286614404695941 0.1920732104686422 0 -0.38422654444444693 0.2008322729754812 0 -0.39380007669083689 0.206464460861051 0 -0.38422654444444693 0.2008322729754812 0 -0.38757279776246373 0.21914350902299659 0 -0.38757279776246373 0.21914350902299659 0 -0.36800338097472479 0.22147713987588341 0 -0.37368745339656201 0.20924711939208951 0 -0.38422654444444693 0.2008322729754812 0 -0.39380007669083689 0.206464460861051 0 -0.38757279776246373 0.21914350902299659 0 -0.38422654444444693 0.2008322729754812 0 -0.38757279776246373 0.21914350902299659 0 -0.37368745339656201 0.20924711939208951 0 -0.39141353052387118 0.2186855059784025 0 -0.39380007669083689 0.206464460861051 0 -0.38757279776246373 0.21914350902299659 0 -0.39141353052387118 0.2186855059784025 0 -0.39380007669083689 0.206464460861051 0 -0.40538393777915788 0.2123952851453417 0 -0.4022878927449296 0.1970928012265635 0 -0.39380007669083689 0.206464460861051 0 -0.40538393777915788 0.2123952851453417 0 -0.40790513800462019 0.22799805468035339 0 -0.39005547097156312 0.23272909589890109 0 -0.40367044579520373 0.24132688110038639 0 -0.39141353052387118 0.2186855059784025 0 -0.40538393777915788 0.2123952851453417 0 -0.39005547097156312 0.23272909589890109 0 -0.40790513800462019 0.22799805468035339 0 -0.40538393777915788 0.2123952851453417 0 -0.39005547097156312 0.23272909589890109 0 -0.40538393777915788 0.2123952851453417 0 -0.39005547097156312 0.23272909589890109 0 -0.38757279776246373 0.21914350902299659 0 -0.39005547097156312 0.23272909589890109 0 -0.38757279776246373 0.21914350902299659 0 -0.36800338097472479 0.22147713987588341 0 -0.39141353052387118 0.2186855059784025 0 -0.38757279776246373 0.21914350902299659 0 -0.39005547097156312 0.23272909589890109 0 -0.38757279776246373 0.21914350902299659 0 -0.37939186114838758 0.22424627805714001 0 -0.36800338097472479 0.22147713987588341 0 -0.38757279776246373 0.21914350902299659 0 -0.37939186114838758 0.22424627805714001 0 -0.39005547097156312 0.23272909589890109 0 -0.39141353052387118 0.2186855059784025 0 -0.38757279776246373 0.21914350902299659 0 -0.37939186114838758 0.22424627805714001 0 -0.37477717689163992 0.25299635056682518 0 -0.39005547097156312 0.23272909589890109 0 -0.39384597734802013 0.25347135609337229 0 -0.37477717689163992 0.25299635056682518 0 -0.37939186114838758 0.22424627805714001 0 -0.39005547097156312 0.23272909589890109 0 -0.37477717689163992 0.25299635056682518 0 -0.39005547097156312 0.23272909589890109 0 -0.37477717689163992 0.25299635056682518 0 -0.40367044579520373 0.24132688110038639 0 -0.41175872593851298 0.2549478601346914 0 -0.39384597734802013 0.25347135609337229 0 -0.39005547097156312 0.23272909589890109 0 -0.39384597734802013 0.25347135609337229 0 -0.39005547097156312 0.23272909589890109 0 -0.40367044579520373 0.24132688110038639 0 -0.39384597734802013 0.25347135609337229 0 -0.41485942150404181 0.14153864215909739 0 -0.41553858058260518 0.15317901213210369 0 -0.42574561826610652 0.14613969243370301 0 -0.41553858058260518 0.15317901213210369 0 -0.42574561826610652 0.14613969243370301 0 -0.42127399236650492 0.15770626544657529 0 -0.41485942150404181 0.14153864215909739 0 -0.41553858058260518 0.15317901213210369 0 -0.4044664398419977 0.15594807455379561 0 -0.40864304721671202 0.1107171055473533 0 -0.41485942150404181 0.14153864215909739 0 -0.43267942878230348 0.12559175737704789 0 -0.41485942150404181 0.14153864215909739 0 -0.43267942878230348 0.12559175737704789 0 -0.42574561826610652 0.14613969243370301 0 -0.43267942878230348 0.12559175737704789 0 -0.43700896048386301 0.14249666109927989 0 -0.42574561826610652 0.14613969243370301 0 -0.41485942150404181 0.14153864215909739 0 -0.43267942878230348 0.12559175737704789 0 -0.42574561826610652 0.14613969243370301 0 -0.43187713239064979 0.1573343508491826 0 -0.42127399236650492 0.15770626544657529 0 -0.43700896048386301 0.14249666109927989 0 -0.42574561826610652 0.14613969243370301 0 -0.43187713239064979 0.1573343508491826 0 -0.43187713239064979 0.1573343508491826 0 -0.42946357341586749 0.17496324995209989 0 -0.4216380035134229 0.16659483191912641 0 -0.44174290600336708 0.16173144065936321 0 -0.43187713239064979 0.1573343508491826 0 -0.42946357341586749 0.17496324995209989 0 -0.43187713239064979 0.1573343508491826 0 -0.42127399236650492 0.15770626544657529 0 -0.4216380035134229 0.16659483191912641 0 -0.44047241453070329 0.18324079402305421 0 -0.44174290600336708 0.16173144065936321 0 -0.42946357341586749 0.17496324995209989 0 -0.44047241453070329 0.18324079402305421 0 -0.42071240458675369 0.1920614743917832 0 -0.42946357341586749 0.17496324995209989 0 -0.42071240458675369 0.1920614743917832 0 -0.42946357341586749 0.17496324995209989 0 -0.41235879422937732 0.17543682721938669 0 -0.42071240458675369 0.1920614743917832 0 -0.41235879422937732 0.17543682721938669 0 -0.40298680868332198 0.18508216307238631 0 -0.42946357341586749 0.17496324995209989 0 -0.41235879422937732 0.17543682721938669 0 -0.4216380035134229 0.16659483191912641 0 -0.41553858058260518 0.15317901213210369 0 -0.42127399236650492 0.15770626544657529 0 -0.41302135350813218 0.1630654313638546 0 -0.42127399236650492 0.15770626544657529 0 -0.4216380035134229 0.16659483191912641 0 -0.41302135350813218 0.1630654313638546 0 -0.41235879422937732 0.17543682721938669 0 -0.4216380035134229 0.16659483191912641 0 -0.41302135350813218 0.1630654313638546 0 -0.41235879422937732 0.17543682721938669 0 -0.41302135350813218 0.1630654313638546 0 -0.40449990094882532 0.16792382984329149 0 -0.41302135350813218 0.1630654313638546 0 -0.40449990094882532 0.16792382984329149 0 -0.4044664398419977 0.15594807455379561 0 -0.41553858058260518 0.15317901213210369 0 -0.41302135350813218 0.1630654313638546 0 -0.4044664398419977 0.15594807455379561 0 -0.3926733654842145 0.1692345557408807 0 -0.4044664398419977 0.15594807455379561 0 -0.40449990094882532 0.16792382984329149 0 -0.3926733654842145 0.1692345557408807 0 -0.40078474618547688 0.17571320347163299 0 -0.40449990094882532 0.16792382984329149 0 -0.3926733654842145 0.1692345557408807 0 -0.4044664398419977 0.15594807455379561 0 -0.3926733654842145 0.1692345557408807 0 -0.39703941422577987 0.15748552694114659 0 -0.4044664398419977 0.15594807455379561 0 -0.40298680868332198 0.18508216307238631 0 -0.40078474618547688 0.17571320347163299 0 -0.39301525059178999 0.18044652774840561 0 -0.41235879422937732 0.17543682721938669 0 -0.40298680868332198 0.18508216307238631 0 -0.40078474618547688 0.17571320347163299 0 -0.41235879422937732 0.17543682721938669 0 -0.40449990094882532 0.16792382984329149 0 -0.40078474618547688 0.17571320347163299 0 -0.3926733654842145 0.1692345557408807 0 -0.40078474618547688 0.17571320347163299 0 -0.39301525059178999 0.18044652774840561 0 -0.39286614404695941 0.1920732104686422 0 -0.40298680868332198 0.18508216307238631 0 -0.39301525059178999 0.18044652774840561 0 -0.39286614404695941 0.1920732104686422 0 -0.39301525059178999 0.18044652774840561 0 -0.38088029112643113 0.1825210369279657 0 -0.3926733654842145 0.1692345557408807 0 -0.38088029112643113 0.1825210369279657 0 -0.3926733654842145 0.1692345557408807 0 -0.39301525059178999 0.18044652774840561 0 -0.38088029112643113 0.1825210369279657 0 -0.3926733654842145 0.1692345557408807 0 -0.37921940694751782 0.17343241172319571 0 -0.38088029112643113 0.1825210369279657 0 -0.37921940694751782 0.17343241172319571 0 -0.38088029112643113 0.1825210369279657 0 -0.37921940694751782 0.17343241172319571 0 -0.38088029112643113 0.1825210369279657 0 -0.37283571032282492 0.1791450959532255 0 -0.3784015845151173 0.16895715591276281 0 -0.37283571032282492 0.1791450959532255 0 -0.37921940694751782 0.17343241172319571 0 -0.3784015845151173 0.16895715591276281 0 -0.37283571032282492 0.1791450959532255 0 -0.37921940694751782 0.17343241172319571 0 -0.37283571032282492 0.1791450959532255 0 -0.39703941422577987 0.15748552694114659 0 -0.37921940694751782 0.17343241172319571 0 -0.38193020105096481 0.16249827228531991 0 -0.3784015845151173 0.16895715591276281 0 -0.38193020105096481 0.16249827228531991 0 -0.37372345991800282 0.14335770613522919 0 -0.39703941422577987 0.15748552694114659 0 -0.37921940694751782 0.17343241172319571 0 -0.3926733654842145 0.1692345557408807 0 -0.39703941422577987 0.15748552694114659 0 -0.37921940694751782 0.17343241172319571 0 -0.39703941422577987 0.15748552694114659 0 -0.38193020105096481 0.16249827228531991 0 -0.38598126975628672 0.1494316781992327 0 -0.37921940694751782 0.17343241172319571 0 -0.3784015845151173 0.16895715591276281 0 -0.38193020105096481 0.16249827228531991 0 -0.3784015845151173 0.16895715591276281 0 -0.38193020105096481 0.16249827228531991 0 -0.37921940694751782 0.17343241172319571 0 -0.3784015845151173 0.16895715591276281 0 -0.38598126975628672 0.1494316781992327 0 -0.39401402549175851 0.1361747599337243 0 -0.37372345991800282 0.14335770613522919 0 -0.38193020105096481 0.16249827228531991 0 -0.38598126975628672 0.1494316781992327 0 -0.37372345991800282 0.14335770613522919 0 -0.3784015845151173 0.16895715591276281 0 -0.37372345991800282 0.14335770613522919 0 -0.39703941422577987 0.15748552694114659 0 -0.38598126975628672 0.1494316781992327 0 -0.39401402549175851 0.1361747599337243 0 -0.41485942150404181 0.14153864215909739 0 -0.39703941422577987 0.15748552694114659 0 -0.39401402549175851 0.1361747599337243 0 -0.41485942150404181 0.14153864215909739 0 -0.39703941422577987 0.15748552694114659 0 -0.4044664398419977 0.15594807455379561 0 -0.41485942150404181 0.14153864215909739 0 -0.39703941422577987 0.15748552694114659 0 -0.40864304721671202 0.1107171055473533 0 -0.41485942150404181 0.14153864215909739 0 -0.39401402549175851 0.1361747599337243 0 -0.38750957741872682 0.11885909540365321 0 -0.37372345991800282 0.14335770613522919 0 -0.36904533532088801 0.1177582563576956 0 -0.38750957741872682 0.11885909540365321 0 -0.39401402549175851 0.1361747599337243 0 -0.37372345991800282 0.14335770613522919 0 -0.35823941519022368 0.13573745574644491 0 -0.37372345991800282 0.14335770613522919 0 -0.36904533532088801 0.1177582563576956 0 -0.37372345991800282 0.14335770613522919 0 -0.36904533532088801 0.1177582563576956 0 -0.35823941519022368 0.13573745574644491 0 -0.34455851703438989 0.13305210298766909 0 -0.35158166360451942 0.11704707172714621 0 -0.35823941519022368 0.13573745574644491 0 -0.34455851703438989 0.13305210298766909 0 -0.34873147585397152 0.15030858297792049 0 -0.35823941519022368 0.13573745574644491 0 -0.34873147585397152 0.15030858297792049 0 -0.36179603940957061 0.15290101429300901 0 -0.34873147585397152 0.15030858297792049 0 -0.34720568730415252 0.1616956217090188 0 -0.33647431770126862 0.14798842126345041 0 -0.34873147585397152 0.15030858297792049 0 -0.36179603940957061 0.15290101429300901 0 -0.35552330674067661 0.16014073544654131 0 -0.35823941519022368 0.13573745574644491 0 -0.36179603940957061 0.15290101429300901 0 -0.37372345991800282 0.14335770613522919 0 -0.3784015845151173 0.16895715591276281 0 -0.36179603940957061 0.15290101429300901 0 -0.37372345991800282 0.14335770613522919 0 -0.3784015845151173 0.16895715591276281 0 -0.36179603940957061 0.15290101429300901 0 -0.3628088848288224 0.16705289795690309 0 -0.3784015845151173 0.16895715591276281 0 -0.3628088848288224 0.16705289795690309 0 -0.36959790597703868 0.17377317275203899 0 -0.36179603940957061 0.15290101429300901 0 -0.3628088848288224 0.16705289795690309 0 -0.35552330674067661 0.16014073544654131 0 -0.38088029112643113 0.1825210369279657 0 -0.37283571032282492 0.1791450959532255 0 -0.36802074197771562 0.19700904511440151 0 -0.37283571032282492 0.1791450959532255 0 -0.36399845157591232 0.19532107462703119 0 -0.37283571032282492 0.1791450959532255 0 -0.36261880381503758 0.18828806813974089 0 -0.3784015845151173 0.16895715591276281 0 -0.36959790597703868 0.17377317275203899 0 -0.37283571032282492 0.1791450959532255 0 -0.36959790597703868 0.17377317275203899 0 -0.37283571032282492 0.1791450959532255 0 -0.36409588864576692 0.17933358541092431 0 -0.3628088848288224 0.16705289795690309 0 -0.36959790597703868 0.17377317275203899 0 -0.36409588864576692 0.17933358541092431 0 -0.3628088848288224 0.16705289795690309 0 -0.36409588864576692 0.17933358541092431 0 -0.35614161380151321 0.17761165346375071 0 -0.36409588864576692 0.17933358541092431 0 -0.35797279878738592 0.18411861580098379 0 -0.35614161380151321 0.17761165346375071 0 -0.36409588864576692 0.17933358541092431 0 -0.35797279878738592 0.18411861580098379 0 -0.36261880381503758 0.18828806813974089 0 -0.37283571032282492 0.1791450959532255 0 -0.36409588864576692 0.17933358541092431 0 -0.36261880381503758 0.18828806813974089 0 -0.35797279878738592 0.18411861580098379 0 -0.35614161380151321 0.17761165346375071 0 -0.35065229879255438 0.18593262723135329 0 -0.35797279878738592 0.18411861580098379 0 -0.35065229879255438 0.18593262723135329 0 -0.35645772166264922 0.19211102842263869 0 -0.35614161380151321 0.17761165346375071 0 -0.34811061985946878 0.17434540014992381 0 -0.35436851446084039 0.1683048517912053 0 -0.35614161380151321 0.17761165346375071 0 -0.34811061985946878 0.17434540014992381 0 -0.35065229879255438 0.18593262723135329 0 -0.35065229879255438 0.18593262723135329 0 -0.34227569468909552 0.1811403169530669 0 -0.33993633525554889 0.19055096072852831 0 -0.34811061985946878 0.17434540014992381 0 -0.35065229879255438 0.18593262723135329 0 -0.34227569468909552 0.1811403169530669 0 -0.35552330674067661 0.16014073544654131 0 -0.35436851446084039 0.1683048517912053 0 -0.34720568730415252 0.1616956217090188 0 -0.3628088848288224 0.16705289795690309 0 -0.35614161380151321 0.17761165346375071 0 -0.35436851446084039 0.1683048517912053 0 -0.3628088848288224 0.16705289795690309 0 -0.35552330674067661 0.16014073544654131 0 -0.35436851446084039 0.1683048517912053 0 -0.34811061985946878 0.17434540014992381 0 -0.34720568730415252 0.1616956217090188 0 -0.33801991010865667 0.17138732975114751 0 -0.34811061985946878 0.17434540014992381 0 -0.35436851446084039 0.1683048517912053 0 -0.34720568730415252 0.1616956217090188 0 -0.34873147585397152 0.15030858297792049 0 -0.35552330674067661 0.16014073544654131 0 -0.34720568730415252 0.1616956217090188 0 -0.34720568730415252 0.1616956217090188 0 -0.33801991010865667 0.17138732975114751 0 -0.33092539158612982 0.1609515407851054 0 -0.34720568730415252 0.1616956217090188 0 -0.33092539158612982 0.1609515407851054 0 -0.33647431770126862 0.14798842126345041 0 -0.33801991010865667 0.17138732975114751 0 -0.33092539158612982 0.1609515407851054 0 -0.3265778886375873 0.17202186172735501 0 -0.34227569468909552 0.1811403169530669 0 -0.33183788287013261 0.1831818366374682 0 -0.33993633525554889 0.19055096072852831 0 -0.34811061985946878 0.17434540014992381 0 -0.33801991010865667 0.17138732975114751 0 -0.34227569468909552 0.1811403169530669 0 -0.33801991010865667 0.17138732975114751 0 -0.34227569468909552 0.1811403169530669 0 -0.33183788287013261 0.1831818366374682 0 -0.33801991010865667 0.17138732975114751 0 -0.33183788287013261 0.1831818366374682 0 -0.3265778886375873 0.17202186172735501 0 -0.3265778886375873 0.17202186172735501 0 -0.31632076704925127 0.18575639557221951 0 -0.3167678101826048 0.16359462978275929 0 -0.33183788287013261 0.1831818366374682 0 -0.3265778886375873 0.17202186172735501 0 -0.31632076704925127 0.18575639557221951 0 -0.33092539158612982 0.1609515407851054 0 -0.3167678101826048 0.16359462978275929 0 -0.32050673558250908 0.1490213804769015 0 -0.33092539158612982 0.1609515407851054 0 -0.3265778886375873 0.17202186172735501 0 -0.3167678101826048 0.16359462978275929 0 -0.32050673558250908 0.1490213804769015 0 -0.30739524272803709 0.15185112365938391 0 -0.31211500736378339 0.1240031522641292 0 -0.3167678101826048 0.16359462978275929 0 -0.32050673558250908 0.1490213804769015 0 -0.30739524272803709 0.15185112365938391 0 -0.32050673558250908 0.1490213804769015 0 -0.30739524272803709 0.15185112365938391 0 -0.32919359534549508 0.13424827028365749 0 -0.31211500736378339 0.1240031522641292 0 -0.33231339904552459 0.1171762944261375 0 -0.32050673558250908 0.1490213804769015 0 -0.32919359534549508 0.13424827028365749 0 -0.31211500736378339 0.1240031522641292 0 -0.34455851703438989 0.13305210298766909 0 -0.32919359534549508 0.13424827028365749 0 -0.33231339904552459 0.1171762944261375 0 -0.34455851703438989 0.13305210298766909 0 -0.32919359534549508 0.13424827028365749 0 -0.33647431770126862 0.14798842126345041 0 -0.32050673558250908 0.1490213804769015 0 -0.32919359534549508 0.13424827028365749 0 -0.33647431770126862 0.14798842126345041 0 -0.33092539158612982 0.1609515407851054 0 -0.32050673558250908 0.1490213804769015 0 -0.33647431770126862 0.14798842126345041 0 -0.34455851703438989 0.13305210298766909 0 -0.34873147585397152 0.15030858297792049 0 -0.33647431770126862 0.14798842126345041 0 -0.35416421148584648 0.23888623464626721 0 -0.34843396418698602 0.22381077072877051 0 -0.33845336435013867 0.242079554605789 0 -0.35416421148584648 0.23888623464626721 0 -0.33845336435013867 0.242079554605789 0 -0.35464358931248319 0.25491115920099722 0 -0.37939186114838758 0.22424627805714001 0 -0.37013679196984273 0.23750613219799629 0 -0.37477717689163992 0.25299635056682518 0 -0.37013679196984273 0.23750613219799629 0 -0.35464358931248319 0.25491115920099722 0 -0.37477717689163992 0.25299635056682518 0 -0.35416421148584648 0.23888623464626721 0 -0.37013679196984273 0.23750613219799629 0 -0.35464358931248319 0.25491115920099722 0 -0.35416421148584648 0.23888623464626721 0 -0.37013679196984273 0.23750613219799629 0 -0.36148561266771267 0.2305011068434443 0 -0.36148561266771267 0.2305011068434443 0 -0.36975441169016687 0.228432664243616 0 -0.36800338097472479 0.22147713987588341 0 -0.37013679196984273 0.23750613219799629 0 -0.36148561266771267 0.2305011068434443 0 -0.36975441169016687 0.228432664243616 0 -0.37939186114838758 0.22424627805714001 0 -0.37013679196984273 0.23750613219799629 0 -0.36975441169016687 0.228432664243616 0 -0.37939186114838758 0.22424627805714001 0 -0.36975441169016687 0.228432664243616 0 -0.36800338097472479 0.22147713987588341 0 -0.36800338097472479 0.22147713987588341 0 -0.34843396418698602 0.22381077072877051 0 -0.35516119282899983 0.21149705330083701 0 -0.36148561266771267 0.2305011068434443 0 -0.36800338097472479 0.22147713987588341 0 -0.34843396418698602 0.22381077072877051 0 -0.36800338097472479 0.22147713987588341 0 -0.34843396418698602 0.22381077072877051 0 -0.35416421148584648 0.23888623464626721 0 -0.36148561266771267 0.2305011068434443 0 -0.34843396418698602 0.22381077072877051 0 -0.34843396418698602 0.22381077072877051 0 -0.34802604401402371 0.21953575615482759 0 -0.33982416592956399 0.21665757569738961 0 -0.34802604401402371 0.21953575615482759 0 -0.34581283434165899 0.20861347152532789 0 -0.33982416592956399 0.21665757569738961 0 -0.34802604401402371 0.21953575615482759 0 -0.34581283434165899 0.20861347152532789 0 -0.35516119282899983 0.21149705330083701 0 -0.34843396418698602 0.22381077072877051 0 -0.34802604401402371 0.21953575615482759 0 -0.35516119282899983 0.21149705330083701 0 -0.34581283434165899 0.20861347152532789 0 -0.35516119282899983 0.21149705330083701 0 -0.35389383475621161 0.20092716755479181 0 -0.34802604401402371 0.21953575615482759 0 -0.35516119282899983 0.21149705330083701 0 -0.34843396418698602 0.22381077072877051 0 -0.35516119282899983 0.21149705330083701 0 -0.36800338097472479 0.22147713987588341 0 -0.35516119282899983 0.21149705330083701 0 -0.37368745339656201 0.20924711939208951 0 -0.35516119282899983 0.21149705330083701 0 -0.37368745339656201 0.20924711939208951 0 -0.36802074197771562 0.19700904511440151 0 -0.35516119282899983 0.21149705330083701 0 -0.36399845157591232 0.19532107462703119 0 -0.35516119282899983 0.21149705330083701 0 -0.36802074197771562 0.19700904511440151 0 -0.37283571032282492 0.1791450959532255 0 -0.36399845157591232 0.19532107462703119 0 -0.36261880381503758 0.18828806813974089 0 -0.37283571032282492 0.1791450959532255 0 -0.36399845157591232 0.19532107462703119 0 -0.36802074197771562 0.19700904511440151 0 -0.35516119282899983 0.21149705330083701 0 -0.36399845157591232 0.19532107462703119 0 -0.36802074197771562 0.19700904511440151 0 -0.38088029112643113 0.1825210369279657 0 -0.36802074197771562 0.19700904511440151 0 -0.36399845157591232 0.19532107462703119 0 -0.36261880381503758 0.18828806813974089 0 -0.35645772166264922 0.19211102842263869 0 -0.35797279878738592 0.18411861580098379 0 -0.36261880381503758 0.18828806813974089 0 -0.35645772166264922 0.19211102842263869 0 -0.35065229879255438 0.18593262723135329 0 -0.35645772166264922 0.19211102842263869 0 -0.34803897337183792 0.19709320989812409 0 -0.35516119282899983 0.21149705330083701 0 -0.36399845157591232 0.19532107462703119 0 -0.35389383475621161 0.20092716755479181 0 -0.35645772166264922 0.19211102842263869 0 -0.35389383475621161 0.20092716755479181 0 -0.34803897337183792 0.19709320989812409 0 -0.36399845157591232 0.19532107462703119 0 -0.35645772166264922 0.19211102842263869 0 -0.35389383475621161 0.20092716755479181 0 -0.34581283434165899 0.20861347152532789 0 -0.35389383475621161 0.20092716755479181 0 -0.34803897337183792 0.19709320989812409 0 -0.34581283434165899 0.20861347152532789 0 -0.34803897337183792 0.19709320989812409 0 -0.33933674095816863 0.19971543786353729 0 -0.35065229879255438 0.18593262723135329 0 -0.34803897337183792 0.19709320989812409 0 -0.33993633525554889 0.19055096072852831 0 -0.33993633525554889 0.19055096072852831 0 -0.33933674095816863 0.19971543786353729 0 -0.33069942903629101 0.19625725860753851 0 -0.34803897337183792 0.19709320989812409 0 -0.33993633525554889 0.19055096072852831 0 -0.33933674095816863 0.19971543786353729 0 -0.33933674095816863 0.19971543786353729 0 -0.33069942903629101 0.19625725860753851 0 -0.33422481296465362 0.2080963853910347 0 -0.33183788287013261 0.1831818366374682 0 -0.33993633525554889 0.19055096072852831 0 -0.33069942903629101 0.19625725860753851 0 -0.31632076704925127 0.18575639557221951 0 -0.33069942903629101 0.19625725860753851 0 -0.32036655352850157 0.2095523693350691 0 -0.33183788287013261 0.1831818366374682 0 -0.31632076704925127 0.18575639557221951 0 -0.33069942903629101 0.19625725860753851 0 -0.32036655352850157 0.2095523693350691 0 -0.32458589997660492 0.2266546254550818 0 -0.30779163400160159 0.21927945841494459 0 -0.32036655352850157 0.2095523693350691 0 -0.32934906837639222 0.21536895119528529 0 -0.32458589997660492 0.2266546254550818 0 -0.32036655352850157 0.2095523693350691 0 -0.32934906837639222 0.21536895119528529 0 -0.33422481296465362 0.2080963853910347 0 -0.32934906837639222 0.21536895119528529 0 -0.33422481296465362 0.2080963853910347 0 -0.33982416592956399 0.21665757569738961 0 -0.33069942903629101 0.19625725860753851 0 -0.32036655352850157 0.2095523693350691 0 -0.33422481296465362 0.2080963853910347 0 -0.34581283434165899 0.20861347152532789 0 -0.33933674095816863 0.19971543786353729 0 -0.33422481296465362 0.2080963853910347 0 -0.34581283434165899 0.20861347152532789 0 -0.33422481296465362 0.2080963853910347 0 -0.33982416592956399 0.21665757569738961 0 -0.34843396418698602 0.22381077072877051 0 -0.33982416592956399 0.21665757569738961 0 -0.32458589997660492 0.2266546254550818 0 -0.34843396418698602 0.22381077072877051 0 -0.32458589997660492 0.2266546254550818 0 -0.34843396418698602 0.22381077072877051 0 -0.32458589997660492 0.2266546254550818 0 -0.33845336435013867 0.242079554605789 0 -0.34843396418698602 0.22381077072877051 0 -0.33845336435013867 0.242079554605789 0 -0.32934906837639222 0.21536895119528529 0 -0.33982416592956399 0.21665757569738961 0 -0.32458589997660492 0.2266546254550818 0 -0.32458589997660492 0.2266546254550818 0 -0.30073783576622393 0.22949848018139329 0 -0.32458589997660492 0.2266546254550818 0 -0.32455092720978362 0.24357057421839101 0 -0.31122576982003303 0.23714335435801151 0 -0.32455092720978362 0.24357057421839101 0 -0.311575650220281 0.24878047680599949 0 -0.31122576982003303 0.23714335435801151 0 -0.32458589997660492 0.2266546254550818 0 -0.32455092720978362 0.24357057421839101 0 -0.33845336435013867 0.242079554605789 0 -0.32455092720978362 0.24357057421839101 0 -0.33845336435013867 0.242079554605789 0 -0.32847276451329022 0.26034833848280681 0 -0.29310990672191722 0.23613872254877591 0 -0.29467853592727078 0.23721261512919359 0 -0.28985028671148488 0.25537141990030859 0 -0.29310990672191722 0.23613872254877591 0 -0.27131573767068418 0.22826101281380451 0 -0.28058301219108422 0.24181621635705669 0 -0.29310990672191722 0.23613872254877591 0 -0.28985028671148488 0.25537141990030859 0 -0.29310990672191722 0.23613872254877591 0 -0.28058301219108422 0.24181621635705669 0 -0.28985028671148488 0.25537141990030859 0 -0.28058301219108422 0.24181621635705669 0 -0.28985028671148488 0.25537141990030859 0 -0.29310990672191722 0.23613872254877591 0 -0.29467853592727078 0.23721261512919359 0 -0.29467853592727078 0.23721261512919359 0 -0.31122576982003303 0.23714335435801151 0 -0.30073783576622393 0.22949848018139329 0 -0.29467853592727078 0.23721261512919359 0 -0.311575650220281 0.24878047680599949 0 -0.31122576982003303 0.23714335435801151 0 -0.29467853592727078 0.23721261512919359 0 -0.311575650220281 0.24878047680599949 0 -0.29467853592727078 0.23721261512919359 0 -0.311575650220281 0.24878047680599949 0 -0.29523766041035199 0.26325150879709891 0 -0.32458589997660492 0.2266546254550818 0 -0.30073783576622393 0.22949848018139329 0 -0.30779163400160159 0.21927945841494459 0 -0.32458589997660492 0.2266546254550818 0 -0.31122576982003303 0.23714335435801151 0 -0.30073783576622393 0.22949848018139329 0 -0.30073783576622393 0.22949848018139329 0 -0.30779163400160159 0.21927945841494459 0 -0.29448167989639912 0.22804486553003031 0 -0.29310990672191722 0.23613872254877591 0 -0.29448167989639912 0.22804486553003031 0 -0.27369133376421262 0.22284465576077489 0 -0.29448167989639912 0.22804486553003031 0 -0.2838712618875629 0.21479465795795599 0 -0.27369133376421262 0.22284465576077489 0 -0.29448167989639912 0.22804486553003031 0 -0.29413635243235581 0.21196267741475219 0 -0.29310990672191722 0.23613872254877591 0 -0.27369133376421262 0.22284465576077489 0 -0.29467853592727078 0.23721261512919359 0 -0.30073783576622393 0.22949848018139329 0 -0.29448167989639912 0.22804486553003031 0 -0.29310990672191722 0.23613872254877591 0 -0.29467853592727078 0.23721261512919359 0 -0.29448167989639912 0.22804486553003031 0 -0.29467853592727078 0.23721261512919359 0 -0.29448167989639912 0.22804486553003031 0 -0.29310990672191722 0.23613872254877591 0 -0.29448167989639912 0.22804486553003031 0 -0.29413635243235581 0.21196267741475219 0 -0.29878620084027852 0.20264695157314819 0 -0.29379102496831272 0.19588048929947419 0 -0.29448167989639912 0.22804486553003031 0 -0.29413635243235581 0.21196267741475219 0 -0.29878620084027852 0.20264695157314819 0 -0.29448167989639912 0.22804486553003031 0 -0.29878620084027852 0.20264695157314819 0 -0.29413635243235581 0.21196267741475219 0 -0.29379102496831272 0.19588048929947419 0 -0.28522308967114912 0.20452327137286261 0 -0.29413635243235581 0.21196267741475219 0 -0.29379102496831272 0.19588048929947419 0 -0.29448167989639912 0.22804486553003031 0 -0.2838712618875629 0.21479465795795599 0 -0.29413635243235581 0.21196267741475219 0 -0.2838712618875629 0.21479465795795599 0 -0.28522308967114912 0.20452327137286261 0 -0.29413635243235581 0.21196267741475219 0 -0.32036655352850157 0.2095523693350691 0 -0.30779163400160159 0.21927945841494459 0 -0.29878620084027852 0.20264695157314819 0 -0.30779163400160159 0.21927945841494459 0 -0.29448167989639912 0.22804486553003031 0 -0.29878620084027852 0.20264695157314819 0 -0.29878620084027852 0.20264695157314819 0 -0.29379102496831272 0.19588048929947419 0 -0.30309072178415769 0.17724903761626601 0 -0.31632076704925127 0.18575639557221951 0 -0.29878620084027852 0.20264695157314819 0 -0.30309072178415769 0.17724903761626601 0 -0.31632076704925127 0.18575639557221951 0 -0.32036655352850157 0.2095523693350691 0 -0.29878620084027852 0.20264695157314819 0 -0.29878620084027852 0.20264695157314819 0 -0.30309072178415769 0.17724903761626601 0 -0.28522308967114912 0.20452327137286261 0 -0.29379102496831272 0.19588048929947419 0 -0.28124953787461371 0.1935735916895788 0 -0.29379102496831272 0.19588048929947419 0 -0.28124953787461371 0.1935735916895788 0 -0.28752446549241689 0.1832489647230989 0 -0.28124953787461371 0.1935735916895788 0 -0.2659766044530758 0.19238405035351089 0 -0.27494974420821611 0.1793112011395637 0 -0.28522308967114912 0.20452327137286261 0 -0.28124953787461371 0.1935735916895788 0 -0.27431068871210279 0.20621206129374381 0 -0.28124953787461371 0.1935735916895788 0 -0.2659766044530758 0.19238405035351089 0 -0.27431068871210279 0.20621206129374381 0 -0.25427276080650663 0.20955058897277601 0 -0.24947341468037071 0.1874691479585941 0 -0.2659766044530758 0.19238405035351089 0 -0.25427276080650663 0.20955058897277601 0 -0.24947341468037071 0.1874691479585941 0 -0.2659766044530758 0.19238405035351089 0 -0.25427276080650663 0.20955058897277601 0 -0.27431068871210279 0.20621206129374381 0 -0.25427276080650663 0.20955058897277601 0 -0.27369133376421262 0.22284465576077489 0 -0.25427276080650663 0.20955058897277601 0 -0.25977281016601761 0.2185578892770178 0 -0.27369133376421262 0.22284465576077489 0 -0.25427276080650663 0.20955058897277601 0 -0.25561524088587501 0.21572724177218369 0 -0.25977281016601761 0.2185578892770178 0 -0.25427276080650663 0.20955058897277601 0 -0.25561524088587501 0.21572724177218369 0 -0.24333230173327219 0.21221501244476959 0 -0.25427276080650663 0.20955058897277601 0 -0.25561524088587501 0.21572724177218369 0 -0.25427276080650663 0.20955058897277601 0 -0.27431068871210279 0.20621206129374381 0 -0.27369133376421262 0.22284465576077489 0 -0.2838712618875629 0.21479465795795599 0 -0.27431068871210279 0.20621206129374381 0 -0.27369133376421262 0.22284465576077489 0 -0.2838712618875629 0.21479465795795599 0 -0.28522308967114912 0.20452327137286261 0 -0.27431068871210279 0.20621206129374381 0 -0.29310990672191722 0.23613872254877591 0 -0.27369133376421262 0.22284465576077489 0 -0.27131573767068418 0.22826101281380451 0 -0.27131573767068418 0.22826101281380451 0 -0.26439065681250729 0.2289784260688752 0 -0.26819560602517328 0.23507842756581021 0 -0.27131573767068418 0.22826101281380451 0 -0.26675876456119929 0.22568570462696191 0 -0.26439065681250729 0.2289784260688752 0 -0.27369133376421262 0.22284465576077489 0 -0.26675876456119929 0.22568570462696191 0 -0.26371349664181459 0.22286429712754721 0 -0.25977281016601761 0.2185578892770178 0 -0.27369133376421262 0.22284465576077489 0 -0.26371349664181459 0.22286429712754721 0 -0.27369133376421262 0.22284465576077489 0 -0.27131573767068418 0.22826101281380451 0 -0.26675876456119929 0.22568570462696191 0 -0.26675876456119929 0.22568570462696191 0 -0.26371349664181459 0.22286429712754721 0 -0.26068259791677789 0.22548013136380779 0 -0.26068259791677789 0.22548013136380779 0 -0.25678634991227811 0.22260498734460241 0 -0.2574101570832959 0.22971939663687391 0 -0.26371349664181459 0.22286429712754721 0 -0.26068259791677789 0.22548013136380779 0 -0.25678634991227811 0.22260498734460241 0 -0.25977281016601761 0.2185578892770178 0 -0.26371349664181459 0.22286429712754721 0 -0.25678634991227811 0.22260498734460241 0 -0.25561524088587501 0.21572724177218369 0 -0.25977281016601761 0.2185578892770178 0 -0.25678634991227811 0.22260498734460241 0 -0.25678634991227811 0.22260498734460241 0 -0.249817319625419 0.2274340479663062 0 -0.24904636230289101 0.22050689045355901 0 -0.25561524088587501 0.21572724177218369 0 -0.25678634991227811 0.22260498734460241 0 -0.24904636230289101 0.22050689045355901 0 -0.25109603964961891 0.234366577265785 0 -0.2574101570832959 0.22971939663687391 0 -0.249817319625419 0.2274340479663062 0 -0.25678634991227811 0.22260498734460241 0 -0.2574101570832959 0.22971939663687391 0 -0.249817319625419 0.2274340479663062 0 -0.2574101570832959 0.22971939663687391 0 -0.26439065681250729 0.2289784260688752 0 -0.26193406046231932 0.2344272911270443 0 -0.26068259791677789 0.22548013136380779 0 -0.2574101570832959 0.22971939663687391 0 -0.26439065681250729 0.2289784260688752 0 -0.26675876456119929 0.22568570462696191 0 -0.26068259791677789 0.22548013136380779 0 -0.26439065681250729 0.2289784260688752 0 -0.26439065681250729 0.2289784260688752 0 -0.26193406046231932 0.2344272911270443 0 -0.26819560602517328 0.23507842756581021 0 -0.26193406046231932 0.2344272911270443 0 -0.26614348890836192 0.24293385421211869 0 -0.26819560602517328 0.23507842756581021 0 -0.2574101570832959 0.22971939663687391 0 -0.26193406046231932 0.2344272911270443 0 -0.25699538715464082 0.23905233796863981 0 -0.26193406046231932 0.2344272911270443 0 -0.25699538715464082 0.23905233796863981 0 -0.26614348890836192 0.24293385421211869 0 -0.25109603964961891 0.234366577265785 0 -0.25699538715464082 0.23905233796863981 0 -0.2470081454867771 0.2422065880623451 0 -0.25109603964961891 0.234366577265785 0 -0.2574101570832959 0.22971939663687391 0 -0.25699538715464082 0.23905233796863981 0 -0.25699538715464082 0.23905233796863981 0 -0.25693865295534157 0.25278860643768353 0 -0.2470081454867771 0.2422065880623451 0 -0.25699538715464082 0.23905233796863981 0 -0.26614348890836192 0.24293385421211869 0 -0.25693865295534157 0.25278860643768353 0 -0.26614348890836192 0.24293385421211869 0 -0.2724296921133022 0.25217156250687062 0 -0.25693865295534157 0.25278860643768353 0 -0.26614348890836192 0.24293385421211869 0 -0.28058301219108422 0.24181621635705669 0 -0.2724296921133022 0.25217156250687062 0 -0.28058301219108422 0.24181621635705669 0 -0.28985028671148488 0.25537141990030859 0 -0.2724296921133022 0.25217156250687062 0 -0.26614348890836192 0.24293385421211869 0 -0.26819560602517328 0.23507842756581021 0 -0.28058301219108422 0.24181621635705669 0 -0.27131573767068418 0.22826101281380451 0 -0.26819560602517328 0.23507842756581021 0 -0.28058301219108422 0.24181621635705669 0 -0.27131573767068418 0.22826101281380451 0 -0.28058301219108422 0.24181621635705669 0 -0.29326612220823411 0.13512644163735801 0 -0.28648818467010168 0.15636331808772699 0 -0.27141175194646833 0.1445184244171912 0 -0.29326612220823411 0.13512644163735801 0 -0.30739524272803709 0.15185112365938391 0 -0.28648818467010168 0.15636331808772699 0 -0.30739524272803709 0.15185112365938391 0 -0.31211500736378339 0.1240031522641292 0 -0.29326612220823411 0.13512644163735801 0 -0.30739524272803709 0.15185112365938391 0 -0.31211500736378339 0.1240031522641292 0 -0.30739524272803709 0.15185112365938391 0 -0.28648818467010168 0.15636331808772699 0 -0.30739524272803709 0.15185112365938391 0 -0.30309072178415769 0.17724903761626601 0 -0.3167678101826048 0.16359462978275929 0 -0.30739524272803709 0.15185112365938391 0 -0.30309072178415769 0.17724903761626601 0 -0.30739524272803709 0.15185112365938391 0 -0.30309072178415769 0.17724903761626601 0 -0.28648818467010168 0.15636331808772699 0 -0.31632076704925127 0.18575639557221951 0 -0.3167678101826048 0.16359462978275929 0 -0.30309072178415769 0.17724903761626601 0 -0.30309072178415769 0.17724903761626601 0 -0.28752446549241689 0.1832489647230989 0 -0.28381669143151822 0.17107272026056419 0 -0.29379102496831272 0.19588048929947419 0 -0.30309072178415769 0.17724903761626601 0 -0.28752446549241689 0.1832489647230989 0 -0.28752446549241689 0.1832489647230989 0 -0.28381669143151822 0.17107272026056419 0 -0.27494974420821611 0.1793112011395637 0 -0.30309072178415769 0.17724903761626601 0 -0.28648818467010168 0.15636331808772699 0 -0.28381669143151822 0.17107272026056419 0 -0.28648818467010168 0.15636331808772699 0 -0.28381669143151822 0.17107272026056419 0 -0.26558112661216632 0.16087551251606999 0 -0.28381669143151822 0.17107272026056419 0 -0.27494974420821611 0.1793112011395637 0 -0.26558112661216632 0.16087551251606999 0 -0.28648818467010168 0.15636331808772699 0 -0.26558112661216632 0.16087551251606999 0 -0.27494974420821611 0.1793112011395637 0 -0.26084394980388648 0.17618123618614701 0 -0.26558112661216632 0.16087551251606999 0 -0.2659766044530758 0.19238405035351089 0 -0.27494974420821611 0.1793112011395637 0 -0.26084394980388648 0.17618123618614701 0 -0.28124953787461371 0.1935735916895788 0 -0.28752446549241689 0.1832489647230989 0 -0.27494974420821611 0.1793112011395637 0 -0.2659766044530758 0.19238405035351089 0 -0.26084394980388648 0.17618123618614701 0 -0.24947341468037071 0.1874691479585941 0 -0.26084394980388648 0.17618123618614701 0 -0.24467406855423091 0.1653877069444131 0 -0.24947341468037071 0.1874691479585941 0 -0.26558112661216632 0.16087551251606999 0 -0.24467406855423091 0.1653877069444131 0 -0.26558112661216632 0.16087551251606999 0 -0.2543915534089356 0.15018751405662761 0 -0.24467406855423091 0.1653877069444131 0 -0.26084394980388648 0.17618123618614701 0 -0.26558112661216632 0.16087551251606999 0 -0.24467406855423091 0.1653877069444131 0 -0.26558112661216632 0.16087551251606999 0 -0.2543915534089356 0.15018751405662761 0 -0.27141175194646833 0.1445184244171912 0 -0.2543915534089356 0.15018751405662761 0 -0.27141175194646833 0.1445184244171912 0 -0.25477231595188199 0.13792181725732239 0 -0.28648818467010168 0.15636331808772699 0 -0.26558112661216632 0.16087551251606999 0 -0.27141175194646833 0.1445184244171912 0 -0.29326612220823411 0.13512644163735801 0 -0.27141175194646833 0.1445184244171912 0 -0.27545980130109921 0.1239996051278405 0 -0.27141175194646833 0.1445184244171912 0 -0.25477231595188199 0.13792181725732239 0 -0.27545980130109921 0.1239996051278405 0 -0.25477231595188199 0.13792181725732239 0 -0.27545980130109921 0.1239996051278405 0 -0.25477231595188199 0.13792181725732239 0 -0.27545980130109921 0.1239996051278405 0 -0.2495823492922267 0.12121763785839371 0 -0.25610310449345419 0.1041046972302731 0 -0.27545980130109921 0.1239996051278405 0 -0.2495823492922267 0.12121763785839371 0 -0.25610310449345419 0.1041046972302731 0 -0.25413031243694739 0.089521027236778197 0 -0.2427234934652894 0.090762762990284518 0 -0.25610310449345419 0.1041046972302731 0 -0.26471001572300679 0.091779207982481292 0 -0.25413031243694739 0.089521027236778197 0 -0.25610310449345419 0.1041046972302731 0 -0.27632390472144541 0.10600366135062909 0 -0.26471001572300679 0.091779207982481292 0 -0.27632390472144541 0.10600366135062909 0 -0.27815219556391091 0.091433986845849968 0 -0.26471001572300679 0.091779207982481292 0 -0.27632390472144541 0.10600366135062909 0 -0.28783094919658059 0.096999283795453681 0 -0.27815219556391091 0.091433986845849968 0 -0.25610310449345419 0.1041046972302731 0 -0.27632390472144541 0.10600366135062909 0 -0.27545980130109921 0.1239996051278405 0 -0.27545980130109921 0.1239996051278405 0 -0.29614728665031642 0.1100773929983587 0 -0.29326612220823411 0.13512644163735801 0 -0.27545980130109921 0.1239996051278405 0 -0.29614728665031642 0.1100773929983587 0 -0.27632390472144541 0.10600366135062909 0 -0.27545980130109921 0.1239996051278405 0 -0.29614728665031642 0.1100773929983587 0 -0.27632390472144541 0.10600366135062909 0 -0.29614728665031642 0.1100773929983587 0 -0.28783094919658059 0.096999283795453681 0 -0.29614728665031642 0.1100773929983587 0 -0.28783094919658059 0.096999283795453681 0 -0.29903425758953422 0.090155638130954882 0 -0.29614728665031642 0.1100773929983587 0 -0.29903425758953422 0.090155638130954882 0 -0.31683477199953253 0.096155180868875256 0 -0.29614728665031642 0.1100773929983587 0 -0.31683477199953253 0.096155180868875256 0 -0.29614728665031642 0.1100773929983587 0 -0.31211500736378339 0.1240031522641292 0 -0.31683477199953253 0.096155180868875256 0 -0.29326612220823411 0.13512644163735801 0 -0.29614728665031642 0.1100773929983587 0 -0.31211500736378339 0.1240031522641292 0 -0.30635830999651792 0.07761242167179265 0 -0.30189037325813839 0.060543452134012458 0 -0.32146679815367007 0.068824891797761426 0 -0.30635830999651792 0.07761242167179265 0 -0.29256534898171721 0.072382945427359638 0 -0.30189037325813839 0.060543452134012458 0 -0.30635830999651792 0.07761242167179265 0 -0.29903425758953422 0.090155638130954882 0 -0.29256534898171721 0.072382945427359638 0 -0.30635830999651792 0.07761242167179265 0 -0.29903425758953422 0.090155638130954882 0 -0.31683477199953253 0.096155180868875256 0 -0.29903425758953422 0.090155638130954882 0 -0.28572263353681682 0.08337299634339973 0 -0.29256534898171721 0.072382945427359638 0 -0.28783094919658059 0.096999283795453681 0 -0.29903425758953422 0.090155638130954882 0 -0.28572263353681682 0.08337299634339973 0 -0.28783094919658059 0.096999283795453681 0 -0.28572263353681682 0.08337299634339973 0 -0.27815219556391091 0.091433986845849968 0 -0.28572263353681682 0.08337299634339973 0 -0.29256534898171721 0.072382945427359638 0 -0.28059357561043269 0.073644623599786935 0 -0.29256534898171721 0.072382945427359638 0 -0.29088471103165969 0.062671374321780771 0 -0.30189037325813839 0.060543452134012458 0 -0.29256534898171721 0.072382945427359638 0 -0.29088471103165969 0.062671374321780771 0 -0.28261649390190829 0.064291953838756216 0 -0.29256534898171721 0.072382945427359638 0 -0.28261649390190829 0.064291953838756216 0 -0.28059357561043269 0.073644623599786935 0 -0.28261649390190829 0.064291953838756216 0 -0.27678196032587499 0.069585006034529676 0 -0.27195195811963518 0.06635492754641531 0 -0.26855373331756138 0.063547936276670339 0 -0.27195195811963518 0.06635492754641531 0 -0.25743728825439521 0.07924270920583569 0 -0.28261649390190829 0.064291953838756216 0 -0.27678196032587499 0.069585006034529676 0 -0.28059357561043269 0.073644623599786935 0 -0.27678196032587499 0.069585006034529676 0 -0.27196581367152378 0.074048519153160283 0 -0.27195195811963518 0.06635492754641531 0 -0.27678196032587499 0.069585006034529676 0 -0.28059357561043269 0.073644623599786935 0 -0.27196581367152378 0.074048519153160283 0 -0.28059357561043269 0.073644623599786935 0 -0.27196581367152378 0.074048519153160283 0 -0.27303575277029413 0.081855029780232597 0 -0.27196581367152378 0.074048519153160283 0 -0.27195195811963518 0.06635492754641531 0 -0.25743728825439521 0.07924270920583569 0 -0.28572263353681682 0.08337299634339973 0 -0.27815219556391091 0.091433986845849968 0 -0.27303575277029413 0.081855029780232597 0 -0.28572263353681682 0.08337299634339973 0 -0.28059357561043269 0.073644623599786935 0 -0.27303575277029413 0.081855029780232597 0 -0.27196581367152378 0.074048519153160283 0 -0.27303575277029413 0.081855029780232597 0 -0.25743728825439521 0.07924270920583569 0 -0.27815219556391091 0.091433986845849968 0 -0.27303575277029413 0.081855029780232597 0 -0.26471001572300679 0.091779207982481292 0 -0.26471001572300679 0.091779207982481292 0 -0.25743728825439521 0.07924270920583569 0 -0.25413031243694739 0.089521027236778197 0 -0.27303575277029413 0.081855029780232597 0 -0.26471001572300679 0.091779207982481292 0 -0.25743728825439521 0.07924270920583569 0 -0.25743728825439521 0.07924270920583569 0 -0.25064083865024739 0.073628726666345984 0 -0.24857020570659841 0.081659589420377987 0 -0.25743728825439521 0.07924270920583569 0 -0.25413031243694739 0.089521027236778197 0 -0.24857020570659841 0.081659589420377987 0 -0.26855373331756138 0.063547936276670339 0 -0.25743728825439521 0.07924270920583569 0 -0.25064083865024739 0.073628726666345984 0 -0.26855373331756138 0.063547936276670339 0 -0.25064083865024739 0.073628726666345984 0 -0.2562734301216873 0.062061687155910393 0 -0.26855373331756138 0.063547936276670339 0 -0.25064083865024739 0.073628726666345984 0 -0.27195195811963518 0.06635492754641531 0 -0.25743728825439521 0.07924270920583569 0 -0.25064083865024739 0.073628726666345984 0 -0.2562734301216873 0.062061687155910393 0 -0.24829977196364941 0.065213336215906109 0 -0.2623477931936597 0.053657636987073307 0 -0.25116276906762952 0.054241108780248931 0 -0.26153642505613889 0.036367366133998442 0 -0.2562734301216873 0.062061687155910393 0 -0.2623477931936597 0.053657636987073307 0 -0.25116276906762952 0.054241108780248931 0 -0.2562734301216873 0.062061687155910393 0 -0.25116276906762952 0.054241108780248931 0 -0.24829977196364941 0.065213336215906109 0 -0.26855373331756138 0.063547936276670339 0 -0.2562734301216873 0.062061687155910393 0 -0.2623477931936597 0.053657636987073307 0 -0.25116276906762952 0.054241108780248931 0 -0.26153642505613889 0.036367366133998442 0 -0.239388393447095 0.04766651035075449 0 -0.2623477931936597 0.053657636987073307 0 -0.26153642505613889 0.036367366133998442 0 -0.27323710809808138 0.049716314049096537 0 -0.26153642505613889 0.036367366133998442 0 -0.28732673365434691 0.040933413293477772 0 -0.26153642505613889 0.036367366133998442 0 -0.2825074511423824 0.030310297232740709 0 -0.28732673365434691 0.040933413293477772 0 -0.26153642505613889 0.036367366133998442 0 -0.27323710809808138 0.049716314049096537 0 -0.28732673365434691 0.040933413293477772 0 -0.26855373331756138 0.063547936276670339 0 -0.27195195811963518 0.06635492754641531 0 -0.28646662798487532 0.053467145886994819 0 -0.26855373331756138 0.063547936276670339 0 -0.28646662798487532 0.053467145886994819 0 -0.26855373331756138 0.063547936276670339 0 -0.27323710809808138 0.049716314049096537 0 -0.28646662798487532 0.053467145886994819 0 -0.27195195811963518 0.06635492754641531 0 -0.28646662798487532 0.053467145886994819 0 -0.28261649390190829 0.064291953838756216 0 -0.27195195811963518 0.06635492754641531 0 -0.28646662798487532 0.053467145886994819 0 -0.26855373331756138 0.063547936276670339 0 -0.2623477931936597 0.053657636987073307 0 -0.27323710809808138 0.049716314049096537 0 -0.26176261374782622 0.0098260211376069873 0 -0.24854849079604721 0.020569936005881421 0 -0.24598119983726671 0.0037338506766126851 0 -0.26003022337954462 -0.0038093911555793728 0 -0.26176261374782622 0.0098260211376069873 0 -0.24598119983726671 0.0037338506766126851 0 -0.26003022337954462 -0.0038093911555793728 0 -0.27433688946420332 -0.0007833753365484626 0 -0.26176261374782622 0.0098260211376069873 0 -0.26153642505613889 0.036367366133998442 0 -0.26176261374782622 0.0098260211376069873 0 -0.24854849079604721 0.020569936005881421 0 -0.26153642505613889 0.036367366133998442 0 -0.26176261374782622 0.0098260211376069873 0 -0.27684491432135683 0.017453585025194441 0 -0.26153642505613889 0.036367366133998442 0 -0.27684491432135683 0.017453585025194441 0 -0.2825074511423824 0.030310297232740709 0 -0.27433688946420332 -0.0007833753365484626 0 -0.26176261374782622 0.0098260211376069873 0 -0.27684491432135683 0.017453585025194441 0 -0.27433688946420332 -0.0007833753365484626 0 -0.27684491432135683 0.017453585025194441 0 -0.28842838408131971 0.0076205693905790281 0 -0.28842838408131971 0.0076205693905790281 0 -0.29131927560690712 0.022062190579302341 0 -0.29989828236451899 0.011495108916467369 0 -0.27684491432135683 0.017453585025194441 0 -0.29131927560690712 0.022062190579302341 0 -0.2825074511423824 0.030310297232740709 0 -0.27684491432135683 0.017453585025194441 0 -0.28842838408131971 0.0076205693905790281 0 -0.29131927560690712 0.022062190579302341 0 -0.29131927560690712 0.022062190579302341 0 -0.2825074511423824 0.030310297232740709 0 -0.29550990707316249 0.034734931131730561 0 -0.29131927560690712 0.022062190579302341 0 -0.30587597075389272 0.02137954460474218 0 -0.29550990707316249 0.034734931131730561 0 -0.30587597075389272 0.02137954460474218 0 -0.29550990707316249 0.034734931131730561 0 -0.30859873922341308 0.03381572977126493 0 -0.29131927560690712 0.022062190579302341 0 -0.30587597075389272 0.02137954460474218 0 -0.29989828236451899 0.011495108916467369 0 -0.3025805037907468 -0.0027432771802810229 0 -0.3204068892458079 -0.0014125807301150939 0 -0.31128727758972891 0.0091565171879943417 0 -0.30587597075389272 0.02137954460474218 0 -0.29989828236451899 0.011495108916467369 0 -0.31128727758972891 0.0091565171879943417 0 -0.3025805037907468 -0.0027432771802810229 0 -0.29989828236451899 0.011495108916467369 0 -0.31128727758972891 0.0091565171879943417 0 -0.3025805037907468 -0.0027432771802810229 0 -0.28842838408131971 0.0076205693905790281 0 -0.29989828236451899 0.011495108916467369 0 -0.28646662798487532 0.053467145886994819 0 -0.304010183261538 0.043594207608826187 0 -0.29088471103165969 0.062671374321780771 0 -0.28646662798487532 0.053467145886994819 0 -0.30189037325813839 0.060543452134012458 0 -0.29088471103165969 0.062671374321780771 0 -0.28261649390190829 0.064291953838756216 0 -0.28646662798487532 0.053467145886994819 0 -0.27323710809808138 0.049716314049096537 0 -0.28646662798487532 0.053467145886994819 0 -0.28732673365434691 0.040933413293477772 0 -0.28646662798487532 0.053467145886994819 0 -0.29550990707316249 0.034734931131730561 0 -0.30859873922341308 0.03381572977126493 0 -0.28646662798487532 0.053467145886994819 0 -0.28732673365434691 0.040933413293477772 0 -0.29550990707316249 0.034734931131730561 0 -0.2825074511423824 0.030310297232740709 0 -0.28732673365434691 0.040933413293477772 0 -0.29550990707316249 0.034734931131730561 0 -0.28646662798487532 0.053467145886994819 0 -0.30859873922341308 0.03381572977126493 0 -0.28646662798487532 0.053467145886994819 0 -0.304010183261538 0.043594207608826187 0 -0.30859873922341308 0.03381572977126493 0 -0.304010183261538 0.043594207608826187 0 -0.30859873922341308 0.03381572977126493 0 -0.32155373853820057 0.033721269330657687 0 -0.304010183261538 0.043594207608826187 0 -0.3137915997446068 0.051476736654279882 0 -0.31549181974187701 0.042926529004151233 0 -0.28646662798487532 0.053467145886994819 0 -0.304010183261538 0.043594207608826187 0 -0.30189037325813839 0.060543452134012458 0 -0.30189037325813839 0.060543452134012458 0 -0.3137915997446068 0.051476736654279882 0 -0.32146679815367007 0.068824891797761426 0 -0.304010183261538 0.043594207608826187 0 -0.30189037325813839 0.060543452134012458 0 -0.3137915997446068 0.051476736654279882 0 -0.3137915997446068 0.051476736654279882 0 -0.32609882430781029 0.041494602726648067 0 -0.32146679815367007 0.068824891797761426 0 -0.32609882430781029 0.041494602726648067 0 -0.32146679815367007 0.068824891797761426 0 -0.3137915997446068 0.051476736654279882 0 -0.31549181974187701 0.042926529004151233 0 -0.32609882430781029 0.041494602726648067 0 -0.304010183261538 0.043594207608826187 0 -0.31549181974187701 0.042926529004151233 0 -0.32155373853820057 0.033721269330657687 0 -0.304010183261538 0.043594207608826187 0 -0.32155373853820057 0.033721269330657687 0 -0.31549181974187701 0.042926529004151233 0 -0.32155373853820057 0.033721269330657687 0 -0.32609882430781029 0.041494602726648067 0 -0.32609882430781029 0.041494602726648067 0 -0.34385517732675519 0.031131612817745031 0 -0.35163198926140088 0.046228739452983239 0 -0.32609882430781029 0.041494602726648067 0 -0.338272543408071 0.060603673933957783 0 -0.32146679815367007 0.068824891797761426 0 -0.32609882430781029 0.041494602726648067 0 -0.338272543408071 0.060603673933957783 0 -0.35163198926140088 0.046228739452983239 0 -0.3204068892458079 -0.0014125807301150939 0 -0.31128727758972891 0.0091565171879943417 0 -0.33073085046195078 0.01416431365553468 0 -0.30587597075389272 0.02137954460474218 0 -0.31128727758972891 0.0091565171879943417 0 -0.33073085046195078 0.01416431365553468 0 -0.30859873922341308 0.03381572977126493 0 -0.33073085046195078 0.01416431365553468 0 -0.30587597075389272 0.02137954460474218 0 -0.30859873922341308 0.03381572977126493 0 -0.33073085046195078 0.01416431365553468 0 -0.32155373853820057 0.033721269330657687 0 -0.32609882430781029 0.041494602726648067 0 -0.33073085046195078 0.01416431365553468 0 -0.30859873922341308 0.03381572977126493 0 -0.32155373853820057 0.033721269330657687 0 -0.33073085046195078 0.01416431365553468 0 -0.32609882430781029 0.041494602726648067 0 -0.33073085046195078 0.01416431365553468 0 -0.33073085046195078 0.01416431365553468 0 -0.34385517732675519 0.031131612817745031 0 -0.35381837275022032 0.01853105722209741 0 -0.32609882430781029 0.041494602726648067 0 -0.33073085046195078 0.01416431365553468 0 -0.34385517732675519 0.031131612817745031 0 -0.33540629353460438 -0.01342214774580049 0 -0.33073085046195078 0.01416431365553468 0 -0.35221409618436439 -0.0049109655465913588 0 -0.33073085046195078 0.01416431365553468 0 -0.35221409618436439 -0.0049109655465913588 0 -0.34857824671955512 -0.007874197240844389 0 -0.33073085046195078 0.01416431365553468 0 -0.35221409618436439 -0.0049109655465913588 0 -0.33073085046195078 0.01416431365553468 0 -0.34939877662876639 0.0070576099193848619 0 -0.33073085046195078 0.01416431365553468 0 -0.34939877662876639 0.0070576099193848619 0 -0.35381837275022032 0.01853105722209741 0 -0.35900139338342918 0.0020097317905480609 0 -0.34939877662876639 0.0070576099193848619 0 -0.35834074471334648 0.0096788928264882005 0 -0.35509488683577939 -0.0004162838960613095 0 -0.35900139338342918 0.0020097317905480609 0 -0.34939877662876639 0.0070576099193848619 0 -0.35509488683577939 -0.0004162838960613095 0 -0.35221409618436439 -0.0049109655465913588 0 -0.34939877662876639 0.0070576099193848619 0 -0.34939877662876639 0.0070576099193848619 0 -0.35834074471334648 0.0096788928264882005 0 -0.35381837275022032 0.01853105722209741 0 -0.34385517732675519 0.031131612817745031 0 -0.35381837275022032 0.01853105722209741 0 -0.36551724687399623 0.028318485711261141 0 -0.37937813184432773 0.031366277704107569 0 -0.36551724687399623 0.028318485711261141 0 -0.37479293228070759 0.022502646493578662 0 -0.36551724687399623 0.028318485711261141 0 -0.37479293228070759 0.022502646493578662 0 -0.36730783543836809 0.01519693074799966 0 -0.3778438638662554 0.014761087644765769 0 -0.37479293228070759 0.022502646493578662 0 -0.36730783543836809 0.01519693074799966 0 -0.35381837275022032 0.01853105722209741 0 -0.36551724687399623 0.028318485711261141 0 -0.36730783543836809 0.01519693074799966 0 -0.35834074471334648 0.0096788928264882005 0 -0.36730783543836809 0.01519693074799966 0 -0.36603012090457948 0.0050917054244422654 0 -0.35834074471334648 0.0096788928264882005 0 -0.35381837275022032 0.01853105722209741 0 -0.36730783543836809 0.01519693074799966 0 -0.36730783543836809 0.01519693074799966 0 -0.37464316483836829 0.0066416053135349984 0 -0.36603012090457948 0.0050917054244422654 0 -0.3778438638662554 0.014761087644765769 0 -0.36730783543836809 0.01519693074799966 0 -0.37464316483836829 0.0066416053135349984 0 -0.37126952376897032 -0.00085078512189483576 0 -0.37774077980655368 -0.001289555558904682 0 -0.37464316483836829 0.0066416053135349984 0 -0.37126952376897032 -0.00085078512189483576 0 -0.37464316483836829 0.0066416053135349984 0 -0.36603012090457948 0.0050917054244422654 0 -0.37126952376897032 -0.00085078512189483576 0 -0.36494834593608783 -0.001298186014321303 0 -0.36603012090457948 0.0050917054244422654 0 -0.36494834593608783 -0.001298186014321303 0 -0.35900139338342918 0.0020097317905480609 0 -0.36603012090457948 0.0050917054244422654 0 -0.35900139338342918 0.0020097317905480609 0 -0.35834074471334648 0.0096788928264882005 0 -0.36603012090457948 0.0050917054244422654 0 -0.35163198926140088 0.046228739452983239 0 -0.36891219827968119 0.060077996683558232 0 -0.35298131256760962 0.063034912088641357 0 -0.338272543408071 0.060603673933957783 0 -0.35163198926140088 0.046228739452983239 0 -0.35298131256760962 0.063034912088641357 0 -0.34385517732675519 0.031131612817745031 0 -0.36551724687399623 0.028318485711261141 0 -0.35163198926140088 0.046228739452983239 0 -0.36551724687399623 0.028318485711261141 0 -0.35163198926140088 0.046228739452983239 0 -0.37261014177358448 0.043145835856899219 0 -0.37937813184432773 0.031366277704107569 0 -0.36551724687399623 0.028318485711261141 0 -0.37261014177358448 0.043145835856899219 0 -0.35163198926140088 0.046228739452983239 0 -0.37261014177358448 0.043145835856899219 0 -0.36891219827968119 0.060077996683558232 0 -0.38207463336695202 0.051047668856640811 0 -0.37261014177358448 0.043145835856899219 0 -0.36891219827968119 0.060077996683558232 0 -0.37929074908003868 0.077603726490867345 0 -0.35694138538550352 0.073855345321458488 0 -0.37929074908003868 0.077603726490867345 0 -0.36891219827968119 0.060077996683558232 0 -0.35694138538550352 0.073855345321458488 0 -0.36891219827968119 0.060077996683558232 0 -0.35298131256760962 0.063034912088641357 0 -0.35694138538550352 0.073855345321458488 0 -0.35298131256760962 0.063034912088641357 0 -0.35694138538550352 0.073855345321458488 0 -0.34914844650339177 0.074408805051249083 0 -0.35694138538550352 0.073855345321458488 0 -0.34914844650339177 0.074408805051249083 0 -0.35387282561504041 0.085789381247760657 0 -0.338272543408071 0.060603673933957783 0 -0.35298131256760962 0.063034912088641357 0 -0.34914844650339177 0.074408805051249083 0 -0.34914844650339177 0.074408805051249083 0 -0.35387282561504041 0.085789381247760657 0 -0.33299160925146271 0.085281992960062933 0 -0.35694138538550352 0.073855345321458488 0 -0.35387282561504041 0.085789381247760657 0 -0.36438159895332511 0.085691586513687634 0 -0.35387282561504041 0.085789381247760657 0 -0.36438159895332511 0.085691586513687634 0 -0.35579278546844412 0.098564625017930646 0 -0.37929074908003868 0.077603726490867345 0 -0.35694138538550352 0.073855345321458488 0 -0.36438159895332511 0.085691586513687634 0 -0.37929074908003868 0.077603726490867345 0 -0.36438159895332511 0.085691586513687634 0 -0.37090825683648998 0.098456277756480637 0 -0.37090825683648998 0.098456277756480637 0 -0.36904533532088801 0.1177582563576956 0 -0.35579278546844412 0.098564625017930646 0 -0.36438159895332511 0.085691586513687634 0 -0.37090825683648998 0.098456277756480637 0 -0.35579278546844412 0.098564625017930646 0 -0.35823941519022368 0.13573745574644491 0 -0.36904533532088801 0.1177582563576956 0 -0.35158166360451942 0.11704707172714621 0 -0.36904533532088801 0.1177582563576956 0 -0.35158166360451942 0.11704707172714621 0 -0.35579278546844412 0.098564625017930646 0 -0.35158166360451942 0.11704707172714621 0 -0.35579278546844412 0.098564625017930646 0 -0.34047962299512569 0.099373871294989508 0 -0.35387282561504041 0.085789381247760657 0 -0.35579278546844412 0.098564625017930646 0 -0.34047962299512569 0.099373871294989508 0 -0.34047962299512569 0.099373871294989508 0 -0.33231339904552459 0.1171762944261375 0 -0.31683477199953253 0.096155180868875256 0 -0.34455851703438989 0.13305210298766909 0 -0.35158166360451942 0.11704707172714621 0 -0.33231339904552459 0.1171762944261375 0 -0.35158166360451942 0.11704707172714621 0 -0.34047962299512569 0.099373871294989508 0 -0.33231339904552459 0.1171762944261375 0 -0.31211500736378339 0.1240031522641292 0 -0.31683477199953253 0.096155180868875256 0 -0.31211500736378339 0.1240031522641292 0 -0.33231339904552459 0.1171762944261375 0 -0.31683477199953253 0.096155180868875256 0 -0.30635830999651792 0.07761242167179265 0 -0.31683477199953253 0.096155180868875256 0 -0.32146679815367007 0.068824891797761426 0 -0.31683477199953253 0.096155180868875256 0 -0.32146679815367007 0.068824891797761426 0 -0.33299160925146271 0.085281992960062933 0 -0.31683477199953253 0.096155180868875256 0 -0.32146679815367007 0.068824891797761426 0 -0.31683477199953253 0.096155180868875256 0 -0.33299160925146271 0.085281992960062933 0 -0.338272543408071 0.060603673933957783 0 -0.32146679815367007 0.068824891797761426 0 -0.33576809196089219 0.072507027900731907 0 -0.32146679815367007 0.068824891797761426 0 -0.33576809196089219 0.072507027900731907 0 -0.33299160925146271 0.085281992960062933 0 -0.34914844650339177 0.074408805051249083 0 -0.33576809196089219 0.072507027900731907 0 -0.33299160925146271 0.085281992960062933 0 -0.338272543408071 0.060603673933957783 0 -0.34914844650339177 0.074408805051249083 0 -0.33576809196089219 0.072507027900731907 0 -0.35387282561504041 0.085789381247760657 0 -0.34047962299512569 0.099373871294989508 0 -0.33299160925146271 0.085281992960062933 0 -0.34914844650339177 0.074408805051249083 0 -0.33299160925146271 0.085281992960062933 0 -0.34047962299512569 0.099373871294989508 0 -0.31683477199953253 0.096155180868875256 0 -0.33299160925146271 0.085281992960062933 0 -0.3938434845513461 0.48000301234504228 0 -0.4154786193197833 0.47000451851756458 0 -0.40908183102320411 0.4845696213484928 0 -0.3938434845513461 0.48000301234504228 0 -0.40110135887996978 0.47332954189399812 0 -0.4154786193197833 0.47000451851756458 0 -0.3938434845513461 0.48000301234504228 0 -0.4154786193197833 0.47000451851756458 0 -0.3938434845513461 0.48000301234504228 0 -0.40110135887996978 0.47332954189399812 0 -0.38930270813857232 0.46778113184491188 0 -0.3938434845513461 0.48000301234504228 0 -0.39546946259238258 0.49128185561313598 0 -0.40908183102320411 0.4845696213484928 0 -0.40521342881326272 0.5 0 -0.39546946259238258 0.49128185561313598 0 -0.37789332191386737 0.5 0 -0.40521342881326272 0.5 0 -0.39546946259238258 0.49128185561313598 0 -0.40908183102320411 0.4845696213484928 0 -0.3938434845513461 0.48000301234504228 0 -0.39546946259238258 0.49128185561313598 0 -0.38517353549973538 0.49039659604947999 0 -0.3938434845513461 0.48000301234504228 0 -0.37220834978290879 0.49000150617251997 0 -0.39546946259238258 0.49128185561313598 0 -0.38517353549973538 0.49039659604947999 0 -0.37789332191386737 0.5 0 -0.3938434845513461 0.48000301234504228 0 -0.38517353549973538 0.49039659604947999 0 -0.37220834978290879 0.49000150617251997 0 -0.38517353549973538 0.49039659604947999 0 -0.37789332191386737 0.5 0 -0.37220834978290879 0.49000150617251997 0 -0.3938434845513461 0.48000301234504228 0 -0.37805640255927542 0.47903421333972468 0 -0.3842367001720054 0.47454362448235632 0 -0.3938434845513461 0.48000301234504228 0 -0.37805640255927542 0.47903421333972468 0 -0.37220834978290879 0.49000150617251997 0 -0.3842367001720054 0.47454362448235632 0 -0.37701653082709469 0.46900635458093531 0 -0.38930270813857232 0.46778113184491188 0 -0.3938434845513461 0.48000301234504228 0 -0.3842367001720054 0.47454362448235632 0 -0.38930270813857232 0.46778113184491188 0 -0.37805640255927542 0.47903421333972468 0 -0.3842367001720054 0.47454362448235632 0 -0.37701653082709469 0.46900635458093531 0 -0.37701653082709469 0.46900635458093531 0 -0.38677844954541418 0.45747132953460651 0 -0.37376195539900242 0.45249759326054367 0 -0.37701653082709469 0.46900635458093531 0 -0.38677844954541418 0.45747132953460651 0 -0.38930270813857232 0.46778113184491188 0 -0.38473584783684761 0.44354080077547992 0 -0.36778315087773072 0.43214877602771662 0 -0.37376195539900242 0.45249759326054367 0 -0.38677844954541418 0.45747132953460651 0 -0.38473584783684761 0.44354080077547992 0 -0.37376195539900242 0.45249759326054367 0 -0.38677844954541418 0.45747132953460651 0 -0.38473584783684761 0.44354080077547992 0 -0.39843898125590987 0.45231631840454728 0 -0.39843898125590987 0.45231631840454728 0 -0.4072920944712265 0.44499890251068641 0 -0.39856520721893041 0.43647578570475237 0 -0.38473584783684761 0.44354080077547992 0 -0.39843898125590987 0.45231631840454728 0 -0.39856520721893041 0.43647578570475237 0 -0.39843898125590987 0.45231631840454728 0 -0.39841490533913748 0.46178879282826651 0 -0.41709791082295028 0.45456801136960878 0 -0.40110135887996978 0.47332954189399812 0 -0.39841490533913748 0.46178879282826651 0 -0.41709791082295028 0.45456801136960878 0 -0.38677844954541418 0.45747132953460651 0 -0.38930270813857232 0.46778113184491188 0 -0.39841490533913748 0.46178879282826651 0 -0.40110135887996978 0.47332954189399812 0 -0.38930270813857232 0.46778113184491188 0 -0.39841490533913748 0.46178879282826651 0 -0.38677844954541418 0.45747132953460651 0 -0.39843898125590987 0.45231631840454728 0 -0.39841490533913748 0.46178879282826651 0 -0.40110135887996978 0.47332954189399812 0 -0.41709791082295028 0.45456801136960878 0 -0.4154786193197833 0.47000451851756458 0 -0.40110135887996978 0.47332954189399812 0 -0.41709791082295028 0.45456801136960878 0 -0.41709791082295028 0.45456801136960878 0 -0.42692569345801529 0.46340213249295897 0 -0.4154786193197833 0.47000451851756458 0 -0.41709791082295028 0.45456801136960878 0 -0.43309446276593089 0.43580648084521972 0 -0.41506627858711548 0.4366354945638371 0 -0.39843898125590987 0.45231631840454728 0 -0.41709791082295028 0.45456801136960878 0 -0.4072920944712265 0.44499890251068641 0 -0.4072920944712265 0.44499890251068641 0 -0.41506627858711548 0.4366354945638371 0 -0.39856520721893041 0.43647578570475237 0 -0.41709791082295028 0.45456801136960878 0 -0.4072920944712265 0.44499890251068641 0 -0.41506627858711548 0.4366354945638371 0 -0.41709791082295028 0.45456801136960878 0 -0.43251943231727258 0.45189802077753072 0 -0.43309446276593089 0.43580648084521972 0 -0.41709791082295028 0.45456801136960878 0 -0.43309446276593089 0.43580648084521972 0 -0.43251943231727258 0.45189802077753072 0 -0.44285055445462801 0.44408738363144917 0 -0.43309446276593089 0.43580648084521972 0 -0.43251943231727258 0.45189802077753072 0 -0.42692569345801529 0.46340213249295897 0 -0.44262854008483871 0.46162609554841733 0 -0.42692569345801529 0.46340213249295897 0 -0.43014133963940671 0.47900644757454591 0 -0.44262854008483871 0.46162609554841733 0 -0.41709791082295028 0.45456801136960878 0 -0.43251943231727258 0.45189802077753072 0 -0.42692569345801529 0.46340213249295897 0 -0.42692569345801529 0.46340213249295897 0 -0.43014133963940671 0.47900644757454591 0 -0.4154786193197833 0.47000451851756458 0 -0.43014133963940671 0.47900644757454591 0 -0.4154786193197833 0.47000451851756458 0 -0.40908183102320411 0.4845696213484928 0 -0.40521342881326272 0.5 0 -0.40908183102320411 0.4845696213484928 0 -0.43253353571265801 0.5 0 -0.43014133963940671 0.47900644757454591 0 -0.40908183102320411 0.4845696213484928 0 -0.43253353571265801 0.5 0 -0.43014133963940671 0.47900644757454591 0 -0.43253353571265801 0.5 0 -0.44984012809851409 0.48033494727474779 0 -0.43253353571265801 0.5 0 -0.44984012809851409 0.48033494727474779 0 -0.45985364261205308 0.50000000000000111 0 -0.43014133963940671 0.47900644757454591 0 -0.44984012809851409 0.48033494727474779 0 -0.44262854008483871 0.46162609554841733 0 -0.44984012809851409 0.48033494727474779 0 -0.47312811744354261 0.47395110078869013 0 -0.45820768181792781 0.46325373185340701 0 -0.45985364261205308 0.50000000000000111 0 -0.47312811744354261 0.47395110078869013 0 -0.44984012809851409 0.48033494727474779 0 -0.45985364261205308 0.50000000000000111 0 -0.47312811744354261 0.47395110078869013 0 -0.5 0.5 0 -0.47312811744354261 0.47395110078869013 0 -0.49999999999999972 0.44664233614409321 0 -0.45985364261205308 0.50000000000000111 0 -0.5 0.5 0 -0.47312811744354261 0.47395110078869013 0 -0.48640259227503152 0.44790220157737892 0 -0.49999999999999972 0.44664233614409321 0 -0.47883616718389621 0.43347798499105172 0 -0.49999999999999972 0.44664233614409321 0 -0.47883616718389621 0.43347798499105172 0 -0.47312811744354261 0.47395110078869013 0 -0.48640259227503152 0.44790220157737892 0 -0.49999999999999972 0.44664233614409321 0 -0.47312811744354261 0.47395110078869013 0 -0.48640259227503152 0.44790220157737892 0 -0.47312811744354261 0.47395110078869013 0 -0.48640259227503152 0.44790220157737892 0 -0.46932328621444303 0.45009797021529852 0 -0.46932328621444303 0.45009797021529852 0 -0.46288197751253979 0.435741310408158 0 -0.47883616718389621 0.43347798499105172 0 -0.48640259227503152 0.44790220157737892 0 -0.46932328621444303 0.45009797021529852 0 -0.47883616718389621 0.43347798499105172 0 -0.46932328621444303 0.45009797021529852 0 -0.45653044061400749 0.44574373859450739 0 -0.46288197751253979 0.435741310408158 0 -0.46932328621444303 0.45009797021529852 0 -0.45653044061400749 0.44574373859450739 0 -0.45820768181792781 0.46325373185340701 0 -0.45653044061400749 0.44574373859450739 0 -0.44988321330808601 0.43264183945635343 0 -0.46288197751253979 0.435741310408158 0 -0.47312811744354261 0.47395110078869013 0 -0.46932328621444303 0.45009797021529852 0 -0.45820768181792781 0.46325373185340701 0 -0.45653044061400749 0.44574373859450739 0 -0.45820768181792781 0.46325373185340701 0 -0.44262854008483871 0.46162609554841733 0 -0.44984012809851409 0.48033494727474779 0 -0.45820768181792781 0.46325373185340701 0 -0.44262854008483871 0.46162609554841733 0 -0.43251943231727258 0.45189802077753072 0 -0.44262854008483871 0.46162609554841733 0 -0.44285055445462801 0.44408738363144917 0 -0.45653044061400749 0.44574373859450739 0 -0.44262854008483871 0.46162609554841733 0 -0.44285055445462801 0.44408738363144917 0 -0.44285055445462801 0.44408738363144917 0 -0.44988321330808601 0.43264183945635343 0 -0.43309446276593089 0.43580648084521972 0 -0.45653044061400749 0.44574373859450739 0 -0.44285055445462801 0.44408738363144917 0 -0.44988321330808601 0.43264183945635343 0 -0.44909101470891138 0.41704495032083061 0 -0.43309446276593089 0.43580648084521972 0 -0.44988321330808601 0.43264183945635343 0 -0.44909101470891138 0.41704495032083061 0 -0.43309446276593089 0.43580648084521972 0 -0.44988321330808601 0.43264183945635343 0 -0.44909101470891138 0.41704495032083061 0 -0.45767233436779298 0.42031363383801013 0 -0.44909101470891138 0.41704495032083061 0 -0.43642708593841462 0.41129790334070748 0 -0.43309446276593089 0.43580648084521972 0 -0.44909101470891138 0.41704495032083061 0 -0.44923652684218601 0.40651161443480333 0 -0.43642708593841462 0.41129790334070748 0 -0.44909101470891138 0.41704495032083061 0 -0.46310762304278369 0.4136785712167641 0 -0.46508756665189233 0.39828341979644161 0 -0.44909101470891138 0.41704495032083061 0 -0.46508756665189233 0.39828341979644161 0 -0.44909101470891138 0.41704495032083061 0 -0.44923652684218601 0.40651161443480333 0 -0.46508756665189233 0.39828341979644161 0 -0.44909101470891138 0.41704495032083061 0 -0.45767233436779298 0.42031363383801013 0 -0.46310762304278369 0.4136785712167641 0 -0.45767233436779298 0.42031363383801013 0 -0.46310762304278369 0.4136785712167641 0 -0.4689935185142321 0.42014913325858988 0 -0.46310762304278369 0.4136785712167641 0 -0.47635794946245552 0.41312634298853379 0 -0.46508756665189233 0.39828341979644161 0 -0.45767233436779298 0.42031363383801013 0 -0.47883616718389621 0.43347798499105172 0 -0.4689935185142321 0.42014913325858988 0 -0.45767233436779298 0.42031363383801013 0 -0.46288197751253979 0.435741310408158 0 -0.47883616718389621 0.43347798499105172 0 -0.45767233436779298 0.42031363383801013 0 -0.47883616718389621 0.43347798499105172 0 -0.44988321330808601 0.43264183945635343 0 -0.45767233436779298 0.42031363383801013 0 -0.46288197751253979 0.435741310408158 0 -0.47883616718389621 0.43347798499105172 0 -0.47635794946245552 0.41312634298853379 0 -0.48714440641974271 0.42351608680749347 0 -0.47883616718389621 0.43347798499105172 0 -0.4689935185142321 0.42014913325858988 0 -0.47635794946245552 0.41312634298853379 0 -0.46310762304278369 0.4136785712167641 0 -0.4689935185142321 0.42014913325858988 0 -0.47635794946245552 0.41312634298853379 0 -0.47635794946245552 0.41312634298853379 0 -0.48901457958177968 0.41012265573874179 0 -0.48254378332594611 0.39722493186941499 0 -0.47635794946245552 0.41312634298853379 0 -0.48901457958177968 0.41012265573874179 0 -0.48714440641974271 0.42351608680749347 0 -0.48901457958177968 0.41012265573874179 0 -0.5 0.42140439004324071 0 -0.49999999999999978 0.39616644394238798 0 -0.48901457958177968 0.41012265573874179 0 -0.5 0.42140439004324071 0 -0.48714440641974271 0.42351608680749347 0 -0.49999999999999972 0.44664233614409321 0 -0.47883616718389621 0.43347798499105172 0 -0.48714440641974271 0.42351608680749347 0 -0.49999999999999972 0.44664233614409321 0 -0.5 0.42140439004324071 0 -0.48714440641974271 0.42351608680749347 0 -0.49007778645481631 0.38142997617552599 0 -0.49999999999999978 0.39616644394238798 0 -0.50000000000000311 0.3685517992903854 0 -0.49007778645481631 0.38142997617552599 0 -0.47611467569506138 0.38535029247959018 0 -0.48714178473823078 0.37241716516273898 0 -0.49999999999999978 0.39616644394238798 0 -0.48254378332594611 0.39722493186941499 0 -0.48901457958177968 0.41012265573874179 0 -0.49999999999999978 0.39616644394238798 0 -0.48254378332594611 0.39722493186941499 0 -0.49007778645481631 0.38142997617552599 0 -0.49999999999999978 0.39616644394238798 0 -0.48254378332594611 0.39722493186941499 0 -0.48254378332594611 0.39722493186941499 0 -0.46508756665189233 0.39828341979644161 0 -0.47635794946245552 0.41312634298853379 0 -0.48254378332594611 0.39722493186941499 0 -0.46508756665189233 0.39828341979644161 0 -0.48254378332594611 0.39722493186941499 0 -0.47611467569506138 0.38535029247959018 0 -0.46508756665189233 0.39828341979644161 0 -0.47611467569506138 0.38535029247959018 0 -0.46508756665189233 0.39828341979644161 0 -0.49007778645481631 0.38142997617552599 0 -0.48254378332594611 0.39722493186941499 0 -0.47611467569506138 0.38535029247959018 0 -0.47611467569506138 0.38535029247959018 0 -0.47397397291215421 0.37493689296344251 0 -0.48714178473823078 0.37241716516273898 0 -0.47611467569506138 0.38535029247959018 0 -0.48714178473823078 0.37241716516273898 0 -0.46871814716203669 0.37906981455344119 0 -0.46360543106569913 0.37231654924431878 0 -0.47397397291215421 0.37493689296344251 0 -0.47611467569506138 0.38535029247959018 0 -0.46871814716203669 0.37906981455344119 0 -0.47397397291215421 0.37493689296344251 0 -0.46871814716203669 0.37906981455344119 0 -0.46117850897523233 0.38367552352641338 0 -0.46360543106569913 0.37231654924431878 0 -0.47611467569506138 0.38535029247959018 0 -0.46871814716203669 0.37906981455344119 0 -0.46117850897523233 0.38367552352641338 0 -0.47611467569506138 0.38535029247959018 0 -0.46117850897523233 0.38367552352641338 0 -0.46508756665189233 0.39828341979644161 0 -0.46117850897523233 0.38367552352641338 0 -0.45400385251667602 0.39093091030285698 0 -0.45110956684876158 0.38402681738971201 0 -0.46117850897523233 0.38367552352641338 0 -0.45110956684876158 0.38402681738971201 0 -0.44813402172652672 0.37354371539476261 0 -0.46117850897523233 0.38367552352641338 0 -0.44813402172652672 0.37354371539476261 0 -0.46360543106569913 0.37231654924431878 0 -0.44923652684218601 0.40651161443480333 0 -0.46508756665189233 0.39828341979644161 0 -0.44634044006952572 0.39942018428123321 0 -0.46508756665189233 0.39828341979644161 0 -0.45400385251667602 0.39093091030285698 0 -0.44634044006952572 0.39942018428123321 0 -0.46508756665189233 0.39828341979644161 0 -0.44634044006952572 0.39942018428123321 0 -0.46117850897523233 0.38367552352641338 0 -0.46508756665189233 0.39828341979644161 0 -0.45400385251667602 0.39093091030285698 0 -0.45400385251667602 0.39093091030285698 0 -0.44634044006952572 0.39942018428123321 0 -0.44518347515021223 0.38837251913440451 0 -0.44634044006952572 0.39942018428123321 0 -0.44518347515021223 0.38837251913440451 0 -0.43728617553129168 0.39370672697544878 0 -0.44923652684218601 0.40651161443480333 0 -0.44634044006952572 0.39942018428123321 0 -0.43642708593841462 0.41129790334070748 0 -0.45110956684876158 0.38402681738971201 0 -0.44480856609964842 0.38185924381796288 0 -0.44813402172652672 0.37354371539476261 0 -0.45400385251667602 0.39093091030285698 0 -0.45110956684876158 0.38402681738971201 0 -0.44518347515021223 0.38837251913440451 0 -0.45110956684876158 0.38402681738971201 0 -0.44518347515021223 0.38837251913440451 0 -0.44480856609964842 0.38185924381796288 0 -0.44518347515021223 0.38837251913440451 0 -0.43913693036841173 0.38484964203092692 0 -0.43002747341826991 0.3864772557201327 0 -0.44518347515021223 0.38837251913440451 0 -0.43002747341826991 0.3864772557201327 0 -0.44518347515021223 0.38837251913440451 0 -0.43913693036841173 0.38484964203092692 0 -0.44480856609964842 0.38185924381796288 0 -0.44480856609964842 0.38185924381796288 0 -0.4393591315165738 0.37762743775392832 0 -0.44813402172652672 0.37354371539476261 0 -0.43913693036841173 0.38484964203092692 0 -0.44480856609964842 0.38185924381796288 0 -0.4393591315165738 0.37762743775392832 0 -0.43913693036841173 0.38484964203092692 0 -0.43173797726570751 0.37658334167695551 0 -0.43913693036841173 0.38484964203092692 0 -0.43173797726570751 0.37658334167695551 0 -0.43002747341826991 0.3864772557201327 0 -0.43913693036841173 0.38484964203092692 0 -0.4393591315165738 0.37762743775392832 0 -0.43173797726570751 0.37658334167695551 0 -0.4393591315165738 0.37762743775392832 0 -0.43173797726570751 0.37658334167695551 0 -0.4325639091043616 0.37180597819459837 0 -0.43173797726570751 0.37658334167695551 0 -0.43002747341826991 0.3864772557201327 0 -0.44518347515021223 0.38837251913440451 0 -0.43002747341826991 0.3864772557201327 0 -0.43728617553129168 0.39370672697544878 0 -0.43002747341826991 0.3864772557201327 0 -0.41472776448615789 0.38456402166930481 0 -0.42117367656598032 0.39254991666010941 0 -0.43002747341826991 0.3864772557201327 0 -0.41472776448615789 0.38456402166930481 0 -0.43002747341826991 0.3864772557201327 0 -0.42328890360694349 0.38021744503538613 0 -0.41472776448615789 0.38456402166930481 0 -0.43173797726570751 0.37658334167695551 0 -0.43002747341826991 0.3864772557201327 0 -0.42328890360694349 0.38021744503538613 0 -0.43173797726570751 0.37658334167695551 0 -0.42328890360694349 0.38021744503538613 0 -0.42689564018809201 0.37117335838025439 0 -0.40881671944059661 0.37920357314115732 0 -0.42689564018809201 0.37117335838025439 0 -0.42328890360694349 0.38021744503538613 0 -0.40881671944059661 0.37920357314115732 0 -0.42689564018809201 0.37117335838025439 0 -0.42328890360694349 0.38021744503538613 0 -0.41472776448615789 0.38456402166930481 0 -0.40881671944059661 0.37920357314115732 0 -0.41472776448615789 0.38456402166930481 0 -0.40724106840129259 0.39428871981441299 0 -0.42117367656598032 0.39254991666010941 0 -0.41472776448615789 0.38456402166930481 0 -0.40826438028753348 0.3817067557430866 0 -0.39942805555404642 0.38265078761847338 0 -0.41472776448615789 0.38456402166930481 0 -0.40724106840129259 0.39428871981441299 0 -0.39942805555404642 0.38265078761847338 0 -0.41472776448615789 0.38456402166930481 0 -0.39942805555404642 0.38265078761847338 0 -0.40881671944059661 0.37920357314115732 0 -0.39942805555404642 0.38265078761847338 0 -0.41098055992701871 0.3693971202961519 0 -0.40826438028753348 0.3817067557430866 0 -0.40881671944059661 0.37920357314115732 0 -0.41472776448615789 0.38456402166930481 0 -0.40826438028753348 0.3817067557430866 0 -0.40881671944059661 0.37920357314115732 0 -0.40724106840129259 0.39428871981441299 0 -0.4157685575788832 0.40127396331749671 0 -0.40157856791931718 0.40704460823596672 0 -0.42117367656598032 0.39254991666010941 0 -0.4157685575788832 0.40127396331749671 0 -0.42759331348715912 0.40055694876602499 0 -0.40724106840129259 0.39428871981441299 0 -0.42117367656598032 0.39254991666010941 0 -0.4157685575788832 0.40127396331749671 0 -0.4157685575788832 0.40127396331749671 0 -0.42759331348715912 0.40055694876602499 0 -0.44634044006952572 0.39942018428123321 0 -0.42759331348715912 0.40055694876602499 0 -0.44634044006952572 0.39942018428123321 0 -0.42759331348715912 0.40055694876602499 0 -0.43728617553129168 0.39370672697544878 0 -0.44634044006952572 0.39942018428123321 0 -0.42759331348715912 0.40055694876602499 0 -0.43642708593841462 0.41129790334070748 0 -0.43002747341826991 0.3864772557201327 0 -0.42117367656598032 0.39254991666010941 0 -0.42759331348715912 0.40055694876602499 0 -0.43002747341826991 0.3864772557201327 0 -0.42759331348715912 0.40055694876602499 0 -0.43002747341826991 0.3864772557201327 0 -0.42759331348715912 0.40055694876602499 0 -0.43728617553129168 0.39370672697544878 0 -0.43642708593841462 0.41129790334070748 0 -0.42449994900394461 0.41844961959922572 0 -0.43309446276593089 0.43580648084521972 0 -0.42759331348715912 0.40055694876602499 0 -0.43642708593841462 0.41129790334070748 0 -0.42449994900394461 0.41844961959922572 0 -0.4157685575788832 0.40127396331749671 0 -0.42759331348715912 0.40055694876602499 0 -0.42449994900394461 0.41844961959922572 0 -0.42759331348715912 0.40055694876602499 0 -0.42449994900394461 0.41844961959922572 0 -0.42449994900394461 0.41844961959922572 0 -0.43309446276593089 0.43580648084521972 0 -0.41506627858711548 0.4366354945638371 0 -0.42449994900394461 0.41844961959922572 0 -0.41506627858711548 0.4366354945638371 0 -0.40746949035714619 0.42222882353716701 0 -0.41506627858711548 0.4366354945638371 0 -0.40746949035714619 0.42222882353716701 0 -0.39856520721893041 0.43647578570475237 0 -0.42449994900394461 0.41844961959922572 0 -0.40746949035714619 0.42222882353716701 0 -0.41232914121482278 0.41224925367246401 0 -0.4157685575788832 0.40127396331749671 0 -0.42449994900394461 0.41844961959922572 0 -0.41232914121482278 0.41224925367246401 0 -0.4157685575788832 0.40127396331749671 0 -0.41232914121482278 0.41224925367246401 0 -0.40157856791931718 0.40704460823596672 0 -0.40746949035714619 0.42222882353716701 0 -0.41232914121482278 0.41224925367246401 0 -0.40157856791931718 0.40704460823596672 0 -0.40746949035714619 0.42222882353716701 0 -0.40157856791931718 0.40704460823596672 0 -0.39298749241221759 0.42119507937603923 0 -0.40746949035714619 0.42222882353716701 0 -0.39298749241221759 0.42119507937603923 0 -0.39856520721893041 0.43647578570475237 0 -0.39298749241221759 0.42119507937603923 0 -0.39856520721893041 0.43647578570475237 0 -0.38373994498284608 0.43043669407259588 0 -0.38373994498284608 0.43043669407259588 0 -0.37668454372729859 0.41206883315114529 0 -0.36778315087773072 0.43214877602771662 0 -0.38473584783684761 0.44354080077547992 0 -0.38373994498284608 0.43043669407259588 0 -0.36778315087773072 0.43214877602771662 0 -0.38473584783684761 0.44354080077547992 0 -0.39856520721893041 0.43647578570475237 0 -0.38373994498284608 0.43043669407259588 0 -0.40157856791931718 0.40704460823596672 0 -0.39298749241221759 0.42119507937603923 0 -0.37668454372729859 0.41206883315114529 0 -0.39298749241221759 0.42119507937603923 0 -0.38373994498284608 0.43043669407259588 0 -0.37668454372729859 0.41206883315114529 0 -0.40157856791931718 0.40704460823596672 0 -0.37668454372729859 0.41206883315114529 0 -0.37668454372729859 0.41206883315114529 0 -0.37844474563582792 0.390355182046278 0 -0.39076978830337122 0.39764902138512792 0 -0.40157856791931718 0.40704460823596672 0 -0.37668454372729859 0.41206883315114529 0 -0.39076978830337122 0.39764902138512792 0 -0.38141148745950948 0.38039780936179463 0 -0.39942805555404642 0.38265078761847338 0 -0.37844474563582792 0.390355182046278 0 -0.39942805555404642 0.38265078761847338 0 -0.38141148745950948 0.38039780936179463 0 -0.37844474563582792 0.390355182046278 0 -0.39942805555404642 0.38265078761847338 0 -0.37844474563582792 0.390355182046278 0 -0.39942805555404642 0.38265078761847338 0 -0.39076978830337122 0.39764902138512792 0 -0.38141148745950948 0.38039780936179463 0 -0.39942805555404642 0.38265078761847338 0 -0.39128338495032239 0.36719877308275878 0 -0.40826438028753348 0.3817067557430866 0 -0.40881671944059661 0.37920357314115732 0 -0.39942805555404642 0.38265078761847338 0 -0.40881671944059661 0.37920357314115732 0 -0.39942805555404642 0.38265078761847338 0 -0.40724106840129259 0.39428871981441299 0 -0.40157856791931718 0.40704460823596672 0 -0.39076978830337122 0.39764902138512792 0 -0.40724106840129259 0.39428871981441299 0 -0.39942805555404642 0.38265078761847338 0 -0.39076978830337122 0.39764902138512792 0 -0.39259889148010241 0.34864188780489069 0 -0.39999637464883392 0.35559476271013252 0 -0.38966798311544332 0.35610238881872369 0 -0.39259889148010241 0.34864188780489069 0 -0.39999637464883392 0.35559476271013252 0 -0.40046159691170069 0.34164056661102238 0 -0.39999637464883392 0.35559476271013252 0 -0.40046159691170069 0.34164056661102238 0 -0.41381361947694889 0.35655778899711688 0 -0.39999637464883392 0.35559476271013252 0 -0.40397412088998857 0.3623881668075713 0 -0.41381361947694889 0.35655778899711688 0 -0.39128338495032239 0.36719877308275878 0 -0.41098055992701871 0.3693971202961519 0 -0.40397412088998857 0.3623881668075713 0 -0.39128338495032239 0.36719877308275878 0 -0.41098055992701871 0.3693971202961519 0 -0.39942805555404642 0.38265078761847338 0 -0.39128338495032239 0.36719877308275878 0 -0.41098055992701871 0.3693971202961519 0 -0.39999637464883392 0.35559476271013252 0 -0.39128338495032239 0.36719877308275878 0 -0.38966798311544332 0.35610238881872369 0 -0.39999637464883392 0.35559476271013252 0 -0.40397412088998857 0.3623881668075713 0 -0.39128338495032239 0.36719877308275878 0 -0.39128338495032239 0.36719877308275878 0 -0.38070440212728118 0.35956436367519867 0 -0.38966798311544332 0.35610238881872369 0 -0.39128338495032239 0.36719877308275878 0 -0.38070440212728118 0.35956436367519867 0 -0.37158620997362618 0.36500042586936587 0 -0.39128338495032239 0.36719877308275878 0 -0.37158620997362618 0.36500042586936587 0 -0.38141148745950948 0.38039780936179463 0 -0.39128338495032239 0.36719877308275878 0 -0.37158620997362618 0.36500042586936587 0 -0.38070440212728118 0.35956436367519867 0 -0.38259242285128608 0.34975193996759602 0 -0.36960199921418602 0.35731180584905542 0 -0.38259242285128608 0.34975193996759602 0 -0.37580907906339922 0.33647878059299557 0 -0.36960199921418602 0.35731180584905542 0 -0.38070440212728118 0.35956436367519867 0 -0.38966798311544332 0.35610238881872369 0 -0.38259242285128608 0.34975193996759602 0 -0.39259889148010241 0.34864188780489069 0 -0.38966798311544332 0.35610238881872369 0 -0.38259242285128608 0.34975193996759602 0 -0.39259889148010241 0.34864188780489069 0 -0.38259242285128608 0.34975193996759602 0 -0.38794720083446621 0.34059934721089508 0 -0.38259242285128608 0.34975193996759602 0 -0.37580907906339922 0.33647878059299557 0 -0.38794720083446621 0.34059934721089508 0 -0.37580907906339922 0.33647878059299557 0 -0.38794720083446621 0.34059934721089508 0 -0.38710957434645199 0.32672334422492838 0 -0.37580907906339922 0.33647878059299557 0 -0.38201615891261242 0.31564575533693578 0 -0.38201615891261242 0.31564575533693578 0 -0.38336946241093189 0.30974931290420182 0 -0.36531193472093021 0.32454274932608829 0 -0.37580907906339922 0.33647878059299557 0 -0.38201615891261242 0.31564575533693578 0 -0.38710957434645199 0.32672334422492838 0 -0.38201615891261242 0.31564575533693578 0 -0.39350880394476312 0.31593875705230262 0 -0.38336946241093189 0.30974931290420182 0 -0.38201615891261242 0.31564575533693578 0 -0.38710957434645199 0.32672334422492838 0 -0.39350880394476312 0.31593875705230262 0 -0.38710957434645199 0.32672334422492838 0 -0.39350880394476312 0.31593875705230262 0 -0.39921774374196328 0.327754485124091 0 -0.39350880394476312 0.31593875705230262 0 -0.39921774374196328 0.327754485124091 0 -0.40602554896887638 0.32011992980008452 0 -0.39921774374196328 0.327754485124091 0 -0.40602554896887638 0.32011992980008452 0 -0.40814721749945931 0.33505042297199122 0 -0.38794720083446621 0.34059934721089508 0 -0.38710957434645199 0.32672334422492838 0 -0.40046159691170069 0.34164056661102238 0 -0.39259889148010241 0.34864188780489069 0 -0.38794720083446621 0.34059934721089508 0 -0.40046159691170069 0.34164056661102238 0 -0.38710957434645199 0.32672334422492838 0 -0.39921774374196328 0.327754485124091 0 -0.40046159691170069 0.34164056661102238 0 -0.38710957434645199 0.32672334422492838 0 -0.40046159691170069 0.34164056661102238 0 -0.39921774374196328 0.327754485124091 0 -0.40046159691170069 0.34164056661102238 0 -0.40814721749945931 0.33505042297199122 0 -0.40814721749945931 0.33505042297199122 0 -0.41954562432067788 0.33058053440738988 0 -0.41381361947694889 0.35655778899711688 0 -0.41954562432067788 0.33058053440738988 0 -0.41381361947694889 0.35655778899711688 0 -0.40602554896887638 0.32011992980008452 0 -0.40814721749945931 0.33505042297199122 0 -0.41954562432067788 0.33058053440738988 0 -0.40602554896887638 0.32011992980008452 0 -0.41954562432067788 0.33058053440738988 0 -0.42527762916440792 0.30460327981766322 0 -0.41954562432067788 0.33058053440738988 0 -0.42527762916440792 0.30460327981766322 0 -0.41954562432067788 0.33058053440738988 0 -0.44001701522470671 0.31606260091672289 0 -0.42527762916440792 0.30460327981766322 0 -0.41954562432067788 0.33058053440738988 0 -0.42420657124029282 0.3485159257420361 0 -0.43843079740841773 0.33787066219507811 0 -0.41954562432067788 0.33058053440738988 0 -0.43843079740841773 0.33787066219507811 0 -0.44001701522470671 0.31606260091672289 0 -0.42420657124029282 0.3485159257420361 0 -0.43459164588172849 0.36007712215754689 0 -0.43843079740841773 0.33787066219507811 0 -0.42420657124029282 0.3485159257420361 0 -0.41381361947694889 0.35655778899711688 0 -0.43459164588172849 0.36007712215754689 0 -0.41381361947694889 0.35655778899711688 0 -0.43459164588172849 0.36007712215754689 0 -0.43459164588172849 0.36007712215754689 0 -0.43843079740841773 0.33787066219507811 0 -0.40046159691170069 0.34164056661102238 0 -0.40814721749945931 0.33505042297199122 0 -0.41381361947694889 0.35655778899711688 0 -0.41954562432067788 0.33058053440738988 0 -0.42420657124029282 0.3485159257420361 0 -0.41381361947694889 0.35655778899711688 0 -0.39999637464883392 0.35559476271013252 0 -0.41381361947694889 0.35655778899711688 0 -0.40046159691170069 0.34164056661102238 0 -0.41381361947694889 0.35655778899711688 0 -0.41381361947694889 0.35655778899711688 0 -0.41098055992701871 0.3693971202961519 0 -0.42689564018809201 0.37117335838025439 0 -0.41098055992701871 0.3693971202961519 0 -0.42689564018809201 0.37117335838025439 0 -0.40881671944059661 0.37920357314115732 0 -0.41098055992701871 0.3693971202961519 0 -0.42689564018809201 0.37117335838025439 0 -0.40881671944059661 0.37920357314115732 0 -0.41098055992701871 0.3693971202961519 0 -0.40397412088998857 0.3623881668075713 0 -0.41381361947694889 0.35655778899711688 0 -0.41098055992701871 0.3693971202961519 0 -0.41381361947694889 0.35655778899711688 0 -0.41098055992701871 0.3693971202961519 0 -0.41381361947694889 0.35655778899711688 0 -0.42689564018809201 0.37117335838025439 0 -0.41381361947694889 0.35655778899711688 0 -0.42907199843085347 0.36486274908666949 0 -0.43459164588172849 0.36007712215754689 0 -0.42689564018809201 0.37117335838025439 0 -0.42907199843085347 0.36486274908666949 0 -0.42980351636605002 0.37149789839679431 0 -0.43173797726570751 0.37658334167695551 0 -0.42689564018809201 0.37117335838025439 0 -0.43173797726570751 0.37658334167695551 0 -0.42689564018809201 0.37117335838025439 0 -0.42980351636605002 0.37149789839679431 0 -0.42689564018809201 0.37117335838025439 0 -0.42980351636605002 0.37149789839679431 0 -0.41381361947694889 0.35655778899711688 0 -0.42689564018809201 0.37117335838025439 0 -0.42907199843085347 0.36486274908666949 0 -0.43459164588172849 0.36007712215754689 0 -0.4325639091043616 0.37180597819459837 0 -0.42907199843085347 0.36486274908666949 0 -0.43459164588172849 0.36007712215754689 0 -0.4325639091043616 0.37180597819459837 0 -0.43173797726570751 0.37658334167695551 0 -0.4325639091043616 0.37180597819459837 0 -0.43173797726570751 0.37658334167695551 0 -0.4325639091043616 0.37180597819459837 0 -0.42980351636605002 0.37149789839679431 0 -0.4325639091043616 0.37180597819459837 0 -0.42980351636605002 0.37149789839679431 0 -0.42907199843085347 0.36486274908666949 0 -0.4325639091043616 0.37180597819459837 0 -0.42980351636605002 0.37149789839679431 0 -0.4393591315165738 0.37762743775392832 0 -0.4325639091043616 0.37180597819459837 0 -0.44813402172652672 0.37354371539476261 0 -0.4325639091043616 0.37180597819459837 0 -0.44813402172652672 0.37354371539476261 0 -0.4325639091043616 0.37180597819459837 0 -0.44813402172652672 0.37354371539476261 0 -0.45404419213644692 0.3625975043188554 0 -0.43459164588172849 0.36007712215754689 0 -0.45404419213644692 0.3625975043188554 0 -0.43459164588172849 0.36007712215754689 0 -0.4325639091043616 0.37180597819459837 0 -0.45404419213644692 0.3625975043188554 0 -0.4325639091043616 0.37180597819459837 0 -0.45404419213644692 0.3625975043188554 0 -0.43459164588172849 0.36007712215754689 0 -0.44549025602952702 0.35300777224981977 0 -0.45404419213644692 0.3625975043188554 0 -0.44549025602952702 0.35300777224981977 0 -0.45575207180717081 0.34762579988211101 0 -0.43843079740841773 0.33787066219507811 0 -0.43459164588172849 0.36007712215754689 0 -0.44549025602952702 0.35300777224981977 0 -0.43843079740841773 0.33787066219507811 0 -0.44549025602952702 0.35300777224981977 0 -0.45575207180717081 0.34762579988211101 0 -0.45404419213644692 0.3625975043188554 0 -0.45575207180717081 0.34762579988211101 0 -0.46674234051517471 0.35793515390827568 0 -0.45404419213644692 0.3625975043188554 0 -0.45575207180717081 0.34762579988211101 0 -0.46674234051517471 0.35793515390827568 0 -0.46933267881425472 0.34565439271282838 0 -0.45404419213644692 0.3625975043188554 0 -0.47441064506165659 0.36523629740895902 0 -0.46674234051517471 0.35793515390827568 0 -0.45404419213644692 0.3625975043188554 0 -0.47441064506165659 0.36523629740895902 0 -0.45404419213644692 0.3625975043188554 0 -0.46360543106569913 0.37231654924431878 0 -0.47441064506165659 0.36523629740895902 0 -0.44813402172652672 0.37354371539476261 0 -0.45404419213644692 0.3625975043188554 0 -0.46360543106569913 0.37231654924431878 0 -0.46674234051517471 0.35793515390827568 0 -0.45404419213644692 0.3625975043188554 0 -0.46360543106569913 0.37231654924431878 0 -0.47397397291215421 0.37493689296344251 0 -0.47441064506165659 0.36523629740895902 0 -0.47441064506165659 0.36523629740895902 0 -0.48058358620238051 0.35168401037216412 0 -0.49477709798686631 0.36787509049906381 0 -0.47397397291215421 0.37493689296344251 0 -0.47441064506165659 0.36523629740895902 0 -0.48714178473823078 0.37241716516273898 0 -0.46674234051517471 0.35793515390827568 0 -0.47441064506165659 0.36523629740895902 0 -0.48058358620238051 0.35168401037216412 0 -0.46674234051517471 0.35793515390827568 0 -0.46933267881425472 0.34565439271282838 0 -0.48058358620238051 0.35168401037216412 0 -0.46933267881425472 0.34565439271282838 0 -0.48058358620238051 0.35168401037216412 0 -0.48121002056386808 0.3369363626790518 0 -0.48058358620238051 0.35168401037216412 0 -0.49703354506598713 0.34759711953555122 0 -0.48121002056386808 0.3369363626790518 0 -0.49703354506598713 0.34759711953555122 0 -0.5 0.34812631329607491 0 -0.49477709798686631 0.36787509049906381 0 -0.48058358620238051 0.35168401037216412 0 -0.49703354506598713 0.34759711953555122 0 -0.49477709798686631 0.36787509049906381 0 -0.49703354506598713 0.34759711953555122 0 -0.49477709798686631 0.36787509049906381 0 -0.5 0.34812631329607491 0 -0.50000000000000311 0.3685517992903854 0 -0.49477709798686631 0.36787509049906381 0 -0.47441064506165659 0.36523629740895902 0 -0.49477709798686631 0.36787509049906381 0 -0.48714178473823078 0.37241716516273898 0 -0.47441064506165659 0.36523629740895902 0 -0.49477709798686631 0.36787509049906381 0 -0.49007778645481631 0.38142997617552599 0 -0.50000000000000311 0.3685517992903854 0 -0.49477709798686631 0.36787509049906381 0 -0.50000000000000311 0.3685517992903854 0 -0.49477709798686631 0.36787509049906381 0 -0.49007778645481631 0.38142997617552599 0 -0.49477709798686631 0.36787509049906381 0 -0.48714178473823078 0.37241716516273898 0 -0.4992899921451075 0.32731914857203848 0 -0.47890896772952718 0.31636292681222472 0 -0.4992899921451075 0.32731914857203848 0 -0.48121002056386808 0.3369363626790518 0 -0.47890896772952718 0.31636292681222472 0 -0.49999999999999989 0.32093853419885771 0 -0.47890896772952718 0.31636292681222472 0 -0.48920120729889771 0.30786362236022019 0 -0.49999999999999989 0.32093853419885771 0 -0.4992899921451075 0.32731914857203848 0 -0.47890896772952718 0.31636292681222472 0 -0.49999999999999989 0.32093853419885771 0 -0.4992899921451075 0.32731914857203848 0 -0.49703354506598713 0.34759711953555122 0 -0.4992899921451075 0.32731914857203848 0 -0.49703354506598713 0.34759711953555122 0 -0.4992899921451075 0.32731914857203848 0 -0.48121002056386808 0.3369363626790518 0 -0.49703354506598713 0.34759711953555122 0 -0.5 0.34812631329607491 0 -0.4992899921451075 0.32731914857203848 0 -0.46933267881425472 0.34565439271282838 0 -0.48121002056386808 0.3369363626790518 0 -0.46237537498267961 0.3340906367225393 0 -0.48121002056386808 0.3369363626790518 0 -0.47890896772952718 0.31636292681222472 0 -0.46237537498267961 0.3340906367225393 0 -0.47890896772952718 0.31636292681222472 0 -0.45636509730576869 0.32029680939338251 0 -0.45852794331394758 0.30540670505240958 0 -0.47890896772952718 0.31636292681222472 0 -0.45636509730576869 0.32029680939338251 0 -0.46237537498267961 0.3340906367225393 0 -0.45575207180717081 0.34762579988211101 0 -0.46933267881425472 0.34565439271282838 0 -0.46237537498267961 0.3340906367225393 0 -0.45575207180717081 0.34762579988211101 0 -0.46237537498267961 0.3340906367225393 0 -0.43843079740841773 0.33787066219507811 0 -0.45636509730576869 0.32029680939338251 0 -0.46237537498267961 0.3340906367225393 0 -0.43843079740841773 0.33787066219507811 0 -0.45636509730576869 0.32029680939338251 0 -0.43843079740841773 0.33787066219507811 0 -0.44001701522470671 0.31606260091672289 0 -0.45636509730576869 0.32029680939338251 0 -0.44001701522470671 0.31606260091672289 0 -0.45852794331394758 0.30540670505240958 0 -0.4381469188983681 0.2944504832925946 0 -0.45852794331394758 0.30540670505240958 0 -0.44001701522470671 0.31606260091672289 0 -0.4381469188983681 0.2944504832925946 0 -0.45852794331394758 0.30540670505240958 0 -0.4381469188983681 0.2944504832925946 0 -0.4447805513699985 0.27737231294201392 0 -0.43100963400813791 0.27862602522793672 0 -0.4381469188983681 0.2944504832925946 0 -0.45724976864254441 0.28334965182257721 0 -0.4447805513699985 0.27737231294201392 0 -0.4381469188983681 0.2944504832925946 0 -0.45724976864254441 0.28334965182257721 0 -0.45852794331394758 0.30540670505240958 0 -0.45724976864254441 0.28334965182257721 0 -0.45852794331394758 0.30540670505240958 0 -0.47789586146606378 0.29814868652574811 0 -0.47890896772952718 0.31636292681222472 0 -0.45852794331394758 0.30540670505240958 0 -0.47890896772952718 0.31636292681222472 0 -0.47789586146606378 0.29814868652574811 0 -0.48920120729889771 0.30786362236022019 0 -0.47890896772952718 0.31636292681222472 0 -0.45852794331394758 0.30540670505240958 0 -0.47789586146606378 0.29814868652574811 0 -0.45724976864254441 0.28334965182257721 0 -0.47789586146606378 0.29814868652574811 0 -0.48102565218130672 0.27929705551177292 0 -0.5 0.29600434190405073 0 -0.5 0.27107014960924369 0 -0.48102565218130672 0.27929705551177292 0 -0.47789586146606378 0.29814868652574811 0 -0.5 0.29600434190405073 0 -0.48102565218130672 0.27929705551177292 0 -0.47789586146606378 0.29814868652574811 0 -0.5 0.29600434190405073 0 -0.48920120729889771 0.30786362236022019 0 -0.49999999999999989 0.32093853419885771 0 -0.5 0.29600434190405073 0 -0.48920120729889771 0.30786362236022019 0 -0.48177750529808522 0.24619974485466931 0 -0.5 0.2461359573144368 0 -0.48654709528280549 0.26072196503438649 0 -0.5 0.2461359573144368 0 -0.48654709528280549 0.26072196503438649 0 -0.5 0.27107014960924369 0 -0.48654709528280549 0.26072196503438649 0 -0.5 0.27107014960924369 0 -0.48102565218130672 0.27929705551177292 0 -0.48654709528280549 0.26072196503438649 0 -0.48102565218130672 0.27929705551177292 0 -0.46993231893463527 0.26090691788180947 0 -0.45724976864254441 0.28334965182257721 0 -0.48102565218130672 0.27929705551177292 0 -0.46993231893463527 0.26090691788180947 0 -0.48177750529808522 0.24619974485466931 0 -0.48654709528280549 0.26072196503438649 0 -0.46993231893463527 0.26090691788180947 0 -0.45710504060219709 0.23686107433279269 0 -0.46993231893463527 0.26090691788180947 0 -0.44707755271196942 0.2637365605125353 0 -0.45724976864254441 0.28334965182257721 0 -0.46993231893463527 0.26090691788180947 0 -0.44707755271196942 0.2637365605125353 0 -0.45724976864254441 0.28334965182257721 0 -0.4447805513699985 0.27737231294201392 0 -0.44707755271196942 0.2637365605125353 0 -0.4447805513699985 0.27737231294201392 0 -0.44707755271196942 0.2637365605125353 0 -0.43100963400813791 0.27862602522793672 0 -0.45710504060219709 0.23686107433279269 0 -0.44707755271196942 0.2637365605125353 0 -0.44707755271196942 0.2637365605125353 0 -0.4367416388518679 0.25264877063821017 0 -0.43100963400813791 0.27862602522793672 0 -0.45710504060219709 0.23686107433279269 0 -0.44707755271196942 0.2637365605125353 0 -0.4367416388518679 0.25264877063821017 0 -0.4367416388518679 0.25264877063821017 0 -0.41175872593851298 0.2549478601346914 0 -0.41885046316002428 0.26850948483906401 0 -0.41175872593851298 0.2549478601346914 0 -0.41885046316002428 0.26850948483906401 0 -0.3976364837244763 0.27421361628784369 0 -0.41885046316002428 0.26850948483906401 0 -0.41710583327712653 0.28211115190663788 0 -0.3976364837244763 0.27421361628784369 0 -0.41885046316002428 0.26850948483906401 0 -0.43100963400813791 0.27862602522793672 0 -0.41710583327712653 0.28211115190663788 0 -0.4367416388518679 0.25264877063821017 0 -0.43100963400813791 0.27862602522793672 0 -0.4367416388518679 0.25264877063821017 0 -0.41885046316002428 0.26850948483906401 0 -0.43100963400813791 0.27862602522793672 0 -0.4381469188983681 0.2944504832925946 0 -0.43100963400813791 0.27862602522793672 0 -0.42527762916440792 0.30460327981766322 0 -0.43100963400813791 0.27862602522793672 0 -0.42527762916440792 0.30460327981766322 0 -0.41710583327712653 0.28211115190663788 0 -0.43100963400813791 0.27862602522793672 0 -0.42527762916440792 0.30460327981766322 0 -0.44001701522470671 0.31606260091672289 0 -0.4381469188983681 0.2944504832925946 0 -0.42527762916440792 0.30460327981766322 0 -0.40602554896887638 0.32011992980008452 0 -0.42527762916440792 0.30460327981766322 0 -0.4014269901009333 0.29495587648231503 0 -0.41710583327712653 0.28211115190663788 0 -0.4014269901009333 0.29495587648231503 0 -0.42527762916440792 0.30460327981766322 0 -0.41710583327712653 0.28211115190663788 0 -0.4014269901009333 0.29495587648231503 0 -0.41710583327712653 0.28211115190663788 0 -0.4014269901009333 0.29495587648231503 0 -0.3976364837244763 0.27421361628784369 0 -0.4014269901009333 0.29495587648231503 0 -0.38389766901197209 0.2919764357376447 0 -0.3976364837244763 0.27421361628784369 0 -0.4014269901009333 0.29495587648231503 0 -0.3976364837244763 0.27421361628784369 0 -0.39350880394476312 0.31593875705230262 0 -0.40602554896887638 0.32011992980008452 0 -0.4014269901009333 0.29495587648231503 0 -0.4014269901009333 0.29495587648231503 0 -0.38336946241093189 0.30974931290420182 0 -0.40602554896887638 0.32011992980008452 0 -0.4014269901009333 0.29495587648231503 0 -0.39350880394476312 0.31593875705230262 0 -0.4014269901009333 0.29495587648231503 0 -0.38336946241093189 0.30974931290420182 0 -0.38336946241093189 0.30974931290420182 0 -0.38389766901197209 0.2919764357376447 0 -0.36596935852520629 0.30787018431111951 0 -0.4014269901009333 0.29495587648231503 0 -0.38336946241093189 0.30974931290420182 0 -0.38389766901197209 0.2919764357376447 0 -0.38389766901197209 0.2919764357376447 0 -0.3839238193794226 0.27871888045260418 0 -0.3976364837244763 0.27421361628784369 0 -0.38389766901197209 0.2919764357376447 0 -0.3839238193794226 0.27871888045260418 0 -0.3703732677084236 0.2804332674389724 0 -0.3839238193794226 0.27871888045260418 0 -0.38378785707281859 0.2682522023459562 0 -0.3703732677084236 0.2804332674389724 0 -0.38378785707281859 0.2682522023459562 0 -0.37477717689163992 0.25299635056682518 0 -0.3703732677084236 0.2804332674389724 0 -0.3839238193794226 0.27871888045260418 0 -0.38378785707281859 0.2682522023459562 0 -0.3976364837244763 0.27421361628784369 0 -0.38378785707281859 0.2682522023459562 0 -0.39384597734802013 0.25347135609337229 0 -0.37477717689163992 0.25299635056682518 0 -0.39384597734802013 0.25347135609337229 0 -0.3976364837244763 0.27421361628784369 0 -0.41175872593851298 0.2549478601346914 0 -0.39384597734802013 0.25347135609337229 0 -0.3976364837244763 0.27421361628784369 0 -0.38378785707281859 0.2682522023459562 0 -0.39384597734802013 0.25347135609337229 0 -0.3976364837244763 0.27421361628784369 0 -0.35834524103505527 0.27479395617319979 0 -0.34490227433735798 0.27909378963084902 0 -0.35045174428906722 0.28677843618767362 0 -0.35834524103505527 0.27479395617319979 0 -0.34490227433735798 0.27909378963084902 0 -0.34728570068091402 0.2661688508290645 0 -0.34728570068091402 0.2661688508290645 0 -0.35464358931248319 0.25491115920099722 0 -0.34150965816976359 0.25817059719828012 0 -0.33845336435013867 0.242079554605789 0 -0.35464358931248319 0.25491115920099722 0 -0.34150965816976359 0.25817059719828012 0 -0.35834524103505527 0.27479395617319979 0 -0.34728570068091402 0.2661688508290645 0 -0.35464358931248319 0.25491115920099722 0 -0.35834524103505527 0.27479395617319979 0 -0.37477717689163992 0.25299635056682518 0 -0.35834524103505527 0.27479395617319979 0 -0.35464358931248319 0.25491115920099722 0 -0.37477717689163992 0.25299635056682518 0 -0.37477717689163992 0.25299635056682518 0 -0.3703732677084236 0.2804332674389724 0 -0.35834524103505527 0.27479395617319979 0 -0.37477717689163992 0.25299635056682518 0 -0.3703732677084236 0.2804332674389724 0 -0.3703732677084236 0.2804332674389724 0 -0.36596935852520629 0.30787018431111951 0 -0.38389766901197209 0.2919764357376447 0 -0.3703732677084236 0.2804332674389724 0 -0.36596935852520629 0.30787018431111951 0 -0.35834524103505527 0.27479395617319979 0 -0.3703732677084236 0.2804332674389724 0 -0.35925388220638338 0.290827281626163 0 -0.3703732677084236 0.2804332674389724 0 -0.36596935852520629 0.30787018431111951 0 -0.35925388220638338 0.290827281626163 0 -0.36596935852520629 0.30787018431111951 0 -0.35645499353340299 0.30154574554434233 0 -0.35925388220638338 0.290827281626163 0 -0.36596935852520629 0.30787018431111951 0 -0.35645499353340299 0.30154574554434233 0 -0.35774913989266272 0.31391262040183171 0 -0.35645499353340299 0.30154574554434233 0 -0.35013945535461871 0.3105838988596446 0 -0.35774913989266272 0.31391262040183171 0 -0.35645499353340299 0.30154574554434233 0 -0.34780240298166087 0.30288468022079579 0 -0.35285886900803182 0.29452238055293539 0 -0.34780240298166087 0.30288468022079579 0 -0.34622635383862083 0.29383585221412489 0 -0.33932813284697128 0.29730713825443927 0 -0.34780240298166087 0.30288468022079579 0 -0.35285886900803182 0.29452238055293539 0 -0.34622635383862083 0.29383585221412489 0 -0.34780240298166087 0.30288468022079579 0 -0.34514961405368982 0.30758965292055213 0 -0.33997231501418312 0.30473657218964828 0 -0.35645499353340299 0.30154574554434233 0 -0.34780240298166087 0.30288468022079579 0 -0.35013945535461871 0.3105838988596446 0 -0.34780240298166087 0.30288468022079579 0 -0.34514961405368982 0.30758965292055213 0 -0.35013945535461871 0.3105838988596446 0 -0.34514961405368982 0.30758965292055213 0 -0.35013945535461871 0.3105838988596446 0 -0.34268428286429659 0.31215346041211978 0 -0.35834524103505527 0.27479395617319979 0 -0.35925388220638338 0.290827281626163 0 -0.35045174428906722 0.28677843618767362 0 -0.35645499353340299 0.30154574554434233 0 -0.35925388220638338 0.290827281626163 0 -0.35285886900803182 0.29452238055293539 0 -0.35925388220638338 0.290827281626163 0 -0.35285886900803182 0.29452238055293539 0 -0.35045174428906722 0.28677843618767362 0 -0.35285886900803182 0.29452238055293539 0 -0.34622635383862083 0.29383585221412489 0 -0.35045174428906722 0.28677843618767362 0 -0.34622635383862083 0.29383585221412489 0 -0.35045174428906722 0.28677843618767362 0 -0.34088660642111013 0.2879281286912172 0 -0.34490227433735798 0.27909378963084902 0 -0.35045174428906722 0.28677843618767362 0 -0.34088660642111013 0.2879281286912172 0 -0.34490227433735798 0.27909378963084902 0 -0.34088660642111013 0.2879281286912172 0 -0.33262910378125132 0.278293493462413 0 -0.34088660642111013 0.2879281286912172 0 -0.33227483086849752 0.29261385498347509 0 -0.33932813284697128 0.29730713825443927 0 -0.34622635383862083 0.29383585221412489 0 -0.34088660642111013 0.2879281286912172 0 -0.33932813284697128 0.29730713825443927 0 -0.33227483086849752 0.29261385498347509 0 -0.32398535199451511 0.28524421774589648 0 -0.33262910378125132 0.278293493462413 0 -0.34088660642111013 0.2879281286912172 0 -0.33227483086849752 0.29261385498347509 0 -0.33262910378125132 0.278293493462413 0 -0.33718535734333338 0.30882123026638569 0 -0.34268428286429659 0.31215346041211978 0 -0.33477104767585758 0.31524888829805342 0 -0.33718535734333338 0.30882123026638569 0 -0.34268428286429659 0.31215346041211978 0 -0.33997231501418312 0.30473657218964828 0 -0.34514961405368982 0.30758965292055213 0 -0.34268428286429659 0.31215346041211978 0 -0.33997231501418312 0.30473657218964828 0 -0.33718535734333338 0.30882123026638569 0 -0.33997231501418312 0.30473657218964828 0 -0.33396296217470239 0.30554582684384218 0 -0.33997231501418312 0.30473657218964828 0 -0.33932813284697128 0.29730713825443927 0 -0.33396296217470239 0.30554582684384218 0 -0.34780240298166087 0.30288468022079579 0 -0.33997231501418312 0.30473657218964828 0 -0.33932813284697128 0.29730713825443927 0 -0.33227483086849752 0.29261385498347509 0 -0.33396296217470239 0.30554582684384218 0 -0.32251037119006698 0.3031431883822347 0 -0.33227483086849752 0.29261385498347509 0 -0.33932813284697128 0.29730713825443927 0 -0.33396296217470239 0.30554582684384218 0 -0.33718535734333338 0.30882123026638569 0 -0.33396296217470239 0.30554582684384218 0 -0.33477104767585758 0.31524888829805342 0 -0.33396296217470239 0.30554582684384218 0 -0.32251037119006698 0.3031431883822347 0 -0.33219148171911272 0.31730370811833031 0 -0.32251037119006698 0.3031431883822347 0 -0.31456388983813333 0.31636814557902659 0 -0.33219148171911272 0.31730370811833031 0 -0.32251037119006698 0.3031431883822347 0 -0.31282926066102218 0.28898266864613842 0 -0.30402337591517081 0.3051012194244167 0 -0.32251037119006698 0.3031431883822347 0 -0.30402337591517081 0.3051012194244167 0 -0.31456388983813333 0.31636814557902659 0 -0.32251037119006698 0.3031431883822347 0 -0.33219148171911272 0.31730370811833031 0 -0.33227483086849752 0.29261385498347509 0 -0.32251037119006698 0.3031431883822347 0 -0.32398535199451511 0.28524421774589648 0 -0.32251037119006698 0.3031431883822347 0 -0.32398535199451511 0.28524421774589648 0 -0.31282926066102218 0.28898266864613842 0 -0.32251037119006698 0.3031431883822347 0 -0.31282926066102218 0.28898266864613842 0 -0.31282926066102218 0.28898266864613842 0 -0.32065101258715689 0.274665503564473 0 -0.32398535199451511 0.28524421774589648 0 -0.31282926066102218 0.28898266864613842 0 -0.32065101258715689 0.274665503564473 0 -0.32065101258715689 0.274665503564473 0 -0.32847276451329022 0.26034833848280681 0 -0.31199410965335322 0.26463258327439948 0 -0.32065101258715689 0.274665503564473 0 -0.33262910378125132 0.278293493462413 0 -0.32847276451329022 0.26034833848280681 0 -0.31282926066102218 0.28898266864613842 0 -0.32065101258715689 0.274665503564473 0 -0.30403346053568642 0.27611708872161922 0 -0.32065101258715689 0.274665503564473 0 -0.32847276451329022 0.26034833848280681 0 -0.32398535199451511 0.28524421774589648 0 -0.32065101258715689 0.274665503564473 0 -0.33262910378125132 0.278293493462413 0 -0.33262910378125132 0.278293493462413 0 -0.33869287199199061 0.26734508287274228 0 -0.32847276451329022 0.26034833848280681 0 -0.34490227433735798 0.27909378963084902 0 -0.34728570068091402 0.2661688508290645 0 -0.33869287199199061 0.26734508287274228 0 -0.34490227433735798 0.27909378963084902 0 -0.33262910378125132 0.278293493462413 0 -0.33869287199199061 0.26734508287274228 0 -0.33845336435013867 0.242079554605789 0 -0.34150965816976359 0.25817059719828012 0 -0.32847276451329022 0.26034833848280681 0 -0.33845336435013867 0.242079554605789 0 -0.32847276451329022 0.26034833848280681 0 -0.34728570068091402 0.2661688508290645 0 -0.33869287199199061 0.26734508287274228 0 -0.34150965816976359 0.25817059719828012 0 -0.33869287199199061 0.26734508287274228 0 -0.34150965816976359 0.25817059719828012 0 -0.32847276451329022 0.26034833848280681 0 -0.33869287199199061 0.26734508287274228 0 -0.32847276451329022 0.26034833848280681 0 -0.311575650220281 0.24878047680599949 0 -0.32847276451329022 0.26034833848280681 0 -0.311575650220281 0.24878047680599949 0 -0.32847276451329022 0.26034833848280681 0 -0.31199410965335322 0.26463258327439948 0 -0.32455092720978362 0.24357057421839101 0 -0.311575650220281 0.24878047680599949 0 -0.32847276451329022 0.26034833848280681 0 -0.311575650220281 0.24878047680599949 0 -0.31199410965335322 0.26463258327439948 0 -0.29523766041035199 0.26325150879709891 0 -0.30403346053568642 0.27611708872161922 0 -0.29523766041035199 0.26325150879709891 0 -0.29574151564778611 0.28671646758259889 0 -0.31199410965335322 0.26463258327439948 0 -0.30403346053568642 0.27611708872161922 0 -0.29523766041035199 0.26325150879709891 0 -0.32065101258715689 0.274665503564473 0 -0.31199410965335322 0.26463258327439948 0 -0.30403346053568642 0.27611708872161922 0 -0.30403346053568642 0.27611708872161922 0 -0.29523766041035199 0.26325150879709891 0 -0.28985028671148488 0.25537141990030859 0 -0.26863301980023729 0.26794771562718522 0 -0.28534189936007232 0.28197220440765719 0 -0.29523766041035199 0.26325150879709891 0 -0.29574151564778611 0.28671646758259889 0 -0.29523766041035199 0.26325150879709891 0 -0.29574151564778611 0.28671646758259889 0 -0.28534189936007232 0.28197220440765719 0 -0.28985028671148488 0.25537141990030859 0 -0.29523766041035199 0.26325150879709891 0 -0.28534189936007232 0.28197220440765719 0 -0.28985028671148488 0.25537141990030859 0 -0.28534189936007232 0.28197220440765719 0 -0.29467853592727078 0.23721261512919359 0 -0.29523766041035199 0.26325150879709891 0 -0.29467853592727078 0.23721261512919359 0 -0.28985028671148488 0.25537141990030859 0 -0.29523766041035199 0.26325150879709891 0 -0.28985028671148488 0.25537141990030859 0 -0.29523766041035199 0.26325150879709891 0 -0.28985028671148488 0.25537141990030859 0 -0.2724296921133022 0.25217156250687062 0 -0.26863301980023729 0.26794771562718522 0 -0.2724296921133022 0.25217156250687062 0 -0.26863301980023729 0.26794771562718522 0 -0.25693865295534157 0.25278860643768353 0 -0.26863301980023729 0.26794771562718522 0 -0.26277913973510902 0.29023342414179659 0 -0.28534189936007232 0.28197220440765719 0 -0.26277913973510902 0.29023342414179659 0 -0.2447247674615598 0.2718938593685879 0 -0.26863301980023729 0.26794771562718522 0 -0.26277913973510902 0.29023342414179659 0 -0.2447247674615598 0.2718938593685879 0 -0.26863301980023729 0.26794771562718522 0 -0.25693865295534157 0.25278860643768353 0 -0.2447247674615598 0.2718938593685879 0 -0.26277913973510902 0.29023342414179659 0 -0.25757488899104952 0.31786411623381933 0 -0.2366570207200871 0.30010935915934539 0 -0.26277913973510902 0.29023342414179659 0 -0.28083351200865853 0.30857298891500562 0 -0.28534189936007232 0.28197220440765719 0 -0.26277913973510902 0.29023342414179659 0 -0.28083351200865853 0.30857298891500562 0 -0.26277913973510902 0.29023342414179659 0 -0.28083351200865853 0.30857298891500562 0 -0.25757488899104952 0.31786411623381933 0 -0.28083351200865853 0.30857298891500562 0 -0.29574151564778611 0.28671646758259889 0 -0.30402337591517081 0.3051012194244167 0 -0.28083351200865853 0.30857298891500562 0 -0.29574151564778611 0.28671646758259889 0 -0.28534189936007232 0.28197220440765719 0 -0.28083351200865853 0.30857298891500562 0 -0.28534189936007232 0.28197220440765719 0 -0.31282926066102218 0.28898266864613842 0 -0.29574151564778611 0.28671646758259889 0 -0.30402337591517081 0.3051012194244167 0 -0.31282926066102218 0.28898266864613842 0 -0.30403346053568642 0.27611708872161922 0 -0.29574151564778611 0.28671646758259889 0 -0.31282926066102218 0.28898266864613842 0 -0.30403346053568642 0.27611708872161922 0 -0.31282926066102218 0.28898266864613842 0 -0.30402337591517081 0.3051012194244167 0 -0.30402337591517081 0.3051012194244167 0 -0.29932851783868691 0.32736014762988469 0 -0.31456388983813333 0.31636814557902659 0 -0.29932851783868691 0.32736014762988469 0 -0.31400963374603508 0.33178692824556621 0 -0.31456388983813333 0.31636814557902659 0 -0.29582778577295937 0.3462701483728044 0 -0.31354931950312093 0.34747342072874071 0 -0.31400963374603508 0.33178692824556621 0 -0.29582778577295937 0.3462701483728044 0 -0.31400963374603508 0.33178692824556621 0 -0.29932851783868691 0.32736014762988469 0 -0.29582778577295937 0.3462701483728044 0 -0.31400963374603508 0.33178692824556621 0 -0.29932851783868691 0.32736014762988469 0 -0.27670802547122531 0.33291454828341721 0 -0.29582778577295937 0.3462701483728044 0 -0.27670802547122531 0.33291454828341721 0 -0.29582778577295937 0.3462701483728044 0 -0.28186865011063378 0.34863084123191301 0 -0.28083351200865853 0.30857298891500562 0 -0.30402337591517081 0.3051012194244167 0 -0.29932851783868691 0.32736014762988469 0 -0.28083351200865853 0.30857298891500562 0 -0.29932851783868691 0.32736014762988469 0 -0.28083351200865853 0.30857298891500562 0 -0.29932851783868691 0.32736014762988469 0 -0.27670802547122531 0.33291454828341721 0 -0.28083351200865853 0.30857298891500562 0 -0.27670802547122531 0.33291454828341721 0 -0.25757488899104952 0.31786411623381933 0 -0.28083351200865853 0.30857298891500562 0 -0.27670802547122531 0.33291454828341721 0 -0.27670802547122531 0.33291454828341721 0 -0.25757488899104952 0.31786411623381933 0 -0.25368472498167011 0.34420349485172652 0 -0.2613799420943046 0.36179346951182628 0 -0.25453646971320443 0.37462232419521813 0 -0.26689531734350652 0.36931705260985792 0 -0.2613799420943046 0.36179346951182628 0 -0.25453646971320443 0.37462232419521813 0 -0.24822911175635759 0.36217347122335058 0 -0.25368472498167011 0.34420349485172652 0 -0.27258253893379292 0.35725610765182902 0 -0.2613799420943046 0.36179346951182628 0 -0.25368472498167011 0.34420349485172652 0 -0.24822911175635759 0.36217347122335058 0 -0.2613799420943046 0.36179346951182628 0 -0.25368472498167011 0.34420349485172652 0 -0.27258253893379292 0.35725610765182902 0 -0.27670802547122531 0.33291454828341721 0 -0.27258253893379292 0.35725610765182902 0 -0.27670802547122531 0.33291454828341721 0 -0.27258253893379292 0.35725610765182902 0 -0.28186865011063378 0.34863084123191301 0 -0.27670802547122531 0.33291454828341721 0 -0.25368472498167011 0.34420349485172652 0 -0.27258253893379292 0.35725610765182902 0 -0.27258253893379292 0.35725610765182902 0 -0.27764593779988228 0.36075336850004069 0 -0.28186865011063378 0.34863084123191301 0 -0.27258253893379292 0.35725610765182902 0 -0.27764593779988228 0.36075336850004069 0 -0.27764593779988228 0.36075336850004069 0 -0.27110701654299552 0.36596211494311248 0 -0.28943519450698252 0.3688961411714532 0 -0.27110701654299552 0.36596211494311248 0 -0.28943519450698252 0.3688961411714532 0 -0.27110701654299552 0.36596211494311248 0 -0.28943519450698252 0.3688961411714532 0 -0.28084635904778937 0.37544065550995409 0 -0.27258253893379292 0.35725610765182902 0 -0.27764593779988228 0.36075336850004069 0 -0.27110701654299552 0.36596211494311248 0 -0.27764593779988228 0.36075336850004069 0 -0.27110701654299552 0.36596211494311248 0 -0.2613799420943046 0.36179346951182628 0 -0.27258253893379292 0.35725610765182902 0 -0.27110701654299552 0.36596211494311248 0 -0.2613799420943046 0.36179346951182628 0 -0.27110701654299552 0.36596211494311248 0 -0.26689531734350652 0.36931705260985792 0 -0.27258253893379292 0.35725610765182902 0 -0.27110701654299552 0.36596211494311248 0 -0.27110701654299552 0.36596211494311248 0 -0.26689531734350652 0.36931705260985792 0 -0.27110701654299552 0.36596211494311248 0 -0.28084635904778937 0.37544065550995409 0 -0.27663284499009211 0.37939207802828528 0 -0.28943519450698252 0.3688961411714532 0 -0.28685204816290072 0.37621819500323123 0 -0.28084635904778937 0.37544065550995409 0 -0.27764593779988228 0.36075336850004069 0 -0.28943519450698252 0.3688961411714532 0 -0.29551252006441958 0.37309371542857861 0 -0.28943519450698252 0.3688961411714532 0 -0.28685204816290072 0.37621819500323123 0 -0.29551252006441958 0.37309371542857861 0 -0.28943519450698252 0.3688961411714532 0 -0.27764593779988228 0.36075336850004069 0 -0.29582778577295937 0.3462701483728044 0 -0.27764593779988228 0.36075336850004069 0 -0.29582778577295937 0.3462701483728044 0 -0.28186865011063378 0.34863084123191301 0 -0.28943519450698252 0.3688961411714532 0 -0.29582778577295937 0.3462701483728044 0 -0.30300283950081008 0.36051339397403093 0 -0.27764593779988228 0.36075336850004069 0 -0.28943519450698252 0.3688961411714532 0 -0.29582778577295937 0.3462701483728044 0 -0.29582778577295937 0.3462701483728044 0 -0.30300283950081008 0.36051339397403093 0 -0.31354931950312093 0.34747342072874071 0 -0.28943519450698252 0.3688961411714532 0 -0.31408843612631249 0.37197903781600761 0 -0.28943519450698252 0.3688961411714532 0 -0.30300283950081008 0.36051339397403093 0 -0.31408843612631249 0.37197903781600761 0 -0.29551252006441958 0.37309371542857861 0 -0.28943519450698252 0.3688961411714532 0 -0.31408843612631249 0.37197903781600761 0 -0.30300283950081008 0.36051339397403093 0 -0.31408843612631249 0.37197903781600761 0 -0.32472866683278162 0.35786931268145811 0 -0.31408843612631249 0.37197903781600761 0 -0.32472866683278162 0.35786931268145811 0 -0.33874167774564268 0.3750619344605613 0 -0.31408843612631249 0.37197903781600761 0 -0.33874167774564268 0.3750619344605613 0 -0.33942470910854639 0.36092010030626542 0 -0.32472866683278162 0.35786931268145811 0 -0.33874167774564268 0.3750619344605613 0 -0.33942470910854639 0.36092010030626542 0 -0.3497530714632448 0.36534695126967459 0 -0.33874167774564268 0.3750619344605613 0 -0.33815763529499693 0.35089104021064632 0 -0.32472866683278162 0.35786931268145811 0 -0.33017767166301859 0.34092732036984391 0 -0.33815763529499693 0.35089104021064632 0 -0.33017767166301859 0.34092732036984391 0 -0.34251680356524339 0.34321741671518669 0 -0.33815763529499693 0.35089104021064632 0 -0.3460879504978186 0.35511096805544279 0 -0.34556584107983002 0.34849125976349993 0 -0.33815763529499693 0.35089104021064632 0 -0.34251680356524339 0.34321741671518669 0 -0.34556584107983002 0.34849125976349993 0 -0.33942470910854639 0.36092010030626542 0 -0.33815763529499693 0.35089104021064632 0 -0.3460879504978186 0.35511096805544279 0 -0.33942470910854639 0.36092010030626542 0 -0.33815763529499693 0.35089104021064632 0 -0.32472866683278162 0.35786931268145811 0 -0.31354931950312093 0.34747342072874071 0 -0.32472866683278162 0.35786931268145811 0 -0.33017767166301859 0.34092732036984391 0 -0.30300283950081008 0.36051339397403093 0 -0.31354931950312093 0.34747342072874071 0 -0.32472866683278162 0.35786931268145811 0 -0.31400963374603508 0.33178692824556621 0 -0.33219148171911272 0.31730370811833031 0 -0.33017767166301859 0.34092732036984391 0 -0.31354931950312093 0.34747342072874071 0 -0.31400963374603508 0.33178692824556621 0 -0.33017767166301859 0.34092732036984391 0 -0.31400963374603508 0.33178692824556621 0 -0.33219148171911272 0.31730370811833031 0 -0.31400963374603508 0.33178692824556621 0 -0.31456388983813333 0.31636814557902659 0 -0.33219148171911272 0.31730370811833031 0 -0.33477104767585758 0.31524888829805342 0 -0.33219148171911272 0.31730370811833031 0 -0.34795343649956839 0.3209401758966518 0 -0.33219148171911272 0.31730370811833031 0 -0.34725440703092858 0.33933618574797492 0 -0.34795343649956839 0.3209401758966518 0 -0.33396296217470239 0.30554582684384218 0 -0.33477104767585758 0.31524888829805342 0 -0.33219148171911272 0.31730370811833031 0 -0.33477104767585758 0.31524888829805342 0 -0.33219148171911272 0.31730370811833031 0 -0.34268428286429659 0.31215346041211978 0 -0.33477104767585758 0.31524888829805342 0 -0.34795343649956839 0.3209401758966518 0 -0.33219148171911272 0.31730370811833031 0 -0.34725440703092858 0.33933618574797492 0 -0.33219148171911272 0.31730370811833031 0 -0.33017767166301859 0.34092732036984391 0 -0.34725440703092858 0.33933618574797492 0 -0.33017767166301859 0.34092732036984391 0 -0.34251680356524339 0.34321741671518669 0 -0.34725440703092858 0.33933618574797492 0 -0.34725440703092858 0.33933618574797492 0 -0.34795343649956839 0.3209401758966518 0 -0.36531193472093021 0.32454274932608829 0 -0.34251680356524339 0.34321741671518669 0 -0.35002774160894051 0.34339273059465159 0 -0.34725440703092858 0.33933618574797492 0 -0.34725440703092858 0.33933618574797492 0 -0.35848812135385522 0.33902175933596412 0 -0.36531193472093021 0.32454274932608829 0 -0.34725440703092858 0.33933618574797492 0 -0.36531193472093021 0.32454274932608829 0 -0.34251680356524339 0.34321741671518669 0 -0.34725440703092858 0.33933618574797492 0 -0.35002774160894051 0.34339273059465159 0 -0.34725440703092858 0.33933618574797492 0 -0.35002774160894051 0.34339273059465159 0 -0.35848812135385522 0.33902175933596412 0 -0.35712059876301439 0.34740413424876382 0 -0.35002774160894051 0.34339273059465159 0 -0.34725440703092858 0.33933618574797492 0 -0.35848812135385522 0.33902175933596412 0 -0.34795343649956839 0.3209401758966518 0 -0.35774913989266272 0.31391262040183171 0 -0.36531193472093021 0.32454274932608829 0 -0.35013945535461871 0.3105838988596446 0 -0.34268428286429659 0.31215346041211978 0 -0.34795343649956839 0.3209401758966518 0 -0.35013945535461871 0.3105838988596446 0 -0.34795343649956839 0.3209401758966518 0 -0.35774913989266272 0.31391262040183171 0 -0.38336946241093189 0.30974931290420182 0 -0.36596935852520629 0.30787018431111951 0 -0.36531193472093021 0.32454274932608829 0 -0.36596935852520629 0.30787018431111951 0 -0.35774913989266272 0.31391262040183171 0 -0.36531193472093021 0.32454274932608829 0 -0.37580907906339922 0.33647878059299557 0 -0.38201615891261242 0.31564575533693578 0 -0.36531193472093021 0.32454274932608829 0 -0.38336946241093189 0.30974931290420182 0 -0.36531193472093021 0.32454274932608829 0 -0.35848812135385522 0.33902175933596412 0 -0.36629538785756799 0.33494858662202331 0 -0.36491865814174967 0.34450616947628299 0 -0.35848812135385522 0.33902175933596412 0 -0.36491865814174967 0.34450616947628299 0 -0.35712059876301439 0.34740413424876382 0 -0.35848812135385522 0.33902175933596412 0 -0.36531193472093021 0.32454274932608829 0 -0.36629538785756799 0.33494858662202331 0 -0.37580907906339922 0.33647878059299557 0 -0.36531193472093021 0.32454274932608829 0 -0.36629538785756799 0.33494858662202331 0 -0.37580907906339922 0.33647878059299557 0 -0.36629538785756799 0.33494858662202331 0 -0.36491865814174967 0.34450616947628299 0 -0.37580907906339922 0.33647878059299557 0 -0.36491865814174967 0.34450616947628299 0 -0.36960199921418602 0.35731180584905542 0 -0.37580907906339922 0.33647878059299557 0 -0.36960199921418602 0.35731180584905542 0 -0.36491865814174967 0.34450616947628299 0 -0.36204010283369881 0.35293053614415609 0 -0.35712059876301439 0.34740413424876382 0 -0.36491865814174967 0.34450616947628299 0 -0.36204010283369881 0.35293053614415609 0 -0.36960199921418602 0.35731180584905542 0 -0.36231373349064938 0.3583368008115923 0 -0.36204010283369881 0.35293053614415609 0 -0.35577634304253192 0.35617190760009498 0 -0.36231373349064938 0.3583368008115923 0 -0.36204010283369881 0.35293053614415609 0 -0.36960199921418602 0.35731180584905542 0 -0.36960199921418602 0.35731180584905542 0 -0.36339491936497281 0.37814483110511521 0 -0.36960199921418602 0.35731180584905542 0 -0.37158620997362618 0.36500042586936587 0 -0.36339491936497281 0.37814483110511521 0 -0.36960199921418602 0.35731180584905542 0 -0.36108579844600058 0.36545797327707619 0 -0.36339491936497281 0.37814483110511521 0 -0.38141148745950948 0.38039780936179463 0 -0.37158620997362618 0.36500042586936587 0 -0.36339491936497281 0.37814483110511521 0 -0.38070440212728118 0.35956436367519867 0 -0.36960199921418602 0.35731180584905542 0 -0.37158620997362618 0.36500042586936587 0 -0.36231373349064938 0.3583368008115923 0 -0.36108579844600058 0.36545797327707619 0 -0.35577634304253192 0.35617190760009498 0 -0.36231373349064938 0.3583368008115923 0 -0.36960199921418602 0.35731180584905542 0 -0.36108579844600058 0.36545797327707619 0 -0.36108579844600058 0.36545797327707619 0 -0.3497530714632448 0.36534695126967459 0 -0.35577634304253192 0.35617190760009498 0 -0.3497530714632448 0.36534695126967459 0 -0.36339491936497281 0.37814483110511521 0 -0.33874167774564268 0.3750619344605613 0 -0.36108579844600058 0.36545797327707619 0 -0.3497530714632448 0.36534695126967459 0 -0.36339491936497281 0.37814483110511521 0 -0.33942470910854639 0.36092010030626542 0 -0.3497530714632448 0.36534695126967459 0 -0.3460879504978186 0.35511096805544279 0 -0.3497530714632448 0.36534695126967459 0 -0.3460879504978186 0.35511096805544279 0 -0.35577634304253192 0.35617190760009498 0 -0.3460879504978186 0.35511096805544279 0 -0.35103907443215082 0.34984414324157243 0 -0.35577634304253192 0.35617190760009498 0 -0.3460879504978186 0.35511096805544279 0 -0.34556584107983002 0.34849125976349993 0 -0.35103907443215082 0.34984414324157243 0 -0.34251680356524339 0.34321741671518669 0 -0.35002774160894051 0.34339273059465159 0 -0.34556584107983002 0.34849125976349993 0 -0.35002774160894051 0.34339273059465159 0 -0.34556584107983002 0.34849125976349993 0 -0.35103907443215082 0.34984414324157243 0 -0.35103907443215082 0.34984414324157243 0 -0.35712059876301439 0.34740413424876382 0 -0.35577634304253192 0.35617190760009498 0 -0.35002774160894051 0.34339273059465159 0 -0.35103907443215082 0.34984414324157243 0 -0.35712059876301439 0.34740413424876382 0 -0.36204010283369881 0.35293053614415609 0 -0.35712059876301439 0.34740413424876382 0 -0.35577634304253192 0.35617190760009498 0 -0.35746143571760969 0.39805957647408341 0 -0.33700984602307921 0.4055687403903776 0 -0.35746143571760969 0.39805957647408341 0 -0.36339491936497281 0.37814483110511521 0 -0.33874167774564268 0.3750619344605613 0 -0.36339491936497281 0.37814483110511521 0 -0.33874167774564268 0.3750619344605613 0 -0.38141148745950948 0.38039780936179463 0 -0.37844474563582792 0.390355182046278 0 -0.36339491936497281 0.37814483110511521 0 -0.37844474563582792 0.390355182046278 0 -0.35746143571760969 0.39805957647408341 0 -0.36339491936497281 0.37814483110511521 0 -0.35746143571760969 0.39805957647408341 0 -0.36339491936497281 0.37814483110511521 0 -0.38141148745950948 0.38039780936179463 0 -0.36339491936497281 0.37814483110511521 0 -0.37668454372729859 0.41206883315114529 0 -0.37844474563582792 0.390355182046278 0 -0.35746143571760969 0.39805957647408341 0 -0.37844474563582792 0.390355182046278 0 -0.35746143571760969 0.39805957647408341 0 -0.37668454372729859 0.41206883315114529 0 -0.36778315087773072 0.43214877602771662 0 -0.35179051953527918 0.41709305806631919 0 -0.37668454372729859 0.41206883315114529 0 -0.35746143571760969 0.39805957647408341 0 -0.35179051953527918 0.41709305806631919 0 -0.37668454372729859 0.41206883315114529 0 -0.35179051953527918 0.41709305806631919 0 -0.36778315087773072 0.43214877602771662 0 -0.35179051953527918 0.41709305806631919 0 -0.34355933144160938 0.44471966407244162 0 -0.35179051953527918 0.41709305806631919 0 -0.34355933144160938 0.44471966407244162 0 -0.35746143571760969 0.39805957647408341 0 -0.35179051953527918 0.41709305806631919 0 -0.33700984602307921 0.4055687403903776 0 -0.35746143571760969 0.39805957647408341 0 -0.35179051953527918 0.41709305806631919 0 -0.35179051953527918 0.41709305806631919 0 -0.33092261172728182 0.42130471390500562 0 -0.33700984602307921 0.4055687403903776 0 -0.35179051953527918 0.41709305806631919 0 -0.33092261172728182 0.42130471390500562 0 -0.33092261172728182 0.42130471390500562 0 -0.31655825632854873 0.41307790430667191 0 -0.33700984602307921 0.4055687403903776 0 -0.35179051953527918 0.41709305806631919 0 -0.33092261172728182 0.42130471390500562 0 -0.34355933144160938 0.44471966407244162 0 -0.33092261172728182 0.42130471390500562 0 -0.32304151796324199 0.43794530689545591 0 -0.34355933144160938 0.44471966407244162 0 -0.33092261172728182 0.42130471390500562 0 -0.31005470391928353 0.42551636974368717 0 -0.32304151796324199 0.43794530689545591 0 -0.33092261172728182 0.42130471390500562 0 -0.31005470391928353 0.42551636974368717 0 -0.31005470391928353 0.42551636974368717 0 -0.30636015846579262 0.44081646755455739 0 -0.32304151796324199 0.43794530689545591 0 -0.31655825632854873 0.41307790430667191 0 -0.32178824989383492 0.40044082628072353 0 -0.33700984602307921 0.4055687403903776 0 -0.33092261172728182 0.42130471390500562 0 -0.31655825632854873 0.41307790430667191 0 -0.31005470391928353 0.42551636974368717 0 -0.31655825632854873 0.41307790430667191 0 -0.33700984602307921 0.4055687403903776 0 -0.31655825632854873 0.41307790430667191 0 -0.32178824989383492 0.40044082628072353 0 -0.30820761894760612 0.40180007281058999 0 -0.31589124725359768 0.39098578459502642 0 -0.32178824989383492 0.40044082628072353 0 -0.30820761894760612 0.40180007281058999 0 -0.31589124725359768 0.39098578459502642 0 -0.32178824989383492 0.40044082628072353 0 -0.33127428091634248 0.39077162930095188 0 -0.35746143571760969 0.39805957647408341 0 -0.33127428091634248 0.39077162930095188 0 -0.33700984602307921 0.4055687403903776 0 -0.32178824989383492 0.40044082628072353 0 -0.33127428091634248 0.39077162930095188 0 -0.33700984602307921 0.4055687403903776 0 -0.35746143571760969 0.39805957647408341 0 -0.33127428091634248 0.39077162930095188 0 -0.33874167774564268 0.3750619344605613 0 -0.31408843612631249 0.37197903781600761 0 -0.33127428091634248 0.39077162930095188 0 -0.33874167774564268 0.3750619344605613 0 -0.31408843612631249 0.37197903781600761 0 -0.31589124725359768 0.39098578459502642 0 -0.33127428091634248 0.39077162930095188 0 -0.29551252006441958 0.37309371542857861 0 -0.31408843612631249 0.37197903781600761 0 -0.30568017353146049 0.38157918508743732 0 -0.31408843612631249 0.37197903781600761 0 -0.31589124725359768 0.39098578459502642 0 -0.30568017353146049 0.38157918508743732 0 -0.31589124725359768 0.39098578459502642 0 -0.30568017353146049 0.38157918508743732 0 -0.30603649680964828 0.39194203915736708 0 -0.30568017353146049 0.38157918508743732 0 -0.29743858983336929 0.38628170497916159 0 -0.30603649680964828 0.39194203915736708 0 -0.29551252006441958 0.37309371542857861 0 -0.30568017353146049 0.38157918508743732 0 -0.29743858983336929 0.38628170497916159 0 -0.31589124725359768 0.39098578459502642 0 -0.30820761894760612 0.40180007281058999 0 -0.30603649680964828 0.39194203915736708 0 -0.30820761894760612 0.40180007281058999 0 -0.30603649680964828 0.39194203915736708 0 -0.29604813782321171 0.40003827384795049 0 -0.29743858983336929 0.38628170497916159 0 -0.30603649680964828 0.39194203915736708 0 -0.29604813782321171 0.40003827384795049 0 -0.30820761894760612 0.40180007281058999 0 -0.29604813782321171 0.40003827384795049 0 -0.2987408814332651 0.40933989620534528 0 -0.29604813782321171 0.40003827384795049 0 -0.28905057763704689 0.40562835892549581 0 -0.28392778011776681 0.39892722844600809 0 -0.29604813782321171 0.40003827384795049 0 -0.28905057763704689 0.40562835892549581 0 -0.2987408814332651 0.40933989620534528 0 -0.29604813782321171 0.40003827384795049 0 -0.28980128107673031 0.39400368344191522 0 -0.28392778011776681 0.39892722844600809 0 -0.29743858983336929 0.38628170497916159 0 -0.29604813782321171 0.40003827384795049 0 -0.28980128107673031 0.39400368344191522 0 -0.28980128107673031 0.39400368344191522 0 -0.28179061653257348 0.3907675264945405 0 -0.28392778011776681 0.39892722844600809 0 -0.28905057763704689 0.40562835892549581 0 -0.28392778011776681 0.39892722844600809 0 -0.27817781655911977 0.40726136879628272 0 -0.29743858983336929 0.38628170497916159 0 -0.28980128107673031 0.39400368344191522 0 -0.28179061653257348 0.3907675264945405 0 -0.29743858983336929 0.38628170497916159 0 -0.28179061653257348 0.3907675264945405 0 -0.28819376848868639 0.38228739672622841 0 -0.29743858983336929 0.38628170497916159 0 -0.28179061653257348 0.3907675264945405 0 -0.29551252006441958 0.37309371542857861 0 -0.29743858983336929 0.38628170497916159 0 -0.28819376848868639 0.38228739672622841 0 -0.29551252006441958 0.37309371542857861 0 -0.28819376848868639 0.38228739672622841 0 -0.28685204816290072 0.37621819500323123 0 -0.28179061653257348 0.3907675264945405 0 -0.28158428542699082 0.38279668863870758 0 -0.28819376848868639 0.38228739672622841 0 -0.28158428542699082 0.38279668863870758 0 -0.28819376848868639 0.38228739672622841 0 -0.28685204816290072 0.37621819500323123 0 -0.28158428542699082 0.38279668863870758 0 -0.28685204816290072 0.37621819500323123 0 -0.28084635904778937 0.37544065550995409 0 -0.27110701654299552 0.36596211494311248 0 -0.26614264323177789 0.39525334800991979 0 -0.27110701654299552 0.36596211494311248 0 -0.27663284499009211 0.37939207802828528 0 -0.27229768174870289 0.38438446135480281 0 -0.27110701654299552 0.36596211494311248 0 -0.27229768174870289 0.38438446135480281 0 -0.26614264323177789 0.39525334800991979 0 -0.27110701654299552 0.36596211494311248 0 -0.26689531734350652 0.36931705260985792 0 -0.26614264323177789 0.39525334800991979 0 -0.28158428542699082 0.38279668863870758 0 -0.28084635904778937 0.37544065550995409 0 -0.27663284499009211 0.37939207802828528 0 -0.27229768174870289 0.38438446135480281 0 -0.27641046434025379 0.38710393959788297 0 -0.26614264323177789 0.39525334800991979 0 -0.28179061653257348 0.3907675264945405 0 -0.28158428542699082 0.38279668863870758 0 -0.27641046434025379 0.38710393959788297 0 -0.27663284499009211 0.37939207802828528 0 -0.27229768174870289 0.38438446135480281 0 -0.27641046434025379 0.38710393959788297 0 -0.28158428542699082 0.38279668863870758 0 -0.27663284499009211 0.37939207802828528 0 -0.27641046434025379 0.38710393959788297 0 -0.28179061653257348 0.3907675264945405 0 -0.27641046434025379 0.38710393959788297 0 -0.26614264323177789 0.39525334800991979 0 -0.28179061653257348 0.3907675264945405 0 -0.27661435207820328 0.39472461325581981 0 -0.26614264323177789 0.39525334800991979 0 -0.28179061653257348 0.3907675264945405 0 -0.28392778011776681 0.39892722844600809 0 -0.27661435207820328 0.39472461325581981 0 -0.28179061653257348 0.3907675264945405 0 -0.26614264323177789 0.39525334800991979 0 -0.28392778011776681 0.39892722844600809 0 -0.27661435207820328 0.39472461325581981 0 -0.27572094251528112 0.40196054452149499 0 -0.28392778011776681 0.39892722844600809 0 -0.27572094251528112 0.40196054452149499 0 -0.27817781655911977 0.40726136879628272 0 -0.27572094251528112 0.40196054452149499 0 -0.26416382130603389 0.40692896758786917 0 -0.27817781655911977 0.40726136879628272 0 -0.27661435207820328 0.39472461325581981 0 -0.27572094251528112 0.40196054452149499 0 -0.26416382130603389 0.40692896758786917 0 -0.27661435207820328 0.39472461325581981 0 -0.26614264323177789 0.39525334800991979 0 -0.26416382130603389 0.40692896758786917 0 -0.27661435207820328 0.39472461325581981 0 -0.26416382130603389 0.40692896758786917 0 -0.26614264323177789 0.39525334800991979 0 -0.24781733580734391 0.38604582424895789 0 -0.24388213391773941 0.40163479241199579 0 -0.26614264323177789 0.39525334800991979 0 -0.25157066981256843 0.40894445920752592 0 -0.24388213391773941 0.40163479241199579 0 -0.26614264323177789 0.39525334800991979 0 -0.24388213391773941 0.40163479241199579 0 -0.26614264323177789 0.39525334800991979 0 -0.26416382130603389 0.40692896758786917 0 -0.26614264323177789 0.39525334800991979 0 -0.25157066981256843 0.40894445920752592 0 -0.26416382130603389 0.40692896758786917 0 -0.25453646971320443 0.37462232419521813 0 -0.26614264323177789 0.39525334800991979 0 -0.24781733580734391 0.38604582424895789 0 -0.25453646971320443 0.37462232419521813 0 -0.26689531734350652 0.36931705260985792 0 -0.26614264323177789 0.39525334800991979 0 -0.26107936510946472 0.42512814796255138 0 -0.25799490891289278 0.4433273283372331 0 -0.26107936510946472 0.42512814796255138 0 -0.27138668263498972 0.43431468825499642 0 -0.25799490891289278 0.4433273283372331 0 -0.26107936510946472 0.42512814796255138 0 -0.25799490891289278 0.4433273283372331 0 -0.24263019791012411 0.42803682032005991 0 -0.25799490891289278 0.4433273283372331 0 -0.24263019791012411 0.42803682032005991 0 -0.26107936510946472 0.42512814796255138 0 -0.26416382130603389 0.40692896758786917 0 -0.26107936510946472 0.42512814796255138 0 -0.26416382130603389 0.40692896758786917 0 -0.24263019791012411 0.42803682032005991 0 -0.26416382130603389 0.40692896758786917 0 -0.24263019791012411 0.42803682032005991 0 -0.25157066981256843 0.40894445920752592 0 -0.26416382130603389 0.40692896758786917 0 -0.24263019791012411 0.42803682032005991 0 -0.26107936510946472 0.42512814796255138 0 -0.26416382130603389 0.40692896758786917 0 -0.27370875903762831 0.41905129137381081 0 -0.26416382130603389 0.40692896758786917 0 -0.27817781655911977 0.40726136879628272 0 -0.27370875903762831 0.41905129137381081 0 -0.27817781655911977 0.40726136879628272 0 -0.27370875903762831 0.41905129137381081 0 -0.28647403122915938 0.41490769911839809 0 -0.27370875903762831 0.41905129137381081 0 -0.27138668263498972 0.43431468825499642 0 -0.28359142860916292 0.42646623900898489 0 -0.26107936510946472 0.42512814796255138 0 -0.27370875903762831 0.41905129137381081 0 -0.27138668263498972 0.43431468825499642 0 -0.27138668263498972 0.43431468825499642 0 -0.28359142860916292 0.42646623900898489 0 -0.28426041238301858 0.43930471826406531 0 -0.28359142860916292 0.42646623900898489 0 -0.29576073289665422 0.43347565529899762 0 -0.28426041238301858 0.43930471826406531 0 -0.28359142860916292 0.42646623900898489 0 -0.29576073289665422 0.43347565529899762 0 -0.29610666663401819 0.4205870682229661 0 -0.28905057763704689 0.40562835892549581 0 -0.27817781655911977 0.40726136879628272 0 -0.28647403122915938 0.41490769911839809 0 -0.27370875903762831 0.41905129137381081 0 -0.28359142860916292 0.42646623900898489 0 -0.28647403122915938 0.41490769911839809 0 -0.28359142860916292 0.42646623900898489 0 -0.28647403122915938 0.41490769911839809 0 -0.29610666663401819 0.4205870682229661 0 -0.28647403122915938 0.41490769911839809 0 -0.29610666663401819 0.4205870682229661 0 -0.2987408814332651 0.40933989620534528 0 -0.28905057763704689 0.40562835892549581 0 -0.28647403122915938 0.41490769911839809 0 -0.2987408814332651 0.40933989620534528 0 -0.31655825632854873 0.41307790430667191 0 -0.29610666663401819 0.4205870682229661 0 -0.2987408814332651 0.40933989620534528 0 -0.31655825632854873 0.41307790430667191 0 -0.29610666663401819 0.4205870682229661 0 -0.31005470391928353 0.42551636974368717 0 -0.31655825632854873 0.41307790430667191 0 -0.29610666663401819 0.4205870682229661 0 -0.31655825632854873 0.41307790430667191 0 -0.30820761894760612 0.40180007281058999 0 -0.2987408814332651 0.40933989620534528 0 -0.29576073289665422 0.43347565529899762 0 -0.31005470391928353 0.42551636974368717 0 -0.30636015846579262 0.44081646755455739 0 -0.29576073289665422 0.43347565529899762 0 -0.29610666663401819 0.4205870682229661 0 -0.31005470391928353 0.42551636974368717 0 -0.29576073289665422 0.43347565529899762 0 -0.30636015846579262 0.44081646755455739 0 -0.2944743431310044 0.45228094752776682 0 -0.30636015846579262 0.44081646755455739 0 -0.30512100021830008 0.46490456032657962 0 -0.30636015846579262 0.44081646755455739 0 -0.30512100021830008 0.46490456032657962 0 -0.2944743431310044 0.45228094752776682 0 -0.30636015846579262 0.44081646755455739 0 -0.30512100021830008 0.46490456032657962 0 -0.32381548421637429 0.45642326981327008 0 -0.30512100021830008 0.46490456032657962 0 -0.2944743431310044 0.45228094752776682 0 -0.28858619761816889 0.47377087817814589 0 -0.2944743431310044 0.45228094752776682 0 -0.27329055326553048 0.45854910325768988 0 -0.28858619761816889 0.47377087817814589 0 -0.2944743431310044 0.45228094752776682 0 -0.28426041238301858 0.43930471826406531 0 -0.27329055326553048 0.45854910325768988 0 -0.29576073289665422 0.43347565529899762 0 -0.2944743431310044 0.45228094752776682 0 -0.28426041238301858 0.43930471826406531 0 -0.27138668263498972 0.43431468825499642 0 -0.28426041238301858 0.43930471826406531 0 -0.27329055326553048 0.45854910325768988 0 -0.27138668263498972 0.43431468825499642 0 -0.27329055326553048 0.45854910325768988 0 -0.25799490891289278 0.4433273283372331 0 -0.27329055326553048 0.45854910325768988 0 -0.25799490891289278 0.4433273283372331 0 -0.27329055326553048 0.45854910325768988 0 -0.28858619761816889 0.47377087817814589 0 -0.27329055326553048 0.45854910325768988 0 -0.25438198006151169 0.46464464965965441 0 -0.25799490891289278 0.4433273283372331 0 -0.27329055326553048 0.45854910325768988 0 -0.25438198006151169 0.46464464965965441 0 -0.26859377699614329 0.4811575177290362 0 -0.25438198006151169 0.46464464965965441 0 -0.25799490891289278 0.4433273283372331 0 -0.25438198006151169 0.46464464965965441 0 -0.25799490891289278 0.4433273283372331 0 -0.24356894722331929 0.44821508210096461 0 -0.25080144613104921 0.5 0 -0.26859377699614329 0.4811575177290362 0 -0.2467553297522557 0.48147402383551691 0 -0.25080144613104921 0.5 0 -0.26859377699614329 0.4811575177290362 0 -0.27705851983630159 0.5 0 -0.25438198006151169 0.46464464965965441 0 -0.26859377699614329 0.4811575177290362 0 -0.2467553297522557 0.48147402383551691 0 -0.27329055326553048 0.45854910325768988 0 -0.26859377699614329 0.4811575177290362 0 -0.28858619761816889 0.47377087817814589 0 -0.26859377699614329 0.4811575177290362 0 -0.27705851983630159 0.5 0 -0.28830299895955541 0.48893487857068268 0 -0.27705851983630159 0.5 0 -0.28830299895955541 0.48893487857068268 0 -0.30331559354155391 0.49999999999999939 0 -0.26859377699614329 0.4811575177290362 0 -0.28830299895955541 0.48893487857068268 0 -0.28858619761816889 0.47377087817814589 0 -0.28830299895955541 0.48893487857068268 0 -0.28858619761816889 0.47377087817814589 0 -0.30388184197080759 0.48899265309860168 0 -0.28858619761816889 0.47377087817814589 0 -0.30388184197080759 0.48899265309860168 0 -0.30512100021830008 0.46490456032657962 0 -0.30388184197080759 0.48899265309860168 0 -0.30512100021830008 0.46490456032657962 0 -0.30388184197080759 0.48899265309860168 0 -0.31654611508668351 0.48621885406126381 0 -0.30512100021830008 0.46490456032657962 0 -0.28858619761816889 0.47377087817814589 0 -0.30388184197080759 0.48899265309860168 0 -0.30331559354155391 0.49999999999999939 0 -0.30388184197080759 0.48899265309860168 0 -0.28830299895955541 0.48893487857068268 0 -0.30331559354155391 0.49999999999999939 0 -0.30388184197080759 0.48899265309860168 0 -0.30388184197080759 0.48899265309860168 0 -0.31494260619507058 0.500000000000002 0 -0.31654611508668351 0.48621885406126381 0 -0.30331559354155391 0.49999999999999939 0 -0.30388184197080759 0.48899265309860168 0 -0.31494260619507058 0.500000000000002 0 -0.30388184197080759 0.48899265309860168 0 -0.31494260619507058 0.500000000000002 0 -0.31654611508668351 0.48621885406126381 0 -0.33275791060477139 0.5 0 -0.32602721644446891 0.47719705688113462 0 -0.31494260619507058 0.500000000000002 0 -0.31654611508668351 0.48621885406126381 0 -0.33275791060477139 0.5 0 -0.33275791060477139 0.5 0 -0.34200011506365208 0.48331572161184322 0 -0.32602721644446891 0.47719705688113462 0 -0.33275791060477139 0.5 0 -0.34200011506365208 0.48331572161184322 0 -0.35057321501447208 0.49999999999999872 0 -0.34200011506365208 0.48331572161184322 0 -0.32602721644446891 0.47719705688113462 0 -0.33593075250063148 0.46750731867274542 0 -0.34200011506365208 0.48331572161184322 0 -0.33593075250063148 0.46750731867274542 0 -0.35201810675435108 0.4676562019538536 0 -0.30512100021830008 0.46490456032657962 0 -0.31654611508668351 0.48621885406126381 0 -0.32602721644446891 0.47719705688113462 0 -0.30512100021830008 0.46490456032657962 0 -0.32602721644446891 0.47719705688113462 0 -0.32381548421637429 0.45642326981327008 0 -0.30636015846579262 0.44081646755455739 0 -0.32381548421637429 0.45642326981327008 0 -0.32304151796324199 0.43794530689545591 0 -0.32381548421637429 0.45642326981327008 0 -0.32304151796324199 0.43794530689545591 0 -0.34355933144160938 0.44471966407244162 0 -0.32381548421637429 0.45642326981327008 0 -0.34355933144160938 0.44471966407244162 0 -0.33593075250063148 0.46750731867274542 0 -0.32602721644446891 0.47719705688113462 0 -0.32381548421637429 0.45642326981327008 0 -0.33593075250063148 0.46750731867274542 0 -0.35201810675435108 0.4676562019538536 0 -0.36028404822733179 0.44939908513577981 0 -0.36566353784044697 0.46257036423753561 0 -0.34355933144160938 0.44471966407244162 0 -0.35201810675435108 0.4676562019538536 0 -0.36028404822733179 0.44939908513577981 0 -0.34355933144160938 0.44471966407244162 0 -0.33593075250063148 0.46750731867274542 0 -0.35201810675435108 0.4676562019538536 0 -0.36778315087773072 0.43214877602771662 0 -0.34355933144160938 0.44471966407244162 0 -0.36028404822733179 0.44939908513577981 0 -0.36778315087773072 0.43214877602771662 0 -0.36028404822733179 0.44939908513577981 0 -0.37376195539900242 0.45249759326054367 0 -0.37701653082709469 0.46900635458093531 0 -0.37376195539900242 0.45249759326054367 0 -0.36566353784044697 0.46257036423753561 0 -0.36028404822733179 0.44939908513577981 0 -0.37376195539900242 0.45249759326054367 0 -0.36566353784044697 0.46257036423753561 0 -0.36552159823955549 0.47691699748014749 0 -0.37220834978290879 0.49000150617251997 0 -0.35595833756876799 0.48470827593500232 0 -0.37701653082709469 0.46900635458093531 0 -0.36566353784044697 0.46257036423753561 0 -0.36552159823955549 0.47691699748014749 0 -0.37805640255927542 0.47903421333972468 0 -0.37701653082709469 0.46900635458093531 0 -0.36552159823955549 0.47691699748014749 0 -0.35201810675435108 0.4676562019538536 0 -0.36566353784044697 0.46257036423753561 0 -0.36552159823955549 0.47691699748014749 0 -0.37805640255927542 0.47903421333972468 0 -0.36552159823955549 0.47691699748014749 0 -0.37220834978290879 0.49000150617251997 0 -0.37220834978290879 0.49000150617251997 0 -0.35057321501447208 0.49999999999999872 0 -0.35595833756876799 0.48470827593500232 0 -0.37789332191386737 0.5 0 -0.37220834978290879 0.49000150617251997 0 -0.35057321501447208 0.49999999999999872 0 -0.37220834978290879 0.49000150617251997 0 -0.35057321501447208 0.49999999999999872 0 -0.34200011506365208 0.48331572161184322 0 -0.35057321501447208 0.49999999999999872 0 -0.35595833756876799 0.48470827593500232 0 -0.34200011506365208 0.48331572161184322 0 -0.35201810675435108 0.4676562019538536 0 -0.35595833756876799 0.48470827593500232 0 -0.35201810675435108 0.4676562019538536 0 -0.36552159823955549 0.47691699748014749 0 -0.35595833756876799 0.48470827593500232 0 -0.142080771754234 0.48212662116497451 0 -0.14744519938683801 0.47523243684594829 0 -0.1380962150490555 0.47248515407185221 0 -0.142080771754234 0.48212662116497451 0 -0.14744519938683801 0.47523243684594829 0 -0.15313912830386001 0.48632871978955722 0 -0.14744519938683801 0.47523243684594829 0 -0.1380962150490555 0.47248515407185221 0 -0.1446941887002707 0.46454185114692792 0 -0.14744519938683801 0.47523243684594829 0 -0.1446941887002707 0.46454185114692792 0 -0.15815775643206659 0.473198332503178 0 -0.14744519938683801 0.47523243684594829 0 -0.15313912830386001 0.48632871978955722 0 -0.15815775643206659 0.473198332503178 0 -0.142080771754234 0.48212662116497451 0 -0.15313912830386001 0.48632871978955722 0 -0.13803845513632401 0.5 0 -0.15313912830386001 0.48632871978955722 0 -0.13803845513632401 0.5 0 -0.1663114266205577 0.50000000000000011 0 -0.142080771754234 0.48212662116497451 0 -0.13803845513632401 0.5 0 -0.12908554574303099 0.47755934496718438 0 -0.13803845513632401 0.5 0 -0.12908554574303099 0.47755934496718438 0 -0.1160402402672886 0.48503019582547341 0 -0.142080771754234 0.48212662116497451 0 -0.12908554574303099 0.47755934496718438 0 -0.1380962150490555 0.47248515407185221 0 -0.12908554574303099 0.47755934496718438 0 -0.1380962150490555 0.47248515407185221 0 -0.13097929143795109 0.46459511115351071 0 -0.12908554574303099 0.47755934496718438 0 -0.13097929143795109 0.46459511115351071 0 -0.1176294132596279 0.46872710166108278 0 -0.13097929143795109 0.46459511115351071 0 -0.1351896940807357 0.45304119368279389 0 -0.1204057133641486 0.45504160574272429 0 -0.13097929143795109 0.46459511115351071 0 -0.1351896940807357 0.45304119368279389 0 -0.1446941887002707 0.46454185114692792 0 -0.1380962150490555 0.47248515407185221 0 -0.13097929143795109 0.46459511115351071 0 -0.1446941887002707 0.46454185114692792 0 -0.1351896940807357 0.45304119368279389 0 -0.13889501351409689 0.43598263237980822 0 -0.1242648033483075 0.43981492828754482 0 -0.1351896940807357 0.45304119368279389 0 -0.1242648033483075 0.43981492828754482 0 -0.1204057133641486 0.45504160574272429 0 -0.15017718620881049 0.45777983735391498 0 -0.13889501351409689 0.43598263237980822 0 -0.1351896940807357 0.45304119368279389 0 -0.15017718620881049 0.45777983735391498 0 -0.13889501351409689 0.43598263237980822 0 -0.15995177900170021 0.44572512983606088 0 -0.15376963845050121 0.4328235067909087 0 -0.13889501351409689 0.43598263237980822 0 -0.15017718620881049 0.45777983735391498 0 -0.15995177900170021 0.44572512983606088 0 -0.13889501351409689 0.43598263237980822 0 -0.15017718620881049 0.45777983735391498 0 -0.15995177900170021 0.44572512983606088 0 -0.1446941887002707 0.46454185114692792 0 -0.15017718620881049 0.45777983735391498 0 -0.1351896940807357 0.45304119368279389 0 -0.1446941887002707 0.46454185114692792 0 -0.15017718620881049 0.45777983735391498 0 -0.1446941887002707 0.46454185114692792 0 -0.15017718620881049 0.45777983735391498 0 -0.15815775643206659 0.473198332503178 0 -0.15017718620881049 0.45777983735391498 0 -0.15868634814382429 0.46531473325554851 0 -0.15815775643206659 0.473198332503178 0 -0.15017718620881049 0.45777983735391498 0 -0.15815775643206659 0.473198332503178 0 -0.160558198289461 0.46047642425523388 0 -0.1655661766345953 0.45099185016729298 0 -0.16585225164495951 0.46980433890986678 0 -0.1655661766345953 0.45099185016729298 0 -0.17867327812258871 0.46114583139567922 0 -0.16585225164495951 0.46980433890986678 0 -0.1655661766345953 0.45099185016729298 0 -0.16585225164495951 0.46980433890986678 0 -0.15868634814382429 0.46531473325554851 0 -0.160558198289461 0.46047642425523388 0 -0.16585225164495951 0.46980433890986678 0 -0.15017718620881049 0.45777983735391498 0 -0.15868634814382429 0.46531473325554851 0 -0.160558198289461 0.46047642425523388 0 -0.15017718620881049 0.45777983735391498 0 -0.160558198289461 0.46047642425523388 0 -0.15995177900170021 0.44572512983606088 0 -0.15995177900170021 0.44572512983606088 0 -0.1655661766345953 0.45099185016729298 0 -0.1697263717945888 0.43367042231820602 0 -0.160558198289461 0.46047642425523388 0 -0.15995177900170021 0.44572512983606088 0 -0.1655661766345953 0.45099185016729298 0 -0.15995177900170021 0.44572512983606088 0 -0.1697263717945888 0.43367042231820602 0 -0.1655661766345953 0.45099185016729298 0 -0.1926513277646352 0.45119866261047992 0 -0.1697263717945888 0.43367042231820602 0 -0.1926513277646352 0.45119866261047992 0 -0.1697263717945888 0.43367042231820602 0 -0.1926513277646352 0.45119866261047992 0 -0.18693863061853061 0.43491447939059907 0 -0.1697263717945888 0.43367042231820602 0 -0.1655661766345953 0.45099185016729298 0 -0.17867327812258871 0.46114583139567922 0 -0.1926513277646352 0.45119866261047992 0 -0.17867327812258871 0.46114583139567922 0 -0.17876854714149509 0.47093865696285842 0 -0.16585225164495951 0.46980433890986678 0 -0.17867327812258871 0.46114583139567922 0 -0.1899884502156329 0.46461586120334353 0 -0.1926513277646352 0.45119866261047992 0 -0.17867327812258871 0.46114583139567922 0 -0.17876854714149509 0.47093865696285842 0 -0.1899884502156329 0.46461586120334353 0 -0.17876854714149509 0.47093865696285842 0 -0.19138341924764241 0.47827032896460842 0 -0.1899884502156329 0.46461586120334353 0 -0.1757986315986971 0.48088398659212228 0 -0.17876854714149509 0.47093865696285842 0 -0.19138341924764241 0.47827032896460842 0 -0.1757986315986971 0.48088398659212228 0 -0.17876854714149509 0.47093865696285842 0 -0.16585225164495951 0.46980433890986678 0 -0.16585225164495951 0.46980433890986678 0 -0.16613832665532341 0.48861682765244069 0 -0.16585225164495951 0.46980433890986678 0 -0.15815775643206659 0.473198332503178 0 -0.16613832665532341 0.48861682765244069 0 -0.1757986315986971 0.48088398659212228 0 -0.16585225164495951 0.46980433890986678 0 -0.16613832665532341 0.48861682765244069 0 -0.15313912830386001 0.48632871978955722 0 -0.15815775643206659 0.473198332503178 0 -0.16613832665532341 0.48861682765244069 0 -0.15815775643206659 0.473198332503178 0 -0.16613832665532341 0.48861682765244069 0 -0.15868634814382429 0.46531473325554851 0 -0.16585225164495951 0.46980433890986678 0 -0.15815775643206659 0.473198332503178 0 -0.15313912830386001 0.48632871978955722 0 -0.16613832665532341 0.48861682765244069 0 -0.1663114266205577 0.50000000000000011 0 -0.16613832665532341 0.48861682765244069 0 -0.1720302250152923 0.50000000000000022 0 -0.16613832665532341 0.48861682765244069 0 -0.1663114266205577 0.50000000000000011 0 -0.1720302250152923 0.50000000000000022 0 -0.16613832665532341 0.48861682765244069 0 -0.1663114266205577 0.50000000000000011 0 -0.16613832665532341 0.48861682765244069 0 -0.17430115969348189 0.49501483184612438 0 -0.1720302250152923 0.50000000000000022 0 -0.17430115969348189 0.49501483184612438 0 -0.1720302250152923 0.50000000000000022 0 -0.1982872987205446 0.5 0 -0.1757986315986971 0.48088398659212228 0 -0.17430115969348189 0.49501483184612438 0 -0.19138341924764241 0.47827032896460842 0 -0.17430115969348189 0.49501483184612438 0 -0.19138341924764241 0.47827032896460842 0 -0.1757986315986971 0.48088398659212228 0 -0.16613832665532341 0.48861682765244069 0 -0.17430115969348189 0.49501483184612438 0 -0.17430115969348189 0.49501483184612438 0 -0.1982872987205446 0.5 0 -0.19138341924764241 0.47827032896460842 0 -0.1982872987205446 0.5 0 -0.19138341924764241 0.47827032896460842 0 -0.21217809917650449 0.48030286392854288 0 -0.19138341924764241 0.47827032896460842 0 -0.208465678801803 0.46152582608309223 0 -0.19138341924764241 0.47827032896460842 0 -0.21217809917650449 0.48030286392854288 0 -0.208465678801803 0.46152582608309223 0 -0.1982872987205446 0.5 0 -0.21217809917650449 0.48030286392854288 0 -0.22454437242579681 0.5 0 -0.22454437242579681 0.5 0 -0.2288960980978284 0.47674808914996208 0 -0.2467553297522557 0.48147402383551691 0 -0.21217809917650449 0.48030286392854288 0 -0.22454437242579681 0.5 0 -0.2288960980978284 0.47674808914996208 0 -0.21217809917650449 0.48030286392854288 0 -0.2288960980978284 0.47674808914996208 0 -0.22325063631842021 0.46203708915627778 0 -0.25438198006151169 0.46464464965965441 0 -0.2467553297522557 0.48147402383551691 0 -0.2372897108761052 0.46028528898629889 0 -0.2288960980978284 0.47674808914996208 0 -0.2467553297522557 0.48147402383551691 0 -0.2372897108761052 0.46028528898629889 0 -0.25080144613104921 0.5 0 -0.22454437242579681 0.5 0 -0.2467553297522557 0.48147402383551691 0 -0.24356894722331929 0.44821508210096461 0 -0.22554793835596351 0.44478132320157598 0 -0.24263019791012411 0.42803682032005991 0 -0.24356894722331929 0.44821508210096461 0 -0.2372897108761052 0.46028528898629889 0 -0.22554793835596351 0.44478132320157598 0 -0.25799490891289278 0.4433273283372331 0 -0.24356894722331929 0.44821508210096461 0 -0.24263019791012411 0.42803682032005991 0 -0.25438198006151169 0.46464464965965441 0 -0.24356894722331929 0.44821508210096461 0 -0.2372897108761052 0.46028528898629889 0 -0.2288960980978284 0.47674808914996208 0 -0.2372897108761052 0.46028528898629889 0 -0.22325063631842021 0.46203708915627778 0 -0.2372897108761052 0.46028528898629889 0 -0.22325063631842021 0.46203708915627778 0 -0.22554793835596351 0.44478132320157598 0 -0.22325063631842021 0.46203708915627778 0 -0.22554793835596351 0.44478132320157598 0 -0.208465678801803 0.46152582608309223 0 -0.22554793835596351 0.44478132320157598 0 -0.20785557032720109 0.44518798724498809 0 -0.21437917226951189 0.43588067273166847 0 -0.22554793835596351 0.44478132320157598 0 -0.20785557032720109 0.44518798724498809 0 -0.208465678801803 0.46152582608309223 0 -0.22554793835596351 0.44478132320157598 0 -0.208465678801803 0.46152582608309223 0 -0.21217809917650449 0.48030286392854288 0 -0.22325063631842021 0.46203708915627778 0 -0.208465678801803 0.46152582608309223 0 -0.19138341924764241 0.47827032896460842 0 -0.208465678801803 0.46152582608309223 0 -0.1899884502156329 0.46461586120334353 0 -0.208465678801803 0.46152582608309223 0 -0.1899884502156329 0.46461586120334353 0 -0.1926513277646352 0.45119866261047992 0 -0.20785557032720109 0.44518798724498809 0 -0.1926513277646352 0.45119866261047992 0 -0.18693863061853061 0.43491447939059907 0 -0.20785557032720109 0.44518798724498809 0 -0.208465678801803 0.46152582608309223 0 -0.1926513277646352 0.45119866261047992 0 -0.19176926968858449 0.42488004754311998 0 -0.20430089696141959 0.42856004989685992 0 -0.18693863061853061 0.43491447939059907 0 -0.20785557032720109 0.44518798724498809 0 -0.20430089696141959 0.42856004989685992 0 -0.18693863061853061 0.43491447939059907 0 -0.19176926968858449 0.42488004754311998 0 -0.19667758679306771 0.41738623802377928 0 -0.20430089696141959 0.42856004989685992 0 -0.19667758679306771 0.41738623802377928 0 -0.19460267291041519 0.40299123798476227 0 -0.182164522352502 0.41833083015148409 0 -0.19460267291041519 0.40299123798476227 0 -0.182164522352502 0.41833083015148409 0 -0.19176926968858449 0.42488004754311998 0 -0.19667758679306771 0.41738623802377928 0 -0.182164522352502 0.41833083015148409 0 -0.19667758679306771 0.41738623802377928 0 -0.2074030129404133 0.4163894186605448 0 -0.20430089696141959 0.42856004989685992 0 -0.19667758679306771 0.41738623802377928 0 -0.2074030129404133 0.4163894186605448 0 -0.19460267291041519 0.40299123798476227 0 -0.2074030129404133 0.4163894186605448 0 -0.21981228343346321 0.42499333058324978 0 -0.22162162460370111 0.40801623681407218 0 -0.2074030129404133 0.4163894186605448 0 -0.22162162460370111 0.40801623681407218 0 -0.19460267291041519 0.40299123798476227 0 -0.20785557032720109 0.44518798724498809 0 -0.20430089696141959 0.42856004989685992 0 -0.21437917226951189 0.43588067273166847 0 -0.2074030129404133 0.4163894186605448 0 -0.20430089696141959 0.42856004989685992 0 -0.21981228343346321 0.42499333058324978 0 -0.20430089696141959 0.42856004989685992 0 -0.21437917226951189 0.43588067273166847 0 -0.21981228343346321 0.42499333058324978 0 -0.22554793835596351 0.44478132320157598 0 -0.24263019791012411 0.42803682032005991 0 -0.22554793835596351 0.44478132320157598 0 -0.2313941741476824 0.42795323546389102 0 -0.24263019791012411 0.42803682032005991 0 -0.22554793835596351 0.44478132320157598 0 -0.21437917226951189 0.43588067273166847 0 -0.21981228343346321 0.42499333058324978 0 -0.22554793835596351 0.44478132320157598 0 -0.2313941741476824 0.42795323546389102 0 -0.21981228343346321 0.42499333058324978 0 -0.2313941741476824 0.42795323546389102 0 -0.21981228343346321 0.42499333058324978 0 -0.2301621318308705 0.41771135234831969 0 -0.2313941741476824 0.42795323546389102 0 -0.2301621318308705 0.41771135234831969 0 -0.23881831920799079 0.42424335086624981 0 -0.21981228343346321 0.42499333058324978 0 -0.22162162460370111 0.40801623681407218 0 -0.2301621318308705 0.41771135234831969 0 -0.22162162460370111 0.40801623681407218 0 -0.2301621318308705 0.41771135234831969 0 -0.241034552697166 0.41286836770778501 0 -0.25157066981256843 0.40894445920752592 0 -0.241034552697166 0.41286836770778501 0 -0.24263019791012411 0.42803682032005991 0 -0.241034552697166 0.41286836770778501 0 -0.24263019791012411 0.42803682032005991 0 -0.23881831920799079 0.42424335086624981 0 -0.22162162460370111 0.40801623681407218 0 -0.241034552697166 0.41286836770778501 0 -0.24388213391773941 0.40163479241199579 0 -0.2301621318308705 0.41771135234831969 0 -0.241034552697166 0.41286836770778501 0 -0.23881831920799079 0.42424335086624981 0 -0.25157066981256843 0.40894445920752592 0 -0.241034552697166 0.41286836770778501 0 -0.24388213391773941 0.40163479241199579 0 -0.2313941741476824 0.42795323546389102 0 -0.24263019791012411 0.42803682032005991 0 -0.23881831920799079 0.42424335086624981 0 -0.24263019791012411 0.42803682032005991 0 -0.23881831920799079 0.42424335086624981 0 -0.25453646971320443 0.37462232419521813 0 -0.24781733580734391 0.38604582424895789 0 -0.23735930512057779 0.37349779701461089 0 -0.2365264908337599 0.38834162546439549 0 -0.24781733580734391 0.38604582424895789 0 -0.23735930512057779 0.37349779701461089 0 -0.2365264908337599 0.38834162546439549 0 -0.24781733580734391 0.38604582424895789 0 -0.24388213391773941 0.40163479241199579 0 -0.22162162460370111 0.40801623681407218 0 -0.24388213391773941 0.40163479241199579 0 -0.22162162460370111 0.40801623681407218 0 -0.2365264908337599 0.38834162546439549 0 -0.2225569648072106 0.38059728391652659 0 -0.22162162460370111 0.40801623681407218 0 -0.2365264908337599 0.38834162546439549 0 -0.24388213391773941 0.40163479241199579 0 -0.2365264908337599 0.38834162546439549 0 -0.2225569648072106 0.38059728391652659 0 -0.23735930512057779 0.37349779701461089 0 -0.2225569648072106 0.38059728391652659 0 -0.20545957084956781 0.38789926664213359 0 -0.1994770785436861 0.36691897370504389 0 -0.22162162460370111 0.40801623681407218 0 -0.2225569648072106 0.38059728391652659 0 -0.20545957084956781 0.38789926664213359 0 -0.22162162460370111 0.40801623681407218 0 -0.20545957084956781 0.38789926664213359 0 -0.19460267291041519 0.40299123798476227 0 -0.20545957084956781 0.38789926664213359 0 -0.19460267291041519 0.40299123798476227 0 -0.18736095772118591 0.3836472042370111 0 -0.20545957084956781 0.38789926664213359 0 -0.18736095772118591 0.3836472042370111 0 -0.1994770785436861 0.36691897370504389 0 -0.18736095772118591 0.3836472042370111 0 -0.16248792359233191 0.38534127627451031 0 -0.17644948136236779 0.3976803029940168 0 -0.18736095772118591 0.3836472042370111 0 -0.16248792359233191 0.38534127627451031 0 -0.1741500565645078 0.37123080613525078 0 -0.16248792359233191 0.38534127627451031 0 -0.16330635783110381 0.4038062271485704 0 -0.14438589058212131 0.3948348353259919 0 -0.16248792359233191 0.38534127627451031 0 -0.16330635783110381 0.4038062271485704 0 -0.17644948136236779 0.3976803029940168 0 -0.19460267291041519 0.40299123798476227 0 -0.17644948136236779 0.3976803029940168 0 -0.17778078602166139 0.40821888849324761 0 -0.19460267291041519 0.40299123798476227 0 -0.18736095772118591 0.3836472042370111 0 -0.17644948136236779 0.3976803029940168 0 -0.16330635783110381 0.4038062271485704 0 -0.17644948136236779 0.3976803029940168 0 -0.17778078602166139 0.40821888849324761 0 -0.19460267291041519 0.40299123798476227 0 -0.182164522352502 0.41833083015148409 0 -0.17778078602166139 0.40821888849324761 0 -0.182164522352502 0.41833083015148409 0 -0.1723808956519178 0.41828584418740389 0 -0.17778078602166139 0.40821888849324761 0 -0.19176926968858449 0.42488004754311998 0 -0.182164522352502 0.41833083015148409 0 -0.18693863061853061 0.43491447939059907 0 -0.182164522352502 0.41833083015148409 0 -0.18693863061853061 0.43491447939059907 0 -0.1697263717945888 0.43367042231820602 0 -0.182164522352502 0.41833083015148409 0 -0.1697263717945888 0.43367042231820602 0 -0.182164522352502 0.41833083015148409 0 -0.1723808956519178 0.41828584418740389 0 -0.1697263717945888 0.43367042231820602 0 -0.15995177900170021 0.44572512983606088 0 -0.1697263717945888 0.43367042231820602 0 -0.15376963845050121 0.4328235067909087 0 -0.1697263717945888 0.43367042231820602 0 -0.14650538949161929 0.41591584262955861 0 -0.15376963845050121 0.4328235067909087 0 -0.1697263717945888 0.43367042231820602 0 -0.14650538949161929 0.41591584262955861 0 -0.1723808956519178 0.41828584418740389 0 -0.1697263717945888 0.43367042231820602 0 -0.14650538949161929 0.41591584262955861 0 -0.1723808956519178 0.41828584418740389 0 -0.14650538949161929 0.41591584262955861 0 -0.16330635783110381 0.4038062271485704 0 -0.1723808956519178 0.41828584418740389 0 -0.14650538949161929 0.41591584262955861 0 -0.16330635783110381 0.4038062271485704 0 -0.1723808956519178 0.41828584418740389 0 -0.17778078602166139 0.40821888849324761 0 -0.14650538949161929 0.41591584262955861 0 -0.15376963845050121 0.4328235067909087 0 -0.13889501351409689 0.43598263237980822 0 -0.13889501351409689 0.43598263237980822 0 -0.12761284081938409 0.41418542740570108 0 -0.14650538949161929 0.41591584262955861 0 -0.13889501351409689 0.43598263237980822 0 -0.12761284081938409 0.41418542740570108 0 -0.13889501351409689 0.43598263237980822 0 -0.12761284081938409 0.41418542740570108 0 -0.1242648033483075 0.43981492828754482 0 -0.14650538949161929 0.41591584262955861 0 -0.12761284081938409 0.41418542740570108 0 -0.12644786621320531 0.40058001872868543 0 -0.14650538949161929 0.41591584262955861 0 -0.12644786621320531 0.40058001872868543 0 -0.14650538949161929 0.41591584262955861 0 -0.12761284081938409 0.41418542740570108 0 -0.14650538949161929 0.41591584262955861 0 -0.12644786621320531 0.40058001872868543 0 -0.14438589058212131 0.3948348353259919 0 -0.12644786621320531 0.40058001872868543 0 -0.12826940643264259 0.38638828685515292 0 -0.14438589058212131 0.3948348353259919 0 -0.1399268433138337 0.37661104245066729 0 -0.12826940643264259 0.38638828685515292 0 -0.1198206075896991 0.37069234566290138 0 -0.1399268433138337 0.37661104245066729 0 -0.12826940643264259 0.38638828685515292 0 -0.14438589058212131 0.3948348353259919 0 -0.16248792359233191 0.38534127627451031 0 -0.1399268433138337 0.37661104245066729 0 -0.1571746455416145 0.36408416689185819 0 -0.16248792359233191 0.38534127627451031 0 -0.1399268433138337 0.37661104245066729 0 -0.14438589058212131 0.3948348353259919 0 -0.16330635783110381 0.4038062271485704 0 -0.14650538949161929 0.41591584262955861 0 -0.14438589058212131 0.3948348353259919 0 -0.1367685514822152 0.35851885971508118 0 -0.13367478836053351 0.33932016938713638 0 -0.15331730601663701 0.3395623532820784 0 -0.1367685514822152 0.35851885971508118 0 -0.15331730601663701 0.3395623532820784 0 -0.1571746455416145 0.36408416689185819 0 -0.1399268433138337 0.37661104245066729 0 -0.1367685514822152 0.35851885971508118 0 -0.1571746455416145 0.36408416689185819 0 -0.1399268433138337 0.37661104245066729 0 -0.1367685514822152 0.35851885971508118 0 -0.1198206075896991 0.37069234566290138 0 -0.1367685514822152 0.35851885971508118 0 -0.13367478836053351 0.33932016938713638 0 -0.1173066256070304 0.35104950557859033 0 -0.13367478836053351 0.33932016938713638 0 -0.1262409447270301 0.3211703831111522 0 -0.1175879007316586 0.33497855513245622 0 -0.13367478836053351 0.33932016938713638 0 -0.1262409447270301 0.3211703831111522 0 -0.14995133854557879 0.31573290008088639 0 -0.1262409447270301 0.3211703831111522 0 -0.14995133854557879 0.31573290008088639 0 -0.13170636281121431 0.30540396541675668 0 -0.13367478836053351 0.33932016938713638 0 -0.14995133854557879 0.31573290008088639 0 -0.15331730601663701 0.3395623532820784 0 -0.15331730601663701 0.3395623532820784 0 -0.17079439025487569 0.32494122108339912 0 -0.1763971922801616 0.3532406634935612 0 -0.14995133854557879 0.31573290008088639 0 -0.17079439025487569 0.32494122108339912 0 -0.167164841548782 0.29891422322321631 0 -0.14995133854557879 0.31573290008088639 0 -0.15331730601663701 0.3395623532820784 0 -0.17079439025487569 0.32494122108339912 0 -0.17079439025487569 0.32494122108339912 0 -0.19256976679114979 0.33165381796875049 0 -0.19699128312530151 0.30504565645142051 0 -0.17079439025487569 0.32494122108339912 0 -0.1763971922801616 0.3532406634935612 0 -0.19256976679114979 0.33165381796875049 0 -0.15331730601663701 0.3395623532820784 0 -0.1763971922801616 0.3532406634935612 0 -0.1571746455416145 0.36408416689185819 0 -0.15331730601663701 0.3395623532820784 0 -0.1763971922801616 0.3532406634935612 0 -0.1763971922801616 0.3532406634935612 0 -0.1571746455416145 0.36408416689185819 0 -0.1741500565645078 0.37123080613525078 0 -0.16248792359233191 0.38534127627451031 0 -0.1571746455416145 0.36408416689185819 0 -0.1741500565645078 0.37123080613525078 0 -0.18736095772118591 0.3836472042370111 0 -0.1741500565645078 0.37123080613525078 0 -0.1994770785436861 0.36691897370504389 0 -0.1763971922801616 0.3532406634935612 0 -0.1741500565645078 0.37123080613525078 0 -0.1994770785436861 0.36691897370504389 0 -0.1763971922801616 0.3532406634935612 0 -0.1994770785436861 0.36691897370504389 0 -0.1763971922801616 0.3532406634935612 0 -0.20127160642404629 0.34878804965207372 0 -0.19256976679114979 0.33165381796875049 0 -0.1763971922801616 0.3532406634935612 0 -0.1994770785436861 0.36691897370504389 0 -0.20127160642404629 0.34878804965207372 0 -0.1994770785436861 0.36691897370504389 0 -0.20127160642404629 0.34878804965207372 0 -0.22480168799342179 0.35512276170724633 0 -0.20127160642404629 0.34878804965207372 0 -0.22480168799342179 0.35512276170724633 0 -0.2131123065118124 0.33700403138576668 0 -0.2225569648072106 0.38059728391652659 0 -0.1994770785436861 0.36691897370504389 0 -0.2225569648072106 0.38059728391652659 0 -0.1994770785436861 0.36691897370504389 0 -0.22480168799342179 0.35512276170724633 0 -0.2225569648072106 0.38059728391652659 0 -0.22480168799342179 0.35512276170724633 0 -0.23735930512057779 0.37349779701461089 0 -0.25368472498167011 0.34420349485172652 0 -0.22480168799342179 0.35512276170724633 0 -0.24822911175635759 0.36217347122335058 0 -0.22480168799342179 0.35512276170724633 0 -0.24822911175635759 0.36217347122335058 0 -0.23735930512057779 0.37349779701461089 0 -0.25453646971320443 0.37462232419521813 0 -0.24822911175635759 0.36217347122335058 0 -0.23735930512057779 0.37349779701461089 0 -0.25757488899104952 0.31786411623381933 0 -0.23478691102954721 0.33115088205162452 0 -0.2366570207200871 0.30010935915934539 0 -0.25368472498167011 0.34420349485172652 0 -0.22480168799342179 0.35512276170724633 0 -0.23478691102954721 0.33115088205162452 0 -0.25368472498167011 0.34420349485172652 0 -0.23478691102954721 0.33115088205162452 0 -0.25757488899104952 0.31786411623381933 0 -0.25368472498167011 0.34420349485172652 0 -0.23478691102954721 0.33115088205162452 0 -0.23478691102954721 0.33115088205162452 0 -0.2158890970774244 0.31809826925152251 0 -0.2131123065118124 0.33700403138576668 0 -0.22480168799342179 0.35512276170724633 0 -0.23478691102954721 0.33115088205162452 0 -0.2131123065118124 0.33700403138576668 0 -0.23478691102954721 0.33115088205162452 0 -0.2158890970774244 0.31809826925152251 0 -0.2366570207200871 0.30010935915934539 0 -0.23478691102954721 0.33115088205162452 0 -0.2158890970774244 0.31809826925152251 0 -0.2158890970774244 0.31809826925152251 0 -0.2131123065118124 0.33700403138576668 0 -0.19256976679114979 0.33165381796875049 0 -0.20127160642404629 0.34878804965207372 0 -0.2131123065118124 0.33700403138576668 0 -0.19256976679114979 0.33165381796875049 0 -0.2158890970774244 0.31809826925152251 0 -0.19256976679114979 0.33165381796875049 0 -0.19699128312530151 0.30504565645142051 0 -0.19699128312530151 0.30504565645142051 0 -0.2044220976180971 0.2747921468301005 0 -0.18537993383704029 0.28397978744787411 0 -0.19699128312530151 0.30504565645142051 0 -0.21636901433909059 0.29447561219915308 0 -0.2044220976180971 0.2747921468301005 0 -0.2158890970774244 0.31809826925152251 0 -0.19699128312530151 0.30504565645142051 0 -0.21636901433909059 0.29447561219915308 0 -0.2158890970774244 0.31809826925152251 0 -0.19699128312530151 0.30504565645142051 0 -0.2158890970774244 0.31809826925152251 0 -0.21636901433909059 0.29447561219915308 0 -0.2366570207200871 0.30010935915934539 0 -0.21636901433909059 0.29447561219915308 0 -0.2366570207200871 0.30010935915934539 0 -0.2235041758045673 0.27405874977876837 0 -0.26277913973510902 0.29023342414179659 0 -0.2366570207200871 0.30010935915934539 0 -0.2447247674615598 0.2718938593685879 0 -0.2366570207200871 0.30010935915934539 0 -0.2447247674615598 0.2718938593685879 0 -0.2235041758045673 0.27405874977876837 0 -0.25693865295534157 0.25278860643768353 0 -0.2416444700809012 0.25186566196455601 0 -0.2447247674615598 0.2718938593685879 0 -0.2416444700809012 0.25186566196455601 0 -0.2447247674615598 0.2718938593685879 0 -0.22667039518801041 0.25355429459537898 0 -0.2447247674615598 0.2718938593685879 0 -0.22667039518801041 0.25355429459537898 0 -0.2447247674615598 0.2718938593685879 0 -0.2235041758045673 0.27405874977876837 0 -0.22667039518801041 0.25355429459537898 0 -0.2235041758045673 0.27405874977876837 0 -0.22667039518801041 0.25355429459537898 0 -0.21218175950055909 0.24952722652004439 0 -0.2044220976180971 0.2747921468301005 0 -0.1929026130837673 0.25762258695206858 0 -0.21218175950055909 0.24952722652004439 0 -0.2044220976180971 0.2747921468301005 0 -0.21218175950055909 0.24952722652004439 0 -0.2235041758045673 0.27405874977876837 0 -0.2044220976180971 0.2747921468301005 0 -0.21218175950055909 0.24952722652004439 0 -0.21636901433909059 0.29447561219915308 0 -0.2235041758045673 0.27405874977876837 0 -0.2044220976180971 0.2747921468301005 0 -0.2044220976180971 0.2747921468301005 0 -0.1929026130837673 0.25762258695206858 0 -0.18537993383704029 0.28397978744787411 0 -0.1929026130837673 0.25762258695206858 0 -0.16582228118094081 0.26466105519565358 0 -0.18651378479530609 0.23505073182760211 0 -0.1929026130837673 0.25762258695206858 0 -0.16582228118094081 0.26466105519565358 0 -0.18537993383704029 0.28397978744787411 0 -0.16582228118094081 0.26466105519565358 0 -0.167164841548782 0.29891422322321631 0 -0.14136362158270599 0.28508793949713551 0 -0.16582228118094081 0.26466105519565358 0 -0.18537993383704029 0.28397978744787411 0 -0.167164841548782 0.29891422322321631 0 -0.19699128312530151 0.30504565645142051 0 -0.18537993383704029 0.28397978744787411 0 -0.167164841548782 0.29891422322321631 0 -0.17079439025487569 0.32494122108339912 0 -0.19699128312530151 0.30504565645142051 0 -0.167164841548782 0.29891422322321631 0 -0.167164841548782 0.29891422322321631 0 -0.14136362158270599 0.28508793949713551 0 -0.14995133854557879 0.31573290008088639 0 -0.167164841548782 0.29891422322321631 0 -0.14136362158270599 0.28508793949713551 0 -0.14995133854557879 0.31573290008088639 0 -0.14136362158270599 0.28508793949713551 0 -0.13170636281121431 0.30540396541675668 0 -0.1262409447270301 0.3211703831111522 0 -0.13170636281121431 0.30540396541675668 0 -0.1173504618646501 0.30916380798395637 0 -0.14136362158270599 0.28508793949713551 0 -0.13170636281121431 0.30540396541675668 0 -0.1202787732923796 0.29457691953651272 0 -0.14136362158270599 0.28508793949713551 0 -0.1196693143642453 0.28329908912575552 0 -0.1202787732923796 0.29457691953651272 0 -0.14136362158270599 0.28508793949713551 0 -0.1155624016166297 0.27126165577105521 0 -0.1196693143642453 0.28329908912575552 0 -0.14136362158270599 0.28508793949713551 0 -0.1155624016166297 0.27126165577105521 0 -0.12872708527658799 0.25991420809329241 0 -0.1416417428525672 0.26777243923482702 0 -0.1155624016166297 0.27126165577105521 0 -0.14136362158270599 0.28508793949713551 0 -0.1416417428525672 0.26777243923482702 0 -0.1155624016166297 0.27126165577105521 0 -0.12872708527658799 0.25991420809329241 0 -0.14534546737678511 0.25129379472131641 0 -0.1416417428525672 0.26777243923482702 0 -0.12872708527658799 0.25991420809329241 0 -0.14534546737678511 0.25129379472131641 0 -0.12470300375741469 0.2457033751303839 0 -0.16582228118094081 0.26466105519565358 0 -0.14534546737678511 0.25129379472131641 0 -0.1416417428525672 0.26777243923482702 0 -0.16582228118094081 0.26466105519565358 0 -0.14136362158270599 0.28508793949713551 0 -0.1416417428525672 0.26777243923482702 0 -0.1083690905562489 0.27746201143443072 0 -0.10470287070229969 0.27376422074294909 0 -0.09206590757372593 0.27740472432850488 0 -0.099741497972773749 0.27068482051400677 0 -0.1098053558875477 0.27272524579145851 0 -0.092391857727521592 0.25884509119311472 0 -0.1155624016166297 0.27126165577105521 0 -0.1098053558875477 0.27272524579145851 0 -0.092391857727521592 0.25884509119311472 0 -0.099741497972773749 0.27068482051400677 0 -0.09206590757372593 0.27740472432850488 0 -0.092391857727521592 0.25884509119311472 0 -0.10470287070229969 0.27376422074294909 0 -0.099741497972773749 0.27068482051400677 0 -0.1098053558875477 0.27272524579145851 0 -0.1083690905562489 0.27746201143443072 0 -0.1098053558875477 0.27272524579145851 0 -0.1083690905562489 0.27746201143443072 0 -0.10470287070229969 0.27376422074294909 0 -0.1098053558875477 0.27272524579145851 0 -0.10470287070229969 0.27376422074294909 0 -0.099741497972773749 0.27068482051400677 0 -0.09206590757372593 0.27740472432850488 0 -0.1155624016166297 0.27126165577105521 0 -0.092391857727521592 0.25884509119311472 0 -0.11076524853809321 0.25238606884059173 0 -0.1155624016166297 0.27126165577105521 0 -0.092391857727521592 0.25884509119311472 0 -0.11076524853809321 0.25238606884059173 0 -0.1199394347971814 0.25731632695883078 0 -0.1155624016166297 0.27126165577105521 0 -0.12872708527658799 0.25991420809329241 0 -0.1199394347971814 0.25731632695883078 0 -0.12470300375741469 0.2457033751303839 0 -0.11076524853809321 0.25238606884059173 0 -0.1199394347971814 0.25731632695883078 0 -0.12470300375741469 0.2457033751303839 0 -0.12872708527658799 0.25991420809329241 0 -0.1199394347971814 0.25731632695883078 0 -0.1155624016166297 0.27126165577105521 0 -0.12872708527658799 0.25991420809329241 0 -0.1155624016166297 0.27126165577105521 0 -0.1083690905562489 0.27746201143443072 0 -0.1155624016166297 0.27126165577105521 0 -0.1196693143642453 0.28329908912575552 0 -0.1083690905562489 0.27746201143443072 0 -0.1155624016166297 0.27126165577105521 0 -0.1098053558875477 0.27272524579145851 0 -0.1083690905562489 0.27746201143443072 0 -0.1155624016166297 0.27126165577105521 0 -0.1083690905562489 0.27746201143443072 0 -0.1202787732923796 0.29457691953651272 0 -0.1003457715998239 0.30392270831765028 0 -0.1083690905562489 0.27746201143443072 0 -0.1196693143642453 0.28329908912575552 0 -0.1202787732923796 0.29457691953651272 0 -0.1202787732923796 0.29457691953651272 0 -0.1173504618646501 0.30916380798395637 0 -0.1003457715998239 0.30392270831765028 0 -0.13170636281121431 0.30540396541675668 0 -0.1202787732923796 0.29457691953651272 0 -0.1173504618646501 0.30916380798395637 0 -0.1173504618646501 0.30916380798395637 0 -0.1003457715998239 0.30392270831765028 0 -0.1081804568928026 0.32074506353771021 0 -0.1083690905562489 0.27746201143443072 0 -0.08834593029567378 0.29472120043351602 0 -0.09206590757372593 0.27740472432850488 0 -0.1083690905562489 0.27746201143443072 0 -0.1003457715998239 0.30392270831765028 0 -0.08834593029567378 0.29472120043351602 0 -0.1083690905562489 0.27746201143443072 0 -0.1003457715998239 0.30392270831765028 0 -0.1083690905562489 0.27746201143443072 0 -0.08834593029567378 0.29472120043351602 0 -0.08834593029567378 0.29472120043351602 0 -0.079344374197139078 0.28508182268507098 0 -0.09206590757372593 0.27740472432850488 0 -0.08834593029567378 0.29472120043351602 0 -0.072463929930227558 0.29930610977545041 0 -0.077617967212061698 0.29366907382828078 0 -0.08834593029567378 0.29472120043351602 0 -0.079344374197139078 0.28508182268507098 0 -0.077617967212061698 0.29366907382828078 0 -0.08834593029567378 0.29472120043351602 0 -0.087527931766016032 0.31235393694025021 0 -0.08121949171140587 0.31012908581564408 0 -0.08834593029567378 0.29472120043351602 0 -0.068322770035098762 0.31198038943260148 0 -0.1003457715998239 0.30392270831765028 0 -0.08834593029567378 0.29472120043351602 0 -0.087527931766016032 0.31235393694025021 0 -0.08834593029567378 0.29472120043351602 0 -0.08121949171140587 0.31012908581564408 0 -0.069852456288818351 0.31207980665071 0 -0.08834593029567378 0.29472120043351602 0 -0.068322770035098762 0.31198038943260148 0 -0.069852456288818351 0.31207980665071 0 -0.08834593029567378 0.29472120043351602 0 -0.072463929930227558 0.29930610977545041 0 -0.068322770035098762 0.31198038943260148 0 -0.072463929930227558 0.29930610977545041 0 -0.064179569528432873 0.29754197169583518 0 -0.063962500348327456 0.30379626580195229 0 -0.072463929930227558 0.29930610977545041 0 -0.063962500348327456 0.30379626580195229 0 -0.068322770035098762 0.31198038943260148 0 -0.068322770035098762 0.31198038943260148 0 -0.069852456288818351 0.31207980665071 0 -0.079344374197139078 0.28508182268507098 0 -0.070510141993048517 0.29225124769799787 0 -0.067485792004003509 0.28106498521306011 0 -0.079344374197139078 0.28508182268507098 0 -0.077617967212061698 0.29366907382828078 0 -0.070510141993048517 0.29225124769799787 0 -0.072463929930227558 0.29930610977545041 0 -0.077617967212061698 0.29366907382828078 0 -0.070510141993048517 0.29225124769799787 0 -0.064179569528432873 0.29754197169583518 0 -0.070510141993048517 0.29225124769799787 0 -0.059799020663136082 0.29068729405280619 0 -0.072463929930227558 0.29930610977545041 0 -0.064179569528432873 0.29754197169583518 0 -0.070510141993048517 0.29225124769799787 0 -0.070510141993048517 0.29225124769799787 0 -0.067485792004003509 0.28106498521306011 0 -0.059799020663136082 0.29068729405280619 0 -0.079344374197139078 0.28508182268507098 0 -0.077112635008727601 0.26938653581869981 0 -0.067485792004003509 0.28106498521306011 0 -0.077112635008727601 0.26938653581869981 0 -0.067485792004003509 0.28106498521306011 0 -0.060296114269721542 0.26705395206363342 0 -0.079344374197139078 0.28508182268507098 0 -0.077112635008727601 0.26938653581869981 0 -0.09206590757372593 0.27740472432850488 0 -0.077112635008727601 0.26938653581869981 0 -0.09206590757372593 0.27740472432850488 0 -0.092391857727521592 0.25884509119311472 0 -0.092391857727521592 0.25884509119311472 0 -0.069221313838413207 0.24642852661517459 0 -0.077112635008727601 0.26938653581869981 0 -0.092391857727521592 0.25884509119311472 0 -0.069221313838413207 0.24642852661517459 0 -0.077112635008727601 0.26938653581869981 0 -0.060296114269721542 0.26705395206363342 0 -0.069221313838413207 0.24642852661517459 0 -0.048126263350958612 0.25465777805589501 0 -0.060296114269721542 0.26705395206363342 0 -0.069221313838413207 0.24642852661517459 0 -0.048126263350958612 0.25465777805589501 0 -0.060296114269721542 0.26705395206363342 0 -0.041784573477856593 0.2719242686623195 0 -0.055384127889045079 0.27986410773994991 0 -0.060296114269721542 0.26705395206363342 0 -0.041784573477856593 0.2719242686623195 0 -0.055384127889045079 0.27986410773994991 0 -0.041784573477856593 0.2719242686623195 0 -0.044370237993260717 0.29032640624232281 0 -0.067485792004003509 0.28106498521306011 0 -0.055384127889045079 0.27986410773994991 0 -0.060296114269721542 0.26705395206363342 0 -0.041784573477856593 0.2719242686623195 0 -0.028053557715267439 0.25838243531431121 0 -0.02550209953536561 0.27186686885002359 0 -0.041784573477856593 0.2719242686623195 0 -0.02550209953536561 0.27186686885002359 0 -0.031040102747703489 0.28267752730564011 0 -0.048126263350958612 0.25465777805589501 0 -0.041784573477856593 0.2719242686623195 0 -0.028053557715267439 0.25838243531431121 0 -0.048126263350958612 0.25465777805589501 0 -0.028053557715267439 0.25838243531431121 0 -0.033382390283993792 0.24359412621706661 0 -0.028053557715267439 0.25838243531431121 0 -0.01504563196256534 0.26333196488375049 0 -0.01778818590069102 0.2421293126167848 0 -0.01504563196256534 0.26333196488375049 0 -0.01778818590069102 0.2421293126167848 0 -0.028053557715267439 0.25838243531431121 0 -0.02550209953536561 0.27186686885002359 0 -0.01504563196256534 0.26333196488375049 0 -0.028053557715267439 0.25838243531431121 0 -0.01504563196256534 0.26333196488375049 0 -0.02550209953536561 0.27186686885002359 0 -0.01214761008608776 0.28573653795517551 0 -0.031040102747703489 0.28267752730564011 0 -0.02550209953536561 0.27186686885002359 0 -0.01504563196256534 0.26333196488375049 0 -0.01214761008608776 0.28573653795517551 0 -0.001267499687089951 0.2776013217203892 0 -0.01504563196256534 0.26333196488375049 0 -0.01214761008608776 0.28573653795517551 0 -0.01504563196256534 0.26333196488375049 0 -0.01214761008608776 0.28573653795517551 0 -0.00067809962666212902 0.26216505597133072 0 -0.01504563196256534 0.26333196488375049 0 0.010965700908337589 0.27322930467739909 0 -0.001267499687089951 0.2776013217203892 0 -0.01504563196256534 0.26333196488375049 0 0.010965700908337589 0.27322930467739909 0 -0.01504563196256534 0.26333196488375049 0 0.010965700908337589 0.27322930467739909 0 -0.0087132352456033638 0.25173417187717928 0 -0.01504563196256534 0.26333196488375049 0 -0.01778818590069102 0.2421293126167848 0 -0.00067809962666212902 0.26216505597133072 0 -0.0087132352456033638 0.25173417187717928 0 0.0027594708259384838 0.25829047161104352 0 -0.00067809962666212902 0.26216505597133072 0 -0.0087132352456033638 0.25173417187717928 0 -0.01504563196256534 0.26333196488375049 0 -0.009249588209606344 0.30814111102660002 0 -0.01214761008608776 0.28573653795517551 0 0.0038021096493471361 0.29689124930627131 0 -0.009249588209606344 0.30814111102660002 0 -0.01214761008608776 0.28573653795517551 0 -0.01214761008608776 0.28573653795517551 0 0.002380999114604244 0.28599596302517022 0 0.0038021096493471361 0.29689124930627131 0 -0.001267499687089951 0.2776013217203892 0 -0.01214761008608776 0.28573653795517551 0 0.002380999114604244 0.28599596302517022 0 -0.009249588209606344 0.30814111102660002 0 -0.01214761008608776 0.28573653795517551 0 -0.02711874363180217 0.2953884665518679 0 -0.01214761008608776 0.28573653795517551 0 -0.031040102747703489 0.28267752730564011 0 -0.02711874363180217 0.2953884665518679 0 -0.009249588209606344 0.30814111102660002 0 -0.02711874363180217 0.2953884665518679 0 -0.038786179122352507 0.31006075022960111 0 -0.009249588209606344 0.30814111102660002 0 -0.038786179122352507 0.31006075022960111 0 -0.02711874363180217 0.2953884665518679 0 -0.038786179122352507 0.31006075022960111 0 -0.044370237993260717 0.29032640624232281 0 -0.038786179122352507 0.31006075022960111 0 -0.044370237993260717 0.29032640624232281 0 -0.054162254707424723 0.30166894115096898 0 -0.031040102747703489 0.28267752730564011 0 -0.02711874363180217 0.2953884665518679 0 -0.044370237993260717 0.29032640624232281 0 -0.041784573477856593 0.2719242686623195 0 -0.031040102747703489 0.28267752730564011 0 -0.044370237993260717 0.29032640624232281 0 -0.055384127889045079 0.27986410773994991 0 -0.044370237993260717 0.29032640624232281 0 -0.059799020663136082 0.29068729405280619 0 -0.044370237993260717 0.29032640624232281 0 -0.059799020663136082 0.29068729405280619 0 -0.054162254707424723 0.30166894115096898 0 -0.064179569528432873 0.29754197169583518 0 -0.059799020663136082 0.29068729405280619 0 -0.054162254707424723 0.30166894115096898 0 -0.067485792004003509 0.28106498521306011 0 -0.055384127889045079 0.27986410773994991 0 -0.059799020663136082 0.29068729405280619 0 -0.068322770035098762 0.31198038943260148 0 -0.038786179122352507 0.31006075022960111 0 -0.068322770035098762 0.31198038943260148 0 -0.038786179122352507 0.31006075022960111 0 -0.054162254707424723 0.30166894115096898 0 -0.064179569528432873 0.29754197169583518 0 -0.063962500348327456 0.30379626580195229 0 -0.054162254707424723 0.30166894115096898 0 -0.063962500348327456 0.30379626580195229 0 -0.068322770035098762 0.31198038943260148 0 -0.054162254707424723 0.30166894115096898 0 -0.068322770035098762 0.31198038943260148 0 -0.038786179122352507 0.31006075022960111 0 -0.053879496619987192 0.32442993198196868 0 -0.068322770035098762 0.31198038943260148 0 -0.053879496619987192 0.32442993198196868 0 -0.059045099567240703 0.33862263320968672 0 -0.059976501396798443 0.34640013057040159 0 -0.068046633572776155 0.34513696516333192 0 -0.053879496619987192 0.32442993198196868 0 -0.059045099567240703 0.33862263320968672 0 -0.06815446288386498 0.3263880450875648 0 -0.053879496619987192 0.32442993198196868 0 -0.059045099567240703 0.33862263320968672 0 -0.049717572699208172 0.33977374392884352 0 -0.053879496619987192 0.32442993198196868 0 -0.049717572699208172 0.33977374392884352 0 -0.039436223204876379 0.33687947453133682 0 -0.059045099567240703 0.33862263320968672 0 -0.049717572699208172 0.33977374392884352 0 -0.052933118771744558 0.34753778728834739 0 -0.049717572699208172 0.33977374392884352 0 -0.039436223204876379 0.33687947453133682 0 -0.045752302425533672 0.34929255203680049 0 -0.053879496619987192 0.32442993198196868 0 -0.039436223204876379 0.33687947453133682 0 -0.039359444206513459 0.32419621080282812 0 -0.053879496619987192 0.32442993198196868 0 -0.039436223204876379 0.33687947453133682 0 -0.039436223204876379 0.33687947453133682 0 -0.039359444206513459 0.32419621080282812 0 -0.02531264429424256 0.33765677836634578 0 -0.039436223204876379 0.33687947453133682 0 -0.02531264429424256 0.33765677836634578 0 -0.034795741464765127 0.3466441775467104 0 -0.038786179122352507 0.31006075022960111 0 -0.053879496619987192 0.32442993198196868 0 -0.039359444206513459 0.32419621080282812 0 -0.038786179122352507 0.31006075022960111 0 -0.039359444206513459 0.32419621080282812 0 -0.024068293084679539 0.32272721199300619 0 -0.009249588209606344 0.30814111102660002 0 -0.038786179122352507 0.31006075022960111 0 -0.024068293084679539 0.32272721199300619 0 -0.024068293084679539 0.32272721199300619 0 -0.02531264429424256 0.33765677836634578 0 -0.005758602284471958 0.33512988219008361 0 -0.039359444206513459 0.32419621080282812 0 -0.024068293084679539 0.32272721199300619 0 -0.02531264429424256 0.33765677836634578 0 -0.005758602284471958 0.33512988219008361 0 -0.0077202170519437719 0.34710906184019069 0 0.0082446038140756572 0.34376242611402219 0 -0.02531264429424256 0.33765677836634578 0 -0.005758602284471958 0.33512988219008361 0 -0.0077202170519437719 0.34710906184019069 0 -0.009249588209606344 0.30814111102660002 0 -0.005758602284471958 0.33512988219008361 0 0.0094307060340404689 0.32376070079746733 0 -0.009249588209606344 0.30814111102660002 0 -0.005758602284471958 0.33512988219008361 0 -0.009249588209606344 0.30814111102660002 0 -0.024068293084679539 0.32272721199300619 0 -0.005758602284471958 0.33512988219008361 0 -0.0045677851665312944 0.36532665559408428 0 -0.0087141207398781558 0.37710904293520409 0 0.0077169544749549623 0.36306791211952738 0 -0.0045677851665312944 0.36532665559408428 0 -0.019623601183504629 0.35541479533684739 0 -0.0087141207398781558 0.37710904293520409 0 -0.0087141207398781558 0.37710904293520409 0 0.0077169544749549623 0.36306791211952738 0 -0.0077202170519437719 0.34710906184019069 0 -0.019623601183504629 0.35541479533684739 0 0.0038095970876644218 0.35606187191015221 0 -0.019623601183504629 0.35541479533684739 0 0.0038095970876644218 0.35606187191015221 0 -0.0045677851665312944 0.36532665559408428 0 -0.019623601183504629 0.35541479533684739 0 0.0038095970876644218 0.35606187191015221 0 -0.02531264429424256 0.33765677836634578 0 -0.019623601183504629 0.35541479533684739 0 -0.034795741464765127 0.3466441775467104 0 -0.02531264429424256 0.33765677836634578 0 -0.0077202170519437719 0.34710906184019069 0 -0.019623601183504629 0.35541479533684739 0 -0.019623601183504629 0.35541479533684739 0 -0.034100997704691827 0.37295894625721099 0 -0.0087141207398781558 0.37710904293520409 0 -0.019623601183504629 0.35541479533684739 0 -0.034100997704691827 0.37295894625721099 0 -0.043056799454673583 0.35476771876354157 0 -0.034100997704691827 0.37295894625721099 0 -0.047131069669461997 0.36807368878450081 0 -0.054593457040109393 0.3822816536988497 0 -0.034100997704691827 0.37295894625721099 0 -0.043056799454673583 0.35476771876354157 0 -0.034100997704691827 0.37295894625721099 0 -0.043056799454673583 0.35476771876354157 0 -0.047131069669461997 0.36807368878450081 0 -0.019623601183504629 0.35541479533684739 0 -0.043056799454673583 0.35476771876354157 0 -0.019623601183504629 0.35541479533684739 0 -0.034795741464765127 0.3466441775467104 0 -0.043056799454673583 0.35476771876354157 0 -0.043056799454673583 0.35476771876354157 0 -0.045752302425533672 0.34929255203680049 0 -0.039436223204876379 0.33687947453133682 0 -0.034795741464765127 0.3466441775467104 0 -0.045752302425533672 0.34929255203680049 0 -0.034795741464765127 0.3466441775467104 0 -0.043056799454673583 0.35476771876354157 0 -0.045752302425533672 0.34929255203680049 0 -0.043056799454673583 0.35476771876354157 0 -0.052933118771744558 0.34753778728834739 0 -0.059881153675432383 0.35430313662024071 0 -0.043056799454673583 0.35476771876354157 0 -0.059881153675432383 0.35430313662024071 0 -0.051828064233363932 0.36038047858465339 0 -0.043056799454673583 0.35476771876354157 0 -0.059881153675432383 0.35430313662024071 0 -0.043056799454673583 0.35476771876354157 0 -0.045752302425533672 0.34929255203680049 0 -0.052933118771744558 0.34753778728834739 0 -0.049717572699208172 0.33977374392884352 0 -0.045752302425533672 0.34929255203680049 0 -0.052933118771744558 0.34753778728834739 0 -0.059881153675432383 0.35430313662024071 0 -0.051828064233363932 0.36038047858465339 0 -0.058626870601395778 0.36023180910453118 0 -0.059045099567240703 0.33862263320968672 0 -0.052933118771744558 0.34753778728834739 0 -0.059976501396798443 0.34640013057040159 0 -0.052933118771744558 0.34753778728834739 0 -0.059881153675432383 0.35430313662024071 0 -0.059976501396798443 0.34640013057040159 0 -0.047131069669461997 0.36807368878450081 0 -0.054116187566776573 0.36544526432200969 0 -0.058148679921659119 0.37186744297544022 0 -0.047131069669461997 0.36807368878450081 0 -0.058148679921659119 0.37186744297544022 0 -0.054593457040109393 0.3822816536988497 0 -0.043056799454673583 0.35476771876354157 0 -0.047131069669461997 0.36807368878450081 0 -0.051828064233363932 0.36038047858465339 0 -0.047131069669461997 0.36807368878450081 0 -0.051828064233363932 0.36038047858465339 0 -0.054116187566776573 0.36544526432200969 0 -0.054116187566776573 0.36544526432200969 0 -0.058626870601395778 0.36023180910453118 0 -0.058148679921659119 0.37186744297544022 0 -0.051828064233363932 0.36038047858465339 0 -0.054116187566776573 0.36544526432200969 0 -0.058626870601395778 0.36023180910453118 0 -0.058626870601395778 0.36023180910453118 0 -0.058148679921659119 0.37186744297544022 0 -0.076275814730551866 0.38330479896731001 0 -0.058626870601395778 0.36023180910453118 0 -0.071157696118109362 0.36170448025062218 0 -0.076275814730551866 0.38330479896731001 0 -0.071157696118109362 0.36170448025062218 0 -0.084299133686975572 0.35684410208409001 0 -0.076275814730551866 0.38330479896731001 0 -0.058626870601395778 0.36023180910453118 0 -0.076275814730551866 0.38330479896731001 0 -0.084299133686975572 0.35684410208409001 0 -0.089436666146690338 0.3774527594588406 0 -0.076275814730551866 0.38330479896731001 0 -0.084299133686975572 0.35684410208409001 0 -0.076275814730551866 0.38330479896731001 0 -0.093494049974744503 0.36523362229143391 0 -0.084299133686975572 0.35684410208409001 0 -0.089436666146690338 0.3774527594588406 0 -0.084299133686975572 0.35684410208409001 0 -0.076705507896191183 0.35383855447693902 0 -0.080753986599573127 0.33990497651870988 0 -0.084299133686975572 0.35684410208409001 0 -0.092322452643399749 0.33038340520087017 0 -0.095141502753968779 0.35097174187852381 0 -0.093494049974744503 0.36523362229143391 0 -0.084299133686975572 0.35684410208409001 0 -0.095141502753968779 0.35097174187852381 0 -0.059881153675432383 0.35430313662024071 0 -0.071157696118109362 0.36170448025062218 0 -0.076705507896191183 0.35383855447693902 0 -0.076705507896191183 0.35383855447693902 0 -0.068046633572776155 0.34513696516333192 0 -0.080753986599573127 0.33990497651870988 0 -0.059881153675432383 0.35430313662024071 0 -0.076705507896191183 0.35383855447693902 0 -0.068046633572776155 0.34513696516333192 0 -0.059881153675432383 0.35430313662024071 0 -0.076705507896191183 0.35383855447693902 0 -0.071157696118109362 0.36170448025062218 0 -0.084299133686975572 0.35684410208409001 0 -0.076705507896191183 0.35383855447693902 0 -0.059881153675432383 0.35430313662024071 0 -0.058626870601395778 0.36023180910453118 0 -0.071157696118109362 0.36170448025062218 0 -0.059881153675432383 0.35430313662024071 0 -0.059976501396798443 0.34640013057040159 0 -0.068046633572776155 0.34513696516333192 0 -0.06815446288386498 0.3263880450875648 0 -0.079151648495115301 0.32136139923810009 0 -0.080753986599573127 0.33990497651870988 0 -0.068046633572776155 0.34513696516333192 0 -0.06815446288386498 0.3263880450875648 0 -0.080753986599573127 0.33990497651870988 0 -0.059045099567240703 0.33862263320968672 0 -0.068046633572776155 0.34513696516333192 0 -0.06815446288386498 0.3263880450875648 0 -0.068322770035098762 0.31198038943260148 0 -0.069852456288818351 0.31207980665071 0 -0.06815446288386498 0.3263880450875648 0 -0.068322770035098762 0.31198038943260148 0 -0.053879496619987192 0.32442993198196868 0 -0.06815446288386498 0.3263880450875648 0 -0.08121949171140587 0.31012908581564408 0 -0.069852456288818351 0.31207980665071 0 -0.079151648495115301 0.32136139923810009 0 -0.069852456288818351 0.31207980665071 0 -0.06815446288386498 0.3263880450875648 0 -0.079151648495115301 0.32136139923810009 0 -0.087527931766016032 0.31235393694025021 0 -0.079151648495115301 0.32136139923810009 0 -0.092322452643399749 0.33038340520087017 0 -0.1003457715998239 0.30392270831765028 0 -0.087527931766016032 0.31235393694025021 0 -0.092322452643399749 0.33038340520087017 0 -0.087527931766016032 0.31235393694025021 0 -0.08121949171140587 0.31012908581564408 0 -0.079151648495115301 0.32136139923810009 0 -0.084299133686975572 0.35684410208409001 0 -0.092322452643399749 0.33038340520087017 0 -0.079151648495115301 0.32136139923810009 0 -0.092322452643399749 0.33038340520087017 0 -0.080753986599573127 0.33990497651870988 0 -0.084299133686975572 0.35684410208409001 0 -0.092322452643399749 0.33038340520087017 0 -0.080753986599573127 0.33990497651870988 0 -0.092322452643399749 0.33038340520087017 0 -0.10472406897533799 0.34168768652513631 0 -0.095141502753968779 0.35097174187852381 0 -0.092322452643399749 0.33038340520087017 0 -0.10472406897533799 0.34168768652513631 0 -0.1081804568928026 0.32074506353771021 0 -0.1003457715998239 0.30392270831765028 0 -0.092322452643399749 0.33038340520087017 0 -0.1003457715998239 0.30392270831765028 0 -0.092322452643399749 0.33038340520087017 0 -0.1081804568928026 0.32074506353771021 0 -0.1262409447270301 0.3211703831111522 0 -0.1173504618646501 0.30916380798395637 0 -0.1081804568928026 0.32074506353771021 0 -0.1262409447270301 0.3211703831111522 0 -0.1081804568928026 0.32074506353771021 0 -0.1175879007316586 0.33497855513245622 0 -0.13367478836053351 0.33932016938713638 0 -0.1175879007316586 0.33497855513245622 0 -0.1173066256070304 0.35104950557859033 0 -0.10472406897533799 0.34168768652513631 0 -0.1081804568928026 0.32074506353771021 0 -0.1175879007316586 0.33497855513245622 0 -0.10472406897533799 0.34168768652513631 0 -0.1175879007316586 0.33497855513245622 0 -0.1173066256070304 0.35104950557859033 0 -0.1173066256070304 0.35104950557859033 0 -0.1198206075896991 0.37069234566290138 0 -0.1030551893938276 0.35978992576853291 0 -0.1367685514822152 0.35851885971508118 0 -0.1173066256070304 0.35104950557859033 0 -0.1198206075896991 0.37069234566290138 0 -0.1198206075896991 0.37069234566290138 0 -0.1030551893938276 0.35978992576853291 0 -0.10026372758235801 0.37465761506622741 0 -0.093494049974744503 0.36523362229143391 0 -0.10026372758235801 0.37465761506622741 0 -0.089436666146690338 0.3774527594588406 0 -0.093494049974744503 0.36523362229143391 0 -0.1030551893938276 0.35978992576853291 0 -0.10026372758235801 0.37465761506622741 0 -0.10472406897533799 0.34168768652513631 0 -0.1030551893938276 0.35978992576853291 0 -0.095141502753968779 0.35097174187852381 0 -0.093494049974744503 0.36523362229143391 0 -0.1030551893938276 0.35978992576853291 0 -0.095141502753968779 0.35097174187852381 0 -0.10472406897533799 0.34168768652513631 0 -0.1173066256070304 0.35104950557859033 0 -0.1030551893938276 0.35978992576853291 0 -0.101128536279416 0.3977608810528192 0 -0.11378235269799521 0.38746486633725291 0 -0.11258596611237601 0.40408595479252452 0 -0.101128536279416 0.3977608810528192 0 -0.095244926421122186 0.38729621463576269 0 -0.11378235269799521 0.38746486633725291 0 -0.101128536279416 0.3977608810528192 0 -0.11258596611237601 0.40408595479252452 0 -0.097808874238227678 0.41145560844912898 0 -0.101128536279416 0.3977608810528192 0 -0.097808874238227678 0.41145560844912898 0 -0.087042344484389883 0.39738020370821953 0 -0.101128536279416 0.3977608810528192 0 -0.095244926421122186 0.38729621463576269 0 -0.087042344484389883 0.39738020370821953 0 -0.10026372758235801 0.37465761506622741 0 -0.095244926421122186 0.38729621463576269 0 -0.11378235269799521 0.38746486633725291 0 -0.10026372758235801 0.37465761506622741 0 -0.095244926421122186 0.38729621463576269 0 -0.089436666146690338 0.3774527594588406 0 -0.1198206075896991 0.37069234566290138 0 -0.10026372758235801 0.37465761506622741 0 -0.11378235269799521 0.38746486633725291 0 -0.12826940643264259 0.38638828685515292 0 -0.1198206075896991 0.37069234566290138 0 -0.11378235269799521 0.38746486633725291 0 -0.12644786621320531 0.40058001872868543 0 -0.12826940643264259 0.38638828685515292 0 -0.11378235269799521 0.38746486633725291 0 -0.12761284081938409 0.41418542740570108 0 -0.11378235269799521 0.38746486633725291 0 -0.12761284081938409 0.41418542740570108 0 -0.12644786621320531 0.40058001872868543 0 -0.11378235269799521 0.38746486633725291 0 -0.12761284081938409 0.41418542740570108 0 -0.11378235269799521 0.38746486633725291 0 -0.11258596611237601 0.40408595479252452 0 -0.12761284081938409 0.41418542740570108 0 -0.11258596611237601 0.40408595479252452 0 -0.097808874238227678 0.41145560844912898 0 -0.12761284081938409 0.41418542740570108 0 -0.1126245701039178 0.4308246085444013 0 -0.097808874238227678 0.41145560844912898 0 -0.12761284081938409 0.41418542740570108 0 -0.097808874238227678 0.41145560844912898 0 -0.12761284081938409 0.41418542740570108 0 -0.1126245701039178 0.4308246085444013 0 -0.1242648033483075 0.43981492828754482 0 -0.1126245701039178 0.4308246085444013 0 -0.096605527178418776 0.42311346390882398 0 -0.097170403390676049 0.43571281837191522 0 -0.1126245701039178 0.4308246085444013 0 -0.097170403390676049 0.43571281837191522 0 -0.10338783084247161 0.44098956532991213 0 -0.1126245701039178 0.4308246085444013 0 -0.097808874238227678 0.41145560844912898 0 -0.1126245701039178 0.4308246085444013 0 -0.096605527178418776 0.42311346390882398 0 -0.097808874238227678 0.41145560844912898 0 -0.096605527178418776 0.42311346390882398 0 -0.097808874238227678 0.41145560844912898 0 -0.090623427087895073 0.41079747558654428 0 -0.097808874238227678 0.41145560844912898 0 -0.090623427087895073 0.41079747558654428 0 -0.096605527178418776 0.42311346390882398 0 -0.090623427087895073 0.41079747558654428 0 -0.084800361071377284 0.4267768085921303 0 -0.090623427087895073 0.41079747558654428 0 -0.084347825254610875 0.40943513047528779 0 -0.084800361071377284 0.4267768085921303 0 -0.084800361071377284 0.4267768085921303 0 -0.074925168374781331 0.40278603401425761 0 -0.084347825254610875 0.40943513047528779 0 -0.084800361071377284 0.4267768085921303 0 -0.074925168374781331 0.40278603401425761 0 -0.097808874238227678 0.41145560844912898 0 -0.090623427087895073 0.41079747558654428 0 -0.087042344484389883 0.39738020370821953 0 -0.096605527178418776 0.42311346390882398 0 -0.097170403390676049 0.43571281837191522 0 -0.084800361071377284 0.4267768085921303 0 -0.084800361071377284 0.4267768085921303 0 -0.077689053426030094 0.43734830183904833 0 -0.073740177733494089 0.43015549729097768 0 -0.084800361071377284 0.4267768085921303 0 -0.077689053426030094 0.43734830183904833 0 -0.085627028266785254 0.44117175463919189 0 -0.077689053426030094 0.43734830183904833 0 -0.073740177733494089 0.43015549729097768 0 -0.069373851585076945 0.43677151010665521 0 -0.084800361071377284 0.4267768085921303 0 -0.073740177733494089 0.43015549729097768 0 -0.074963529381557356 0.42372471124402672 0 -0.084800361071377284 0.4267768085921303 0 -0.074963529381557356 0.42372471124402672 0 -0.074207610301873977 0.415826985147286 0 -0.073740177733494089 0.43015549729097768 0 -0.07134827269677288 0.42521816639912852 0 -0.067010261651664849 0.42692585223643509 0 -0.073740177733494089 0.43015549729097768 0 -0.074963529381557356 0.42372471124402672 0 -0.07134827269677288 0.42521816639912852 0 -0.074963529381557356 0.42372471124402672 0 -0.07134827269677288 0.42521816639912852 0 -0.069903249343569923 0.42035209495099629 0 -0.06803153127557314 0.42418340705062968 0 -0.063864341410284964 0.42423751461595932 0 -0.069903249343569923 0.42035209495099629 0 -0.07134827269677288 0.42521816639912852 0 -0.06803153127557314 0.42418340705062968 0 -0.067010261651664849 0.42692585223643509 0 -0.07134827269677288 0.42521816639912852 0 -0.06803153127557314 0.42418340705062968 0 -0.069903249343569923 0.42035209495099629 0 -0.06803153127557314 0.42418340705062968 0 -0.063864341410284964 0.42423751461595932 0 -0.067010261651664849 0.42692585223643509 0 -0.063864341410284964 0.42423751461595932 0 -0.067010261651664849 0.42692585223643509 0 -0.067010261651664849 0.42692585223643509 0 -0.06657591115514655 0.43192586875325267 0 -0.062357688865182517 0.42920641545622512 0 -0.063864341410284964 0.42423751461595932 0 -0.067010261651664849 0.42692585223643509 0 -0.062357688865182517 0.42920641545622512 0 -0.063864341410284964 0.42423751461595932 0 -0.062357688865182517 0.42920641545622512 0 -0.073740177733494089 0.43015549729097768 0 -0.067010261651664849 0.42692585223643509 0 -0.06657591115514655 0.43192586875325267 0 -0.073740177733494089 0.43015549729097768 0 -0.06657591115514655 0.43192586875325267 0 -0.069373851585076945 0.43677151010665521 0 -0.06657591115514655 0.43192586875325267 0 -0.062750456602468974 0.43554137489064498 0 -0.062357688865182517 0.42920641545622512 0 -0.06657591115514655 0.43192586875325267 0 -0.062750456602468974 0.43554137489064498 0 -0.069373851585076945 0.43677151010665521 0 -0.063864341410284964 0.42423751461595932 0 -0.069903249343569923 0.42035209495099629 0 -0.070070078070418332 0.40377115679163461 0 -0.074207610301873977 0.415826985147286 0 -0.069903249343569923 0.42035209495099629 0 -0.070070078070418332 0.40377115679163461 0 -0.063864341410284964 0.42423751461595932 0 -0.070070078070418332 0.40377115679163461 0 -0.058881304157308093 0.40804381518971672 0 -0.063864341410284964 0.42423751461595932 0 -0.070070078070418332 0.40377115679163461 0 -0.084800361071377284 0.4267768085921303 0 -0.074207610301873977 0.415826985147286 0 -0.074925168374781331 0.40278603401425761 0 -0.074207610301873977 0.415826985147286 0 -0.070070078070418332 0.40377115679163461 0 -0.074925168374781331 0.40278603401425761 0 -0.074963529381557356 0.42372471124402672 0 -0.074207610301873977 0.415826985147286 0 -0.069903249343569923 0.42035209495099629 0 -0.070070078070418332 0.40377115679163461 0 -0.064506344576777661 0.39145758865641178 0 -0.076275814730551866 0.38330479896731001 0 -0.070070078070418332 0.40377115679163461 0 -0.074925168374781331 0.40278603401425761 0 -0.076275814730551866 0.38330479896731001 0 -0.070070078070418332 0.40377115679163461 0 -0.076275814730551866 0.38330479896731001 0 -0.070070078070418332 0.40377115679163461 0 -0.064506344576777661 0.39145758865641178 0 -0.057086028466031037 0.39647274516785291 0 -0.074925168374781331 0.40278603401425761 0 -0.087042344484389883 0.39738020370821953 0 -0.076275814730551866 0.38330479896731001 0 -0.084347825254610875 0.40943513047528779 0 -0.074925168374781331 0.40278603401425761 0 -0.087042344484389883 0.39738020370821953 0 -0.097808874238227678 0.41145560844912898 0 -0.087042344484389883 0.39738020370821953 0 -0.090623427087895073 0.41079747558654428 0 -0.084347825254610875 0.40943513047528779 0 -0.087042344484389883 0.39738020370821953 0 -0.087042344484389883 0.39738020370821953 0 -0.089436666146690338 0.3774527594588406 0 -0.076275814730551866 0.38330479896731001 0 -0.095244926421122186 0.38729621463576269 0 -0.087042344484389883 0.39738020370821953 0 -0.089436666146690338 0.3774527594588406 0 -0.087042344484389883 0.39738020370821953 0 -0.076275814730551866 0.38330479896731001 0 -0.064506344576777661 0.39145758865641178 0 -0.076275814730551866 0.38330479896731001 0 -0.054593457040109393 0.3822816536988497 0 -0.058148679921659119 0.37186744297544022 0 -0.076275814730551866 0.38330479896731001 0 -0.054593457040109393 0.3822816536988497 0 -0.064506344576777661 0.39145758865641178 0 -0.054593457040109393 0.3822816536988497 0 -0.057086028466031037 0.39647274516785291 0 -0.054593457040109393 0.3822816536988497 0 -0.057086028466031037 0.39647274516785291 0 -0.042391572779214973 0.39096282696345341 0 -0.057086028466031037 0.39647274516785291 0 -0.042391572779214973 0.39096282696345341 0 -0.044504768682498037 0.40769384418342008 0 -0.070070078070418332 0.40377115679163461 0 -0.057086028466031037 0.39647274516785291 0 -0.058881304157308093 0.40804381518971672 0 -0.057086028466031037 0.39647274516785291 0 -0.044504768682498037 0.40769384418342008 0 -0.058881304157308093 0.40804381518971672 0 -0.02514519595471108 0.39115017375088101 0 -0.044504768682498037 0.40769384418342008 0 -0.042391572779214973 0.39096282696345341 0 -0.02514519595471108 0.39115017375088101 0 -0.044504768682498037 0.40769384418342008 0 -0.034100997704691827 0.37295894625721099 0 -0.054593457040109393 0.3822816536988497 0 -0.042391572779214973 0.39096282696345341 0 -0.034100997704691827 0.37295894625721099 0 -0.042391572779214973 0.39096282696345341 0 -0.02514519595471108 0.39115017375088101 0 -0.034100997704691827 0.37295894625721099 0 -0.02514519595471108 0.39115017375088101 0 -0.034100997704691827 0.37295894625721099 0 -0.02514519595471108 0.39115017375088101 0 -0.0087141207398781558 0.37710904293520409 0 -0.02514519595471108 0.39115017375088101 0 -0.0087141207398781558 0.37710904293520409 0 -0.02514519595471108 0.39115017375088101 0 -0.014810785045769751 0.41214166341376801 0 -0.02514519595471108 0.39115017375088101 0 -0.014810785045769751 0.41214166341376801 0 -0.044504768682498037 0.40769384418342008 0 -0.0068648610501423502 0.39382000907293813 0 -0.014810785045769751 0.41214166341376801 0 0.0046995574085186929 0.41194005205042061 0 -0.02514519595471108 0.39115017375088101 0 -0.0068648610501423502 0.39382000907293813 0 -0.014810785045769751 0.41214166341376801 0 -0.02514519595471108 0.39115017375088101 0 -0.0068648610501423502 0.39382000907293813 0 -0.0087141207398781558 0.37710904293520409 0 -0.0068648610501423502 0.39382000907293813 0 -0.0087141207398781558 0.37710904293520409 0 0.0053185270157129726 0.37689571945341471 0 -0.0044763741368290672 0.43313315307665529 0 -0.014810785045769751 0.41214166341376801 0 -0.0044763741368290672 0.43313315307665529 0 -0.014810785045769751 0.41214166341376801 0 -0.026116443713473419 0.4246575807879529 0 -0.0044763741368290672 0.43313315307665529 0 -0.014810785045769751 0.41214166341376801 0 0.0046995574085186929 0.41194005205042061 0 -0.014810785045769751 0.41214166341376801 0 -0.026116443713473419 0.4246575807879529 0 -0.044504768682498037 0.40769384418342008 0 -0.0044763741368290672 0.43313315307665529 0 -0.026116443713473419 0.4246575807879529 0 -0.02623027688729573 0.44118750916919391 0 -0.026116443713473419 0.4246575807879529 0 -0.040560013814974517 0.42913173409672722 0 -0.02623027688729573 0.44118750916919391 0 -0.040560013814974517 0.42913173409672722 0 -0.048293098329248912 0.43867666423002288 0 -0.039090066940739521 0.44352471403713711 0 -0.026116443713473419 0.4246575807879529 0 -0.040560013814974517 0.42913173409672722 0 -0.044504768682498037 0.40769384418342008 0 -0.040560013814974517 0.42913173409672722 0 -0.044504768682498037 0.40769384418342008 0 -0.051886787429848112 0.42350176277299723 0 -0.063864341410284964 0.42423751461595932 0 -0.044504768682498037 0.40769384418342008 0 -0.058881304157308093 0.40804381518971672 0 -0.063864341410284964 0.42423751461595932 0 -0.044504768682498037 0.40769384418342008 0 -0.051886787429848112 0.42350176277299723 0 -0.063864341410284964 0.42423751461595932 0 -0.044504768682498037 0.40769384418342008 0 -0.053936434918908913 0.43159717611494758 0 -0.057641003333182179 0.44086754716312743 0 -0.048293098329248912 0.43867666423002288 0 -0.040560013814974517 0.42913173409672722 0 -0.053936434918908913 0.43159717611494758 0 -0.048293098329248912 0.43867666423002288 0 -0.040560013814974517 0.42913173409672722 0 -0.053936434918908913 0.43159717611494758 0 -0.051886787429848112 0.42350176277299723 0 -0.053936434918908913 0.43159717611494758 0 -0.051886787429848112 0.42350176277299723 0 -0.062357688865182517 0.42920641545622512 0 -0.063864341410284964 0.42423751461595932 0 -0.051886787429848112 0.42350176277299723 0 -0.062357688865182517 0.42920641545622512 0 -0.062750456602468974 0.43554137489064498 0 -0.053936434918908913 0.43159717611494758 0 -0.062357688865182517 0.42920641545622512 0 -0.062750456602468974 0.43554137489064498 0 -0.053936434918908913 0.43159717611494758 0 -0.057641003333182179 0.44086754716312743 0 -0.062750456602468974 0.43554137489064498 0 -0.057641003333182179 0.44086754716312743 0 -0.065491549478626135 0.44200233464982802 0 -0.057641003333182179 0.44086754716312743 0 -0.062398417199954148 0.4499603094023914 0 -0.065491549478626135 0.44200233464982802 0 -0.057641003333182179 0.44086754716312743 0 -0.062398417199954148 0.4499603094023914 0 -0.050237972638439453 0.44826214973817502 0 -0.057641003333182179 0.44086754716312743 0 -0.050237972638439453 0.44826214973817502 0 -0.048293098329248912 0.43867666423002288 0 -0.062398417199954148 0.4499603094023914 0 -0.050230730183752688 0.46259696058471089 0 -0.064501224992871267 0.46542691543905351 0 -0.062398417199954148 0.4499603094023914 0 -0.050237972638439453 0.44826214973817502 0 -0.050230730183752688 0.46259696058471089 0 -0.050230730183752688 0.46259696058471089 0 -0.035748626011326709 0.45858167758110602 0 -0.046040344352481867 0.47841272498986082 0 -0.050237972638439453 0.44826214973817502 0 -0.050230730183752688 0.46259696058471089 0 -0.035748626011326709 0.45858167758110602 0 -0.035748626011326709 0.45858167758110602 0 -0.039090066940739521 0.44352471403713711 0 -0.02623027688729573 0.44118750916919391 0 -0.050237972638439453 0.44826214973817502 0 -0.048293098329248912 0.43867666423002288 0 -0.039090066940739521 0.44352471403713711 0 -0.050237972638439453 0.44826214973817502 0 -0.035748626011326709 0.45858167758110602 0 -0.039090066940739521 0.44352471403713711 0 -0.040560013814974517 0.42913173409672722 0 -0.039090066940739521 0.44352471403713711 0 -0.02623027688729573 0.44118750916919391 0 -0.035748626011326709 0.45858167758110602 0 -0.02623027688729573 0.44118750916919391 0 -0.01728298942402769 0.45556140426229003 0 -0.0044763741368290672 0.43313315307665529 0 -0.02623027688729573 0.44118750916919391 0 -0.01728298942402769 0.45556140426229003 0 -0.035748626011326709 0.45858167758110602 0 -0.01728298942402769 0.45556140426229003 0 -0.022784747477638551 0.4775754860453762 0 -0.01728298942402769 0.45556140426229003 0 -0.0062093312902834459 0.46527566221073008 0 0.006403582431216831 0.45126676372832991 0 -0.01728298942402769 0.45556140426229003 0 -0.0062093312902834459 0.46527566221073008 0 -0.022784747477638551 0.4775754860453762 0 -0.0044763741368290672 0.43313315307665529 0 -0.01728298942402769 0.45556140426229003 0 0.006403582431216831 0.45126676372832991 0 -0.0062093312902834459 0.46527566221073008 0 -0.022784747477638551 0.4775754860453762 0 0.0095498935665802413 0.47810272379952351 0 -0.022784747477638551 0.4775754860453762 0 -0.021427984417146221 0.5 0 0.0095498935665802413 0.47810272379952351 0 -0.021427984417146221 0.5 0 0.0095498935665802413 0.47810272379952351 0 0.0086042794582089632 0.5 0 -0.022784747477638551 0.4775754860453762 0 -0.021427984417146221 0.5 0 -0.046040344352481867 0.47841272498986082 0 -0.021427984417146221 0.5 0 -0.046040344352481867 0.47841272498986082 0 -0.051460248292501398 0.5 0 -0.035748626011326709 0.45858167758110602 0 -0.022784747477638551 0.4775754860453762 0 -0.046040344352481867 0.47841272498986082 0 -0.046040344352481867 0.47841272498986082 0 -0.067939054777113927 0.48291587414950521 0 -0.064501224992871267 0.46542691543905351 0 -0.050230730183752688 0.46259696058471089 0 -0.046040344352481867 0.47841272498986082 0 -0.064501224992871267 0.46542691543905351 0 -0.046040344352481867 0.47841272498986082 0 -0.051460248292501398 0.5 0 -0.067939054777113927 0.48291587414950521 0 -0.051460248292501398 0.5 0 -0.081492512167856565 0.50000000000000011 0 -0.067939054777113927 0.48291587414950521 0 -0.081492512167856565 0.50000000000000011 0 -0.085878896958769185 0.47675925450649242 0 -0.067939054777113927 0.48291587414950521 0 -0.081492512167856565 0.50000000000000011 0 -0.085878896958769185 0.47675925450649242 0 -0.099362977551805121 0.48745008538217821 0 -0.081492512167856565 0.50000000000000011 0 -0.085878896958769185 0.47675925450649242 0 -0.085878896958769185 0.47675925450649242 0 -0.075452149305044958 0.46933040044586682 0 -0.067939054777113927 0.48291587414950521 0 -0.075452149305044958 0.46933040044586682 0 -0.067939054777113927 0.48291587414950521 0 -0.064501224992871267 0.46542691543905351 0 -0.064501224992871267 0.46542691543905351 0 -0.075214053997903707 0.45912990264989012 0 -0.070315415620740368 0.45334812155980347 0 -0.062398417199954148 0.4499603094023914 0 -0.064501224992871267 0.46542691543905351 0 -0.070315415620740368 0.45334812155980347 0 -0.075214053997903707 0.45912990264989012 0 -0.070315415620740368 0.45334812155980347 0 -0.081419329692844739 0.44979703694502599 0 -0.075452149305044958 0.46933040044586682 0 -0.064501224992871267 0.46542691543905351 0 -0.075214053997903707 0.45912990264989012 0 -0.075452149305044958 0.46933040044586682 0 -0.075214053997903707 0.45912990264989012 0 -0.082509194984251868 0.46007906520350089 0 -0.069373851585076945 0.43677151010665521 0 -0.065491549478626135 0.44200233464982802 0 -0.073041418115067244 0.44511613748665291 0 -0.062750456602468974 0.43554137489064498 0 -0.069373851585076945 0.43677151010665521 0 -0.065491549478626135 0.44200233464982802 0 -0.062398417199954148 0.4499603094023914 0 -0.065491549478626135 0.44200233464982802 0 -0.073041418115067244 0.44511613748665291 0 -0.062398417199954148 0.4499603094023914 0 -0.070315415620740368 0.45334812155980347 0 -0.073041418115067244 0.44511613748665291 0 -0.070315415620740368 0.45334812155980347 0 -0.073041418115067244 0.44511613748665291 0 -0.081419329692844739 0.44979703694502599 0 -0.073041418115067244 0.44511613748665291 0 -0.07941018481149445 0.44345804230003222 0 -0.081419329692844739 0.44979703694502599 0 -0.077689053426030094 0.43734830183904833 0 -0.069373851585076945 0.43677151010665521 0 -0.073041418115067244 0.44511613748665291 0 -0.077689053426030094 0.43734830183904833 0 -0.073041418115067244 0.44511613748665291 0 -0.07941018481149445 0.44345804230003222 0 -0.097170403390676049 0.43571281837191522 0 -0.084800361071377284 0.4267768085921303 0 -0.094675553767973264 0.45076758317000298 0 -0.084800361071377284 0.4267768085921303 0 -0.094675553767973264 0.45076758317000298 0 -0.084800361071377284 0.4267768085921303 0 -0.085627028266785254 0.44117175463919189 0 -0.094675553767973264 0.45076758317000298 0 -0.085627028266785254 0.44117175463919189 0 -0.07941018481149445 0.44345804230003222 0 -0.081419329692844739 0.44979703694502599 0 -0.077689053426030094 0.43734830183904833 0 -0.085627028266785254 0.44117175463919189 0 -0.07941018481149445 0.44345804230003222 0 -0.085627028266785254 0.44117175463919189 0 -0.081419329692844739 0.44979703694502599 0 -0.088082484801868088 0.44854024150695748 0 -0.081419329692844739 0.44979703694502599 0 -0.086047819819581178 0.45134535453790131 0 -0.088082484801868088 0.44854024150695748 0 -0.085627028266785254 0.44117175463919189 0 -0.088082484801868088 0.44854024150695748 0 -0.094675553767973264 0.45076758317000298 0 -0.086047819819581178 0.45134535453790131 0 -0.088082484801868088 0.44854024150695748 0 -0.090265281749681819 0.45351850901298468 0 -0.088082484801868088 0.44854024150695748 0 -0.090265281749681819 0.45351850901298468 0 -0.094675553767973264 0.45076758317000298 0 -0.085878896958769185 0.47675925450649242 0 -0.075452149305044958 0.46933040044586682 0 -0.082509194984251868 0.46007906520350089 0 -0.085878896958769185 0.47675925450649242 0 -0.090265281749681819 0.45351850901298468 0 -0.085878896958769185 0.47675925450649242 0 -0.090265281749681819 0.45351850901298468 0 -0.093944937474792503 0.46462082789344678 0 -0.085878896958769185 0.47675925450649242 0 -0.082509194984251868 0.46007906520350089 0 -0.090265281749681819 0.45351850901298468 0 -0.081419329692844739 0.44979703694502599 0 -0.086047819819581178 0.45134535453790131 0 -0.082509194984251868 0.46007906520350089 0 -0.075214053997903707 0.45912990264989012 0 -0.081419329692844739 0.44979703694502599 0 -0.082509194984251868 0.46007906520350089 0 -0.090265281749681819 0.45351850901298468 0 -0.093944937474792503 0.46462082789344678 0 -0.094675553767973264 0.45076758317000298 0 -0.086047819819581178 0.45134535453790131 0 -0.082509194984251868 0.46007906520350089 0 -0.090265281749681819 0.45351850901298468 0 -0.093944937474792503 0.46462082789344678 0 -0.094675553767973264 0.45076758317000298 0 -0.1045507464645692 0.47475835774787573 0 -0.094675553767973264 0.45076758317000298 0 -0.1045507464645692 0.47475835774787573 0 -0.1087715055698807 0.4588247561088431 0 -0.094675553767973264 0.45076758317000298 0 -0.1045507464645692 0.47475835774787573 0 -0.1126245701039178 0.4308246085444013 0 -0.1090807961073193 0.44665325123332839 0 -0.10338783084247161 0.44098956532991213 0 -0.097170403390676049 0.43571281837191522 0 -0.094675553767973264 0.45076758317000298 0 -0.10338783084247161 0.44098956532991213 0 -0.1087715055698807 0.4588247561088431 0 -0.094675553767973264 0.45076758317000298 0 -0.1090807961073193 0.44665325123332839 0 -0.094675553767973264 0.45076758317000298 0 -0.1090807961073193 0.44665325123332839 0 -0.10338783084247161 0.44098956532991213 0 -0.1126245701039178 0.4308246085444013 0 -0.1090807961073193 0.44665325123332839 0 -0.1242648033483075 0.43981492828754482 0 -0.1090807961073193 0.44665325123332839 0 -0.1242648033483075 0.43981492828754482 0 -0.1204057133641486 0.45504160574272429 0 -0.1087715055698807 0.4588247561088431 0 -0.1176294132596279 0.46872710166108278 0 -0.1045507464645692 0.47475835774787573 0 -0.1087715055698807 0.4588247561088431 0 -0.1204057133641486 0.45504160574272429 0 -0.1176294132596279 0.46872710166108278 0 -0.1087715055698807 0.4588247561088431 0 -0.1090807961073193 0.44665325123332839 0 -0.1204057133641486 0.45504160574272429 0 -0.13097929143795109 0.46459511115351071 0 -0.1204057133641486 0.45504160574272429 0 -0.1176294132596279 0.46872710166108278 0 -0.12908554574303099 0.47755934496718438 0 -0.1176294132596279 0.46872710166108278 0 -0.1160402402672886 0.48503019582547341 0 -0.1176294132596279 0.46872710166108278 0 -0.1160402402672886 0.48503019582547341 0 -0.1045507464645692 0.47475835774787573 0 -0.13803845513632401 0.5 0 -0.1097654836520903 0.5 0 -0.1160402402672886 0.48503019582547341 0 -0.1097654836520903 0.5 0 -0.1160402402672886 0.48503019582547341 0 -0.099362977551805121 0.48745008538217821 0 -0.081492512167856565 0.50000000000000011 0 -0.1097654836520903 0.5 0 -0.099362977551805121 0.48745008538217821 0 -0.085878896958769185 0.47675925450649242 0 -0.093944937474792503 0.46462082789344678 0 -0.1045507464645692 0.47475835774787573 0 -0.085878896958769185 0.47675925450649242 0 -0.099362977551805121 0.48745008538217821 0 -0.1045507464645692 0.47475835774787573 0 -0.1160402402672886 0.48503019582547341 0 -0.099362977551805121 0.48745008538217821 0 -0.1045507464645692 0.47475835774787573 0 -0.15850742705232401 0.077073165420907211 0 -0.17832815471062741 0.080370175701138483 0 -0.15596223049933161 0.089669487892629185 0 -0.17128916945913089 0.092189477241546317 0 -0.17832815471062741 0.080370175701138483 0 -0.15596223049933161 0.089669487892629185 0 -0.17832815471062741 0.080370175701138483 0 -0.15596223049933161 0.089669487892629185 0 -0.15850742705232401 0.077073165420907211 0 -0.16907692184479731 0.071953328836937142 0 -0.17832815471062741 0.080370175701138483 0 -0.15850742705232401 0.077073165420907211 0 -0.15722519427174569 0.065058312825911402 0 -0.16907692184479731 0.071953328836937142 0 -0.16907692184479731 0.071953328836937142 0 -0.1809864334298861 0.069780609401686525 0 -0.17832815471062741 0.080370175701138483 0 -0.16907692184479731 0.071953328836937142 0 -0.1809864334298861 0.069780609401686525 0 -0.18167022033174851 0.056262687610226528 0 -0.1809864334298861 0.069780609401686525 0 -0.17832815471062741 0.080370175701138483 0 -0.20069407892192309 0.071070863509647808 0 -0.1809864334298861 0.069780609401686525 0 -0.18167022033174851 0.056262687610226528 0 -0.1876556690991136 0.063313821709693935 0 -0.17128916945913089 0.092189477241546317 0 -0.18444466814129201 0.081023499242751457 0 -0.17631468167186989 0.1066384650542631 0 -0.17128916945913089 0.092189477241546317 0 -0.18444466814129201 0.081023499242751457 0 -0.17832815471062741 0.080370175701138483 0 -0.18444466814129201 0.081023499242751457 0 -0.17631468167186989 0.1066384650542631 0 -0.19937405773042491 0.1071019237599893 0 -0.17631468167186989 0.1066384650542631 0 -0.16393492635195239 0.1245978723337525 0 -0.1795193575176991 0.1294692331289829 0 -0.17631468167186989 0.1066384650542631 0 -0.19937405773042491 0.1071019237599893 0 -0.1795193575176991 0.1294692331289829 0 -0.16393492635195239 0.1245978723337525 0 -0.16139611227253359 0.1032457583169494 0 -0.15311233888185891 0.1152965378839053 0 -0.17631468167186989 0.1066384650542631 0 -0.16393492635195239 0.1245978723337525 0 -0.16139611227253359 0.1032457583169494 0 -0.17128916945913089 0.092189477241546317 0 -0.17631468167186989 0.1066384650542631 0 -0.16139611227253359 0.1032457583169494 0 -0.17128916945913089 0.092189477241546317 0 -0.16139611227253359 0.1032457583169494 0 -0.15596223049933161 0.089669487892629185 0 -0.16139611227253359 0.1032457583169494 0 -0.13359630628803579 0.098968800084119873 0 -0.15596223049933161 0.089669487892629185 0 -0.16139611227253359 0.1032457583169494 0 -0.15311233888185891 0.1152965378839053 0 -0.13359630628803579 0.098968800084119873 0 -0.13359630628803579 0.098968800084119873 0 -0.15596223049933161 0.089669487892629185 0 -0.15311233888185891 0.1152965378839053 0 -0.13930859898956699 0.1145050369687237 0 -0.153752621985453 0.14073392350839439 0 -0.15311233888185891 0.1152965378839053 0 -0.13930859898956699 0.1145050369687237 0 -0.13359630628803579 0.098968800084119873 0 -0.13930859898956699 0.1145050369687237 0 -0.12607259725238279 0.11330641960449821 0 -0.12916618827146031 0.12390190950899049 0 -0.13930859898956699 0.1145050369687237 0 -0.12607259725238279 0.11330641960449821 0 -0.13359630628803579 0.098968800084119873 0 -0.13359630628803579 0.098968800084119873 0 -0.12697672020224329 0.087309090757334687 0 -0.14089006822782121 0.082531143958766096 0 -0.12697672020224329 0.087309090757334687 0 -0.14089006822782121 0.082531143958766096 0 -0.12697985749263241 0.07630636069427757 0 -0.15850742705232401 0.077073165420907211 0 -0.14089006822782121 0.082531143958766096 0 -0.15596223049933161 0.089669487892629185 0 -0.13359630628803579 0.098968800084119873 0 -0.14089006822782121 0.082531143958766096 0 -0.15596223049933161 0.089669487892629185 0 -0.15850742705232401 0.077073165420907211 0 -0.14089006822782121 0.082531143958766096 0 -0.14764327064684279 0.071644858797684771 0 -0.15722519427174569 0.065058312825911402 0 -0.14764327064684279 0.071644858797684771 0 -0.1471722955607111 0.059591957907519158 0 -0.15850742705232401 0.077073165420907211 0 -0.15722519427174569 0.065058312825911402 0 -0.14764327064684279 0.071644858797684771 0 -0.14089006822782121 0.082531143958766096 0 -0.14764327064684279 0.071644858797684771 0 -0.13666502121529681 0.069478967649866344 0 -0.14764327064684279 0.071644858797684771 0 -0.13666502121529681 0.069478967649866344 0 -0.1471722955607111 0.059591957907519158 0 -0.14089006822782121 0.082531143958766096 0 -0.13666502121529681 0.069478967649866344 0 -0.12697985749263241 0.07630636069427757 0 -0.13666502121529681 0.069478967649866344 0 -0.12697985749263241 0.07630636069427757 0 -0.12509646681095879 0.065597408261105467 0 -0.13666502121529681 0.069478967649866344 0 -0.12509646681095879 0.065597408261105467 0 -0.13233523162579211 0.057527865090889828 0 -0.13233523162579211 0.057527865090889828 0 -0.1197320338084647 0.057760070231756527 0 -0.1244920148619628 0.050381604022983993 0 -0.12509646681095879 0.065597408261105467 0 -0.13233523162579211 0.057527865090889828 0 -0.1197320338084647 0.057760070231756527 0 -0.13666502121529681 0.069478967649866344 0 -0.13233523162579211 0.057527865090889828 0 -0.1471722955607111 0.059591957907519158 0 -0.13233523162579211 0.057527865090889828 0 -0.131277092146349 0.043237905602295942 0 -0.1435202772377579 0.047601805401877667 0 -0.13233523162579211 0.057527865090889828 0 -0.131277092146349 0.043237905602295942 0 -0.1244920148619628 0.050381604022983993 0 -0.131277092146349 0.043237905602295942 0 -0.14194951185496399 0.035172378083737049 0 -0.12424451236807239 0.027069144312366941 0 -0.131277092146349 0.043237905602295942 0 -0.12424451236807239 0.027069144312366941 0 -0.12075472355362291 0.04122338309529356 0 -0.131277092146349 0.043237905602295942 0 -0.12075472355362291 0.04122338309529356 0 -0.1244920148619628 0.050381604022983993 0 -0.131277092146349 0.043237905602295942 0 -0.14194951185496399 0.035172378083737049 0 -0.1435202772377579 0.047601805401877667 0 -0.14194951185496399 0.035172378083737049 0 -0.15126073753592009 0.02487777788828089 0 -0.1637260562540532 0.045028253166508762 0 -0.14194951185496399 0.035172378083737049 0 -0.1435202772377579 0.047601805401877667 0 -0.1637260562540532 0.045028253166508762 0 -0.15722519427174569 0.065058312825911402 0 -0.1471722955607111 0.059591957907519158 0 -0.1637260562540532 0.045028253166508762 0 -0.1471722955607111 0.059591957907519158 0 -0.1435202772377579 0.047601805401877667 0 -0.1637260562540532 0.045028253166508762 0 -0.13233523162579211 0.057527865090889828 0 -0.1471722955607111 0.059591957907519158 0 -0.1435202772377579 0.047601805401877667 0 -0.1244522405185825 -0.00038769298458709092 0 -0.1310798501921922 0.016754836893075501 0 -0.12424451236807239 0.027069144312366941 0 -0.1244522405185825 -0.00038769298458709092 0 -0.13302987177733741 0.0072862060594841918 0 -0.1310798501921922 0.016754836893075501 0 -0.13796817939809339 -7.5853332940862265e-05 0 -0.13302987177733741 0.0072862060594841918 0 -0.13861921700048169 0.01285353366238922 0 -0.1244522405185825 -0.00038769298458709092 0 -0.13796817939809339 -7.5853332940862265e-05 0 -0.13302987177733741 0.0072862060594841918 0 -0.13302987177733741 0.0072862060594841918 0 -0.13861921700048169 0.01285353366238922 0 -0.1310798501921922 0.016754836893075501 0 -0.14194951185496399 0.035172378083737049 0 -0.1395360945068517 0.023372288850015029 0 -0.12424451236807239 0.027069144312366941 0 -0.13861921700048169 0.01285353366238922 0 -0.1395360945068517 0.023372288850015029 0 -0.1310798501921922 0.016754836893075501 0 -0.1395360945068517 0.023372288850015029 0 -0.1310798501921922 0.016754836893075501 0 -0.12424451236807239 0.027069144312366941 0 -0.14194951185496399 0.035172378083737049 0 -0.1395360945068517 0.023372288850015029 0 -0.15126073753592009 0.02487777788828089 0 -0.15126073753592009 0.02487777788828089 0 -0.15188271994169991 0.01786916074884114 0 -0.14657132146084931 0.01677767438903701 0 -0.15126073753592009 0.02487777788828089 0 -0.15837519066330749 0.018103177496080571 0 -0.1567842680697151 0.017821512483746641 0 -0.15126073753592009 0.02487777788828089 0 -0.15188271994169991 0.01786916074884114 0 -0.1567842680697151 0.017821512483746641 0 -0.1543123506052223 0.01567032783345056 0 -0.15188271994169991 0.01786916074884114 0 -0.1567842680697151 0.017821512483746641 0 -0.13861921700048169 0.01285353366238922 0 -0.1395360945068517 0.023372288850015029 0 -0.14657132146084931 0.01677767438903701 0 -0.1395360945068517 0.023372288850015029 0 -0.15126073753592009 0.02487777788828089 0 -0.14657132146084931 0.01677767438903701 0 -0.15381676672243971 -0.0048344028756085976 0 -0.13796817939809339 -7.5853332940862265e-05 0 -0.14598604308907309 0.0075397954886723484 0 -0.15381676672243971 -0.0048344028756085976 0 -0.15837519066330749 0.018103177496080571 0 -0.15381676672243971 -0.0048344028756085976 0 -0.15182406541376531 0.011854288846745499 0 -0.15837519066330749 0.018103177496080571 0 -0.15381676672243971 -0.0048344028756085976 0 -0.15182406541376531 0.011854288846745499 0 -0.14598604308907309 0.0075397954886723484 0 -0.13861921700048169 0.01285353366238922 0 -0.14657132146084931 0.01677767438903701 0 -0.14598604308907309 0.0075397954886723484 0 -0.14657132146084931 0.01677767438903701 0 -0.15182406541376531 0.011854288846745499 0 -0.14598604308907309 0.0075397954886723484 0 -0.15188271994169991 0.01786916074884114 0 -0.14657132146084931 0.01677767438903701 0 -0.15182406541376531 0.011854288846745499 0 -0.1543123506052223 0.01567032783345056 0 -0.15182406541376531 0.011854288846745499 0 -0.15837519066330749 0.018103177496080571 0 -0.1543123506052223 0.01567032783345056 0 -0.15188271994169991 0.01786916074884114 0 -0.15182406541376531 0.011854288846745499 0 -0.13796817939809339 -7.5853332940862265e-05 0 -0.13861921700048169 0.01285353366238922 0 -0.14598604308907309 0.0075397954886723484 0 -0.15381676672243971 -0.0048344028756085976 0 -0.16872927738725291 0.0066655648670224509 0 -0.15837519066330749 0.018103177496080571 0 -0.16872927738725291 0.0066655648670224509 0 -0.15837519066330749 0.018103177496080571 0 -0.17312315274812851 0.016956976572924821 0 -0.15837519066330749 0.018103177496080571 0 -0.17088268452158301 0.030303691123205939 0 -0.18416549926151529 0.022669224655560441 0 -0.15837519066330749 0.018103177496080571 0 -0.17088268452158301 0.030303691123205939 0 -0.1637260562540532 0.045028253166508762 0 -0.15126073753592009 0.02487777788828089 0 -0.15837519066330749 0.018103177496080571 0 -0.1637260562540532 0.045028253166508762 0 -0.15837519066330749 0.018103177496080571 0 -0.18416549926151529 0.022669224655560441 0 -0.1543123506052223 0.01567032783345056 0 -0.15837519066330749 0.018103177496080571 0 -0.1567842680697151 0.017821512483746641 0 -0.15837519066330749 0.018103177496080571 0 -0.1567842680697151 0.017821512483746641 0 -0.15837519066330749 0.018103177496080571 0 -0.18416549926151529 0.022669224655560441 0 -0.17312315274812851 0.016956976572924821 0 -0.17088268452158301 0.030303691123205939 0 -0.18416549926151529 0.022669224655560441 0 -0.1815242396402782 0.037713578252632912 0 -0.18416549926151529 0.022669224655560441 0 -0.17919408738426101 0.017592611389363012 0 -0.18518118592807509 0.0154377595936586 0 -0.18416549926151529 0.022669224655560441 0 -0.17312315274812851 0.016956976572924821 0 -0.17919408738426101 0.017592611389363012 0 -0.1785064095432054 -0.0066611219507198768 0 -0.16872927738725291 0.0066655648670224509 0 -0.193034969706537 0.00064734206737222756 0 -0.16872927738725291 0.0066655648670224509 0 -0.193034969706537 0.00064734206737222756 0 -0.16872927738725291 0.0066655648670224509 0 -0.18518118592807509 0.0154377595936586 0 -0.193034969706537 0.00064734206737222756 0 -0.16872927738725291 0.0066655648670224509 0 -0.17919408738426101 0.017592611389363012 0 -0.18518118592807509 0.0154377595936586 0 -0.16872927738725291 0.0066655648670224509 0 -0.17312315274812851 0.016956976572924821 0 -0.17919408738426101 0.017592611389363012 0 -0.16907692184479731 0.071953328836937142 0 -0.1637260562540532 0.045028253166508762 0 -0.18167022033174851 0.056262687610226528 0 -0.15722519427174569 0.065058312825911402 0 -0.16907692184479731 0.071953328836937142 0 -0.1637260562540532 0.045028253166508762 0 -0.16907692184479731 0.071953328836937142 0 -0.1637260562540532 0.045028253166508762 0 -0.15837519066330749 0.018103177496080571 0 -0.1637260562540532 0.045028253166508762 0 -0.17088268452158301 0.030303691123205939 0 -0.1637260562540532 0.045028253166508762 0 -0.1815242396402782 0.037713578252632912 0 -0.1815242396402782 0.037713578252632912 0 -0.18167022033174851 0.056262687610226528 0 -0.1948999673891425 0.045815662425189529 0 -0.1637260562540532 0.045028253166508762 0 -0.1815242396402782 0.037713578252632912 0 -0.18167022033174851 0.056262687610226528 0 -0.18416549926151529 0.022669224655560441 0 -0.1815242396402782 0.037713578252632912 0 -0.19539241544158811 0.034915353149486399 0 -0.19598386328254799 0.058823167906541372 0 -0.20873259774339259 0.055173182954087172 0 -0.20069407892192309 0.071070863509647808 0 -0.18167022033174851 0.056262687610226528 0 -0.19598386328254799 0.058823167906541372 0 -0.1876556690991136 0.063313821709693935 0 -0.19598386328254799 0.058823167906541372 0 -0.1948999673891425 0.045815662425189529 0 -0.20873259774339259 0.055173182954087172 0 -0.18167022033174851 0.056262687610226528 0 -0.19598386328254799 0.058823167906541372 0 -0.1948999673891425 0.045815662425189529 0 -0.1815242396402782 0.037713578252632912 0 -0.1948999673891425 0.045815662425189529 0 -0.19539241544158811 0.034915353149486399 0 -0.1948999673891425 0.045815662425189529 0 -0.19539241544158811 0.034915353149486399 0 -0.20641656305728129 0.041143028599009299 0 -0.20641656305728129 0.041143028599009299 0 -0.20995580785972329 0.027235271815039791 0 -0.22080882119384479 0.043900986742667819 0 -0.19539241544158811 0.034915353149486399 0 -0.20641656305728129 0.041143028599009299 0 -0.20995580785972329 0.027235271815039791 0 -0.20641656305728129 0.041143028599009299 0 -0.20873259774339259 0.055173182954087172 0 -0.22080882119384479 0.043900986742667819 0 -0.20873259774339259 0.055173182954087172 0 -0.2267202713125637 0.058975611642501508 0 -0.2176358721649875 0.072186860311035453 0 -0.1948999673891425 0.045815662425189529 0 -0.20641656305728129 0.041143028599009299 0 -0.20873259774339259 0.055173182954087172 0 -0.20993853639106591 -0.0035380738047605968 0 -0.2009137908539024 0.01431144198083124 0 -0.193034969706537 0.00064734206737222756 0 -0.18518118592807509 0.0154377595936586 0 -0.2009137908539024 0.01431144198083124 0 -0.193034969706537 0.00064734206737222756 0 -0.18518118592807509 0.0154377595936586 0 -0.193034969706537 0.00064734206737222756 0 -0.18416549926151529 0.022669224655560441 0 -0.20995580785972329 0.027235271815039791 0 -0.18416549926151529 0.022669224655560441 0 -0.18518118592807509 0.0154377595936586 0 -0.2009137908539024 0.01431144198083124 0 -0.18416549926151529 0.022669224655560441 0 -0.2009137908539024 0.01431144198083124 0 -0.20995580785972329 0.027235271815039791 0 -0.18416549926151529 0.022669224655560441 0 -0.19539241544158811 0.034915353149486399 0 -0.20995580785972329 0.027235271815039791 0 -0.2009137908539024 0.01431144198083124 0 -0.20995580785972329 0.027235271815039791 0 -0.21568563774484731 0.0082874278720449449 0 -0.20993853639106591 -0.0035380738047605968 0 -0.2009137908539024 0.01431144198083124 0 -0.21568563774484731 0.0082874278720449449 0 -0.22684210307559549 -0.0077234896768903086 0 -0.21568563774484731 0.0082874278720449449 0 -0.23077795054394901 0.01115198904600462 0 -0.22684210307559549 -0.0077234896768903086 0 -0.23077795054394901 0.01115198904600462 0 -0.20995580785972329 0.027235271815039791 0 -0.21568563774484731 0.0082874278720449449 0 -0.23077795054394901 0.01115198904600462 0 -0.20995580785972329 0.027235271815039791 0 -0.2357461164579312 0.03180131897451912 0 -0.20995580785972329 0.027235271815039791 0 -0.23077795054394901 0.01115198904600462 0 -0.2357461164579312 0.03180131897451912 0 -0.23077795054394901 0.01115198904600462 0 -0.24854849079604721 0.020569936005881421 0 -0.2357461164579312 0.03180131897451912 0 -0.26153642505613889 0.036367366133998442 0 -0.24854849079604721 0.020569936005881421 0 -0.2357461164579312 0.03180131897451912 0 -0.23077795054394901 0.01115198904600462 0 -0.24854849079604721 0.020569936005881421 0 -0.24598119983726671 0.0037338506766126851 0 -0.22684210307559549 -0.0077234896768903086 0 -0.23077795054394901 0.01115198904600462 0 -0.24598119983726671 0.0037338506766126851 0 -0.20873259774339259 0.055173182954087172 0 -0.2267202713125637 0.058975611642501508 0 -0.22080882119384479 0.043900986742667819 0 -0.2267202713125637 0.058975611642501508 0 -0.22080882119384479 0.043900986742667819 0 -0.239388393447095 0.04766651035075449 0 -0.22080882119384479 0.043900986742667819 0 -0.2357461164579312 0.03180131897451912 0 -0.239388393447095 0.04766651035075449 0 -0.20995580785972329 0.027235271815039791 0 -0.22080882119384479 0.043900986742667819 0 -0.2357461164579312 0.03180131897451912 0 -0.26153642505613889 0.036367366133998442 0 -0.2357461164579312 0.03180131897451912 0 -0.26153642505613889 0.036367366133998442 0 -0.2357461164579312 0.03180131897451912 0 -0.239388393447095 0.04766651035075449 0 -0.25116276906762952 0.054241108780248931 0 -0.239388393447095 0.04766651035075449 0 -0.24035595759446179 0.060712669830591162 0 -0.2267202713125637 0.058975611642501508 0 -0.239388393447095 0.04766651035075449 0 -0.24035595759446179 0.060712669830591162 0 -0.25116276906762952 0.054241108780248931 0 -0.24035595759446179 0.060712669830591162 0 -0.24829977196364941 0.065213336215906109 0 -0.2267202713125637 0.058975611642501508 0 -0.24035595759446179 0.060712669830591162 0 -0.23791909572611269 0.075142721002645518 0 -0.24035595759446179 0.060712669830591162 0 -0.24829977196364941 0.065213336215906109 0 -0.23791909572611269 0.075142721002645518 0 -0.25064083865024739 0.073628726666345984 0 -0.23791909572611269 0.075142721002645518 0 -0.24857020570659841 0.081659589420377987 0 -0.25064083865024739 0.073628726666345984 0 -0.24829977196364941 0.065213336215906109 0 -0.23791909572611269 0.075142721002645518 0 -0.23791909572611269 0.075142721002645518 0 -0.2427234934652894 0.090762762990284518 0 -0.22646138453880821 0.085461994072224837 0 -0.25413031243694739 0.089521027236778197 0 -0.2427234934652894 0.090762762990284518 0 -0.24857020570659841 0.081659589420377987 0 -0.23791909572611269 0.075142721002645518 0 -0.2427234934652894 0.090762762990284518 0 -0.24857020570659841 0.081659589420377987 0 -0.2267202713125637 0.058975611642501508 0 -0.23791909572611269 0.075142721002645518 0 -0.2176358721649875 0.072186860311035453 0 -0.23791909572611269 0.075142721002645518 0 -0.22646138453880821 0.085461994072224837 0 -0.2176358721649875 0.072186860311035453 0 -0.20873259774339259 0.055173182954087172 0 -0.2176358721649875 0.072186860311035453 0 -0.20069407892192309 0.071070863509647808 0 -0.2176358721649875 0.072186860311035453 0 -0.20525373999263671 0.08640341449760941 0 -0.20069407892192309 0.071070863509647808 0 -0.22646138453880821 0.085461994072224837 0 -0.2176358721649875 0.072186860311035453 0 -0.20525373999263671 0.08640341449760941 0 -0.22646138453880821 0.085461994072224837 0 -0.20525373999263671 0.08640341449760941 0 -0.2161514522581473 0.1006972439961434 0 -0.18444466814129201 0.081023499242751457 0 -0.20525373999263671 0.08640341449760941 0 -0.20069407892192309 0.071070863509647808 0 -0.18444466814129201 0.081023499242751457 0 -0.20525373999263671 0.08640341449760941 0 -0.19937405773042491 0.1071019237599893 0 -0.17832815471062741 0.080370175701138483 0 -0.20069407892192309 0.071070863509647808 0 -0.18444466814129201 0.081023499242751457 0 -0.17832815471062741 0.080370175701138483 0 -0.20069407892192309 0.071070863509647808 0 -0.1809864334298861 0.069780609401686525 0 -0.1876556690991136 0.063313821709693935 0 -0.20069407892192309 0.071070863509647808 0 -0.19598386328254799 0.058823167906541372 0 -0.1876556690991136 0.063313821709693935 0 -0.20069407892192309 0.071070863509647808 0 -0.19937405773042491 0.1071019237599893 0 -0.2161514522581473 0.1006972439961434 0 -0.21430344731955769 0.133180348277227 0 -0.19937405773042491 0.1071019237599893 0 -0.19727411993202021 0.1275714443648302 0 -0.1795193575176991 0.1294692331289829 0 -0.18444466814129201 0.081023499242751457 0 -0.19937405773042491 0.1071019237599893 0 -0.20525373999263671 0.08640341449760941 0 -0.19937405773042491 0.1071019237599893 0 -0.2161514522581473 0.1006972439961434 0 -0.19937405773042491 0.1071019237599893 0 -0.21430344731955769 0.133180348277227 0 -0.19937405773042491 0.1071019237599893 0 -0.19727411993202021 0.1275714443648302 0 -0.21430344731955769 0.133180348277227 0 -0.2161514522581473 0.1006972439961434 0 -0.23231730930006211 0.10853516007106349 0 -0.21430344731955769 0.133180348277227 0 -0.2427234934652894 0.090762762990284518 0 -0.22646138453880821 0.085461994072224837 0 -0.23231730930006211 0.10853516007106349 0 -0.22646138453880821 0.085461994072224837 0 -0.2161514522581473 0.1006972439961434 0 -0.23231730930006211 0.10853516007106349 0 -0.25610310449345419 0.1041046972302731 0 -0.2427234934652894 0.090762762990284518 0 -0.23231730930006211 0.10853516007106349 0 -0.25610310449345419 0.1041046972302731 0 -0.23231730930006211 0.10853516007106349 0 -0.2495823492922267 0.12121763785839371 0 -0.23231730930006211 0.10853516007106349 0 -0.2495823492922267 0.12121763785839371 0 -0.23849568892714909 0.13696143350773771 0 -0.23231730930006211 0.10853516007106349 0 -0.23849568892714909 0.13696143350773771 0 -0.25477231595188199 0.13792181725732239 0 -0.2495823492922267 0.12121763785839371 0 -0.23849568892714909 0.13696143350773771 0 -0.23231730930006211 0.10853516007106349 0 -0.23849568892714909 0.13696143350773771 0 -0.21430344731955769 0.133180348277227 0 -0.23849568892714909 0.13696143350773771 0 -0.22923283690869051 0.15925877279446471 0 -0.21430344731955769 0.133180348277227 0 -0.22923283690869051 0.15925877279446471 0 -0.21430344731955769 0.133180348277227 0 -0.2543915534089356 0.15018751405662761 0 -0.23849568892714909 0.13696143350773771 0 -0.24467406855423091 0.1653877069444131 0 -0.23849568892714909 0.13696143350773771 0 -0.24467406855423091 0.1653877069444131 0 -0.22923283690869051 0.15925877279446471 0 -0.2543915534089356 0.15018751405662761 0 -0.25477231595188199 0.13792181725732239 0 -0.23849568892714909 0.13696143350773771 0 -0.23849568892714909 0.13696143350773771 0 -0.24467406855423091 0.1653877069444131 0 -0.24467406855423091 0.1653877069444131 0 -0.2350219134637796 0.18103954803765679 0 -0.22379977898383499 0.16989282922580509 0 -0.24467406855423091 0.1653877069444131 0 -0.24947341468037071 0.1874691479585941 0 -0.2350219134637796 0.18103954803765679 0 -0.24467406855423091 0.1653877069444131 0 -0.24947341468037071 0.1874691479585941 0 -0.2350219134637796 0.18103954803765679 0 -0.22004124654446131 0.18611549732905991 0 -0.22379977898383499 0.16989282922580509 0 -0.24467406855423091 0.1653877069444131 0 -0.22379977898383499 0.16989282922580509 0 -0.22923283690869051 0.15925877279446471 0 -0.22379977898383499 0.16989282922580509 0 -0.22923283690869051 0.15925877279446471 0 -0.20989634202023699 0.1560844752241346 0 -0.24467406855423091 0.1653877069444131 0 -0.22379977898383499 0.16989282922580509 0 -0.22379977898383499 0.16989282922580509 0 -0.20292548941343971 0.17439795150720031 0 -0.20989634202023699 0.1560844752241346 0 -0.20292548941343971 0.17439795150720031 0 -0.20989634202023699 0.1560844752241346 0 -0.17833905569944569 0.15756593750779829 0 -0.22379977898383499 0.16989282922580509 0 -0.20292548941343971 0.17439795150720031 0 -0.22004124654446131 0.18611549732905991 0 -0.22379977898383499 0.16989282922580509 0 -0.20292548941343971 0.17439795150720031 0 -0.22004124654446131 0.18611549732905991 0 -0.20292548941343971 0.17439795150720031 0 -0.22004124654446131 0.18611549732905991 0 -0.20292548941343971 0.17439795150720031 0 -0.20568385543668641 0.19260324117033031 0 -0.20292548941343971 0.17439795150720031 0 -0.1757122088887666 0.1802711648698879 0 -0.20292548941343971 0.17439795150720031 0 -0.1897130520823497 0.19444680225630501 0 -0.1757122088887666 0.1802711648698879 0 -0.20292548941343971 0.17439795150720031 0 -0.20568385543668641 0.19260324117033031 0 -0.1897130520823497 0.19444680225630501 0 -0.20292548941343971 0.17439795150720031 0 -0.17833905569944569 0.15756593750779829 0 -0.19589961716039911 0.1405342722931214 0 -0.20989634202023699 0.1560844752241346 0 -0.17833905569944569 0.15756593750779829 0 -0.19727411993202021 0.1275714443648302 0 -0.19589961716039911 0.1405342722931214 0 -0.1795193575176991 0.1294692331289829 0 -0.19727411993202021 0.1275714443648302 0 -0.19589961716039911 0.1405342722931214 0 -0.21430344731955769 0.133180348277227 0 -0.22923283690869051 0.15925877279446471 0 -0.21430344731955769 0.133180348277227 0 -0.20989634202023699 0.1560844752241346 0 -0.19589961716039911 0.1405342722931214 0 -0.21430344731955769 0.133180348277227 0 -0.20989634202023699 0.1560844752241346 0 -0.23288038931281729 0.23888496135878451 0 -0.21994142138302111 0.22426230620998819 0 -0.21218175950055909 0.24952722652004439 0 -0.22667039518801041 0.25355429459537898 0 -0.23288038931281729 0.23888496135878451 0 -0.21218175950055909 0.24952722652004439 0 -0.2416444700809012 0.25186566196455601 0 -0.22667039518801041 0.25355429459537898 0 -0.23288038931281729 0.23888496135878451 0 -0.2416444700809012 0.25186566196455601 0 -0.23288038931281729 0.23888496135878451 0 -0.2470081454867771 0.2422065880623451 0 -0.25693865295534157 0.25278860643768353 0 -0.2416444700809012 0.25186566196455601 0 -0.2470081454867771 0.2422065880623451 0 -0.25109603964961891 0.234366577265785 0 -0.2470081454867771 0.2422065880623451 0 -0.24424918889796191 0.23342051569475999 0 -0.23288038931281729 0.23888496135878451 0 -0.2470081454867771 0.2422065880623451 0 -0.24424918889796191 0.23342051569475999 0 -0.23288038931281729 0.23888496135878451 0 -0.24424918889796191 0.23342051569475999 0 -0.2396805993576108 0.22455316273993289 0 -0.24424918889796191 0.23342051569475999 0 -0.249817319625419 0.2274340479663062 0 -0.2396805993576108 0.22455316273993289 0 -0.25109603964961891 0.234366577265785 0 -0.24424918889796191 0.23342051569475999 0 -0.249817319625419 0.2274340479663062 0 -0.249817319625419 0.2274340479663062 0 -0.24904636230289101 0.22050689045355901 0 -0.2396805993576108 0.22455316273993289 0 -0.24904636230289101 0.22050689045355901 0 -0.2396805993576108 0.22455316273993289 0 -0.24333230173327219 0.21221501244476959 0 -0.2396805993576108 0.22455316273993289 0 -0.21994142138302111 0.22426230620998819 0 -0.23304733008138001 0.21339205942673259 0 -0.23288038931281729 0.23888496135878451 0 -0.2396805993576108 0.22455316273993289 0 -0.21994142138302111 0.22426230620998819 0 -0.21994142138302111 0.22426230620998819 0 -0.22770108326548311 0.19899738589993199 0 -0.210353022999335 0.20567537760669019 0 -0.21994142138302111 0.22426230620998819 0 -0.23304733008138001 0.21339205942673259 0 -0.22770108326548311 0.19899738589993199 0 -0.21994142138302111 0.22426230620998819 0 -0.22770108326548311 0.19899738589993199 0 -0.23304733008138001 0.21339205942673259 0 -0.2346933251094325 0.20523388649383931 0 -0.22770108326548311 0.19899738589993199 0 -0.25427276080650663 0.20955058897277601 0 -0.23715700367548431 0.1978330431509176 0 -0.2396805993576108 0.22455316273993289 0 -0.23304733008138001 0.21339205942673259 0 -0.24333230173327219 0.21221501244476959 0 -0.25427276080650663 0.20955058897277601 0 -0.24333230173327219 0.21221501244476959 0 -0.23715700367548431 0.1978330431509176 0 -0.25561524088587501 0.21572724177218369 0 -0.24904636230289101 0.22050689045355901 0 -0.24333230173327219 0.21221501244476959 0 -0.24333230173327219 0.21221501244476959 0 -0.2346933251094325 0.20523388649383931 0 -0.23715700367548431 0.1978330431509176 0 -0.23304733008138001 0.21339205942673259 0 -0.24333230173327219 0.21221501244476959 0 -0.2346933251094325 0.20523388649383931 0 -0.25427276080650663 0.20955058897277601 0 -0.24947341468037071 0.1874691479585941 0 -0.23715700367548431 0.1978330431509176 0 -0.24947341468037071 0.1874691479585941 0 -0.2350219134637796 0.18103954803765679 0 -0.23715700367548431 0.1978330431509176 0 -0.22004124654446131 0.18611549732905991 0 -0.23715700367548431 0.1978330431509176 0 -0.22004124654446131 0.18611549732905991 0 -0.23715700367548431 0.1978330431509176 0 -0.22770108326548311 0.19899738589993199 0 -0.2350219134637796 0.18103954803765679 0 -0.22004124654446131 0.18611549732905991 0 -0.23715700367548431 0.1978330431509176 0 -0.2346933251094325 0.20523388649383931 0 -0.23715700367548431 0.1978330431509176 0 -0.22770108326548311 0.19899738589993199 0 -0.22004124654446131 0.18611549732905991 0 -0.22770108326548311 0.19899738589993199 0 -0.21594480206149139 0.19584787550150309 0 -0.22770108326548311 0.19899738589993199 0 -0.21594480206149139 0.19584787550150309 0 -0.210353022999335 0.20567537760669019 0 -0.22004124654446131 0.18611549732905991 0 -0.21594480206149139 0.19584787550150309 0 -0.20568385543668641 0.19260324117033031 0 -0.21594480206149139 0.19584787550150309 0 -0.20568385543668641 0.19260324117033031 0 -0.210353022999335 0.20567537760669019 0 -0.20568385543668641 0.19260324117033031 0 -0.19800517532583911 0.2033181044808495 0 -0.210353022999335 0.20567537760669019 0 -0.20568385543668641 0.19260324117033031 0 -0.1897130520823497 0.19444680225630501 0 -0.19800517532583911 0.2033181044808495 0 -0.1897130520823497 0.19444680225630501 0 -0.19800517532583911 0.2033181044808495 0 -0.1863200837324982 0.20555600776477401 0 -0.19800517532583911 0.2033181044808495 0 -0.19795586237832599 0.21830909360614789 0 -0.210353022999335 0.20567537760669019 0 -0.19800517532583911 0.2033181044808495 0 -0.19795586237832599 0.21830909360614789 0 -0.1863200837324982 0.20555600776477401 0 -0.19795586237832599 0.21830909360614789 0 -0.18240126852579899 0.21930684119835961 0 -0.1863200837324982 0.20555600776477401 0 -0.21994142138302111 0.22426230620998819 0 -0.19795586237832599 0.21830909360614789 0 -0.210353022999335 0.20567537760669019 0 -0.21994142138302111 0.22426230620998819 0 -0.19795586237832599 0.21830909360614789 0 -0.20314208847108339 0.23556135501649109 0 -0.19795586237832599 0.21830909360614789 0 -0.18651378479530609 0.23505073182760211 0 -0.18240126852579899 0.21930684119835961 0 -0.19795586237832599 0.21830909360614789 0 -0.20314208847108339 0.23556135501649109 0 -0.18651378479530609 0.23505073182760211 0 -0.1929026130837673 0.25762258695206858 0 -0.20314208847108339 0.23556135501649109 0 -0.18651378479530609 0.23505073182760211 0 -0.1929026130837673 0.25762258695206858 0 -0.20314208847108339 0.23556135501649109 0 -0.21218175950055909 0.24952722652004439 0 -0.21994142138302111 0.22426230620998819 0 -0.21218175950055909 0.24952722652004439 0 -0.21994142138302111 0.22426230620998819 0 -0.20314208847108339 0.23556135501649109 0 -0.21218175950055909 0.24952722652004439 0 -0.16582228118094081 0.26466105519565358 0 -0.18651378479530609 0.23505073182760211 0 -0.1608218935138386 0.23306973899941771 0 -0.16582228118094081 0.26466105519565358 0 -0.14534546737678511 0.25129379472131641 0 -0.1608218935138386 0.23306973899941771 0 -0.18651378479530609 0.23505073182760211 0 -0.1608218935138386 0.23306973899941771 0 -0.18651378479530609 0.23505073182760211 0 -0.18240126852579899 0.21930684119835961 0 -0.1608218935138386 0.23306973899941771 0 -0.1608218935138386 0.23306973899941771 0 -0.16716432822862029 0.21469463307327219 0 -0.14537567171977789 0.21373021027012479 0 -0.18240126852579899 0.21930684119835961 0 -0.1608218935138386 0.23306973899941771 0 -0.16716432822862029 0.21469463307327219 0 -0.16716432822862029 0.21469463307327219 0 -0.15728284033457929 0.19872471446884221 0 -0.14537567171977789 0.21373021027012479 0 -0.16716432822862029 0.21469463307327219 0 -0.1863200837324982 0.20555600776477401 0 -0.15728284033457929 0.19872471446884221 0 -0.18240126852579899 0.21930684119835961 0 -0.16716432822862029 0.21469463307327219 0 -0.1863200837324982 0.20555600776477401 0 -0.1863200837324982 0.20555600776477401 0 -0.1747365466553682 0.1940095109997643 0 -0.15728284033457929 0.19872471446884221 0 -0.1897130520823497 0.19444680225630501 0 -0.1863200837324982 0.20555600776477401 0 -0.1747365466553682 0.1940095109997643 0 -0.1897130520823497 0.19444680225630501 0 -0.1747365466553682 0.1940095109997643 0 -0.1757122088887666 0.1802711648698879 0 -0.1747365466553682 0.1940095109997643 0 -0.16534449221108169 0.19019064904669619 0 -0.1757122088887666 0.1802711648698879 0 -0.1863200837324982 0.20555600776477401 0 -0.15728284033457929 0.19872471446884221 0 -0.1747365466553682 0.1940095109997643 0 -0.16534449221108169 0.19019064904669619 0 -0.15728284033457929 0.19872471446884221 0 -0.16534449221108169 0.19019064904669619 0 -0.15728284033457929 0.19872471446884221 0 -0.15629575781976141 0.184461654133797 0 -0.15728284033457929 0.19872471446884221 0 -0.12824559693666041 0.19189342117291039 0 -0.15629575781976141 0.184461654133797 0 -0.15728284033457929 0.19872471446884221 0 -0.12824559693666041 0.19189342117291039 0 -0.14537567171977789 0.21373021027012479 0 -0.15728284033457929 0.19872471446884221 0 -0.12824559693666041 0.19189342117291039 0 -0.12824559693666041 0.19189342117291039 0 -0.14537567171977789 0.21373021027012479 0 -0.1242544958201173 0.21504107598638081 0 -0.1608218935138386 0.23306973899941771 0 -0.14537567171977789 0.21373021027012479 0 -0.13513000223237101 0.23108874617123329 0 -0.1608218935138386 0.23306973899941771 0 -0.13513000223237101 0.23108874617123329 0 -0.14537567171977789 0.21373021027012479 0 -0.13513000223237101 0.23108874617123329 0 -0.1242544958201173 0.21504107598638081 0 -0.14534546737678511 0.25129379472131641 0 -0.13513000223237101 0.23108874617123329 0 -0.12470300375741469 0.2457033751303839 0 -0.14534546737678511 0.25129379472131641 0 -0.1608218935138386 0.23306973899941771 0 -0.13513000223237101 0.23108874617123329 0 -0.17833905569944569 0.15756593750779829 0 -0.1561619761378806 0.16047685630827471 0 -0.153752621985453 0.14073392350839439 0 -0.1795193575176991 0.1294692331289829 0 -0.17833905569944569 0.15756593750779829 0 -0.153752621985453 0.14073392350839439 0 -0.17833905569944569 0.15756593750779829 0 -0.153752621985453 0.14073392350839439 0 -0.16393492635195239 0.1245978723337525 0 -0.15311233888185891 0.1152965378839053 0 -0.153752621985453 0.14073392350839439 0 -0.16393492635195239 0.1245978723337525 0 -0.1795193575176991 0.1294692331289829 0 -0.153752621985453 0.14073392350839439 0 -0.19589961716039911 0.1405342722931214 0 -0.1795193575176991 0.1294692331289829 0 -0.17833905569944569 0.15756593750779829 0 -0.20292548941343971 0.17439795150720031 0 -0.17833905569944569 0.15756593750779829 0 -0.1757122088887666 0.1802711648698879 0 -0.1897130520823497 0.19444680225630501 0 -0.1757122088887666 0.1802711648698879 0 -0.16534449221108169 0.19019064904669619 0 -0.1757122088887666 0.1802711648698879 0 -0.15629575781976141 0.184461654133797 0 -0.1757122088887666 0.1802711648698879 0 -0.15629575781976141 0.184461654133797 0 -0.1757122088887666 0.1802711648698879 0 -0.15629575781976141 0.184461654133797 0 -0.1561619761378806 0.16047685630827471 0 -0.17833905569944569 0.15756593750779829 0 -0.1757122088887666 0.1802711648698879 0 -0.1561619761378806 0.16047685630827471 0 -0.1757122088887666 0.1802711648698879 0 -0.1561619761378806 0.16047685630827471 0 -0.1561619761378806 0.16047685630827471 0 -0.14126926821389521 0.17232478353634881 0 -0.1371080151487378 0.15864895140394189 0 -0.15629575781976141 0.184461654133797 0 -0.1561619761378806 0.16047685630827471 0 -0.14126926821389521 0.17232478353634881 0 -0.12824559693666041 0.19189342117291039 0 -0.15629575781976141 0.184461654133797 0 -0.14126926821389521 0.17232478353634881 0 -0.12824559693666041 0.19189342117291039 0 -0.14126926821389521 0.17232478353634881 0 -0.1248941403316576 0.1686438139500778 0 -0.14126926821389521 0.17232478353634881 0 -0.1371080151487378 0.15864895140394189 0 -0.1248941403316576 0.1686438139500778 0 -0.1371080151487378 0.15864895140394189 0 -0.1239269324459726 0.1539154783358255 0 -0.1248941403316576 0.1686438139500778 0 -0.1371080151487378 0.15864895140394189 0 -0.13661174338699569 0.1406825477466605 0 -0.1239269324459726 0.1539154783358255 0 -0.1561619761378806 0.16047685630827471 0 -0.13661174338699569 0.1406825477466605 0 -0.1561619761378806 0.16047685630827471 0 -0.13661174338699569 0.1406825477466605 0 -0.153752621985453 0.14073392350839439 0 -0.1561619761378806 0.16047685630827471 0 -0.1371080151487378 0.15864895140394189 0 -0.13661174338699569 0.1406825477466605 0 -0.12916618827146031 0.12390190950899049 0 -0.153752621985453 0.14073392350839439 0 -0.13930859898956699 0.1145050369687237 0 -0.12916618827146031 0.12390190950899049 0 -0.153752621985453 0.14073392350839439 0 -0.13661174338699569 0.1406825477466605 0 -0.11706151063611089 0.1208882391850464 0 -0.12916618827146031 0.12390190950899049 0 -0.13661174338699569 0.1406825477466605 0 -0.11706151063611089 0.1208882391850464 0 -0.12916618827146031 0.12390190950899049 0 -0.13661174338699569 0.1406825477466605 0 -0.153752621985453 0.14073392350839439 0 -0.13661174338699569 0.1406825477466605 0 -0.11473911200363 0.13153944404780621 0 -0.1132109842275667 0.1430328284895945 0 -0.13661174338699569 0.1406825477466605 0 -0.11473911200363 0.13153944404780621 0 -0.11706151063611089 0.1208882391850464 0 -0.11473911200363 0.13153944404780621 0 -0.1039338124667491 0.13009472872812991 0 -0.1132109842275667 0.1430328284895945 0 -0.11473911200363 0.13153944404780621 0 -0.1039338124667491 0.13009472872812991 0 -0.10601879130899509 0.12208205668825579 0 -0.1039338124667491 0.13009472872812991 0 -0.093398168270057425 0.14218175111966569 0 -0.093946486761182085 0.1175508364221631 0 -0.1039338124667491 0.13009472872812991 0 -0.1132109842275667 0.1430328284895945 0 -0.093398168270057425 0.14218175111966569 0 -0.1078097791349048 0.15856925008885259 0 -0.089544080768145809 0.16137822361845131 0 -0.093398168270057425 0.14218175111966569 0 -0.1132109842275667 0.1430328284895945 0 -0.1078097791349048 0.15856925008885259 0 -0.093398168270057425 0.14218175111966569 0 -0.13661174338699569 0.1406825477466605 0 -0.1132109842275667 0.1430328284895945 0 -0.1239269324459726 0.1539154783358255 0 -0.1132109842275667 0.1430328284895945 0 -0.1239269324459726 0.1539154783358255 0 -0.1078097791349048 0.15856925008885259 0 -0.1248941403316576 0.1686438139500778 0 -0.099208353538741523 0.18506212787697859 0 -0.1078097791349048 0.15856925008885259 0 -0.1239269324459726 0.1539154783358255 0 -0.1248941403316576 0.1686438139500778 0 -0.1078097791349048 0.15856925008885259 0 -0.12824559693666041 0.19189342117291039 0 -0.1248941403316576 0.1686438139500778 0 -0.099208353538741523 0.18506212787697859 0 -0.099208353538741523 0.18506212787697859 0 -0.1078097791349048 0.15856925008885259 0 -0.089544080768145809 0.16137822361845131 0 -0.089544080768145809 0.16137822361845131 0 -0.070171110140822543 0.1782308345810468 0 -0.074669823138777097 0.15727584041375819 0 -0.099208353538741523 0.18506212787697859 0 -0.089544080768145809 0.16137822361845131 0 -0.070171110140822543 0.1782308345810468 0 -0.099208353538741523 0.18506212787697859 0 -0.070171110140822543 0.1782308345810468 0 -0.070171110140822543 0.1782308345810468 0 -0.074669823138777097 0.15727584041375819 0 -0.057722578482997257 0.16273086802879619 0 -0.074669823138777097 0.15727584041375819 0 -0.066369438716585821 0.14892706699039879 0 -0.057722578482997257 0.16273086802879619 0 -0.074669823138777097 0.15727584041375819 0 -0.066369438716585821 0.14892706699039879 0 -0.074733199104357148 0.14603812585323231 0 -0.074669823138777097 0.15727584041375819 0 -0.074733199104357148 0.14603812585323231 0 -0.082756465015383474 0.1492386270883771 0 -0.074733199104357148 0.14603812585323231 0 -0.067315024607703278 0.13662092079142449 0 -0.081437053795579945 0.1393191944367777 0 -0.066369438716585821 0.14892706699039879 0 -0.074733199104357148 0.14603812585323231 0 -0.067315024607703278 0.13662092079142449 0 -0.066369438716585821 0.14892706699039879 0 -0.067315024607703278 0.13662092079142449 0 -0.054361576129613079 0.15178129246158931 0 -0.067315024607703278 0.13662092079142449 0 -0.088852304720190942 0.12644129241805541 0 -0.067315024607703278 0.13662092079142449 0 -0.088852304720190942 0.12644129241805541 0 -0.075786521408142987 0.12443322189858901 0 -0.067315024607703278 0.13662092079142449 0 -0.062016764747578973 0.12884034001808189 0 -0.075786521408142987 0.12443322189858901 0 -0.088852304720190942 0.12644129241805541 0 -0.093398168270057425 0.14218175111966569 0 -0.093946486761182085 0.1175508364221631 0 -0.067315024607703278 0.13662092079142449 0 -0.081437053795579945 0.1393191944367777 0 -0.088852304720190942 0.12644129241805541 0 -0.093398168270057425 0.14218175111966569 0 -0.093946486761182085 0.1175508364221631 0 -0.081437053795579945 0.1393191944367777 0 -0.088852304720190942 0.12644129241805541 0 -0.093398168270057425 0.14218175111966569 0 -0.089544080768145809 0.16137822361845131 0 -0.093398168270057425 0.14218175111966569 0 -0.082756465015383474 0.1492386270883771 0 -0.089544080768145809 0.16137822361845131 0 -0.074669823138777097 0.15727584041375819 0 -0.082756465015383474 0.1492386270883771 0 -0.074733199104357148 0.14603812585323231 0 -0.081437053795579945 0.1393191944367777 0 -0.082756465015383474 0.1492386270883771 0 -0.081437053795579945 0.1393191944367777 0 -0.093398168270057425 0.14218175111966569 0 -0.082756465015383474 0.1492386270883771 0 -0.11076524853809321 0.25238606884059173 0 -0.1094381109509034 0.22910775334304889 0 -0.091345724210048884 0.23566487628332011 0 -0.11076524853809321 0.25238606884059173 0 -0.092391857727521592 0.25884509119311472 0 -0.091345724210048884 0.23566487628332011 0 -0.13513000223237101 0.23108874617123329 0 -0.12470300375741469 0.2457033751303839 0 -0.1094381109509034 0.22910775334304889 0 -0.11076524853809321 0.25238606884059173 0 -0.12470300375741469 0.2457033751303839 0 -0.1094381109509034 0.22910775334304889 0 -0.13513000223237101 0.23108874617123329 0 -0.1094381109509034 0.22910775334304889 0 -0.13513000223237101 0.23108874617123329 0 -0.1094381109509034 0.22910775334304889 0 -0.1242544958201173 0.21504107598638081 0 -0.1094381109509034 0.22910775334304889 0 -0.10308309726087379 0.20938524897458621 0 -0.091345724210048884 0.23566487628332011 0 -0.1094381109509034 0.22910775334304889 0 -0.10308309726087379 0.20938524897458621 0 -0.1242544958201173 0.21504107598638081 0 -0.12824559693666041 0.19189342117291039 0 -0.10308309726087379 0.20938524897458621 0 -0.1242544958201173 0.21504107598638081 0 -0.12824559693666041 0.19189342117291039 0 -0.099208353538741523 0.18506212787697859 0 -0.12824559693666041 0.19189342117291039 0 -0.099208353538741523 0.18506212787697859 0 -0.10308309726087379 0.20938524897458621 0 -0.099208353538741523 0.18506212787697859 0 -0.070171110140822543 0.1782308345810468 0 -0.078220861930521898 0.21057701145176541 0 -0.070171110140822543 0.1782308345810468 0 -0.078220861930521898 0.21057701145176541 0 -0.056949983849450658 0.19269083667038239 0 -0.099208353538741523 0.18506212787697859 0 -0.10308309726087379 0.20938524897458621 0 -0.078220861930521898 0.21057701145176541 0 -0.078220861930521898 0.21057701145176541 0 -0.056178602179823331 0.21732906463454121 0 -0.056949983849450658 0.19269083667038239 0 -0.10308309726087379 0.20938524897458621 0 -0.078220861930521898 0.21057701145176541 0 -0.091345724210048884 0.23566487628332011 0 -0.078220861930521898 0.21057701145176541 0 -0.069221313838413207 0.24642852661517459 0 -0.091345724210048884 0.23566487628332011 0 -0.078220861930521898 0.21057701145176541 0 -0.069221313838413207 0.24642852661517459 0 -0.056178602179823331 0.21732906463454121 0 -0.092391857727521592 0.25884509119311472 0 -0.069221313838413207 0.24642852661517459 0 -0.091345724210048884 0.23566487628332011 0 -0.033382390283993792 0.24359412621706661 0 -0.046050769949304807 0.23401196203723451 0 -0.025866468353912139 0.2289639569827632 0 -0.048126263350958612 0.25465777805589501 0 -0.033382390283993792 0.24359412621706661 0 -0.046050769949304807 0.23401196203723451 0 -0.048126263350958612 0.25465777805589501 0 -0.069221313838413207 0.24642852661517459 0 -0.046050769949304807 0.23401196203723451 0 -0.069221313838413207 0.24642852661517459 0 -0.046050769949304807 0.23401196203723451 0 -0.069221313838413207 0.24642852661517459 0 -0.046050769949304807 0.23401196203723451 0 -0.056178602179823331 0.21732906463454121 0 -0.046050769949304807 0.23401196203723451 0 -0.03692704292774221 0.2147422921961073 0 -0.025866468353912139 0.2289639569827632 0 -0.046050769949304807 0.23401196203723451 0 -0.03692704292774221 0.2147422921961073 0 -0.056178602179823331 0.21732906463454121 0 -0.03692704292774221 0.2147422921961073 0 -0.056178602179823331 0.21732906463454121 0 -0.044221089124866657 0.20193605474889509 0 -0.03692704292774221 0.2147422921961073 0 -0.044221089124866657 0.20193605474889509 0 -0.032331133115066808 0.19858524020914661 0 -0.056178602179823331 0.21732906463454121 0 -0.056949983849450658 0.19269083667038239 0 -0.044221089124866657 0.20193605474889509 0 -0.056949983849450658 0.19269083667038239 0 -0.040360849617421202 0.18777351164107661 0 -0.044221089124866657 0.20193605474889509 0 -0.040360849617421202 0.18777351164107661 0 -0.032331133115066808 0.19858524020914661 0 -0.026751027678188599 0.18229597604057349 0 -0.040360849617421202 0.18777351164107661 0 -0.044221089124866657 0.20193605474889509 0 -0.032331133115066808 0.19858524020914661 0 -0.016914194843479571 0.2076274745640635 0 -0.026751027678188599 0.18229597604057349 0 -0.032331133115066808 0.19858524020914661 0 -0.016914194843479571 0.2076274745640635 0 -0.026751027678188599 0.18229597604057349 0 -0.01405220631290922 0.19352016069679451 0 -0.016914194843479571 0.2076274745640635 0 -0.026751027678188599 0.18229597604057349 0 -0.01405220631290922 0.19352016069679451 0 -0.0012364494800765971 0.1960628175593882 0 -0.01891215499648707 0.1765136475382359 0 -0.01405220631290922 0.19352016069679451 0 -0.0012364494800765971 0.1960628175593882 0 -0.0064787008301582438 0.20475797647738719 0 -0.0012364494800765971 0.1960628175593882 0 -0.0064787008301582438 0.20475797647738719 0 0.003893562275735573 0.2064819102401671 0 -0.01405220631290922 0.19352016069679451 0 -0.0064787008301582438 0.20475797647738719 0 -0.016914194843479571 0.2076274745640635 0 -0.0045317147067566524 0.21522543551468479 0 -0.016914194843479571 0.2076274745640635 0 -0.0070773620087705444 0.23295897308755351 0 -0.0064787008301582438 0.20475797647738719 0 -0.0045317147067566524 0.21522543551468479 0 -0.016914194843479571 0.2076274745640635 0 -0.0064787008301582438 0.20475797647738719 0 -0.0045317147067566524 0.21522543551468479 0 0.003893562275735573 0.2064819102401671 0 -0.03692704292774221 0.2147422921961073 0 -0.016914194843479571 0.2076274745640635 0 -0.025866468353912139 0.2289639569827632 0 -0.03692704292774221 0.2147422921961073 0 -0.032331133115066808 0.19858524020914661 0 -0.016914194843479571 0.2076274745640635 0 -0.016914194843479571 0.2076274745640635 0 -0.025866468353912139 0.2289639569827632 0 -0.0070773620087705444 0.23295897308755351 0 -0.016914194843479571 0.2076274745640635 0 -0.0070773620087705444 0.23295897308755351 0 -0.0045317147067566524 0.21522543551468479 0 -0.0070773620087705444 0.23295897308755351 0 0.0038866256090455522 0.2239579318999283 0 -0.0070773620087705444 0.23295897308755351 0 0.001894876929373096 0.24743045501984201 0 0.0027594708259384838 0.25829047161104352 0 -0.0070773620087705444 0.23295897308755351 0 0.0027594708259384838 0.25829047161104352 0 -0.0087132352456033638 0.25173417187717928 0 -0.0070773620087705444 0.23295897308755351 0 -0.01778818590069102 0.2421293126167848 0 -0.0087132352456033638 0.25173417187717928 0 -0.0070773620087705444 0.23295897308755351 0 0.0027594708259384838 0.25829047161104352 0 -0.025866468353912139 0.2289639569827632 0 -0.0070773620087705444 0.23295897308755351 0 -0.01778818590069102 0.2421293126167848 0 -0.028053557715267439 0.25838243531431121 0 -0.033382390283993792 0.24359412621706661 0 -0.01778818590069102 0.2421293126167848 0 -0.033382390283993792 0.24359412621706661 0 -0.025866468353912139 0.2289639569827632 0 -0.01778818590069102 0.2421293126167848 0 -0.044416936009294992 0.14744373737619401 0 -0.030319635528424791 0.14770209815471691 0 -0.021396469969749188 0.1374028974533886 0 -0.044416936009294992 0.14744373737619401 0 -0.030319635528424791 0.14770209815471691 0 -0.027639103276038759 0.15537380566908321 0 -0.044416936009294992 0.14744373737619401 0 -0.038116788675066252 0.15302723042411279 0 -0.027639103276038759 0.15537380566908321 0 -0.044416936009294992 0.14744373737619401 0 -0.041458398192443832 0.13942314763129199 0 -0.021396469969749188 0.1374028974533886 0 -0.044416936009294992 0.14744373737619401 0 -0.027639103276038759 0.15537380566908321 0 -0.044416936009294992 0.14744373737619401 0 -0.021396469969749188 0.1374028974533886 0 -0.044416936009294992 0.14744373737619401 0 -0.036587860512897558 0.15696447751708351 0 -0.044416936009294992 0.14744373737619401 0 -0.047012455662473793 0.15786975055381819 0 -0.036587860512897558 0.15696447751708351 0 -0.044416936009294992 0.14744373737619401 0 -0.038116788675066252 0.15302723042411279 0 -0.036587860512897558 0.15696447751708351 0 -0.038116788675066252 0.15302723042411279 0 -0.036587860512897558 0.15696447751708351 0 -0.027639103276038759 0.15537380566908321 0 -0.038116788675066252 0.15302723042411279 0 -0.036587860512897558 0.15696447751708351 0 -0.037500573576258918 0.13069979942664511 0 -0.041458398192443832 0.13942314763129199 0 -0.021396469969749188 0.1374028974533886 0 -0.037500573576258918 0.13069979942664511 0 -0.028643554108799551 0.12806760582925611 0 -0.034668926388748328 0.1237436995229996 0 -0.037500573576258918 0.13069979942664511 0 -0.047589673205635397 0.1324549890601831 0 -0.046884900963607742 0.11986348336078891 0 -0.037500573576258918 0.13069979942664511 0 -0.041458398192443832 0.13942314763129199 0 -0.047589673205635397 0.1324549890601831 0 -0.044416936009294992 0.14744373737619401 0 -0.041458398192443832 0.13942314763129199 0 -0.047589673205635397 0.1324549890601831 0 -0.067315024607703278 0.13662092079142449 0 -0.044416936009294992 0.14744373737619401 0 -0.062016764747578973 0.12884034001808189 0 -0.044416936009294992 0.14744373737619401 0 -0.062016764747578973 0.12884034001808189 0 -0.044416936009294992 0.14744373737619401 0 -0.047589673205635397 0.1324549890601831 0 -0.062016764747578973 0.12884034001808189 0 -0.047589673205635397 0.1324549890601831 0 -0.062016764747578973 0.12884034001808189 0 -0.046884900963607742 0.11986348336078891 0 -0.067315024607703278 0.13662092079142449 0 -0.044416936009294992 0.14744373737619401 0 -0.054361576129613079 0.15178129246158931 0 -0.067315024607703278 0.13662092079142449 0 -0.044416936009294992 0.14744373737619401 0 -0.044416936009294992 0.14744373737619401 0 -0.054361576129613079 0.15178129246158931 0 -0.044416936009294992 0.14744373737619401 0 -0.054361576129613079 0.15178129246158931 0 -0.047012455662473793 0.15786975055381819 0 -0.066369438716585821 0.14892706699039879 0 -0.054361576129613079 0.15178129246158931 0 -0.057722578482997257 0.16273086802879619 0 -0.057722578482997257 0.16273086802879619 0 -0.050411583818504503 0.1777900037548745 0 -0.045636115300606919 0.16650756778262649 0 -0.054361576129613079 0.15178129246158931 0 -0.057722578482997257 0.16273086802879619 0 -0.047012455662473793 0.15786975055381819 0 -0.057722578482997257 0.16273086802879619 0 -0.047012455662473793 0.15786975055381819 0 -0.045636115300606919 0.16650756778262649 0 -0.070171110140822543 0.1782308345810468 0 -0.056949983849450658 0.19269083667038239 0 -0.050411583818504503 0.1777900037548745 0 -0.070171110140822543 0.1782308345810468 0 -0.057722578482997257 0.16273086802879619 0 -0.050411583818504503 0.1777900037548745 0 -0.056949983849450658 0.19269083667038239 0 -0.040360849617421202 0.18777351164107661 0 -0.050411583818504503 0.1777900037548745 0 -0.040360849617421202 0.18777351164107661 0 -0.050411583818504503 0.1777900037548745 0 -0.039949487385523758 0.17426630734724691 0 -0.050411583818504503 0.1777900037548745 0 -0.039949487385523758 0.17426630734724691 0 -0.045636115300606919 0.16650756778262649 0 -0.040360849617421202 0.18777351164107661 0 -0.039949487385523758 0.17426630734724691 0 -0.026751027678188599 0.18229597604057349 0 -0.039949487385523758 0.17426630734724691 0 -0.036587860512897558 0.15696447751708351 0 -0.026751027678188599 0.18229597604057349 0 -0.036587860512897558 0.15696447751708351 0 -0.026751027678188599 0.18229597604057349 0 -0.039949487385523758 0.17426630734724691 0 -0.045636115300606919 0.16650756778262649 0 -0.036587860512897558 0.15696447751708351 0 -0.047012455662473793 0.15786975055381819 0 -0.045636115300606919 0.16650756778262649 0 -0.036587860512897558 0.15696447751708351 0 -0.01891215499648707 0.1765136475382359 0 -0.010861270542782259 0.1633038739619718 0 -0.027639103276038759 0.15537380566908321 0 -0.010861270542782259 0.1633038739619718 0 -0.027639103276038759 0.15537380566908321 0 -0.036587860512897558 0.15696447751708351 0 -0.01891215499648707 0.1765136475382359 0 -0.036587860512897558 0.15696447751708351 0 -0.01891215499648707 0.1765136475382359 0 -0.027639103276038759 0.15537380566908321 0 -0.01405220631290922 0.19352016069679451 0 -0.01891215499648707 0.1765136475382359 0 -0.026751027678188599 0.18229597604057349 0 -0.036587860512897558 0.15696447751708351 0 -0.01891215499648707 0.1765136475382359 0 -0.026751027678188599 0.18229597604057349 0 -0.01891215499648707 0.1765136475382359 0 -0.010861270542782259 0.1633038739619718 0 0.00061104658230836653 0.17769045695541219 0 -0.0012364494800765971 0.1960628175593882 0 -0.01891215499648707 0.1765136475382359 0 0.00061104658230836653 0.17769045695541219 0 -0.0012364494800765971 0.1960628175593882 0 -0.01891215499648707 0.1765136475382359 0 -0.010861270542782259 0.1633038739619718 0 0.001788155555331062 0.1557637096651584 0 0.00061104658230836653 0.17769045695541219 0 -0.01542264584752753 0.14956457798035719 0 -0.015783289274076458 0.13495459563681389 0 0.001788155555331062 0.1557637096651584 0 -0.015783289274076458 0.13495459563681389 0 0.001788155555331062 0.1557637096651584 0 0.01185912902997375 0.14130758542593569 0 -0.010861270542782259 0.1633038739619718 0 -0.01542264584752753 0.14956457798035719 0 0.001788155555331062 0.1557637096651584 0 -0.015783289274076458 0.13495459563681389 0 0.001788155555331062 0.1557637096651584 0 -0.01542264584752753 0.14956457798035719 0 -0.023159931299824549 0.14839209377580129 0 -0.027639103276038759 0.15537380566908321 0 -0.010861270542782259 0.1633038739619718 0 -0.01542264584752753 0.14956457798035719 0 -0.027639103276038759 0.15537380566908321 0 -0.01542264584752753 0.14956457798035719 0 -0.023159931299824549 0.14839209377580129 0 -0.021396469969749188 0.1374028974533886 0 -0.01542264584752753 0.14956457798035719 0 -0.021396469969749188 0.1374028974533886 0 -0.015783289274076458 0.13495459563681389 0 -0.030319635528424791 0.14770209815471691 0 -0.021396469969749188 0.1374028974533886 0 -0.023159931299824549 0.14839209377580129 0 -0.030319635528424791 0.14770209815471691 0 -0.021396469969749188 0.1374028974533886 0 -0.023159931299824549 0.14839209377580129 0 -0.030319635528424791 0.14770209815471691 0 -0.027639103276038759 0.15537380566908321 0 -0.028643554108799551 0.12806760582925611 0 -0.017506847497941139 0.13291345901070739 0 -0.032144953111298558 0.1155781737325411 0 -0.037500573576258918 0.13069979942664511 0 -0.028643554108799551 0.12806760582925611 0 -0.021396469969749188 0.1374028974533886 0 -0.021396469969749188 0.1374028974533886 0 -0.015783289274076458 0.13495459563681389 0 -0.017506847497941139 0.13291345901070739 0 -0.021396469969749188 0.1374028974533886 0 -0.015783289274076458 0.13495459563681389 0 -0.021396469969749188 0.1374028974533886 0 -0.017506847497941139 0.13291345901070739 0 -0.015783289274076458 0.13495459563681389 0 -0.017506847497941139 0.13291345901070739 0 -0.028643554108799551 0.12806760582925611 0 -0.021396469969749188 0.1374028974533886 0 -0.017506847497941139 0.13291345901070739 0 -0.015783289274076458 0.13495459563681389 0 -0.017506847497941139 0.13291345901070739 0 -0.0052228475358298988 0.1187351519746004 0 -0.015783289274076458 0.13495459563681389 0 -0.0052228475358298988 0.1187351519746004 0 0.0081407562022233586 0.1245196413435004 0 -0.017506847497941139 0.13291345901070739 0 -0.0052228475358298988 0.1187351519746004 0 -0.015783289274076458 0.13495459563681389 0 0.0081407562022233586 0.1245196413435004 0 -0.0052228475358298988 0.1187351519746004 0 -0.0040597014752050652 0.1051126182356364 0 -0.02761291541641378 0.1090435214711212 0 -0.017506847497941139 0.13291345901070739 0 -0.0052228475358298988 0.1187351519746004 0 -0.019344259015361451 0.119617058157429 0 -0.0040597014752050652 0.1051126182356364 0 -0.01533391803445322 0.09737838425916874 0 0.0051087594610210148 0.080527692295617709 0 -0.0052228475358298988 0.1187351519746004 0 -0.0040597014752050652 0.1051126182356364 0 0.0092582498306486675 0.1020209346744549 0 -0.0040597014752050652 0.1051126182356364 0 -0.01533391803445322 0.09737838425916874 0 -0.02761291541641378 0.1090435214711212 0 -0.01533391803445322 0.09737838425916874 0 -0.027797722535604891 0.095528124355643507 0 -0.02761291541641378 0.1090435214711212 0 -0.0052228475358298988 0.1187351519746004 0 -0.02761291541641378 0.1090435214711212 0 -0.019344259015361451 0.119617058157429 0 -0.017506847497941139 0.13291345901070739 0 -0.019344259015361451 0.119617058157429 0 -0.032144953111298558 0.1155781737325411 0 -0.02761291541641378 0.1090435214711212 0 -0.019344259015361451 0.119617058157429 0 -0.032144953111298558 0.1155781737325411 0 -0.0052228475358298988 0.1187351519746004 0 -0.02761291541641378 0.1090435214711212 0 -0.017506847497941139 0.13291345901070739 0 -0.032144953111298558 0.1155781737325411 0 -0.0012292332505543029 0.06378464068123596 0 -0.011084303888442551 0.081696622097620714 0 -0.018620569400409771 0.06708533464306303 0 -0.0012292332505543029 0.06378464068123596 0 -0.011084303888442551 0.081696622097620714 0 0.0051087594610210148 0.080527692295617709 0 -0.01533391803445322 0.09737838425916874 0 -0.011084303888442551 0.081696622097620714 0 0.0051087594610210148 0.080527692295617709 0 -0.01533391803445322 0.09737838425916874 0 0.0051087594610210148 0.080527692295617709 0 -0.011084303888442551 0.081696622097620714 0 0.0051087594610210148 0.080527692295617709 0 -0.027797722535604891 0.095528124355643507 0 -0.011084303888442551 0.081696622097620714 0 -0.032921925083363349 0.0833654898886593 0 -0.01533391803445322 0.09737838425916874 0 -0.027797722535604891 0.095528124355643507 0 -0.011084303888442551 0.081696622097620714 0 -0.018620569400409771 0.06708533464306303 0 -0.031868141831282552 0.069818555696904067 0 -0.028283535649973771 0.053358049395037133 0 -0.018620569400409771 0.06708533464306303 0 -0.031868141831282552 0.069818555696904067 0 -0.032921925083363349 0.0833654898886593 0 -0.011084303888442551 0.081696622097620714 0 -0.018620569400409771 0.06708533464306303 0 -0.032921925083363349 0.0833654898886593 0 -0.046276495737503101 0.06795068115397529 0 -0.032921925083363349 0.0833654898886593 0 -0.055882409073029139 0.082732437330199013 0 -0.046276495737503101 0.06795068115397529 0 -0.031868141831282552 0.069818555696904067 0 -0.028283535649973771 0.053358049395037133 0 -0.046276495737503101 0.06795068115397529 0 -0.031868141831282552 0.069818555696904067 0 -0.032921925083363349 0.0833654898886593 0 -0.027797722535604891 0.095528124355643507 0 -0.032921925083363349 0.0833654898886593 0 -0.050002983296997462 0.099351890967641507 0 -0.032921925083363349 0.0833654898886593 0 -0.055882409073029139 0.082732437330199013 0 -0.050002983296997462 0.099351890967641507 0 -0.055882409073029139 0.082732437330199013 0 -0.050002983296997462 0.099351890967641507 0 -0.072393051177581158 0.089660260464161839 0 -0.046276495737503101 0.06795068115397529 0 -0.055882409073029139 0.082732437330199013 0 -0.062589921296568873 0.06642957971461419 0 -0.032144953111298558 0.1155781737325411 0 -0.050002983296997462 0.099351890967641507 0 -0.046884900963607742 0.11986348336078891 0 -0.037500573576258918 0.13069979942664511 0 -0.034668926388748328 0.1237436995229996 0 -0.046884900963607742 0.11986348336078891 0 -0.028643554108799551 0.12806760582925611 0 -0.034668926388748328 0.1237436995229996 0 -0.032144953111298558 0.1155781737325411 0 -0.034668926388748328 0.1237436995229996 0 -0.032144953111298558 0.1155781737325411 0 -0.046884900963607742 0.11986348336078891 0 -0.027797722535604891 0.095528124355643507 0 -0.02761291541641378 0.1090435214711212 0 -0.050002983296997462 0.099351890967641507 0 -0.02761291541641378 0.1090435214711212 0 -0.050002983296997462 0.099351890967641507 0 -0.02761291541641378 0.1090435214711212 0 -0.032144953111298558 0.1155781737325411 0 -0.050002983296997462 0.099351890967641507 0 -0.050002983296997462 0.099351890967641507 0 -0.072393051177581158 0.089660260464161839 0 -0.050002983296997462 0.099351890967641507 0 -0.062115440392200259 0.1100516779477724 0 -0.072393051177581158 0.089660260464161839 0 -0.062016764747578973 0.12884034001808189 0 -0.062115440392200259 0.1100516779477724 0 -0.046884900963607742 0.11986348336078891 0 -0.050002983296997462 0.099351890967641507 0 -0.062115440392200259 0.1100516779477724 0 -0.046884900963607742 0.11986348336078891 0 -0.062016764747578973 0.12884034001808189 0 -0.062115440392200259 0.1100516779477724 0 -0.07825578499994286 0.1108801308713713 0 -0.062016764747578973 0.12884034001808189 0 -0.07825578499994286 0.1108801308713713 0 -0.062016764747578973 0.12884034001808189 0 -0.075786521408142987 0.12443322189858901 0 -0.07825578499994286 0.1108801308713713 0 -0.088852304720190942 0.12644129241805541 0 -0.075786521408142987 0.12443322189858901 0 -0.083719546898917335 0.119699814685821 0 -0.083719546898917335 0.119699814685821 0 -0.07825578499994286 0.1108801308713713 0 -0.093946486761182085 0.1175508364221631 0 -0.075786521408142987 0.12443322189858901 0 -0.083719546898917335 0.119699814685821 0 -0.07825578499994286 0.1108801308713713 0 -0.088852304720190942 0.12644129241805541 0 -0.083719546898917335 0.119699814685821 0 -0.093946486761182085 0.1175508364221631 0 -0.07825578499994286 0.1108801308713713 0 -0.072393051177581158 0.089660260464161839 0 -0.094494805252306774 0.092919921724660626 0 -0.07825578499994286 0.1108801308713713 0 -0.094494805252306774 0.092919921724660626 0 -0.093946486761182085 0.1175508364221631 0 -0.07825578499994286 0.1108801308713713 0 -0.094494805252306774 0.092919921724660626 0 -0.062115440392200259 0.1100516779477724 0 -0.07825578499994286 0.1108801308713713 0 -0.072393051177581158 0.089660260464161839 0 -0.055882409073029139 0.082732437330199013 0 -0.072393051177581158 0.089660260464161839 0 -0.062589921296568873 0.06642957971461419 0 -0.072393051177581158 0.089660260464161839 0 -0.062589921296568873 0.06642957971461419 0 -0.079461892795990779 0.070449194571112136 0 -0.062589921296568873 0.06642957971461419 0 -0.079461892795990779 0.070449194571112136 0 -0.072380178782229632 0.053292134703331731 0 -0.079461892795990779 0.070449194571112136 0 -0.094783119058163612 0.079968629960679383 0 -0.095163193665411511 0.062895368012773595 0 -0.072393051177581158 0.089660260464161839 0 -0.079461892795990779 0.070449194571112136 0 -0.094783119058163612 0.079968629960679383 0 -0.072393051177581158 0.089660260464161839 0 -0.094494805252306774 0.092919921724660626 0 -0.094783119058163612 0.079968629960679383 0 -0.072393051177581158 0.089660260464161839 0 -0.094783119058163612 0.079968629960679383 0 -0.094494805252306774 0.092919921724660626 0 -0.1072570836689255 0.074569224449017327 0 -0.1143352617609841 0.070976556735617355 0 -0.094494805252306774 0.092919921724660626 0 -0.094783119058163612 0.079968629960679383 0 -0.1072570836689255 0.074569224449017327 0 -0.094494805252306774 0.092919921724660626 0 -0.094783119058163612 0.079968629960679383 0 -0.094494805252306774 0.092919921724660626 0 -0.1143352617609841 0.070976556735617355 0 -0.11134444788944529 0.091345452974062963 0 -0.094494805252306774 0.092919921724660626 0 -0.1143352617609841 0.070976556735617355 0 -0.094783119058163612 0.079968629960679383 0 -0.095163193665411511 0.062895368012773595 0 -0.094783119058163612 0.079968629960679383 0 -0.095163193665411511 0.062895368012773595 0 -0.1072570836689255 0.074569224449017327 0 -0.095163193665411511 0.062895368012773595 0 -0.1143352617609841 0.070976556735617355 0 -0.1079186055395126 0.059947093390224047 0 -0.095163193665411511 0.062895368012773595 0 -0.1072570836689255 0.074569224449017327 0 -0.1143352617609841 0.070976556735617355 0 -0.095163193665411511 0.062895368012773595 0 -0.1143352617609841 0.070976556735617355 0 -0.094783119058163612 0.079968629960679383 0 -0.1072570836689255 0.074569224449017327 0 -0.1131683311422218 0.062814464837820119 0 -0.1163519950294771 0.068746068028026575 0 -0.1143352617609841 0.070976556735617355 0 -0.1131683311422218 0.062814464837820119 0 -0.1143352617609841 0.070976556735617355 0 -0.1079186055395126 0.059947093390224047 0 -0.1131683311422218 0.062814464837820119 0 -0.1163519950294771 0.068746068028026575 0 -0.1185872066977806 0.063729502839677182 0 -0.1163519950294771 0.068746068028026575 0 -0.1143352617609841 0.070976556735617355 0 -0.12697985749263241 0.07630636069427757 0 -0.1143352617609841 0.070976556735617355 0 -0.12697985749263241 0.07630636069427757 0 -0.1143352617609841 0.070976556735617355 0 -0.1200161930876608 0.081776906418299489 0 -0.12697985749263241 0.07630636069427757 0 -0.1163519950294771 0.068746068028026575 0 -0.1143352617609841 0.070976556735617355 0 -0.12697985749263241 0.07630636069427757 0 -0.12509646681095879 0.065597408261105467 0 -0.1163519950294771 0.068746068028026575 0 -0.12509646681095879 0.065597408261105467 0 -0.1163519950294771 0.068746068028026575 0 -0.1185872066977806 0.063729502839677182 0 -0.13359630628803579 0.098968800084119873 0 -0.12697672020224329 0.087309090757334687 0 -0.11134444788944529 0.091345452974062963 0 -0.1143352617609841 0.070976556735617355 0 -0.11134444788944529 0.091345452974062963 0 -0.1200161930876608 0.081776906418299489 0 -0.12697672020224329 0.087309090757334687 0 -0.11134444788944529 0.091345452974062963 0 -0.1200161930876608 0.081776906418299489 0 -0.12697672020224329 0.087309090757334687 0 -0.12697985749263241 0.07630636069427757 0 -0.1200161930876608 0.081776906418299489 0 -0.12607259725238279 0.11330641960449821 0 -0.13359630628803579 0.098968800084119873 0 -0.11123038207674001 0.1082681122756106 0 -0.13359630628803579 0.098968800084119873 0 -0.11134444788944529 0.091345452974062963 0 -0.11123038207674001 0.1082681122756106 0 -0.13359630628803579 0.098968800084119873 0 -0.11123038207674001 0.1082681122756106 0 -0.11134444788944529 0.091345452974062963 0 -0.11123038207674001 0.1082681122756106 0 -0.1057361510920251 0.099277959283072717 0 -0.12607259725238279 0.11330641960449821 0 -0.11123038207674001 0.1082681122756106 0 -0.11706151063611089 0.1208882391850464 0 -0.12607259725238279 0.11330641960449821 0 -0.12916618827146031 0.12390190950899049 0 -0.11706151063611089 0.1208882391850464 0 -0.11473911200363 0.13153944404780621 0 -0.11706151063611089 0.1208882391850464 0 -0.10601879130899509 0.12208205668825579 0 -0.1036345166478785 0.1154037657297244 0 -0.093946486761182085 0.1175508364221631 0 -0.097511277885226108 0.1010939306234323 0 -0.11123038207674001 0.1082681122756106 0 -0.11706151063611089 0.1208882391850464 0 -0.097511277885226108 0.1010939306234323 0 -0.11706151063611089 0.1208882391850464 0 -0.1036345166478785 0.1154037657297244 0 -0.097511277885226108 0.1010939306234323 0 -0.11706151063611089 0.1208882391850464 0 -0.097511277885226108 0.1010939306234323 0 -0.11706151063611089 0.1208882391850464 0 -0.1036345166478785 0.1154037657297244 0 -0.10601879130899509 0.12208205668825579 0 -0.1039338124667491 0.13009472872812991 0 -0.10601879130899509 0.12208205668825579 0 -0.093946486761182085 0.1175508364221631 0 -0.1036345166478785 0.1154037657297244 0 -0.10601879130899509 0.12208205668825579 0 -0.093946486761182085 0.1175508364221631 0 -0.094494805252306774 0.092919921724660626 0 -0.11134444788944529 0.091345452974062963 0 -0.1057361510920251 0.099277959283072717 0 -0.094494805252306774 0.092919921724660626 0 -0.093946486761182085 0.1175508364221631 0 -0.094494805252306774 0.092919921724660626 0 -0.093946486761182085 0.1175508364221631 0 -0.097511277885226108 0.1010939306234323 0 -0.094494805252306774 0.092919921724660626 0 -0.097511277885226108 0.1010939306234323 0 -0.1057361510920251 0.099277959283072717 0 -0.11123038207674001 0.1082681122756106 0 -0.097511277885226108 0.1010939306234323 0 -0.1057361510920251 0.099277959283072717 0 -0.1001339578063882 0.022436777626384768 0 -0.09536928659882779 0.01424719335382847 0 -0.1128440433065038 0.01636018592503535 0 -0.1001339578063882 0.022436777626384768 0 -0.1128440433065038 0.01636018592503535 0 -0.1012358460944251 0.033108064834657697 0 -0.1128440433065038 0.01636018592503535 0 -0.11393466639619521 0.035004472642448957 0 -0.1012358460944251 0.033108064834657697 0 -0.1128440433065038 0.01636018592503535 0 -0.1012358460944251 0.033108064834657697 0 -0.1001339578063882 0.022436777626384768 0 -0.1012358460944251 0.033108064834657697 0 -0.091086655225796079 0.026031666392017531 0 -0.1001339578063882 0.022436777626384768 0 -0.09536928659882779 0.01424719335382847 0 -0.091086655225796079 0.026031666392017531 0 -0.10394313851700079 0.0020556251079679459 0 -0.09536928659882779 0.01424719335382847 0 -0.085958893623968774 0.001514634656162053 0 -0.10394313851700079 0.0020556251079679459 0 -0.09536928659882779 0.01424719335382847 0 -0.1128440433065038 0.01636018592503535 0 -0.1244522405185825 -0.00038769298458709092 0 -0.12424451236807239 0.027069144312366941 0 -0.1244522405185825 -0.00038769298458709092 0 -0.1128440433065038 0.01636018592503535 0 -0.12424451236807239 0.027069144312366941 0 -0.1244522405185825 -0.00038769298458709092 0 -0.1128440433065038 0.01636018592503535 0 -0.1244522405185825 -0.00038769298458709092 0 -0.10394313851700079 0.0020556251079679459 0 -0.1128440433065038 0.01636018592503535 0 -0.1128440433065038 0.01636018592503535 0 -0.12424451236807239 0.027069144312366941 0 -0.11393466639619521 0.035004472642448957 0 -0.12424451236807239 0.027069144312366941 0 -0.12075472355362291 0.04122338309529356 0 -0.11393466639619521 0.035004472642448957 0 -0.12075472355362291 0.04122338309529356 0 -0.1244920148619628 0.050381604022983993 0 -0.1151670195775447 0.0482238646449 0 -0.11393466639619521 0.035004472642448957 0 -0.1151670195775447 0.0482238646449 0 -0.10635909785250069 0.04125385698526951 0 -0.12075472355362291 0.04122338309529356 0 -0.11393466639619521 0.035004472642448957 0 -0.1151670195775447 0.0482238646449 0 -0.12509646681095879 0.065597408261105467 0 -0.1185872066977806 0.063729502839677182 0 -0.1197320338084647 0.057760070231756527 0 -0.1197320338084647 0.057760070231756527 0 -0.1244920148619628 0.050381604022983993 0 -0.1151670195775447 0.0482238646449 0 -0.1151670195775447 0.0482238646449 0 -0.1125210466915524 0.054978807834542787 0 -0.1051700993263314 0.050476507920077678 0 -0.1197320338084647 0.057760070231756527 0 -0.1151670195775447 0.0482238646449 0 -0.1125210466915524 0.054978807834542787 0 -0.1131683311422218 0.062814464837820119 0 -0.1197320338084647 0.057760070231756527 0 -0.1125210466915524 0.054978807834542787 0 -0.1131683311422218 0.062814464837820119 0 -0.1125210466915524 0.054978807834542787 0 -0.1079186055395126 0.059947093390224047 0 -0.1131683311422218 0.062814464837820119 0 -0.1185872066977806 0.063729502839677182 0 -0.1197320338084647 0.057760070231756527 0 -0.095163193665411511 0.062895368012773595 0 -0.1051700993263314 0.050476507920077678 0 -0.095336714328198874 0.041619114628837717 0 -0.095163193665411511 0.062895368012773595 0 -0.095336714328198874 0.041619114628837717 0 -0.1125210466915524 0.054978807834542787 0 -0.1079186055395126 0.059947093390224047 0 -0.1051700993263314 0.050476507920077678 0 -0.095163193665411511 0.062895368012773595 0 -0.1079186055395126 0.059947093390224047 0 -0.1051700993263314 0.050476507920077678 0 -0.11393466639619521 0.035004472642448957 0 -0.10635909785250069 0.04125385698526951 0 -0.1012358460944251 0.033108064834657697 0 -0.1051700993263314 0.050476507920077678 0 -0.10635909785250069 0.04125385698526951 0 -0.095336714328198874 0.041619114628837717 0 -0.1151670195775447 0.0482238646449 0 -0.1051700993263314 0.050476507920077678 0 -0.10635909785250069 0.04125385698526951 0 -0.095336714328198874 0.041619114628837717 0 -0.1012358460944251 0.033108064834657697 0 -0.08853862327275358 0.036894035852943478 0 -0.10635909785250069 0.04125385698526951 0 -0.095336714328198874 0.041619114628837717 0 -0.1012358460944251 0.033108064834657697 0 -0.095336714328198874 0.041619114628837717 0 -0.1012358460944251 0.033108064834657697 0 -0.1012358460944251 0.033108064834657697 0 -0.08853862327275358 0.036894035852943478 0 -0.091086655225796079 0.026031666392017531 0 -0.08853862327275358 0.036894035852943478 0 -0.081088353484909961 0.032020518526829703 0 -0.091086655225796079 0.026031666392017531 0 -0.08853862327275358 0.036894035852943478 0 -0.079654612676290371 0.043453985766932421 0 -0.089627648882346422 0.049855943744280047 0 -0.095336714328198874 0.041619114628837717 0 -0.08853862327275358 0.036894035852943478 0 -0.089627648882346422 0.049855943744280047 0 -0.095336714328198874 0.041619114628837717 0 -0.089627648882346422 0.049855943744280047 0 -0.08853862327275358 0.036894035852943478 0 -0.079654612676290371 0.043453985766932421 0 -0.081088353484909961 0.032020518526829703 0 -0.095163193665411511 0.062895368012773595 0 -0.089627648882346422 0.049855943744280047 0 -0.072380178782229632 0.053292134703331731 0 -0.095163193665411511 0.062895368012773595 0 -0.095336714328198874 0.041619114628837717 0 -0.089627648882346422 0.049855943744280047 0 -0.095163193665411511 0.062895368012773595 0 -0.072380178782229632 0.053292134703331731 0 -0.079461892795990779 0.070449194571112136 0 -0.095163193665411511 0.062895368012773595 0 -0.072380178782229632 0.053292134703331731 0 -0.079654612676290371 0.043453985766932421 0 -0.089627648882346422 0.049855943744280047 0 -0.072380178782229632 0.053292134703331731 0 -0.079654612676290371 0.043453985766932421 0 -0.072380178782229632 0.053292134703331731 0 -0.065785112224924183 0.037111289768743512 0 -0.072380178782229632 0.053292134703331731 0 -0.065785112224924183 0.037111289768743512 0 -0.049597163899048183 0.043688901393888827 0 -0.079654612676290371 0.043453985766932421 0 -0.081088353484909961 0.032020518526829703 0 -0.065785112224924183 0.037111289768743512 0 -0.081088353484909961 0.032020518526829703 0 -0.065785112224924183 0.037111289768743512 0 -0.069646162847898541 0.026335067629459381 0 -0.069646162847898541 0.026335067629459381 0 -0.076118231742993758 0.01527396050979404 0 -0.05559295393876626 0.02093450171247024 0 -0.065785112224924183 0.037111289768743512 0 -0.069646162847898541 0.026335067629459381 0 -0.05559295393876626 0.02093450171247024 0 -0.081088353484909961 0.032020518526829703 0 -0.069646162847898541 0.026335067629459381 0 -0.076118231742993758 0.01527396050979404 0 -0.081088353484909961 0.032020518526829703 0 -0.091086655225796079 0.026031666392017531 0 -0.076118231742993758 0.01527396050979404 0 -0.09536928659882779 0.01424719335382847 0 -0.091086655225796079 0.026031666392017531 0 -0.076118231742993758 0.01527396050979404 0 -0.09536928659882779 0.01424719335382847 0 -0.085958893623968774 0.001514634656162053 0 -0.076118231742993758 0.01527396050979404 0 -0.076118231742993758 0.01527396050979404 0 -0.065648076432031049 0.00090955339710942099 0 -0.05559295393876626 0.02093450171247024 0 -0.085958893623968774 0.001514634656162053 0 -0.076118231742993758 0.01527396050979404 0 -0.065648076432031049 0.00090955339710942099 0 -0.045118160941850949 -0.00049033847668307538 0 -0.065648076432031049 0.00090955339710942099 0 -0.05559295393876626 0.02093450171247024 0 -0.05559295393876626 0.02093450171247024 0 -0.041197297059898302 0.028587588038626519 0 -0.049597163899048183 0.043688901393888827 0 -0.05559295393876626 0.02093450171247024 0 -0.032784921385912158 0.01564128096370114 0 -0.041197297059898302 0.028587588038626519 0 -0.032784921385912158 0.01564128096370114 0 -0.041197297059898302 0.028587588038626519 0 -0.02681414901586664 0.034085668084445887 0 -0.045118160941850949 -0.00049033847668307538 0 -0.05559295393876626 0.02093450171247024 0 -0.032784921385912158 0.01564128096370114 0 -0.045118160941850949 -0.00049033847668307538 0 -0.027025641752002061 -0.0079319500279313396 0 -0.032784921385912158 0.01564128096370114 0 -0.062589921296568873 0.06642957971461419 0 -0.072380178782229632 0.053292134703331731 0 -0.049597163899048183 0.043688901393888827 0 -0.046276495737503101 0.06795068115397529 0 -0.062589921296568873 0.06642957971461419 0 -0.049597163899048183 0.043688901393888827 0 -0.072380178782229632 0.053292134703331731 0 -0.049597163899048183 0.043688901393888827 0 -0.065785112224924183 0.037111289768743512 0 -0.05559295393876626 0.02093450171247024 0 -0.049597163899048183 0.043688901393888827 0 -0.049597163899048183 0.043688901393888827 0 -0.02681414901586664 0.034085668084445887 0 -0.041197297059898302 0.028587588038626519 0 -0.049597163899048183 0.043688901393888827 0 -0.02681414901586664 0.034085668084445887 0 -0.049597163899048183 0.043688901393888827 0 -0.028283535649973771 0.053358049395037133 0 -0.02681414901586664 0.034085668084445887 0 -0.046276495737503101 0.06795068115397529 0 -0.028283535649973771 0.053358049395037133 0 -0.046276495737503101 0.06795068115397529 0 -0.049597163899048183 0.043688901393888827 0 -0.028283535649973771 0.053358049395037133 0 -0.028283535649973771 0.053358049395037133 0 -0.010290575562444429 0.038765417636098962 0 -0.0097640400442320502 0.053032197103308337 0 -0.018620569400409771 0.06708533464306303 0 -0.028283535649973771 0.053358049395037133 0 -0.0097640400442320502 0.053032197103308337 0 -0.028283535649973771 0.053358049395037133 0 -0.010290575562444429 0.038765417636098962 0 -0.02681414901586664 0.034085668084445887 0 -0.010290575562444429 0.038765417636098962 0 -0.020835528804160591 0.022374223573919171 0 -0.028283535649973771 0.053358049395037133 0 -0.02681414901586664 0.034085668084445887 0 -0.010290575562444429 0.038765417636098962 0 -0.010290575562444429 0.038765417636098962 0 0.0077023845250848884 0.024172785877160811 0 -0.010290575562444429 0.038765417636098962 0 -0.0034349793211087142 0.044893397967285961 0 0.0047272217829380687 0.036246676438490527 0 -0.010290575562444429 0.038765417636098962 0 -0.0034349793211087142 0.044893397967285961 0 -0.0097640400442320502 0.053032197103308337 0 -0.0012292332505543029 0.06378464068123596 0 -0.018620569400409771 0.06708533464306303 0 -0.0097640400442320502 0.053032197103308337 0 -0.0034349793211087142 0.044893397967285961 0 -0.0097640400442320502 0.053032197103308337 0 0.0015874765393035599 0.051529300691246019 0 -0.0012292332505543029 0.06378464068123596 0 -0.0097640400442320502 0.053032197103308337 0 0.0015874765393035599 0.051529300691246019 0 -0.027025641752002061 -0.0079319500279313396 0 -0.032784921385912158 0.01564128096370114 0 -0.01566814095190756 0.010235570601176981 0 -0.032784921385912158 0.01564128096370114 0 -0.02681414901586664 0.034085668084445887 0 -0.020835528804160591 0.022374223573919171 0 -0.032784921385912158 0.01564128096370114 0 -0.01566814095190756 0.010235570601176981 0 -0.020835528804160591 0.022374223573919171 0 -0.010290575562444429 0.038765417636098962 0 -0.020835528804160591 0.022374223573919171 0 -0.0077262750329500059 0.02266504195052366 0 -0.01566814095190756 0.010235570601176981 0 -0.020835528804160591 0.022374223573919171 0 -0.0077262750329500059 0.02266504195052366 0 -0.010290575562444429 0.038765417636098962 0 -0.0077262750329500059 0.02266504195052366 0 0.0077023845250848884 0.024172785877160811 0 -0.0091716063734174208 -0.003332990253060792 0 -0.01566814095190756 0.010235570601176981 0 0.001118487675879971 0.0096665619175221752 0 -0.0091716063734174208 -0.003332990253060792 0 0.001118487675879971 0.0096665619175221752 0 0.006935528729737548 -0.0054826371559186567 0 -0.01566814095190756 0.010235570601176981 0 -0.0077262750329500059 0.02266504195052366 0 0.001118487675879971 0.0096665619175221752 0 0.001118487675879971 0.0096665619175221752 0 0.0077023845250848884 0.024172785877160811 0 0.025695344612614111 0.0095801541182225364 0 0.001118487675879971 0.0096665619175221752 0 0.025695344612614111 0.0095801541182225364 0 0.006935528729737548 -0.0054826371559186567 0 -0.0077262750329500059 0.02266504195052366 0 0.001118487675879971 0.0096665619175221752 0 0.0077023845250848884 0.024172785877160811 0 0.0077023845250848884 0.024172785877160811 0 0.024648998497944961 0.02642224341189468 0 0.015911730558903318 0.034762274935307848 0 0.024648998497944961 0.02642224341189468 0 0.025695344612614111 0.0095801541182225364 0 0.038363400138324961 0.019751697241263279 0 0.0077023845250848884 0.024172785877160811 0 0.024648998497944961 0.02642224341189468 0 0.025695344612614111 0.0095801541182225364 0 0.0077023845250848884 0.024172785877160811 0 0.025695344612614111 0.0095801541182225364 0 0.025695344612614111 0.0095801541182225364 0 0.006935528729737548 -0.0054826371559186567 0 0.01459521235494949 0.061710637509134872 0 0.0047272217829380687 0.036246676438490527 0 -0.0012292332505543029 0.06378464068123596 0 0.01459521235494949 0.061710637509134872 0 0.0015874765393035599 0.051529300691246019 0 0.01459521235494949 0.061710637509134872 0 0.0015874765393035599 0.051529300691246019 0 0.0047272217829380687 0.036246676438490527 0 0.01459521235494949 0.061710637509134872 0 0.0047272217829380687 0.036246676438490527 0 0.016570281580619739 0.045526930476817662 0 -0.010290575562444429 0.038765417636098962 0 0.0077023845250848884 0.024172785877160811 0 0.0047272217829380687 0.036246676438490527 0 -0.0034349793211087142 0.044893397967285961 0 0.0015874765393035599 0.051529300691246019 0 0.0047272217829380687 0.036246676438490527 0 0.0047272217829380687 0.036246676438490527 0 0.015911730558903318 0.034762274935307848 0 0.016570281580619739 0.045526930476817662 0 0.0077023845250848884 0.024172785877160811 0 0.0047272217829380687 0.036246676438490527 0 0.015911730558903318 0.034762274935307848 0 0.024648998497944961 0.02642224341189468 0 0.015911730558903318 0.034762274935307848 0 0.025892041879535671 0.039420421904702428 0 0.024648998497944961 0.02642224341189468 0 0.025892041879535671 0.039420421904702428 0 0.038236142792751733 0.035111405712831077 0 0.015911730558903318 0.034762274935307848 0 0.025892041879535671 0.039420421904702428 0 0.016570281580619739 0.045526930476817662 0 0.025892041879535671 0.039420421904702428 0 0.016570281580619739 0.045526930476817662 0 0.021716339062575678 0.05448348331271597 0 0.01459521235494949 0.061710637509134872 0 0.016570281580619739 0.045526930476817662 0 0.021716339062575678 0.05448348331271597 0 0.01459521235494949 0.061710637509134872 0 0.021716339062575678 0.05448348331271597 0 0.030459386295035529 0.05963142741263059 0 0.01459521235494949 0.061710637509134872 0 0.030459386295035529 0.05963142741263059 0 0.021716339062575678 0.05448348331271597 0 0.030459386295035529 0.05963142741263059 0 0.032703710623893968 0.046893395464013943 0 0.025892041879535671 0.039420421904702428 0 0.021716339062575678 0.05448348331271597 0 0.032703710623893968 0.046893395464013943 0 0.030459386295035529 0.05963142741263059 0 0.032703710623893968 0.046893395464013943 0 0.047214643089571059 0.045820238977188371 0 0.030459386295035529 0.05963142741263059 0 0.04797297407010033 0.057336039788577382 0 0.030459386295035529 0.05963142741263059 0 0.04797297407010033 0.057336039788577382 0 0.027635028654909001 0.06907575978797427 0 0.030459386295035529 0.05963142741263059 0 0.047214643089571059 0.045820238977188371 0 0.04797297407010033 0.057336039788577382 0 0.030459386295035529 0.05963142741263059 0 0.047214643089571059 0.045820238977188371 0 0.038236142792751733 0.035111405712831077 0 0.047214643089571059 0.045820238977188371 0 0.051031455664035288 0.029923240364304559 0 0.032703710623893968 0.046893395464013943 0 0.038236142792751733 0.035111405712831077 0 0.047214643089571059 0.045820238977188371 0 0.025892041879535671 0.039420421904702428 0 0.032703710623893968 0.046893395464013943 0 0.038236142792751733 0.035111405712831077 0 0.062359133547200143 0.040731400683572692 0 0.047214643089571059 0.045820238977188371 0 0.063969899884107562 0.032009050541747332 0 0.047214643089571059 0.045820238977188371 0 0.063969899884107562 0.032009050541747332 0 0.047214643089571059 0.045820238977188371 0 0.051031455664035288 0.029923240364304559 0 0.063969899884107562 0.032009050541747332 0 0.062359133547200143 0.040731400683572692 0 0.04797297407010033 0.057336039788577382 0 0.072379857481358154 0.054137194478101919 0 0.04797297407010033 0.057336039788577382 0 0.072379857481358154 0.054137194478101919 0 0.062359133547200143 0.040731400683572692 0 0.04797297407010033 0.057336039788577382 0 0.062359133547200143 0.040731400683572692 0 0.047214643089571059 0.045820238977188371 0 0.04797297407010033 0.057336039788577382 0 0.04797297407010033 0.057336039788577382 0 0.072379857481358154 0.054137194478101919 0 0.06072113176624426 0.066105246874810966 0 0.040835927619124697 0.0088703260301804514 0 0.038363400138324961 0.019751697241263279 0 0.051939500327619889 0.017318508583630769 0 0.040835927619124697 0.0088703260301804514 0 0.046640351189982193 0.001482106492276504 0 0.040314465242246092 -0.002276229875846851 0 0.025695344612614111 0.0095801541182225364 0 0.040314465242246092 -0.002276229875846851 0 0.025695344612614111 0.0095801541182225364 0 0.040835927619124697 0.0088703260301804514 0 0.040314465242246092 -0.002276229875846851 0 0.025695344612614111 0.0095801541182225364 0 0.040835927619124697 0.0088703260301804514 0 0.038363400138324961 0.019751697241263279 0 0.025695344612614111 0.0095801541182225364 0 0.038363400138324961 0.019751697241263279 0 0.024648998497944961 0.02642224341189468 0 0.038236142792751733 0.035111405712831077 0 0.038363400138324961 0.019751697241263279 0 0.038363400138324961 0.019751697241263279 0 0.051031455664035288 0.029923240364304559 0 0.038236142792751733 0.035111405712831077 0 0.038363400138324961 0.019751697241263279 0 0.051031455664035288 0.029923240364304559 0 0.038363400138324961 0.019751697241263279 0 0.051939500327619889 0.017318508583630769 0 0.051031455664035288 0.029923240364304559 0 0.051031455664035288 0.029923240364304559 0 0.062107590562420073 0.0228568457980407 0 0.063969899884107562 0.032009050541747332 0 0.051939500327619889 0.017318508583630769 0 0.062107590562420073 0.0228568457980407 0 0.064696567818308529 0.01472149906873369 0 0.051939500327619889 0.017318508583630769 0 0.051031455664035288 0.029923240364304559 0 0.062107590562420073 0.0228568457980407 0 0.055514373943813228 0.0067304088365214816 0 0.075461568133428525 0.0044331687040122013 0 0.049896637954744763 -0.0073960790217490677 0 0.051939500327619889 0.017318508583630769 0 0.055514373943813228 0.0067304088365214816 0 0.064696567818308529 0.01472149906873369 0 0.040835927619124697 0.0088703260301804514 0 0.051939500327619889 0.017318508583630769 0 0.055514373943813228 0.0067304088365214816 0 0.046640351189982193 0.001482106492276504 0 0.055514373943813228 0.0067304088365214816 0 0.049896637954744763 -0.0073960790217490677 0 0.040835927619124697 0.0088703260301804514 0 0.046640351189982193 0.001482106492276504 0 0.055514373943813228 0.0067304088365214816 0 0.075461568133428525 0.0044331687040122013 0 0.064696567818308529 0.01472149906873369 0 0.08072515667864405 0.018197862106306289 0 0.055514373943813228 0.0067304088365214816 0 0.075461568133428525 0.0044331687040122013 0 0.064696567818308529 0.01472149906873369 0 0.075461568133428525 0.0044331687040122013 0 0.1010264983121123 0.016262416429773479 0 0.075461568133428525 0.0044331687040122013 0 0.1010264983121123 0.016262416429773479 0 0.098011391193308373 -0.0056982583262641584 0 0.075461568133428525 0.0044331687040122013 0 0.08072515667864405 0.018197862106306289 0 0.1010264983121123 0.016262416429773479 0 0.088041666307225416 0.02743399724937181 0 0.08072515667864405 0.018197862106306289 0 0.1010264983121123 0.016262416429773479 0 0.088041666307225416 0.02743399724937181 0 0.08072515667864405 0.018197862106306289 0 0.076745293024301803 0.02412676157856956 0 0.088041666307225416 0.02743399724937181 0 0.076745293024301803 0.02412676157856956 0 0.082258845210710349 0.03253561428057717 0 0.08072515667864405 0.018197862106306289 0 0.076745293024301803 0.02412676157856956 0 0.063969899884107562 0.032009050541747332 0 0.062107590562420073 0.0228568457980407 0 0.064696567818308529 0.01472149906873369 0 0.08072515667864405 0.018197862106306289 0 0.08072515667864405 0.018197862106306289 0 0.063969899884107562 0.032009050541747332 0 0.062107590562420073 0.0228568457980407 0 0.08072515667864405 0.018197862106306289 0 0.063969899884107562 0.032009050541747332 0 0.062359133547200143 0.040731400683572692 0 0.076745293024301803 0.02412676157856956 0 0.062359133547200143 0.040731400683572692 0 0.076745293024301803 0.02412676157856956 0 0.076375628159171968 0.038405412939545532 0 0.062359133547200143 0.040731400683572692 0 0.076745293024301803 0.02412676157856956 0 0.063969899884107562 0.032009050541747332 0 0.062359133547200143 0.040731400683572692 0 0.076375628159171968 0.038405412939545532 0 0.072379857481358154 0.054137194478101919 0 0.072379857481358154 0.054137194478101919 0 0.087872793352142223 0.040176285354821803 0 0.096786740892615686 0.050938349167624693 0 0.072379857481358154 0.054137194478101919 0 0.096786740892615686 0.050938349167624693 0 0.072379857481358154 0.054137194478101919 0 0.096786740892615686 0.050938349167624693 0 0.089592915186254174 0.067390154600646832 0 0.076375628159171968 0.038405412939545532 0 0.072379857481358154 0.054137194478101919 0 0.087872793352142223 0.040176285354821803 0 0.076375628159171968 0.038405412939545532 0 0.082258845210710349 0.03253561428057717 0 0.087872793352142223 0.040176285354821803 0 0.076745293024301803 0.02412676157856956 0 0.076375628159171968 0.038405412939545532 0 0.082258845210710349 0.03253561428057717 0 0.088041666307225416 0.02743399724937181 0 0.087872793352142223 0.040176285354821803 0 0.098246025398924644 0.032379674771496843 0 0.088041666307225416 0.02743399724937181 0 0.082258845210710349 0.03253561428057717 0 0.087872793352142223 0.040176285354821803 0 0.098246025398924644 0.032379674771496843 0 0.09859813872304253 0.041737690340159041 0 0.1063796333462841 0.038668109643535398 0 0.087872793352142223 0.040176285354821803 0 0.098246025398924644 0.032379674771496843 0 0.09859813872304253 0.041737690340159041 0 0.087872793352142223 0.040176285354821803 0 0.09859813872304253 0.041737690340159041 0 0.096786740892615686 0.050938349167624693 0 0.09859813872304253 0.041737690340159041 0 0.1037055006252459 0.04652603276331644 0 0.096786740892615686 0.050938349167624693 0 0.1037055006252459 0.04652603276331644 0 0.1091701701315707 0.045405346223324289 0 0.1063796333462841 0.038668109643535398 0 0.09859813872304253 0.041737690340159041 0 0.1037055006252459 0.04652603276331644 0 0.1063796333462841 0.038668109643535398 0 0.098246025398924644 0.032379674771496843 0 0.1063796333462841 0.038668109643535398 0 0.1080469394596527 0.029312409717345649 0 0.1063796333462841 0.038668109643535398 0 0.11369005285381351 0.036564640387925021 0 0.1080469394596527 0.029312409717345649 0 0.10140855114010359 0.056741753968867333 0 0.1082136550722141 0.059696613986540442 0 0.089592915186254174 0.067390154600646832 0 0.10140855114010359 0.056741753968867333 0 0.096786740892615686 0.050938349167624693 0 0.089592915186254174 0.067390154600646832 0 0.10140855114010359 0.056741753968867333 0 0.096786740892615686 0.050938349167624693 0 0.1040187002827474 0.052009313231975308 0 0.1037055006252459 0.04652603276331644 0 0.096786740892615686 0.050938349167624693 0 0.1040187002827474 0.052009313231975308 0 0.1037055006252459 0.04652603276331644 0 0.10828434687670541 0.049049973369521209 0 0.1040187002827474 0.052009313231975308 0 0.1037055006252459 0.04652603276331644 0 0.1091701701315707 0.045405346223324289 0 0.10828434687670541 0.049049973369521209 0 0.10828434687670541 0.049049973369521209 0 0.1040187002827474 0.052009313231975308 0 0.1085923347430168 0.054888678040205661 0 0.10140855114010359 0.056741753968867333 0 0.1040187002827474 0.052009313231975308 0 0.1085923347430168 0.054888678040205661 0 0.10140855114010359 0.056741753968867333 0 0.1085923347430168 0.054888678040205661 0 0.1082136550722141 0.059696613986540442 0 0.1082136550722141 0.059696613986540442 0 0.12683439495817461 0.052003073372435288 0 0.1085923347430168 0.054888678040205661 0 0.1082136550722141 0.059696613986540442 0 0.12683439495817461 0.052003073372435288 0 0.1082136550722141 0.059696613986540442 0 0.1213053233293625 0.063977455960140386 0 0.12683439495817461 0.052003073372435288 0 0.1085923347430168 0.054888678040205661 0 0.11545296983014219 0.044674578582556468 0 0.12683439495817461 0.052003073372435288 0 0.1085923347430168 0.054888678040205661 0 0.11545296983014219 0.044674578582556468 0 0.10828434687670541 0.049049973369521209 0 0.1085923347430168 0.054888678040205661 0 0.11545296983014219 0.044674578582556468 0 0.11545296983014219 0.044674578582556468 0 0.12683439495817461 0.052003073372435288 0 0.11545296983014219 0.044674578582556468 0 0.12659142849079691 0.028091664155532971 0 0.13015300311198849 0.040381385354086502 0 0.11369005285381351 0.036564640387925021 0 0.11545296983014219 0.044674578582556468 0 0.12659142849079691 0.028091664155532971 0 0.11369005285381351 0.036564640387925021 0 0.1080469394596527 0.029312409717345649 0 0.12659142849079691 0.028091664155532971 0 0.11545296983014219 0.044674578582556468 0 0.12659142849079691 0.028091664155532971 0 0.1091701701315707 0.045405346223324289 0 0.1063796333462841 0.038668109643535398 0 0.11316657253878901 0.043202368340974628 0 0.11369005285381351 0.036564640387925021 0 0.11316657253878901 0.043202368340974628 0 0.11545296983014219 0.044674578582556468 0 0.1063796333462841 0.038668109643535398 0 0.11369005285381351 0.036564640387925021 0 0.11316657253878901 0.043202368340974628 0 0.1091701701315707 0.045405346223324289 0 0.10828434687670541 0.049049973369521209 0 0.11545296983014219 0.044674578582556468 0 0.1091701701315707 0.045405346223324289 0 0.11316657253878901 0.043202368340974628 0 0.11545296983014219 0.044674578582556468 0 0.11316657253878901 0.043202368340974628 0 0.11545296983014219 0.044674578582556468 0 0.11545296983014219 0.044674578582556468 0 0.13015300311198849 0.040381385354086502 0 0.12683439495817461 0.052003073372435288 0 0.11882011836095251 0.0065886106746579649 0 0.1010264983121123 0.016262416429773479 0 0.12659142849079691 0.028091664155532971 0 0.1010264983121123 0.016262416429773479 0 0.12659142849079691 0.028091664155532971 0 0.1010264983121123 0.016262416429773479 0 0.1080469394596527 0.029312409717345649 0 0.12659142849079691 0.028091664155532971 0 0.11882011836095251 0.0065886106746579649 0 0.1010264983121123 0.016262416429773479 0 0.098011391193308373 -0.0056982583262641584 0 0.088041666307225416 0.02743399724937181 0 0.098246025398924644 0.032379674771496843 0 0.1010264983121123 0.016262416429773479 0 0.098246025398924644 0.032379674771496843 0 0.1010264983121123 0.016262416429773479 0 0.1080469394596527 0.029312409717345649 0 0.102028599401492 0.1079210482782756 0 0.1185648575779607 0.095458187827811403 0 0.097454497296707604 0.093489332089851121 0 0.102028599401492 0.1079210482782756 0 0.094862282777670462 0.1196438628042634 0 0.1117522404438802 0.12667258555115829 0 0.123281054128593 0.11724462113534739 0 0.1117522404438802 0.12667258555115829 0 0.13947052033133081 0.1245003570974072 0 0.102028599401492 0.1079210482782756 0 0.123281054128593 0.11724462113534739 0 0.1117522404438802 0.12667258555115829 0 0.102028599401492 0.1079210482782756 0 0.123281054128593 0.11724462113534739 0 0.102028599401492 0.1079210482782756 0 0.123281054128593 0.11724462113534739 0 0.1185648575779607 0.095458187827811403 0 0.1185648575779607 0.095458187827811403 0 0.10766661625946521 0.081617344394697103 0 0.12679961534922851 0.075073796793526271 0 0.1127439035567581 0.069567645006608142 0 0.10766661625946521 0.081617344394697103 0 0.12679961534922851 0.075073796793526271 0 0.1213053233293625 0.063977455960140386 0 0.1127439035567581 0.069567645006608142 0 0.12679961534922851 0.075073796793526271 0 0.1082136550722141 0.059696613986540442 0 0.1213053233293625 0.063977455960140386 0 0.1127439035567581 0.069567645006608142 0 0.1082136550722141 0.059696613986540442 0 0.089592915186254174 0.067390154600646832 0 0.1014387622560044 0.070574023901201433 0 0.10766661625946521 0.081617344394697103 0 0.08998097741878798 0.081820185866337797 0 0.1082136550722141 0.059696613986540442 0 0.1014387622560044 0.070574023901201433 0 0.089592915186254174 0.067390154600646832 0 0.1082136550722141 0.059696613986540442 0 0.1127439035567581 0.069567645006608142 0 0.1014387622560044 0.070574023901201433 0 0.1127439035567581 0.069567645006608142 0 0.1014387622560044 0.070574023901201433 0 0.10766661625946521 0.081617344394697103 0 0.1185648575779607 0.095458187827811403 0 0.097454497296707604 0.093489332089851121 0 0.10766661625946521 0.081617344394697103 0 0.097454497296707604 0.093489332089851121 0 0.10766661625946521 0.081617344394697103 0 0.08998097741878798 0.081820185866337797 0 0.097454497296707604 0.093489332089851121 0 0.08998097741878798 0.081820185866337797 0 0.080776144674391009 0.098597475421203867 0 0.08998097741878798 0.081820185866337797 0 0.071888117261322881 0.075707086101057836 0 0.080776144674391009 0.098597475421203867 0 0.08998097741878798 0.081820185866337797 0 0.089592915186254174 0.067390154600646832 0 0.071888117261322881 0.075707086101057836 0 0.1014387622560044 0.070574023901201433 0 0.08998097741878798 0.081820185866337797 0 0.089592915186254174 0.067390154600646832 0 0.072379857481358154 0.054137194478101919 0 0.089592915186254174 0.067390154600646832 0 0.071888117261322881 0.075707086101057836 0 0.072379857481358154 0.054137194478101919 0 0.071888117261322881 0.075707086101057836 0 0.06072113176624426 0.066105246874810966 0 0.071888117261322881 0.075707086101057836 0 0.080776144674391009 0.098597475421203867 0 0.059523689947290133 0.089273902564132146 0 0.069834633883481517 0.1065625652268001 0 0.059315065316452309 0.1025539410383776 0 0.059523689947290133 0.089273902564132146 0 0.080776144674391009 0.098597475421203867 0 0.059523689947290133 0.089273902564132146 0 0.069834633883481517 0.1065625652268001 0 0.080776144674391009 0.098597475421203867 0 0.081634330708880196 0.1151370033827101 0 0.069834633883481517 0.1065625652268001 0 0.080776144674391009 0.098597475421203867 0 0.059523689947290133 0.089273902564132146 0 0.069834633883481517 0.1065625652268001 0 0.064307476710745728 0.1098785041095611 0 0.059315065316452309 0.1025539410383776 0 0.102028599401492 0.1079210482782756 0 0.080776144674391009 0.098597475421203867 0 0.081634330708880196 0.1151370033827101 0 0.102028599401492 0.1079210482782756 0 0.080776144674391009 0.098597475421203867 0 0.102028599401492 0.1079210482782756 0 0.097454497296707604 0.093489332089851121 0 0.080776144674391009 0.098597475421203867 0 0.102028599401492 0.1079210482782756 0 0.094862282777670462 0.1196438628042634 0 0.081634330708880196 0.1151370033827101 0 0.094862282777670462 0.1196438628042634 0 0.081634330708880196 0.1151370033827101 0 0.084033960556429532 0.12884481400490949 0 0.081634330708880196 0.1151370033827101 0 0.071861500007931359 0.1232467005620789 0 0.084033960556429532 0.12884481400490949 0 0.081634330708880196 0.1151370033827101 0 0.071861500007931359 0.1232467005620789 0 0.068543873750645412 0.1149277749384955 0 0.069834633883481517 0.1065625652268001 0 0.081634330708880196 0.1151370033827101 0 0.068543873750645412 0.1149277749384955 0 0.068543873750645412 0.1149277749384955 0 0.064307476710745728 0.1098785041095611 0 0.059536333892403683 0.1154697352345713 0 0.069834633883481517 0.1065625652268001 0 0.068543873750645412 0.1149277749384955 0 0.064307476710745728 0.1098785041095611 0 0.071861500007931359 0.1232467005620789 0 0.068543873750645412 0.1149277749384955 0 0.059536333892403683 0.1154697352345713 0 0.056458373241313059 0.1220229844831647 0 0.046980594318971967 0.103944553472415 0 0.044984286063853948 0.1144984098979744 0 0.056458373241313059 0.1220229844831647 0 0.059536333892403683 0.1154697352345713 0 0.047111977694586651 0.095143209078012936 0 0.056458373241313059 0.1220229844831647 0 0.047823074661834691 0.1229743903388081 0 0.044984286063853948 0.1144984098979744 0 0.056458373241313059 0.1220229844831647 0 0.047111977694586651 0.095143209078012936 0 0.056458373241313059 0.1220229844831647 0 0.047111977694586651 0.095143209078012936 0 0.046980594318971967 0.103944553472415 0 0.059536333892403683 0.1154697352345713 0 0.059315065316452309 0.1025539410383776 0 0.048250118395506067 0.092934788779969885 0 0.064307476710745728 0.1098785041095611 0 0.059536333892403683 0.1154697352345713 0 0.059315065316452309 0.1025539410383776 0 0.059536333892403683 0.1154697352345713 0 0.047111977694586651 0.095143209078012936 0 0.048250118395506067 0.092934788779969885 0 0.059536333892403683 0.1154697352345713 0 0.048250118395506067 0.092934788779969885 0 0.059315065316452309 0.1025539410383776 0 0.059523689947290133 0.089273902564132146 0 0.048250118395506067 0.092934788779969885 0 0.046980594318971967 0.103944553472415 0 0.031997015267580219 0.10661530464401089 0 0.044984286063853948 0.1144984098979744 0 0.046980594318971967 0.103944553472415 0 0.039592722901722707 0.099159129702000026 0 0.031997015267580219 0.10661530464401089 0 0.047111977694586651 0.095143209078012936 0 0.046980594318971967 0.103944553472415 0 0.044236279529428407 0.098362398272746204 0 0.043259823202432338 0.095202700838556822 0 0.039592722901722707 0.099159129702000026 0 0.040006298791842428 0.091064350555588536 0 0.047111977694586651 0.095143209078012936 0 0.043259823202432338 0.095202700838556822 0 0.043326765309194368 0.091114650811160686 0 0.047111977694586651 0.095143209078012936 0 0.043259823202432338 0.095202700838556822 0 0.044236279529428407 0.098362398272746204 0 0.046980594318971967 0.103944553472415 0 0.044236279529428407 0.098362398272746204 0 0.039592722901722707 0.099159129702000026 0 0.043259823202432338 0.095202700838556822 0 0.044236279529428407 0.098362398272746204 0 0.039592722901722707 0.099159129702000026 0 0.039592722901722707 0.099159129702000026 0 0.040006298791842428 0.091064350555588536 0 0.033999193661208522 0.092549709374426317 0 0.039592722901722707 0.099159129702000026 0 0.031997015267580219 0.10661530464401089 0 0.033999193661208522 0.092549709374426317 0 0.031997015267580219 0.10661530464401089 0 0.044984286063853948 0.1144984098979744 0 0.040254683338031831 0.12792389191371131 0 0.031997015267580219 0.10661530464401089 0 0.027418588341799281 0.11951208787462859 0 0.040254683338031831 0.12792389191371131 0 0.031997015267580219 0.10661530464401089 0 0.040254683338031831 0.12792389191371131 0 0.047823074661834691 0.1229743903388081 0 0.044984286063853948 0.1144984098979744 0 0.040254683338031831 0.12792389191371131 0 0.071888117261322881 0.075707086101057836 0 0.050643578252195447 0.077240667131504986 0 0.06072113176624426 0.066105246874810966 0 0.071888117261322881 0.075707086101057836 0 0.050643578252195447 0.077240667131504986 0 0.04797297407010033 0.057336039788577382 0 0.050643578252195447 0.077240667131504986 0 0.06072113176624426 0.066105246874810966 0 0.059523689947290133 0.089273902564132146 0 0.048250118395506067 0.092934788779969885 0 0.038271235220189187 0.079950329707060411 0 0.050643578252195447 0.077240667131504986 0 0.059523689947290133 0.089273902564132146 0 0.038271235220189187 0.079950329707060411 0 0.059523689947290133 0.089273902564132146 0 0.038271235220189187 0.079950329707060411 0 0.071888117261322881 0.075707086101057836 0 0.050643578252195447 0.077240667131504986 0 0.059523689947290133 0.089273902564132146 0 0.050643578252195447 0.077240667131504986 0 0.038271235220189187 0.079950329707060411 0 0.029399039243067929 0.078774248161950916 0 0.043326765309194368 0.091114650811160686 0 0.040006298791842428 0.091064350555588536 0 0.038271235220189187 0.079950329707060411 0 0.048250118395506067 0.092934788779969885 0 0.043326765309194368 0.091114650811160686 0 0.038271235220189187 0.079950329707060411 0 0.047111977694586651 0.095143209078012936 0 0.048250118395506067 0.092934788779969885 0 0.043326765309194368 0.091114650811160686 0 0.043259823202432338 0.095202700838556822 0 0.043326765309194368 0.091114650811160686 0 0.040006298791842428 0.091064350555588536 0 0.040006298791842428 0.091064350555588536 0 0.033999193661208522 0.092549709374426317 0 0.035112272261912547 0.085996705185296951 0 0.033999193661208522 0.092549709374426317 0 0.035112272261912547 0.085996705185296951 0 0.030562463090829231 0.085656845023995995 0 0.040006298791842428 0.091064350555588536 0 0.035112272261912547 0.085996705185296951 0 0.038271235220189187 0.079950329707060411 0 0.035112272261912547 0.085996705185296951 0 0.038271235220189187 0.079950329707060411 0 0.029399039243067929 0.078774248161950916 0 0.035112272261912547 0.085996705185296951 0 0.029399039243067929 0.078774248161950916 0 0.030562463090829231 0.085656845023995995 0 0.04797297407010033 0.057336039788577382 0 0.027635028654909001 0.06907575978797427 0 0.029399039243067929 0.078774248161950916 0 0.04797297407010033 0.057336039788577382 0 0.050643578252195447 0.077240667131504986 0 0.029399039243067929 0.078774248161950916 0 0.050643578252195447 0.077240667131504986 0 0.029399039243067929 0.078774248161950916 0 0.04797297407010033 0.057336039788577382 0 0.029399039243067929 0.078774248161950916 0 0.01459521235494949 0.061710637509134872 0 0.030459386295035529 0.05963142741263059 0 0.017825248683011649 0.070045619055208203 0 0.01459521235494949 0.061710637509134872 0 0.017825248683011649 0.070045619055208203 0 0.030459386295035529 0.05963142741263059 0 0.017825248683011649 0.070045619055208203 0 0.030459386295035529 0.05963142741263059 0 0.017825248683011649 0.070045619055208203 0 0.027635028654909001 0.06907575978797427 0 0.027635028654909001 0.06907575978797427 0 0.021430743364398389 0.07934945609652827 0 0.029399039243067929 0.078774248161950916 0 0.017825248683011649 0.070045619055208203 0 0.027635028654909001 0.06907575978797427 0 0.021430743364398389 0.07934945609652827 0 0.017825248683011649 0.070045619055208203 0 0.021430743364398389 0.07934945609652827 0 0.023739347197128589 0.085306717374310406 0 0.0092582498306486675 0.1020209346744549 0 0.021430743364398389 0.07934945609652827 0 0.023739347197128589 0.085306717374310406 0 0.01369104835205702 0.085774757015682671 0 0.021430743364398389 0.07934945609652827 0 0.023739347197128589 0.085306717374310406 0 0.021430743364398389 0.07934945609652827 0 0.029399039243067929 0.078774248161950916 0 0.023739347197128589 0.085306717374310406 0 0.021430743364398389 0.07934945609652827 0 0.029399039243067929 0.078774248161950916 0 0.029399039243067929 0.078774248161950916 0 0.030562463090829231 0.085656845023995995 0 0.023739347197128589 0.085306717374310406 0 0.029399039243067929 0.078774248161950916 0 0.023739347197128589 0.085306717374310406 0 0.033999193661208522 0.092549709374426317 0 0.030562463090829231 0.085656845023995995 0 0.023739347197128589 0.085306717374310406 0 0.023739347197128589 0.085306717374310406 0 0.01369104835205702 0.085774757015682671 0 0.0092582498306486675 0.1020209346744549 0 0.0051087594610210148 0.080527692295617709 0 0.01369104835205702 0.085774757015682671 0 0.0092582498306486675 0.1020209346744549 0 0.021430743364398389 0.07934945609652827 0 0.0051087594610210148 0.080527692295617709 0 0.021430743364398389 0.07934945609652827 0 0.0051087594610210148 0.080527692295617709 0 0.01369104835205702 0.085774757015682671 0 -0.0012292332505543029 0.06378464068123596 0 0.01459521235494949 0.061710637509134872 0 -0.0012292332505543029 0.06378464068123596 0 0.01459521235494949 0.061710637509134872 0 0.0080955592782806732 0.069159055867407046 0 0.017825248683011649 0.070045619055208203 0 0.021430743364398389 0.07934945609652827 0 0.0051087594610210148 0.080527692295617709 0 -0.0012292332505543029 0.06378464068123596 0 0.0051087594610210148 0.080527692295617709 0 0.0080955592782806732 0.069159055867407046 0 0.017825248683011649 0.070045619055208203 0 0.0051087594610210148 0.080527692295617709 0 0.0080955592782806732 0.069159055867407046 0 0.017825248683011649 0.070045619055208203 0 0.0051087594610210148 0.080527692295617709 0 0.01459521235494949 0.061710637509134872 0 0.017825248683011649 0.070045619055208203 0 0.0080955592782806732 0.069159055867407046 0 0.019482067178466251 0.1107491432724047 0 0.017356945103072018 0.1204998149293544 0 0.027418588341799281 0.11951208787462859 0 0.017356945103072018 0.1204998149293544 0 0.027418588341799281 0.11951208787462859 0 0.028136896369567631 0.1331750506540591 0 0.031997015267580219 0.10661530464401089 0 0.019482067178466251 0.1107491432724047 0 0.027418588341799281 0.11951208787462859 0 0.031997015267580219 0.10661530464401089 0 0.033999193661208522 0.092549709374426317 0 0.023739347197128589 0.085306717374310406 0 0.023739347197128589 0.085306717374310406 0 0.02108550348152554 0.10082233348119581 0 0.0092582498306486675 0.1020209346744549 0 0.031997015267580219 0.10661530464401089 0 0.023739347197128589 0.085306717374310406 0 0.031997015267580219 0.10661530464401089 0 0.023739347197128589 0.085306717374310406 0 0.02108550348152554 0.10082233348119581 0 0.031997015267580219 0.10661530464401089 0 0.019482067178466251 0.1107491432724047 0 0.02108550348152554 0.10082233348119581 0 0.019482067178466251 0.1107491432724047 0 0.02108550348152554 0.10082233348119581 0 0.0092582498306486675 0.1020209346744549 0 -0.0040597014752050652 0.1051126182356364 0 0.0051087594610210148 0.080527692295617709 0 0.0092582498306486675 0.1020209346744549 0 0.019482067178466251 0.1107491432724047 0 0.0092582498306486675 0.1020209346744549 0 0.0097761010461718117 0.1150243840307837 0 -0.0052228475358298988 0.1187351519746004 0 0.0092582498306486675 0.1020209346744549 0 -0.0052228475358298988 0.1187351519746004 0 0.0092582498306486675 0.1020209346744549 0 0.0097761010461718117 0.1150243840307837 0 0.019482067178466251 0.1107491432724047 0 0.017356945103072018 0.1204998149293544 0 0.0097761010461718117 0.1150243840307837 0 0.017356945103072018 0.1204998149293544 0 0.0081407562022233586 0.1245196413435004 0 0.017356945103072018 0.1204998149293544 0 0.0097761010461718117 0.1150243840307837 0 0.0081407562022233586 0.1245196413435004 0 -0.0052228475358298988 0.1187351519746004 0 0.0097761010461718117 0.1150243840307837 0 0.0081407562022233586 0.1245196413435004 0 -0.0052228475358298988 0.1187351519746004 0 0.0081407562022233586 0.1245196413435004 0 -0.015783289274076458 0.13495459563681389 0 0.0081407562022233586 0.1245196413435004 0 0.01185912902997375 0.14130758542593569 0 0.017356945103072018 0.1204998149293544 0 0.0081407562022233586 0.1245196413435004 0 0.028136896369567631 0.1331750506540591 0 0.0081407562022233586 0.1245196413435004 0 0.028136896369567631 0.1331750506540591 0 0.0081407562022233586 0.1245196413435004 0 0.028136896369567631 0.1331750506540591 0 0.01185912902997375 0.14130758542593569 0 0.028136896369567631 0.1331750506540591 0 0.0267736462585265 0.15269096182544131 0 0.035919394343652343 0.14075559589415579 0 0.028136896369567631 0.1331750506540591 0 0.0267736462585265 0.15269096182544131 0 0.01185912902997375 0.14130758542593569 0 0.0267736462585265 0.15269096182544131 0 0.001788155555331062 0.1557637096651584 0 0.01185912902997375 0.14130758542593569 0 0.001788155555331062 0.1557637096651584 0 0.00061104658230836653 0.17769045695541219 0 0.019359600384737739 0.17657282369350361 0 0.001788155555331062 0.1557637096651584 0 0.019359600384737739 0.17657282369350361 0 0.00061104658230836653 0.17769045695541219 0 0.019359600384737739 0.17657282369350361 0 0.017852612557627559 0.19656860209324539 0 0.019359600384737739 0.17657282369350361 0 0.036931045214144441 0.19738193772184889 0 0.0267736462585265 0.15269096182544131 0 0.001788155555331062 0.1557637096651584 0 0.019359600384737739 0.17657282369350361 0 0.0267736462585265 0.15269096182544131 0 0.019359600384737739 0.17657282369350361 0 0.038399134829123632 0.17159850230738899 0 0.0267736462585265 0.15269096182544131 0 0.038399134829123632 0.17159850230738899 0 0.048512351408483409 0.1492324791834117 0 0.019359600384737739 0.17657282369350361 0 0.038399134829123632 0.17159850230738899 0 0.036931045214144441 0.19738193772184889 0 0.038399134829123632 0.17159850230738899 0 0.053915020648589329 0.181809847856817 0 0.036931045214144441 0.19738193772184889 0 0.053915020648589329 0.181809847856817 0 0.056298621576963533 0.16595151756685289 0 0.075151164334765874 0.17578253529346821 0 0.038399134829123632 0.17159850230738899 0 0.053915020648589329 0.181809847856817 0 0.056298621576963533 0.16595151756685289 0 0.038399134829123632 0.17159850230738899 0 0.056298621576963533 0.16595151756685289 0 0.048512351408483409 0.1492324791834117 0 0.048512351408483409 0.1492324791834117 0 0.055211699142625699 0.13746009370018761 0 0.065804768788039439 0.14890275988831639 0 0.056298621576963533 0.16595151756685289 0 0.048512351408483409 0.1492324791834117 0 0.065804768788039439 0.14890275988831639 0 0.048512351408483409 0.1492324791834117 0 0.055211699142625699 0.13746009370018761 0 0.049904412172306151 0.13036597214331841 0 0.056458373241313059 0.1220229844831647 0 0.059536333892403683 0.1154697352345713 0 0.070822549389301243 0.1380046816891726 0 0.056458373241313059 0.1220229844831647 0 0.055211699142625699 0.13746009370018761 0 0.065804768788039439 0.14890275988831639 0 0.056458373241313059 0.1220229844831647 0 0.065804768788039439 0.14890275988831639 0 0.056458373241313059 0.1220229844831647 0 0.047823074661834691 0.1229743903388081 0 0.049904412172306151 0.13036597214331841 0 0.056458373241313059 0.1220229844831647 0 0.055211699142625699 0.13746009370018761 0 0.049904412172306151 0.13036597214331841 0 0.048512351408483409 0.1492324791834117 0 0.040254683338031831 0.12792389191371131 0 0.048512351408483409 0.1492324791834117 0 0.040254683338031831 0.12792389191371131 0 0.035919394343652343 0.14075559589415579 0 0.048512351408483409 0.1492324791834117 0 0.049904412172306151 0.13036597214331841 0 0.040254683338031831 0.12792389191371131 0 0.047823074661834691 0.1229743903388081 0 0.049904412172306151 0.13036597214331841 0 0.040254683338031831 0.12792389191371131 0 0.027418588341799281 0.11951208787462859 0 0.028136896369567631 0.1331750506540591 0 0.040254683338031831 0.12792389191371131 0 0.028136896369567631 0.1331750506540591 0 0.040254683338031831 0.12792389191371131 0 0.035919394343652343 0.14075559589415579 0 0.0267736462585265 0.15269096182544131 0 0.048512351408483409 0.1492324791834117 0 0.035919394343652343 0.14075559589415579 0 0.020197736684044801 0.2291273398277828 0 0.034114961552744377 0.23516115760169301 0 0.036501911092354018 0.25177276941539839 0 0.018629400856135309 0.24429501886194191 0 0.020197736684044801 0.2291273398277828 0 0.02692674034290404 0.25134916217479408 0 0.020197736684044801 0.2291273398277828 0 0.02692674034290404 0.25134916217479408 0 0.036501911092354018 0.25177276941539839 0 0.020197736684044801 0.2291273398277828 0 0.036501911092354018 0.25177276941539839 0 0.018629400856135309 0.24429501886194191 0 0.0082785766384091443 0.23618007315607359 0 0.020197736684044801 0.2291273398277828 0 0.018629400856135309 0.24429501886194191 0 0.012944211518790589 0.24639919126045251 0 0.0082785766384091443 0.23618007315607359 0 0.012944211518790589 0.24639919126045251 0 0.001894876929373096 0.24743045501984201 0 0.0082785766384091443 0.23618007315607359 0 -0.0070773620087705444 0.23295897308755351 0 0.001894876929373096 0.24743045501984201 0 0.0082785766384091443 0.23618007315607359 0 0.0082785766384091443 0.23618007315607359 0 0.0038866256090455522 0.2239579318999283 0 0.020197736684044801 0.2291273398277828 0 0.0038866256090455522 0.2239579318999283 0 0.020197736684044801 0.2291273398277828 0 0.003893562275735573 0.2064819102401671 0 -0.0070773620087705444 0.23295897308755351 0 0.0082785766384091443 0.23618007315607359 0 0.0038866256090455522 0.2239579318999283 0 0.01643925603633389 0.21561198758054059 0 0.035370792182188207 0.216260201755786 0 0.034114961552744377 0.23516115760169301 0 0.020197736684044801 0.2291273398277828 0 0.01643925603633389 0.21561198758054059 0 0.034114961552744377 0.23516115760169301 0 0.01643925603633389 0.21561198758054059 0 0.034114961552744377 0.23516115760169301 0 0.017852612557627559 0.19656860209324539 0 0.036931045214144441 0.19738193772184889 0 0.035370792182188207 0.216260201755786 0 0.01643925603633389 0.21561198758054059 0 0.017852612557627559 0.19656860209324539 0 0.035370792182188207 0.216260201755786 0 0.020197736684044801 0.2291273398277828 0 0.003893562275735573 0.2064819102401671 0 -0.0045317147067566524 0.21522543551468479 0 0.0038866256090455522 0.2239579318999283 0 0.003893562275735573 0.2064819102401671 0 -0.0012364494800765971 0.1960628175593882 0 0.01643925603633389 0.21561198758054059 0 -0.0012364494800765971 0.1960628175593882 0 0.01643925603633389 0.21561198758054059 0 0.003893562275735573 0.2064819102401671 0 0.020197736684044801 0.2291273398277828 0 0.01643925603633389 0.21561198758054059 0 0.003893562275735573 0.2064819102401671 0 -0.0012364494800765971 0.1960628175593882 0 0.01643925603633389 0.21561198758054059 0 0.017852612557627559 0.19656860209324539 0 -0.0012364494800765971 0.1960628175593882 0 0.00061104658230836653 0.17769045695541219 0 0.017852612557627559 0.19656860209324539 0 0.019359600384737739 0.17657282369350361 0 0.017852612557627559 0.19656860209324539 0 0.036931045214144441 0.19738193772184889 0 0.053915020648589329 0.181809847856817 0 0.036931045214144441 0.19738193772184889 0 0.062795137287949193 0.19833474639452611 0 0.036931045214144441 0.19738193772184889 0 0.054502490043551163 0.2181910517501941 0 0.062795137287949193 0.19833474639452611 0 0.036931045214144441 0.19738193772184889 0 0.054502490043551163 0.2181910517501941 0 0.036931045214144441 0.19738193772184889 0 0.054502490043551163 0.2181910517501941 0 0.035370792182188207 0.216260201755786 0 0.054502490043551163 0.2181910517501941 0 0.035370792182188207 0.216260201755786 0 0.034114961552744377 0.23516115760169301 0 0.054502490043551163 0.2181910517501941 0 0.055174909047777811 0.2396291133956362 0 0.034114961552744377 0.23516115760169301 0 0.054502490043551163 0.2181910517501941 0 0.055174909047777811 0.2396291133956362 0 0.072073934872957782 0.23900016577853919 0 0.055174909047777811 0.2396291133956362 0 0.034114961552744377 0.23516115760169301 0 0.051790667069154861 0.2547103276228454 0 0.055174909047777811 0.2396291133956362 0 0.051790667069154861 0.2547103276228454 0 0.063392491700480919 0.2510828642249095 0 0.034114961552744377 0.23516115760169301 0 0.036501911092354018 0.25177276941539839 0 0.051790667069154861 0.2547103276228454 0 0.034114961552744377 0.23516115760169301 0 0.051790667069154861 0.2547103276228454 0 0.072073934872957782 0.23900016577853919 0 0.093843955428218759 0.229542086103772 0 0.089645379702363526 0.25980927980688501 0 0.072073934872957782 0.23900016577853919 0 0.089645379702363526 0.25980927980688501 0 0.055174909047777811 0.2396291133956362 0 0.072073934872957782 0.23900016577853919 0 0.063392491700480919 0.2510828642249095 0 0.072073934872957782 0.23900016577853919 0 0.063392491700480919 0.2510828642249095 0 0.074261774750864804 0.25289133929391111 0 0.054502490043551163 0.2181910517501941 0 0.072073934872957782 0.23900016577853919 0 0.054502490043551163 0.2181910517501941 0 0.072073934872957782 0.23900016577853919 0 0.07691655231929137 0.22036312128655 0 0.072073934872957782 0.23900016577853919 0 0.07691655231929137 0.22036312128655 0 0.093843955428218759 0.229542086103772 0 0.084497559881492323 0.20266231069862009 0 0.1011551627426199 0.2154511434485995 0 0.093843955428218759 0.229542086103772 0 0.084497559881492323 0.20266231069862009 0 0.093843955428218759 0.229542086103772 0 0.07691655231929137 0.22036312128655 0 0.084497559881492323 0.20266231069862009 0 0.093843955428218759 0.229542086103772 0 0.07691655231929137 0.22036312128655 0 0.062795137287949193 0.19833474639452611 0 0.084497559881492323 0.20266231069862009 0 0.054502490043551163 0.2181910517501941 0 0.07691655231929137 0.22036312128655 0 0.062795137287949193 0.19833474639452611 0 0.062795137287949193 0.19833474639452611 0 0.084497559881492323 0.20266231069862009 0 0.075151164334765874 0.17578253529346821 0 0.084497559881492323 0.20266231069862009 0 0.075151164334765874 0.17578253529346821 0 0.084497559881492323 0.20266231069862009 0 0.10184565838461331 0.1924014028594688 0 0.093394980383096363 0.18307457459837531 0 0.084497559881492323 0.20266231069862009 0 0.10184565838461331 0.1924014028594688 0 0.10260278643249959 0.20376756124449391 0 0.10184565838461331 0.1924014028594688 0 0.1105875138732399 0.1994169567440035 0 0.10260278643249959 0.20376756124449391 0 0.10184565838461331 0.1924014028594688 0 0.1131184160342838 0.18994185980391479 0 0.1105875138732399 0.1994169567440035 0 0.10184565838461331 0.1924014028594688 0 0.1131184160342838 0.18994185980391479 0 0.1054525685194168 0.18020148819897211 0 0.1131184160342838 0.18994185980391479 0 0.1210814068145178 0.19423580856195369 0 0.1131184160342838 0.18994185980391479 0 0.1210814068145178 0.19423580856195369 0 0.1196286990311512 0.18236386641526309 0 0.1210814068145178 0.19423580856195369 0 0.11958782189190099 0.20227867846385961 0 0.13241563583181001 0.2003476577346209 0 0.1131184160342838 0.18994185980391479 0 0.1210814068145178 0.19423580856195369 0 0.11958782189190099 0.20227867846385961 0 0.1131184160342838 0.18994185980391479 0 0.11958782189190099 0.20227867846385961 0 0.1105875138732399 0.1994169567440035 0 0.11958782189190099 0.20227867846385961 0 0.1105875138732399 0.1994169567440035 0 0.11467542950451071 0.21015036581969679 0 0.11958782189190099 0.20227867846385961 0 0.11467542950451071 0.21015036581969679 0 0.12714211421566091 0.2115365522170618 0 0.11467542950451071 0.21015036581969679 0 0.1287590091161889 0.22454109023782651 0 0.12714211421566091 0.2115365522170618 0 0.11467542950451071 0.21015036581969679 0 0.1011551627426199 0.2154511434485995 0 0.1117838155087727 0.22779371718329239 0 0.084497559881492323 0.20266231069862009 0 0.10260278643249959 0.20376756124449391 0 0.1011551627426199 0.2154511434485995 0 0.1105875138732399 0.1994169567440035 0 0.11467542950451071 0.21015036581969679 0 0.10260278643249959 0.20376756124449391 0 0.11467542950451071 0.21015036581969679 0 0.10260278643249959 0.20376756124449391 0 0.1011551627426199 0.2154511434485995 0 0.1011551627426199 0.2154511434485995 0 0.093843955428218759 0.229542086103772 0 0.1117838155087727 0.22779371718329239 0 0.11467542950451071 0.21015036581969679 0 0.1117838155087727 0.22779371718329239 0 0.1287590091161889 0.22454109023782651 0 0.1117838155087727 0.22779371718329239 0 0.1287590091161889 0.22454109023782651 0 0.116065923487036 0.25155424759680489 0 0.093843955428218759 0.229542086103772 0 0.089645379702363526 0.25980927980688501 0 0.116065923487036 0.25155424759680489 0 0.093843955428218759 0.229542086103772 0 0.1117838155087727 0.22779371718329239 0 0.116065923487036 0.25155424759680489 0 0.085867858697711436 0.14453522140638461 0 0.070822549389301243 0.1380046816891726 0 0.082108764886198796 0.1605396281437739 0 0.085867858697711436 0.14453522140638461 0 0.082108764886198796 0.1605396281437739 0 0.098061838006449922 0.1524476624703702 0 0.085867858697711436 0.14453522140638461 0 0.084033960556429532 0.12884481400490949 0 0.098019367542785563 0.1407790739484335 0 0.085867858697711436 0.14453522140638461 0 0.084033960556429532 0.12884481400490949 0 0.070822549389301243 0.1380046816891726 0 0.071861500007931359 0.1232467005620789 0 0.059536333892403683 0.1154697352345713 0 0.070822549389301243 0.1380046816891726 0 0.059536333892403683 0.1154697352345713 0 0.070822549389301243 0.1380046816891726 0 0.056458373241313059 0.1220229844831647 0 0.070822549389301243 0.1380046816891726 0 0.065804768788039439 0.14890275988831639 0 0.071861500007931359 0.1232467005620789 0 0.084033960556429532 0.12884481400490949 0 0.070822549389301243 0.1380046816891726 0 0.070822549389301243 0.1380046816891726 0 0.082108764886198796 0.1605396281437739 0 0.070822549389301243 0.1380046816891726 0 0.065804768788039439 0.14890275988831639 0 0.082108764886198796 0.1605396281437739 0 0.056298621576963533 0.16595151756685289 0 0.065804768788039439 0.14890275988831639 0 0.075151164334765874 0.17578253529346821 0 0.065804768788039439 0.14890275988831639 0 0.075151164334765874 0.17578253529346821 0 0.082108764886198796 0.1605396281437739 0 0.065804768788039439 0.14890275988831639 0 0.075151164334765874 0.17578253529346821 0 0.053915020648589329 0.181809847856817 0 0.062795137287949193 0.19833474639452611 0 0.075151164334765874 0.17578253529346821 0 0.075151164334765874 0.17578253529346821 0 0.093394980383096363 0.18307457459837531 0 0.082108764886198796 0.1605396281437739 0 0.084497559881492323 0.20266231069862009 0 0.075151164334765874 0.17578253529346821 0 0.093394980383096363 0.18307457459837531 0 0.093394980383096363 0.18307457459837531 0 0.082108764886198796 0.1605396281437739 0 0.1017810834163356 0.16778327145988009 0 0.093394980383096363 0.18307457459837531 0 0.082108764886198796 0.1605396281437739 0 0.082108764886198796 0.1605396281437739 0 0.1017810834163356 0.16778327145988009 0 0.098061838006449922 0.1524476624703702 0 0.1017810834163356 0.16778327145988009 0 0.1094413004412432 0.1568441156191657 0 0.098061838006449922 0.1524476624703702 0 0.10184565838461331 0.1924014028594688 0 0.093394980383096363 0.18307457459837531 0 0.1054525685194168 0.18020148819897211 0 0.093394980383096363 0.18307457459837531 0 0.1017810834163356 0.16778327145988009 0 0.1054525685194168 0.18020148819897211 0 0.1017810834163356 0.16778327145988009 0 0.1054525685194168 0.18020148819897211 0 0.1143103312636523 0.17467474260035151 0 0.1131184160342838 0.18994185980391479 0 0.1132877880089454 0.18182979361660931 0 0.1196286990311512 0.18236386641526309 0 0.1131184160342838 0.18994185980391479 0 0.1054525685194168 0.18020148819897211 0 0.1132877880089454 0.18182979361660931 0 0.1054525685194168 0.18020148819897211 0 0.1132877880089454 0.18182979361660931 0 0.1143103312636523 0.17467474260035151 0 0.1132877880089454 0.18182979361660931 0 0.1143103312636523 0.17467474260035151 0 0.1196286990311512 0.18236386641526309 0 0.1143103312636523 0.17467474260035151 0 0.1229466648353691 0.17360959233997481 0 0.1196286990311512 0.18236386641526309 0 0.1229466648353691 0.17360959233997481 0 0.1196286990311512 0.18236386641526309 0 0.1315359285025598 0.17914174819028489 0 0.1210814068145178 0.19423580856195369 0 0.1196286990311512 0.18236386641526309 0 0.1315359285025598 0.17914174819028489 0 0.1017810834163356 0.16778327145988009 0 0.1143103312636523 0.17467474260035151 0 0.11826309888899959 0.1638296446882945 0 0.1017810834163356 0.16778327145988009 0 0.1094413004412432 0.1568441156191657 0 0.11826309888899959 0.1638296446882945 0 0.1094413004412432 0.1568441156191657 0 0.11826309888899959 0.1638296446882945 0 0.12116198843957229 0.15461983439099389 0 0.1143103312636523 0.17467474260035151 0 0.1229466648353691 0.17360959233997481 0 0.11826309888899959 0.1638296446882945 0 0.1229466648353691 0.17360959233997481 0 0.11826309888899959 0.1638296446882945 0 0.1286748755814317 0.16568949079043779 0 0.11826309888899959 0.1638296446882945 0 0.12116198843957229 0.15461983439099389 0 0.1286748755814317 0.16568949079043779 0 0.12116198843957229 0.15461983439099389 0 0.1235319134973574 0.14279740261083959 0 0.11069945258584669 0.14552439304262721 0 0.1094413004412432 0.1568441156191657 0 0.12116198843957229 0.15461983439099389 0 0.11069945258584669 0.14552439304262721 0 0.1094413004412432 0.1568441156191657 0 0.11069945258584669 0.14552439304262721 0 0.098061838006449922 0.1524476624703702 0 0.11069945258584669 0.14552439304262721 0 0.098019367542785563 0.1407790739484335 0 0.098061838006449922 0.1524476624703702 0 0.085867858697711436 0.14453522140638461 0 0.098019367542785563 0.1407790739484335 0 0.098061838006449922 0.1524476624703702 0 0.084033960556429532 0.12884481400490949 0 0.1117522404438802 0.12667258555115829 0 0.094862282777670462 0.1196438628042634 0 0.084033960556429532 0.12884481400490949 0 0.1117522404438802 0.12667258555115829 0 0.084033960556429532 0.12884481400490949 0 0.098019367542785563 0.1407790739484335 0 0.1117522404438802 0.12667258555115829 0 0.11069945258584669 0.14552439304262721 0 0.098019367542785563 0.1407790739484335 0 0.1117522404438802 0.12667258555115829 0 0.1235319134973574 0.14279740261083959 0 0.11069945258584669 0.14552439304262721 0 0.1117522404438802 0.12667258555115829 0 0.1235319134973574 0.14279740261083959 0 0.1117522404438802 0.12667258555115829 0 0.1338250830151082 0.13680555700437169 0 0.1117522404438802 0.12667258555115829 0 0.1338250830151082 0.13680555700437169 0 0.13947052033133081 0.1245003570974072 0 0.1117522404438802 0.12667258555115829 0 0.13947052033133081 0.1245003570974072 0 0.1338250830151082 0.13680555700437169 0 0.14773514824261011 0.13994704674368119 0 0.13947052033133081 0.1245003570974072 0 0.14773514824261011 0.13994704674368119 0 0.13947052033133081 0.1245003570974072 0 0.16718880021878149 0.12232812864365609 0 0.14773514824261011 0.13994704674368119 0 0.1492794596183103 0.15557552201751701 0 0.16307655427518189 0.1461583771030025 0 0.14773514824261011 0.13994704674368119 0 0.1492794596183103 0.15557552201751701 0 0.13636128964255501 0.15303395959459851 0 0.1235319134973574 0.14279740261083959 0 0.1338250830151082 0.13680555700437169 0 0.13636128964255501 0.15303395959459851 0 0.1338250830151082 0.13680555700437169 0 0.14773514824261011 0.13994704674368119 0 0.13636128964255501 0.15303395959459851 0 0.12116198843957229 0.15461983439099389 0 0.1235319134973574 0.14279740261083959 0 0.13636128964255501 0.15303395959459851 0 0.12116198843957229 0.15461983439099389 0 0.13636128964255501 0.15303395959459851 0 0.1286748755814317 0.16568949079043779 0 0.13636128964255501 0.15303395959459851 0 0.1286748755814317 0.16568949079043779 0 0.1402599975996246 0.1687496010839549 0 0.1286748755814317 0.16568949079043779 0 0.1402599975996246 0.1687496010839549 0 0.1315359285025598 0.17914174819028489 0 0.1210814068145178 0.19423580856195369 0 0.1315359285025598 0.17914174819028489 0 0.14172685770208041 0.18088834424850889 0 0.1229466648353691 0.17360959233997481 0 0.1286748755814317 0.16568949079043779 0 0.1315359285025598 0.17914174819028489 0 0.1402599975996246 0.1687496010839549 0 0.1315359285025598 0.17914174819028489 0 0.14172685770208041 0.18088834424850889 0 0.1315359285025598 0.17914174819028489 0 0.14172685770208041 0.18088834424850889 0 0.14172685770208041 0.18088834424850889 0 0.1589643083315804 0.1699886255623487 0 0.15664227980061579 0.1834446584897341 0 0.14172685770208041 0.18088834424850889 0 0.1589643083315804 0.1699886255623487 0 0.1402599975996246 0.1687496010839549 0 0.14172685770208041 0.18088834424850889 0 0.1589643083315804 0.1699886255623487 0 0.14172685770208041 0.18088834424850889 0 0.15664227980061579 0.1834446584897341 0 0.14735069213281321 0.19092796682168489 0 0.14172685770208041 0.18088834424850889 0 0.15664227980061579 0.1834446584897341 0 0.1492794596183103 0.15557552201751701 0 0.1402599975996246 0.1687496010839549 0 0.1589643083315804 0.1699886255623487 0 0.1492794596183103 0.15557552201751701 0 0.13636128964255501 0.15303395959459851 0 0.1402599975996246 0.1687496010839549 0 0.1492794596183103 0.15557552201751701 0 0.1589643083315804 0.1699886255623487 0 0.16307655427518189 0.1461583771030025 0 0.1589643083315804 0.1699886255623487 0 0.1832181015668064 0.15465227861531949 0 0.16307655427518189 0.1461583771030025 0 0.1589643083315804 0.1699886255623487 0 0.16307655427518189 0.1461583771030025 0 0.1589643083315804 0.1699886255623487 0 0.1832181015668064 0.15465227861531949 0 0.1589643083315804 0.1699886255623487 0 0.15664227980061579 0.1834446584897341 0 0.17367876449497299 0.17356388092826039 0 0.15664227980061579 0.1834446584897341 0 0.17803712215301101 0.18711146321258301 0 0.15664227980061579 0.1834446584897341 0 0.17367876449497299 0.17356388092826039 0 0.17803712215301101 0.18711146321258301 0 0.1589643083315804 0.1699886255623487 0 0.15664227980061579 0.1834446584897341 0 0.17367876449497299 0.17356388092826039 0 0.17803712215301101 0.18711146321258301 0 0.1915320106228488 0.17262237876131631 0 0.1589643083315804 0.1699886255623487 0 0.17367876449497299 0.17356388092826039 0 0.1832181015668064 0.15465227861531949 0 0.17367876449497299 0.17356388092826039 0 0.1832181015668064 0.15465227861531949 0 0.1915320106228488 0.17262237876131631 0 0.1832181015668064 0.15465227861531949 0 0.18154761934540289 0.13534417850528041 0 0.16307655427518189 0.1461583771030025 0 0.18154761934540289 0.13534417850528041 0 0.19370351113240411 0.1202502215829211 0 0.16718880021878149 0.12232812864365609 0 0.16307655427518189 0.1461583771030025 0 0.16718880021878149 0.12232812864365609 0 0.14773514824261011 0.13994704674368119 0 0.16307655427518189 0.1461583771030025 0 0.16718880021878149 0.12232812864365609 0 0.18154761934540289 0.13534417850528041 0 0.16307655427518189 0.1461583771030025 0 0.16718880021878149 0.12232812864365609 0 0.14248646727170791 0.24329921538672239 0 0.16890701105638031 0.23504418317664161 0 0.14248646727170791 0.24329921538672239 0 0.116065923487036 0.25155424759680489 0 0.14248646727170791 0.24329921538672239 0 0.1287590091161889 0.22454109023782651 0 0.116065923487036 0.25155424759680489 0 0.14248646727170791 0.24329921538672239 0 0.1287590091161889 0.22454109023782651 0 0.14216045677169509 0.2226427774354276 0 0.1287590091161889 0.22454109023782651 0 0.14216045677169509 0.2226427774354276 0 0.13903299807830019 0.21154409335764149 0 0.14248646727170791 0.24329921538672239 0 0.14216045677169509 0.2226427774354276 0 0.16890701105638031 0.23504418317664161 0 0.14216045677169509 0.2226427774354276 0 0.1513137794066001 0.21432303737238931 0 0.16890701105638031 0.23504418317664161 0 0.15183105921464751 0.210852851725322 0 0.13241563583181001 0.2003476577346209 0 0.15183105921464751 0.210852851725322 0 0.13903299807830019 0.21154409335764149 0 0.13241563583181001 0.2003476577346209 0 0.1513137794066001 0.21432303737238931 0 0.15183105921464751 0.210852851725322 0 0.14522842943996589 0.21534193400985699 0 0.1513137794066001 0.21432303737238931 0 0.15183105921464751 0.210852851725322 0 0.15183105921464751 0.210852851725322 0 0.14522842943996589 0.21534193400985699 0 0.13903299807830019 0.21154409335764149 0 0.14216045677169509 0.2226427774354276 0 0.1513137794066001 0.21432303737238931 0 0.14522842943996589 0.21534193400985699 0 0.14216045677169509 0.2226427774354276 0 0.14522842943996589 0.21534193400985699 0 0.13903299807830019 0.21154409335764149 0 0.1287590091161889 0.22454109023782651 0 0.13903299807830019 0.21154409335764149 0 0.12714211421566091 0.2115365522170618 0 0.11958782189190099 0.20227867846385961 0 0.12714211421566091 0.2115365522170618 0 0.13241563583181001 0.2003476577346209 0 0.13903299807830019 0.21154409335764149 0 0.12714211421566091 0.2115365522170618 0 0.13241563583181001 0.2003476577346209 0 0.1210814068145178 0.19423580856195369 0 0.13241563583181001 0.2003476577346209 0 0.13808072668616231 0.19149491569441959 0 0.1210814068145178 0.19423580856195369 0 0.14172685770208041 0.18088834424850889 0 0.13808072668616231 0.19149491569441959 0 0.1210814068145178 0.19423580856195369 0 0.14172685770208041 0.18088834424850889 0 0.1210814068145178 0.19423580856195369 0 0.13241563583181001 0.2003476577346209 0 0.15664227980061579 0.1834446584897341 0 0.15183105921464751 0.210852851725322 0 0.14735069213281321 0.19092796682168489 0 0.14172685770208041 0.18088834424850889 0 0.13808072668616231 0.19149491569441959 0 0.14735069213281321 0.19092796682168489 0 0.15183105921464751 0.210852851725322 0 0.13808072668616231 0.19149491569441959 0 0.14735069213281321 0.19092796682168489 0 0.15664227980061579 0.1834446584897341 0 0.15183105921464751 0.210852851725322 0 0.15183105921464751 0.210852851725322 0 0.13241563583181001 0.2003476577346209 0 0.13808072668616231 0.19149491569441959 0 0.15183105921464751 0.210852851725322 0 0.13808072668616231 0.19149491569441959 0 0.15664227980061579 0.1834446584897341 0 0.17803712215301101 0.18711146321258301 0 0.17078007948547791 0.20461318166966591 0 0.15664227980061579 0.1834446584897341 0 0.15183105921464751 0.210852851725322 0 0.17078007948547791 0.20461318166966591 0 0.17803712215301101 0.18711146321258301 0 0.18699821765939811 0.20575379358823331 0 0.17078007948547791 0.20461318166966591 0 0.18699821765939811 0.20575379358823331 0 0.18150256540618689 0.21619068467845909 0 0.17078007948547791 0.20461318166966591 0 0.18150256540618689 0.21619068467845909 0 0.17078007948547791 0.20461318166966591 0 0.1696832039875637 0.2204437538389574 0 0.15183105921464751 0.210852851725322 0 0.1696832039875637 0.2204437538389574 0 0.15183105921464751 0.210852851725322 0 0.17078007948547791 0.20461318166966591 0 0.1696832039875637 0.2204437538389574 0 0.15183105921464751 0.210852851725322 0 0.16890701105638031 0.23504418317664161 0 0.15183105921464751 0.210852851725322 0 0.1696832039875637 0.2204437538389574 0 0.16890701105638031 0.23504418317664161 0 0.1513137794066001 0.21432303737238931 0 0.15183105921464751 0.210852851725322 0 0.16890701105638031 0.23504418317664161 0 0.1696832039875637 0.2204437538389574 0 0.1730962958839812 0.23373525170759399 0 0.16890701105638031 0.23504418317664161 0 0.18150256540618689 0.21619068467845909 0 0.1696832039875637 0.2204437538389574 0 0.1874551123034256 0.23002704556275291 0 0.1696832039875637 0.2204437538389574 0 0.1874551123034256 0.23002704556275291 0 0.1730962958839812 0.23373525170759399 0 0.1696832039875637 0.2204437538389574 0 0.1874551123034256 0.23002704556275291 0 0.16890701105638031 0.23504418317664161 0 0.18564289691528729 0.25868749876629671 0 0.1821848497420967 0.24129823675235251 0 0.16890701105638031 0.23504418317664161 0 0.18564289691528729 0.25868749876629671 0 0.1730962958839812 0.23373525170759399 0 0.1821848497420967 0.24129823675235251 0 0.16890701105638031 0.23504418317664161 0 0.1874551123034256 0.23002704556275291 0 0.1730962958839812 0.23373525170759399 0 0.1821848497420967 0.24129823675235251 0 0.14248646727170791 0.24329921538672239 0 0.16890701105638031 0.23504418317664161 0 0.1631161995596529 0.25657386530356069 0 0.1730962958839812 0.23373525170759399 0 0.16890701105638031 0.23504418317664161 0 0.2052270206192876 0.23961033728654851 0 0.2245441737887168 0.23093760545441711 0 0.21458810326103989 0.25029177234766842 0 0.2052270206192876 0.23961033728654851 0 0.2050239072751949 0.2492833193895482 0 0.21458810326103989 0.25029177234766842 0 0.2052270206192876 0.23961033728654851 0 0.2050239072751949 0.2492833193895482 0 0.1956251304139873 0.24830732682566101 0 0.1874551123034256 0.23002704556275291 0 0.1821848497420967 0.24129823675235251 0 0.1956251304139873 0.24830732682566101 0 0.1874551123034256 0.23002704556275291 0 0.2052270206192876 0.23961033728654851 0 0.1821848497420967 0.24129823675235251 0 0.1956251304139873 0.24830732682566101 0 0.18564289691528729 0.25868749876629671 0 0.1874551123034256 0.23002704556275291 0 0.2052270206192876 0.23961033728654851 0 0.1956251304139873 0.24830732682566101 0 0.1874551123034256 0.23002704556275291 0 0.2052270206192876 0.23961033728654851 0 0.20110338325899621 0.22697869990708769 0 0.18150256540618689 0.21619068467845909 0 0.1874551123034256 0.23002704556275291 0 0.19422843088031849 0.2167901493339745 0 0.1874551123034256 0.23002704556275291 0 0.20110338325899621 0.22697869990708769 0 0.19422843088031849 0.2167901493339745 0 0.20110338325899621 0.22697869990708769 0 0.2086865974780466 0.21738525977654841 0 0.19422843088031849 0.2167901493339745 0 0.2052270206192876 0.23961033728654851 0 0.21155197229915221 0.22775520817690251 0 0.2245441737887168 0.23093760545441711 0 0.20110338325899621 0.22697869990708769 0 0.21155197229915221 0.22775520817690251 0 0.2086865974780466 0.21738525977654841 0 0.2052270206192876 0.23961033728654851 0 0.20110338325899621 0.22697869990708769 0 0.21155197229915221 0.22775520817690251 0 0.21155197229915221 0.22775520817690251 0 0.2086865974780466 0.21738525977654841 0 0.22156171208109349 0.2232889965660497 0 0.211417792929007 0.20448623071467029 0 0.2086865974780466 0.21738525977654841 0 0.22411523440486891 0.2128525325182862 0 0.2086865974780466 0.21738525977654841 0 0.22411523440486891 0.2128525325182862 0 0.22156171208109349 0.2232889965660497 0 0.211417792929007 0.20448623071467029 0 0.2086865974780466 0.21738525977654841 0 0.19996516513116139 0.20542151256053021 0 0.2086865974780466 0.21738525977654841 0 0.19422843088031849 0.2167901493339745 0 0.19996516513116139 0.20542151256053021 0 0.18699821765939811 0.20575379358823331 0 0.18150256540618689 0.21619068467845909 0 0.19422843088031849 0.2167901493339745 0 0.18699821765939811 0.20575379358823331 0 0.19422843088031849 0.2167901493339745 0 0.19996516513116139 0.20542151256053021 0 0.18699821765939811 0.20575379358823331 0 0.19996516513116139 0.20542151256053021 0 0.19943196450540629 0.19077826793543179 0 0.17803712215301101 0.18711146321258301 0 0.19943196450540629 0.19077826793543179 0 0.17803712215301101 0.18711146321258301 0 0.18699821765939811 0.20575379358823331 0 0.19943196450540629 0.19077826793543179 0 0.211417792929007 0.20448623071467029 0 0.19943196450540629 0.19077826793543179 0 0.22082680685780151 0.19444507265828059 0 0.19943196450540629 0.19077826793543179 0 0.22082680685780151 0.19444507265828059 0 0.211417792929007 0.20448623071467029 0 0.19996516513116139 0.20542151256053021 0 0.19943196450540629 0.19077826793543179 0 0.22082680685780151 0.19444507265828059 0 0.2418323282778008 0.1922485172988235 0 0.23200417938957321 0.20455559625434991 0 0.22082680685780151 0.19444507265828059 0 0.2418323282778008 0.1922485172988235 0 0.2298041727050075 0.1787595393801808 0 0.2418323282778008 0.1922485172988235 0 0.24124234801782149 0.21867626254200909 0 0.2418323282778008 0.1922485172988235 0 0.24124234801782149 0.21867626254200909 0 0.25471258750952741 0.20148162901819469 0 0.2418323282778008 0.1922485172988235 0 0.24124234801782149 0.21867626254200909 0 0.23200417938957321 0.20455559625434991 0 0.24124234801782149 0.21867626254200909 0 0.25357276657721323 0.21641202867955539 0 0.25471258750952741 0.20148162901819469 0 0.24124234801782149 0.21867626254200909 0 0.22411523440486891 0.2128525325182862 0 0.2303270751280653 0.22194856436908961 0 0.211417792929007 0.20448623071467029 0 0.22082680685780151 0.19444507265828059 0 0.22411523440486891 0.2128525325182862 0 0.22082680685780151 0.19444507265828059 0 0.23200417938957321 0.20455559625434991 0 0.22411523440486891 0.2128525325182862 0 0.24124234801782149 0.21867626254200909 0 0.23200417938957321 0.20455559625434991 0 0.22411523440486891 0.2128525325182862 0 0.22411523440486891 0.2128525325182862 0 0.22156171208109349 0.2232889965660497 0 0.2303270751280653 0.22194856436908961 0 0.22156171208109349 0.2232889965660497 0 0.2245441737887168 0.23093760545441711 0 0.2301452193877111 0.22885480910105491 0 0.21155197229915221 0.22775520817690251 0 0.22156171208109349 0.2232889965660497 0 0.2245441737887168 0.23093760545441711 0 0.2301452193877111 0.22885480910105491 0 0.23408043491912681 0.23335190051361199 0 0.23787356880598759 0.22384871304106421 0 0.2301452193877111 0.22885480910105491 0 0.23408043491912681 0.23335190051361199 0 0.2258394828391487 0.23585902185418811 0 0.2245441737887168 0.23093760545441711 0 0.2301452193877111 0.22885480910105491 0 0.2258394828391487 0.23585902185418811 0 0.2301452193877111 0.22885480910105491 0 0.2303270751280653 0.22194856436908961 0 0.23787356880598759 0.22384871304106421 0 0.22156171208109349 0.2232889965660497 0 0.2301452193877111 0.22885480910105491 0 0.2303270751280653 0.22194856436908961 0 0.24124234801782149 0.21867626254200909 0 0.2303270751280653 0.22194856436908961 0 0.23787356880598759 0.22384871304106421 0 0.24124234801782149 0.21867626254200909 0 0.23787356880598759 0.22384871304106421 0 0.25357276657721323 0.21641202867955539 0 0.23408043491912681 0.23335190051361199 0 0.24868260911088891 0.2303107595792985 0 0.25357276657721323 0.21641202867955539 0 0.23408043491912681 0.23335190051361199 0 0.23787356880598759 0.22384871304106421 0 0.25357276657721323 0.21641202867955539 0 0.23408043491912681 0.23335190051361199 0 0.25357276657721323 0.21641202867955539 0 0.24868260911088891 0.2303107595792985 0 0.2392512687495113 0.23539683186585869 0 0.2471090749199483 0.2357199094212839 0 0.23408043491912681 0.23335190051361199 0 0.24868260911088891 0.2303107595792985 0 0.2392512687495113 0.23539683186585869 0 0.23408043491912681 0.23335190051361199 0 0.2356673672060029 0.23553231024254659 0 0.23369101455560959 0.23545012385447089 0 0.2356673672060029 0.23553231024254659 0 0.23652425047500741 0.24096462129343871 0 0.23369101455560959 0.23545012385447089 0 0.23652425047500741 0.24096462129343871 0 0.2392512687495113 0.23539683186585869 0 0.24523436150048811 0.24199469982198529 0 0.2356673672060029 0.23553231024254659 0 0.23652425047500741 0.24096462129343871 0 0.2392512687495113 0.23539683186585869 0 0.23408043491912681 0.23335190051361199 0 0.2356673672060029 0.23553231024254659 0 0.2392512687495113 0.23539683186585869 0 0.24523436150048811 0.24199469982198529 0 0.2471090749199483 0.2357199094212839 0 0.25452501640087027 0.2374112721999547 0 0.2392512687495113 0.23539683186585869 0 0.24523436150048811 0.24199469982198529 0 0.2471090749199483 0.2357199094212839 0 0.24523436150048811 0.24199469982198529 0 0.23995652529561701 0.25039133628829258 0 0.25404003316197471 0.25208422786308371 0 0.23652425047500741 0.24096462129343871 0 0.24523436150048811 0.24199469982198529 0 0.23995652529561701 0.25039133628829258 0 0.23652425047500741 0.24096462129343871 0 0.23169913173193779 0.25404958449575432 0 0.23995652529561701 0.25039133628829258 0 0.23369101455560959 0.23545012385447089 0 0.2170338530129477 0.25958452376210089 0 0.21458810326103989 0.25029177234766842 0 0.23408043491912681 0.23335190051361199 0 0.23369101455560959 0.23545012385447089 0 0.21458810326103989 0.25029177234766842 0 0.23408043491912681 0.23335190051361199 0 0.21458810326103989 0.25029177234766842 0 0.2245441737887168 0.23093760545441711 0 0.21458810326103989 0.25029177234766842 0 0.23408043491912681 0.23335190051361199 0 0.2258394828391487 0.23585902185418811 0 0.21458810326103989 0.25029177234766842 0 0.23369101455560959 0.23545012385447089 0 0.2170338530129477 0.25958452376210089 0 0.23169913173193779 0.25404958449575432 0 0.23652425047500741 0.24096462129343871 0 0.23369101455560959 0.23545012385447089 0 0.23169913173193779 0.25404958449575432 0 0.23369101455560959 0.23545012385447089 0 0.2170338530129477 0.25958452376210089 0 0.2245441737887168 0.23093760545441711 0 0.2258394828391487 0.23585902185418811 0 0.21458810326103989 0.25029177234766842 0 0.2074718948020329 0.13931593166829101 0 0.2035930282546865 0.1573108976369578 0 0.22801201431925219 0.15227861461809999 0 0.2074718948020329 0.13931593166829101 0 0.22815060196587239 0.13250420183309389 0 0.2202182220460269 0.1181723145221887 0 0.2074718948020329 0.13931593166829101 0 0.2202182220460269 0.1181723145221887 0 0.19370351113240411 0.1202502215829211 0 0.18154761934540289 0.13534417850528041 0 0.2074718948020329 0.13931593166829101 0 0.19370351113240411 0.1202502215829211 0 0.1832181015668064 0.15465227861531949 0 0.2074718948020329 0.13931593166829101 0 0.1832181015668064 0.15465227861531949 0 0.18154761934540289 0.13534417850528041 0 0.2074718948020329 0.13931593166829101 0 0.1832181015668064 0.15465227861531949 0 0.2074718948020329 0.13931593166829101 0 0.2035930282546865 0.1573108976369578 0 0.1832181015668064 0.15465227861531949 0 0.1915320106228488 0.17262237876131631 0 0.2035930282546865 0.1573108976369578 0 0.1915320106228488 0.17262237876131631 0 0.21309098299550949 0.1707274381193544 0 0.2035930282546865 0.1573108976369578 0 0.19943196450540629 0.19077826793543179 0 0.1915320106228488 0.17262237876131631 0 0.21309098299550949 0.1707274381193544 0 0.17803712215301101 0.18711146321258301 0 0.19943196450540629 0.19077826793543179 0 0.1915320106228488 0.17262237876131631 0 0.19943196450540629 0.19077826793543179 0 0.22082680685780151 0.19444507265828059 0 0.21309098299550949 0.1707274381193544 0 0.21309098299550949 0.1707274381193544 0 0.2035930282546865 0.1573108976369578 0 0.22801201431925219 0.15227861461809999 0 0.2298041727050075 0.1787595393801808 0 0.2424223085377801 0.16582077205563811 0 0.22801201431925219 0.15227861461809999 0 0.21309098299550949 0.1707274381193544 0 0.2298041727050075 0.1787595393801808 0 0.22801201431925219 0.15227861461809999 0 0.22082680685780151 0.19444507265828059 0 0.21309098299550949 0.1707274381193544 0 0.2298041727050075 0.1787595393801808 0 0.2418323282778008 0.1922485172988235 0 0.2424223085377801 0.16582077205563811 0 0.2418323282778008 0.1922485172988235 0 0.2424223085377801 0.16582077205563811 0 0.26032431562704572 0.18342712708893841 0 0.2418323282778008 0.1922485172988235 0 0.2298041727050075 0.1787595393801808 0 0.2424223085377801 0.16582077205563811 0 0.2424223085377801 0.16582077205563811 0 0.24301228879775941 0.13939302681245261 0 0.2424223085377801 0.16582077205563811 0 0.24301228879775941 0.13939302681245261 0 0.25486404381895789 0.1523024957907583 0 0.22801201431925219 0.15227861461809999 0 0.23648687609860089 0.13476882232929049 0 0.24301228879775941 0.13939302681245261 0 0.2424223085377801 0.16582077205563811 0 0.22801201431925219 0.15227861461809999 0 0.24301228879775941 0.13939302681245261 0 0.2074718948020329 0.13931593166829101 0 0.22801201431925219 0.15227861461809999 0 0.22815060196587239 0.13250420183309389 0 0.22815060196587239 0.13250420183309389 0 0.24420216851797599 0.1292372680552665 0 0.2202182220460269 0.1181723145221887 0 0.22801201431925219 0.15227861461809999 0 0.22815060196587239 0.13250420183309389 0 0.23648687609860089 0.13476882232929049 0 0.22815060196587239 0.13250420183309389 0 0.23648687609860089 0.13476882232929049 0 0.24420216851797599 0.1292372680552665 0 0.23648687609860089 0.13476882232929049 0 0.24301228879775941 0.13939302681245261 0 0.24420216851797599 0.1292372680552665 0 0.24646482385440791 0.1109165710353929 0 0.23770217468454991 0.11680213067385049 0 0.255186127323073 0.11543194682551421 0 0.24420216851797599 0.1292372680552665 0 0.23770217468454991 0.11680213067385049 0 0.255186127323073 0.11543194682551421 0 0.23770217468454991 0.11680213067385049 0 0.255186127323073 0.11543194682551421 0 0.23770217468454991 0.11680213067385049 0 0.24055722746134861 0.1095612663226197 0 0.23538797832625211 0.10692464088038291 0 0.24646482385440791 0.1109165710353929 0 0.23770217468454991 0.11680213067385049 0 0.24055722746134861 0.1095612663226197 0 0.24174744587836799 0.1033548466348798 0 0.22816008327650389 0.097918375238235045 0 0.24736227196270541 0.090270970101712061 0 0.22816008327650389 0.097918375238235045 0 0.24736227196270541 0.090270970101712061 0 0.24174744587836799 0.1033548466348798 0 0.24736227196270541 0.090270970101712061 0 0.25459763100830068 0.096141582858552177 0 0.24174744587836799 0.1033548466348798 0 0.25459763100830068 0.096141582858552177 0 0.24646482385440791 0.1109165710353929 0 0.24174744587836799 0.1033548466348798 0 0.25655208948606423 0.10927836717886751 0 0.24174744587836799 0.1033548466348798 0 0.25655208948606423 0.10927836717886751 0 0.24646482385440791 0.1109165710353929 0 0.24055722746134861 0.1095612663226197 0 0.24174744587836799 0.1033548466348798 0 0.23538797832625211 0.10692464088038291 0 0.24174744587836799 0.1033548466348798 0 0.22816008327650389 0.097918375238235045 0 0.24055722746134861 0.1095612663226197 0 0.23538797832625211 0.10692464088038291 0 0.24174744587836799 0.1033548466348798 0 0.23538797832625211 0.10692464088038291 0 0.24174744587836799 0.1033548466348798 0 0.24174744587836799 0.1033548466348798 0 0.22816008327650389 0.097918375238235045 0 0.23538797832625211 0.10692464088038291 0 0.22816008327650389 0.097918375238235045 0 0.22436085098549791 0.1097634104313145 0 0.23770217468454991 0.11680213067385049 0 0.2202182220460269 0.1181723145221887 0 0.23770217468454991 0.11680213067385049 0 0.2202182220460269 0.1181723145221887 0 0.22436085098549791 0.1097634104313145 0 0.24420216851797599 0.1292372680552665 0 0.23770217468454991 0.11680213067385049 0 0.2202182220460269 0.1181723145221887 0 0.24420216851797599 0.1292372680552665 0 0.2202182220460269 0.1181723145221887 0 0.23770217468454991 0.11680213067385049 0 0.23538797832625211 0.10692464088038291 0 0.22436085098549791 0.1097634104313145 0 0.2202182220460269 0.1181723145221887 0 0.20033579659415629 0.10899959084191641 0 0.19370351113240411 0.1202502215829211 0 0.2202182220460269 0.1181723145221887 0 0.20033579659415629 0.10899959084191641 0 0.2202182220460269 0.1181723145221887 0 0.19370351113240411 0.1202502215829211 0 0.2202182220460269 0.1181723145221887 0 0.22436085098549791 0.1097634104313145 0 0.20033579659415629 0.10899959084191641 0 0.22816008327650389 0.097918375238235045 0 0.22436085098549791 0.1097634104313145 0 0.20033579659415629 0.10899959084191641 0 0.22816008327650389 0.097918375238235045 0 0.20033579659415629 0.10899959084191641 0 0.2016134769563831 0.087296750559026068 0 0.22816008327650389 0.097918375238235045 0 0.20033579659415629 0.10899959084191641 0 0.20033579659415629 0.10899959084191641 0 0.18422746814952201 0.1154148446289336 0 0.1860496622757298 0.1024087067025775 0 0.20033579659415629 0.10899959084191641 0 0.2016134769563831 0.087296750559026068 0 0.1860496622757298 0.1024087067025775 0 0.20033579659415629 0.10899959084191641 0 0.1860496622757298 0.1024087067025775 0 0.20033579659415629 0.10899959084191641 0 0.19370351113240411 0.1202502215829211 0 0.18422746814952201 0.1154148446289336 0 0.20033579659415629 0.10899959084191641 0 0.18422746814952201 0.1154148446289336 0 0.19220101611619109 0.069455466931817506 0 0.2016134769563831 0.087296750559026068 0 0.22553753830923129 0.072562856517635971 0 0.19220101611619109 0.069455466931817506 0 0.22553753830923129 0.072562856517635971 0 0.20371280465575431 0.054854742933563613 0 0.19220101611619109 0.069455466931817506 0 0.2016134769563831 0.087296750559026068 0 0.17506687063626211 0.076675125879817507 0 0.2016134769563831 0.087296750559026068 0 0.17506687063626211 0.076675125879817507 0 0.2016134769563831 0.087296750559026068 0 0.1860496622757298 0.1024087067025775 0 0.17954517331912459 0.085943521096986275 0 0.22816008327650389 0.097918375238235045 0 0.2016134769563831 0.087296750559026068 0 0.22553753830923129 0.072562856517635971 0 0.22816008327650389 0.097918375238235045 0 0.2016134769563831 0.087296750559026068 0 0.22553753830923129 0.072562856517635971 0 0.20371280465575431 0.054854742933563613 0 0.22816008327650389 0.097918375238235045 0 0.22553753830923129 0.072562856517635971 0 0.24736227196270541 0.090270970101712061 0 0.22553753830923129 0.072562856517635971 0 0.24736227196270541 0.090270970101712061 0 0.22553753830923129 0.072562856517635971 0 0.24736227196270541 0.090270970101712061 0 0.24874122334595 0.07170785510379532 0 0.22553753830923129 0.072562856517635971 0 0.24874122334595 0.07170785510379532 0 0.24629062771517271 0.052820950830226497 0 0.24629062771517271 0.052820950830226497 0 0.22540450977275331 0.044226989078737088 0 0.24629062771517271 0.052820950830226497 0 0.2492733855269578 0.041579555173777823 0 0.22540450977275331 0.044226989078737088 0 0.2492733855269578 0.041579555173777823 0 0.23050941707716249 0.025621187905106171 0 0.2492733855269578 0.041579555173777823 0 0.22540450977275331 0.044226989078737088 0 0.23050941707716249 0.025621187905106171 0 0.22540450977275331 0.044226989078737088 0 0.23050941707716249 0.025621187905106171 0 0.21805144048265651 0.031797176764528597 0 0.22553753830923129 0.072562856517635971 0 0.24629062771517271 0.052820950830226497 0 0.22540450977275331 0.044226989078737088 0 0.23790413247208811 0.0091049515404343275 0 0.25322369798355371 0.0032948183560677501 0 0.2464198669495459 -0.012097030270161889 0 0.23790413247208811 0.0091049515404343275 0 0.25442723867738032 0.016379625870619269 0 0.25322369798355371 0.0032948183560677501 0 0.2492733855269578 0.041579555173777823 0 0.24818833723327199 0.02644705719899533 0 0.23050941707716249 0.025621187905106171 0 0.23790413247208811 0.0091049515404343275 0 0.24818833723327199 0.02644705719899533 0 0.25442723867738032 0.016379625870619269 0 0.23790413247208811 0.0091049515404343275 0 0.24818833723327199 0.02644705719899533 0 0.23050941707716249 0.025621187905106171 0 0.23050941707716249 0.025621187905106171 0 0.2117734432503762 0.02170750274702346 0 0.21805144048265651 0.031797176764528597 0 0.23050941707716249 0.025621187905106171 0 0.21174544862736719 0.0096628206364345465 0 0.23050941707716249 0.025621187905106171 0 0.22518260227175371 0.0072623370788317187 0 0.21174544862736719 0.0096628206364345465 0 0.23790413247208811 0.0091049515404343275 0 0.22518260227175371 0.0072623370788317187 0 0.2300866381754704 -0.0072438550720441714 0 0.23790413247208811 0.0091049515404343275 0 0.23050941707716249 0.025621187905106171 0 0.22518260227175371 0.0072623370788317187 0 0.21174544862736719 0.0096628206364345465 0 0.2117734432503762 0.02170750274702346 0 0.20589386385567829 -0.0063134785331596111 0 0.2117734432503762 0.02170750274702346 0 0.19985428483697371 0.01027601627170664 0 0.20589386385567829 -0.0063134785331596111 0 0.2117734432503762 0.02170750274702346 0 0.20589386385567829 -0.0063134785331596111 0 0.22518260227175371 0.0072623370788317187 0 0.21174544862736719 0.0096628206364345465 0 0.2185782736923042 -0.0038367730406402641 0 0.23050941707716249 0.025621187905106171 0 0.21174544862736719 0.0096628206364345465 0 0.2117734432503762 0.02170750274702346 0 0.2117734432503762 0.02170750274702346 0 0.19994459845139961 0.023663902980434019 0 0.19985428483697371 0.01027601627170664 0 0.2117734432503762 0.02170750274702346 0 0.21805144048265651 0.031797176764528597 0 0.20451839183033399 0.035633027327247678 0 0.2117734432503762 0.02170750274702346 0 0.19994459845139961 0.023663902980434019 0 0.20451839183033399 0.035633027327247678 0 0.19994459845139961 0.023663902980434019 0 0.20451839183033399 0.035633027327247678 0 0.1836322738879155 0.027039065575756291 0 0.19994459845139961 0.023663902980434019 0 0.19985428483697371 0.01027601627170664 0 0.1836322738879155 0.027039065575756291 0 0.19985428483697371 0.01027601627170664 0 0.20589386385567829 -0.0063134785331596111 0 0.18863989258252481 -0.001979820774580698 0 0.19985428483697371 0.01027601627170664 0 0.1836322738879155 0.027039065575756291 0 0.18863989258252481 -0.001979820774580698 0 0.22553753830923129 0.072562856517635971 0 0.22540450977275331 0.044226989078737088 0 0.20371280465575431 0.054854742933563613 0 0.22540450977275331 0.044226989078737088 0 0.20451839183033399 0.035633027327247678 0 0.22540450977275331 0.044226989078737088 0 0.21805144048265651 0.031797176764528597 0 0.20451839183033399 0.035633027327247678 0 0.22540450977275331 0.044226989078737088 0 0.20371280465575431 0.054854742933563613 0 0.20451839183033399 0.035633027327247678 0 0.20451839183033399 0.035633027327247678 0 0.1818880710022803 0.03714662934948755 0 0.1836322738879155 0.027039065575756291 0 0.20371280465575431 0.054854742933563613 0 0.20451839183033399 0.035633027327247678 0 0.1818880710022803 0.03714662934948755 0 0.20371280465575431 0.054854742933563613 0 0.1818880710022803 0.03714662934948755 0 0.20451839183033399 0.035633027327247678 0 0.1836322738879155 0.027039065575756291 0 0.20371280465575431 0.054854742933563613 0 0.17847747081927551 0.05691087761465332 0 0.1818880710022803 0.03714662934948755 0 0.19220101611619109 0.069455466931817506 0 0.20371280465575431 0.054854742933563613 0 0.17847747081927551 0.05691087761465332 0 0.17847747081927551 0.05691087761465332 0 0.1818880710022803 0.03714662934948755 0 0.17847747081927551 0.05691087761465332 0 0.1818880710022803 0.03714662934948755 0 0.1636569447874848 0.036789081642687432 0 0.1818880710022803 0.03714662934948755 0 0.1836322738879155 0.027039065575756291 0 0.1818880710022803 0.03714662934948755 0 0.1636569447874848 0.036789081642687432 0 0.1620242678869008 0.02102957209859084 0 0.17847747081927551 0.05691087761465332 0 0.1636569447874848 0.036789081642687432 0 0.15962551614652079 0.053115759904931073 0 0.17847747081927551 0.05691087761465332 0 0.15962551614652079 0.053115759904931073 0 0.16641746421004469 0.065589342706300277 0 0.15962551614652079 0.053115759904931073 0 0.15045482833334159 0.067212260357143019 0 0.16641746421004469 0.065589342706300277 0 0.1716695151525548 0.011722155214289249 0 0.17506184651935949 -0.0021247232161890161 0 0.18863989258252481 -0.001979820774580698 0 0.1836322738879155 0.027039065575756291 0 0.18863989258252481 -0.001979820774580698 0 0.1836322738879155 0.027039065575756291 0 0.1716695151525548 0.011722155214289249 0 0.18863989258252481 -0.001979820774580698 0 0.1818880710022803 0.03714662934948755 0 0.1730573255808272 0.02268781650565178 0 0.1620242678869008 0.02102957209859084 0 0.1818880710022803 0.03714662934948755 0 0.1620242678869008 0.02102957209859084 0 0.1730573255808272 0.02268781650565178 0 0.1836322738879155 0.027039065575756291 0 0.1716695151525548 0.011722155214289249 0 0.1730573255808272 0.02268781650565178 0 0.1836322738879155 0.027039065575756291 0 0.1818880710022803 0.03714662934948755 0 0.1730573255808272 0.02268781650565178 0 0.1836322738879155 0.027039065575756291 0 0.1636569447874848 0.036789081642687432 0 0.1620242678869008 0.02102957209859084 0 0.15032019737810451 0.03113296745297477 0 0.1730573255808272 0.02268781650565178 0 0.1620242678869008 0.02102957209859084 0 0.1716695151525548 0.011722155214289249 0 0.1620242678869008 0.02102957209859084 0 0.1716695151525548 0.011722155214289249 0 0.15871689523486121 0.010399441389301141 0 0.1716695151525548 0.011722155214289249 0 0.15871689523486121 0.010399441389301141 0 0.1628037813635097 0.0015330777282007481 0 0.15871689523486121 0.010399441389301141 0 0.1628037813635097 0.0015330777282007481 0 0.15453230216132671 0.0032055715019124438 0 0.1716695151525548 0.011722155214289249 0 0.1628037813635097 0.0015330777282007481 0 0.17506184651935949 -0.0021247232161890161 0 0.1620242678869008 0.02102957209859084 0 0.14216046477152491 0.0049125148476896544 0 0.15871689523486121 0.010399441389301141 0 0.14216046477152491 0.0049125148476896544 0 0.15453230216132671 0.0032055715019124438 0 0.14216046477152491 0.0049125148476896544 0 0.15453230216132671 0.0032055715019124438 0 0.15849764294065671 -0.0060544572746906826 0 0.1620242678869008 0.02102957209859084 0 0.15871689523486121 0.010399441389301141 0 0.14216046477152491 0.0049125148476896544 0 0.1620242678869008 0.02102957209859084 0 0.14216046477152491 0.0049125148476896544 0 0.1432298655490542 0.02239521632663263 0 0.1620242678869008 0.02102957209859084 0 0.1432298655490542 0.02239521632663263 0 0.15032019737810451 0.03113296745297477 0 0.1432298655490542 0.02239521632663263 0 0.15032019737810451 0.03113296745297477 0 0.1366405524080008 0.032741533152345258 0 0.1432298655490542 0.02239521632663263 0 0.12659142849079691 0.028091664155532971 0 0.1366405524080008 0.032741533152345258 0 0.14216046477152491 0.0049125148476896544 0 0.1432298655490542 0.02239521632663263 0 0.12659142849079691 0.028091664155532971 0 0.14216046477152491 0.0049125148476896544 0 0.12659142849079691 0.028091664155532971 0 0.1323442420055404 0.014884056975098 0 0.14216046477152491 0.0049125148476896544 0 0.12659142849079691 0.028091664155532971 0 0.11882011836095251 0.0065886106746579649 0 0.12659142849079691 0.028091664155532971 0 0.1323442420055404 0.014884056975098 0 0.12659142849079691 0.028091664155532971 0 0.1366405524080008 0.032741533152345258 0 0.11882011836095251 0.0065886106746579649 0 0.1323442420055404 0.014884056975098 0 0.13735218555535891 0.001011181807127467 0 0.1323442420055404 0.014884056975098 0 0.13735218555535891 0.001011181807127467 0 0.14216046477152491 0.0049125148476896544 0 0.1323442420055404 0.014884056975098 0 0.13735218555535891 0.001011181807127467 0 0.14216046477152491 0.0049125148476896544 0 0.13735218555535891 0.001011181807127467 0 0.15962551614652079 0.053115759904931073 0 0.1452456698728295 0.044396077507560729 0 0.15045482833334159 0.067212260357143019 0 0.1452456698728295 0.044396077507560729 0 0.12683439495817461 0.052003073372435288 0 0.15045482833334159 0.067212260357143019 0 0.1636569447874848 0.036789081642687432 0 0.15032019737810451 0.03113296745297477 0 0.1452456698728295 0.044396077507560729 0 0.1636569447874848 0.036789081642687432 0 0.15962551614652079 0.053115759904931073 0 0.1452456698728295 0.044396077507560729 0 0.1636569447874848 0.036789081642687432 0 0.1452456698728295 0.044396077507560729 0 0.15032019737810451 0.03113296745297477 0 0.1452456698728295 0.044396077507560729 0 0.1366405524080008 0.032741533152345258 0 0.1452456698728295 0.044396077507560729 0 0.13015300311198849 0.040381385354086502 0 0.12683439495817461 0.052003073372435288 0 0.1452456698728295 0.044396077507560729 0 0.1366405524080008 0.032741533152345258 0 0.13015300311198849 0.040381385354086502 0 0.12659142849079691 0.028091664155532971 0 0.1366405524080008 0.032741533152345258 0 0.13015300311198849 0.040381385354086502 0 0.12683439495817461 0.052003073372435288 0 0.13134854049252651 0.064566646620811727 0 0.15045482833334159 0.067212260357143019 0 0.1452456698728295 0.044396077507560729 0 0.12683439495817461 0.052003073372435288 0 0.12683439495817461 0.052003073372435288 0 0.15045482833334159 0.067212260357143019 0 0.1213053233293625 0.063977455960140386 0 0.12683439495817461 0.052003073372435288 0 0.13134854049252651 0.064566646620811727 0 0.13134854049252651 0.064566646620811727 0 0.12679961534922851 0.075073796793526271 0 0.15045482833334159 0.067212260357143019 0 0.1213053233293625 0.063977455960140386 0 0.13134854049252651 0.064566646620811727 0 0.12679961534922851 0.075073796793526271 0 0.12679961534922851 0.075073796793526271 0 0.15045482833334159 0.067212260357143019 0 0.1492815716532653 0.085445809678383625 0 0.1185648575779607 0.095458187827811403 0 0.12679961534922851 0.075073796793526271 0 0.13332649773741079 0.089989738391902788 0 0.1492815716532653 0.085445809678383625 0 0.13332649773741079 0.089989738391902788 0 0.13865994636918871 0.10398115926788989 0 0.12679961534922851 0.075073796793526271 0 0.1492815716532653 0.085445809678383625 0 0.12679961534922851 0.075073796793526271 0 0.1492815716532653 0.085445809678383625 0 0.13332649773741079 0.089989738391902788 0 0.123281054128593 0.11724462113534739 0 0.1185648575779607 0.095458187827811403 0 0.13865994636918871 0.10398115926788989 0 0.1185648575779607 0.095458187827811403 0 0.13332649773741079 0.089989738391902788 0 0.13865994636918871 0.10398115926788989 0 0.123281054128593 0.11724462113534739 0 0.13865994636918871 0.10398115926788989 0 0.13947052033133081 0.1245003570974072 0 0.13947052033133081 0.1245003570974072 0 0.15026369300765779 0.1129544164764977 0 0.16718880021878149 0.12232812864365609 0 0.13947052033133081 0.1245003570974072 0 0.16718880021878149 0.12232812864365609 0 0.13865994636918871 0.10398115926788989 0 0.13947052033133081 0.1245003570974072 0 0.15026369300765779 0.1129544164764977 0 0.1492815716532653 0.085445809678383625 0 0.13865994636918871 0.10398115926788989 0 0.15573550511132991 0.1010080208970377 0 0.13865994636918871 0.10398115926788989 0 0.15026369300765779 0.1129544164764977 0 0.15573550511132991 0.1010080208970377 0 0.15573550511132991 0.1010080208970377 0 0.17176352795730221 0.095817822563241214 0 0.16718880021878149 0.12232812864365609 0 0.17176352795730221 0.095817822563241214 0 0.16718880021878149 0.12232812864365609 0 0.1492815716532653 0.085445809678383625 0 0.15573550511132991 0.1010080208970377 0 0.17176352795730221 0.095817822563241214 0 0.15026369300765779 0.1129544164764977 0 0.15573550511132991 0.1010080208970377 0 0.16718880021878149 0.12232812864365609 0 0.16718880021878149 0.12232812864365609 0 0.18422746814952201 0.1154148446289336 0 0.17176352795730221 0.095817822563241214 0 0.16718880021878149 0.12232812864365609 0 0.18422746814952201 0.1154148446289336 0 0.19370351113240411 0.1202502215829211 0 0.16718880021878149 0.12232812864365609 0 0.19370351113240411 0.1202502215829211 0 0.16718880021878149 0.12232812864365609 0 0.18422746814952201 0.1154148446289336 0 0.17176352795730221 0.095817822563241214 0 0.18422746814952201 0.1154148446289336 0 0.1860496622757298 0.1024087067025775 0 0.17176352795730221 0.095817822563241214 0 0.1860496622757298 0.1024087067025775 0 0.17954517331912459 0.085943521096986275 0 0.17176352795730221 0.095817822563241214 0 0.1860496622757298 0.1024087067025775 0 0.2016134769563831 0.087296750559026068 0 0.17954517331912459 0.085943521096986275 0 0.17506687063626211 0.076675125879817507 0 0.17176352795730221 0.095817822563241214 0 0.17407526170850959 0.082421447341849294 0 0.17176352795730221 0.095817822563241214 0 0.17954517331912459 0.085943521096986275 0 0.17407526170850959 0.082421447341849294 0 0.17954517331912459 0.085943521096986275 0 0.17407526170850959 0.082421447341849294 0 0.17506687063626211 0.076675125879817507 0 0.17407526170850959 0.082421447341849294 0 0.17506687063626211 0.076675125879817507 0 0.17954517331912459 0.085943521096986275 0 0.17407526170850959 0.082421447341849294 0 0.17847747081927551 0.05691087761465332 0 0.17506687063626211 0.076675125879817507 0 0.19220101611619109 0.069455466931817506 0 0.17847747081927551 0.05691087761465332 0 0.17506687063626211 0.076675125879817507 0 0.17847747081927551 0.05691087761465332 0 0.17506687063626211 0.076675125879817507 0 0.16641746421004469 0.065589342706300277 0 0.17407526170850959 0.082421447341849294 0 0.17506687063626211 0.076675125879817507 0 0.16846263511482451 0.074032689774956653 0 0.15045482833334159 0.067212260357143019 0 0.16846263511482451 0.074032689774956653 0 0.16641746421004469 0.065589342706300277 0 0.17506687063626211 0.076675125879817507 0 0.16846263511482451 0.074032689774956653 0 0.16641746421004469 0.065589342706300277 0 0.15045482833334159 0.067212260357143019 0 0.17407526170850959 0.082421447341849294 0 0.16846263511482451 0.074032689774956653 0 0.17506687063626211 0.076675125879817507 0 0.16846263511482451 0.074032689774956653 0 0.15045482833334159 0.067212260357143019 0 0.17407526170850959 0.082421447341849294 0 0.1492815716532653 0.085445809678383625 0 0.17176352795730221 0.095817822563241214 0 0.1492815716532653 0.085445809678383625 0 0.17176352795730221 0.095817822563241214 0 0.17407526170850959 0.082421447341849294 0 0.15045482833334159 0.067212260357143019 0 0.1492815716532653 0.085445809678383625 0 0.17407526170850959 0.082421447341849294 0 0.094789198081262169 0.47221984895451657 0 0.09870107108427445 0.5 0 0.1248616532684987 0.47476888169724352 0 0.09870107108427445 0.5 0 0.1248616532684987 0.47476888169724352 0 0.1287333349596296 0.50000000000000233 0 0.1248616532684987 0.47476888169724352 0 0.1154926134483955 0.45328817880533262 0 0.094789198081262169 0.47221984895451657 0 0.1248616532684987 0.47476888169724352 0 0.1154926134483955 0.45328817880533262 0 0.1248616532684987 0.47476888169724352 0 0.1205619018159948 0.44674810255646558 0 0.1248616532684987 0.47476888169724352 0 0.1154926134483955 0.45328817880533262 0 0.1205619018159948 0.44674810255646558 0 0.1154926134483955 0.45328817880533262 0 0.106123573628292 0.43180747591342172 0 0.1154926134483955 0.45328817880533262 0 0.1205619018159948 0.44674810255646558 0 0.106123573628292 0.43180747591342172 0 0.1154926134483955 0.45328817880533262 0 0.096722182691352548 0.44869154901932268 0 0.106123573628292 0.43180747591342172 0 0.094789198081262169 0.47221984895451657 0 0.1154926134483955 0.45328817880533262 0 0.096722182691352548 0.44869154901932268 0 0.094789198081262169 0.47221984895451657 0 0.077453222292990773 0.45016302493177879 0 0.067202034968243438 0.47028323083424428 0 0.094789198081262169 0.47221984895451657 0 0.096722182691352548 0.44869154901932268 0 0.077453222292990773 0.45016302493177879 0 0.096722182691352548 0.44869154901932268 0 0.077453222292990773 0.45016302493177879 0 0.085233479690329184 0.42595657570789891 0 0.077453222292990773 0.45016302493177879 0 0.085233479690329184 0.42595657570789891 0 0.077453222292990773 0.45016302493177879 0 0.055846149836862702 0.43889490050586683 0 0.065639666334966471 0.42409002317344818 0 0.077453222292990773 0.45016302493177879 0 0.067202034968243438 0.47028323083424428 0 0.051776939420019832 0.45519588853091181 0 0.094789198081262169 0.47221984895451657 0 0.067202034968243438 0.47028323083424428 0 0.068668807208919325 0.5 0 0.094789198081262169 0.47221984895451657 0 0.09870107108427445 0.5 0 0.068668807208919325 0.5 0 0.068668807208919325 0.5 0 0.043814234576468783 0.4752156274217324 0 0.038636543333564137 0.5 0 0.067202034968243438 0.47028323083424428 0 0.068668807208919325 0.5 0 0.043814234576468783 0.4752156274217324 0 0.038636543333564137 0.5 0 0.0095498935665802413 0.47810272379952351 0 0.0086042794582089632 0.5 0 0.043814234576468783 0.4752156274217324 0 0.038636543333564137 0.5 0 0.0095498935665802413 0.47810272379952351 0 0.043814234576468783 0.4752156274217324 0 0.0095498935665802413 0.47810272379952351 0 0.02936257191825143 0.45548825099001988 0 -0.0044763741368290672 0.43313315307665529 0 0.006403582431216831 0.45126676372832991 0 0.01131617767293759 0.43066417693356068 0 0.006403582431216831 0.45126676372832991 0 0.024585063983693121 0.43937755350337049 0 0.01131617767293759 0.43066417693356068 0 -0.0062093312902834459 0.46527566221073008 0 0.0095498935665802413 0.47810272379952351 0 0.006403582431216831 0.45126676372832991 0 0.0095498935665802413 0.47810272379952351 0 0.006403582431216831 0.45126676372832991 0 0.02936257191825143 0.45548825099001988 0 0.02936257191825143 0.45548825099001988 0 0.024585063983693121 0.43937755350337049 0 0.039439570502417587 0.44016889882154447 0 0.006403582431216831 0.45126676372832991 0 0.02936257191825143 0.45548825099001988 0 0.024585063983693121 0.43937755350337049 0 0.02936257191825143 0.45548825099001988 0 0.039439570502417587 0.44016889882154447 0 0.051776939420019832 0.45519588853091181 0 0.043814234576468783 0.4752156274217324 0 0.02936257191825143 0.45548825099001988 0 0.051776939420019832 0.45519588853091181 0 0.067202034968243438 0.47028323083424428 0 0.043814234576468783 0.4752156274217324 0 0.051776939420019832 0.45519588853091181 0 0.039439570502417587 0.44016889882154447 0 0.051776939420019832 0.45519588853091181 0 0.055846149836862702 0.43889490050586683 0 0.077453222292990773 0.45016302493177879 0 0.051776939420019832 0.45519588853091181 0 0.055846149836862702 0.43889490050586683 0 0.055846149836862702 0.43889490050586683 0 0.044352211855280779 0.42435697566478181 0 0.065639666334966471 0.42409002317344818 0 0.054179592762823331 0.4124556941646933 0 0.065774511826563423 0.40583773171119408 0 0.065639666334966471 0.42409002317344818 0 0.054179592762823331 0.4124556941646933 0 0.044352211855280779 0.42435697566478181 0 0.042551786202842029 0.40583695196884878 0 0.054179592762823331 0.4124556941646933 0 0.044352211855280779 0.42435697566478181 0 0.065639666334966471 0.42409002317344818 0 0.054179592762823331 0.4124556941646933 0 0.052579787594463898 0.40215678830519391 0 0.065774511826563423 0.40583773171119408 0 0.054179592762823331 0.4124556941646933 0 0.042551786202842029 0.40583695196884878 0 0.052579787594463898 0.40215678830519391 0 0.031615607723292562 0.41237007764590089 0 0.044352211855280779 0.42435697566478181 0 0.042551786202842029 0.40583695196884878 0 0.031615607723292562 0.41237007764590089 0 0.044352211855280779 0.42435697566478181 0 0.029348552931666359 0.42650056435783129 0 0.039439570502417587 0.44016889882154447 0 0.055846149836862702 0.43889490050586683 0 0.044352211855280779 0.42435697566478181 0 0.039439570502417587 0.44016889882154447 0 0.044352211855280779 0.42435697566478181 0 0.029348552931666359 0.42650056435783129 0 0.024585063983693121 0.43937755350337049 0 0.039439570502417587 0.44016889882154447 0 0.029348552931666359 0.42650056435783129 0 0.024585063983693121 0.43937755350337049 0 0.029348552931666359 0.42650056435783129 0 0.01131617767293759 0.43066417693356068 0 0.029348552931666359 0.42650056435783129 0 0.019479081626689841 0.41692126840220728 0 0.01131617767293759 0.43066417693356068 0 0.031615607723292562 0.41237007764590089 0 0.029348552931666359 0.42650056435783129 0 0.019479081626689841 0.41692126840220728 0 0.031615607723292562 0.41237007764590089 0 0.019479081626689841 0.41692126840220728 0 0.02210553341445062 0.40298972327242938 0 0.019479081626689841 0.41692126840220728 0 0.0046995574085186929 0.41194005205042061 0 0.02210553341445062 0.40298972327242938 0 0.019479081626689841 0.41692126840220728 0 0.0046995574085186929 0.41194005205042061 0 0.01131617767293759 0.43066417693356068 0 -0.0044763741368290672 0.43313315307665529 0 0.0046995574085186929 0.41194005205042061 0 0.01131617767293759 0.43066417693356068 0 -0.0068648610501423502 0.39382000907293813 0 0.0053185270157129726 0.37689571945341471 0 0.0079727676898529512 0.39395805239723503 0 0.0053185270157129726 0.37689571945341471 0 0.0079727676898529512 0.39395805239723503 0 0.017055050774382831 0.3783760363496293 0 0.0053185270157129726 0.37689571945341471 0 0.017055050774382831 0.3783760363496293 0 0.014905446519761849 0.37011919055753012 0 -0.0068648610501423502 0.39382000907293813 0 0.0046995574085186929 0.41194005205042061 0 0.0079727676898529512 0.39395805239723503 0 0.0046995574085186929 0.41194005205042061 0 0.0079727676898529512 0.39395805239723503 0 0.02210553341445062 0.40298972327242938 0 0.0079727676898529512 0.39395805239723503 0 0.02210553341445062 0.40298972327242938 0 0.02735486101880703 0.39232044610694311 0 0.031615607723292562 0.41237007764590089 0 0.02210553341445062 0.40298972327242938 0 0.03492587150599015 0.39714318271575322 0 0.02210553341445062 0.40298972327242938 0 0.02735486101880703 0.39232044610694311 0 0.03492587150599015 0.39714318271575322 0 0.0079727676898529512 0.39395805239723503 0 0.02735486101880703 0.39232044610694311 0 0.033420514628485373 0.38302977191180709 0 0.017055050774382831 0.3783760363496293 0 0.033420514628485373 0.38302977191180709 0 0.023779055828078009 0.37097747554075361 0 0.0079727676898529512 0.39395805239723503 0 0.017055050774382831 0.3783760363496293 0 0.033420514628485373 0.38302977191180709 0 0.0079727676898529512 0.39395805239723503 0 0.033420514628485373 0.38302977191180709 0 0.02735486101880703 0.39232044610694311 0 0.032859848824407727 0.38560668074253002 0 0.033420514628485373 0.38302977191180709 0 0.02735486101880703 0.39232044610694311 0 0.032859848824407727 0.38560668074253002 0 0.032844630049655758 0.3911952656019041 0 0.033420514628485373 0.38302977191180709 0 0.040531910439000007 0.38820627445006711 0 0.055078026168592691 0.37372917012189599 0 0.033420514628485373 0.38302977191180709 0 0.055078026168592691 0.37372917012189599 0 0.032859848824407727 0.38560668074253002 0 0.033420514628485373 0.38302977191180709 0 0.032859848824407727 0.38560668074253002 0 0.040531910439000007 0.38820627445006711 0 0.032844630049655758 0.3911952656019041 0 0.032859848824407727 0.38560668074253002 0 0.033420514628485373 0.38302977191180709 0 0.040531910439000007 0.38820627445006711 0 0.031615607723292562 0.41237007764590089 0 0.03492587150599015 0.39714318271575322 0 0.042551786202842029 0.40583695196884878 0 0.040531910439000007 0.38820627445006711 0 0.03492587150599015 0.39714318271575322 0 0.032844630049655758 0.3911952656019041 0 0.02735486101880703 0.39232044610694311 0 0.03492587150599015 0.39714318271575322 0 0.032844630049655758 0.3911952656019041 0 0.040531910439000007 0.38820627445006711 0 0.03492587150599015 0.39714318271575322 0 0.044409534997012647 0.39663533348309749 0 0.040531910439000007 0.38820627445006711 0 0.044409534997012647 0.39663533348309749 0 0.05145831924276717 0.38983346997562462 0 0.044409534997012647 0.39663533348309749 0 0.042551786202842029 0.40583695196884878 0 0.052579787594463898 0.40215678830519391 0 0.03492587150599015 0.39714318271575322 0 0.044409534997012647 0.39663533348309749 0 0.042551786202842029 0.40583695196884878 0 0.052579787594463898 0.40215678830519391 0 0.065929237187869999 0.38841376689227869 0 0.065774511826563423 0.40583773171119408 0 0.044409534997012647 0.39663533348309749 0 0.052579787594463898 0.40215678830519391 0 0.05145831924276717 0.38983346997562462 0 0.052579787594463898 0.40215678830519391 0 0.05145831924276717 0.38983346997562462 0 0.065929237187869999 0.38841376689227869 0 0.05145831924276717 0.38983346997562462 0 0.065929237187869999 0.38841376689227869 0 0.055078026168592691 0.37372917012189599 0 0.040531910439000007 0.38820627445006711 0 0.05145831924276717 0.38983346997562462 0 0.055078026168592691 0.37372917012189599 0 0.065929237187869999 0.38841376689227869 0 0.07065435961583541 0.37741521318853999 0 0.055078026168592691 0.37372917012189599 0 0.065929237187869999 0.38841376689227869 0 0.07065435961583541 0.37741521318853999 0 0.084874637398179506 0.3830893474080016 0 0.065929237187869999 0.38841376689227869 0 0.084874637398179506 0.3830893474080016 0 0.078183007061163587 0.39730645121706609 0 0.084874637398179506 0.3830893474080016 0 0.09301373708766289 0.40175012648401748 0 0.1017514530376761 0.37456476915266362 0 0.084874637398179506 0.3830893474080016 0 0.1017514530376761 0.37456476915266362 0 0.089894590955766338 0.37016501712229671 0 0.084874637398179506 0.3830893474080016 0 0.09301373708766289 0.40175012648401748 0 0.084874637398179506 0.3830893474080016 0 0.09301373708766289 0.40175012648401748 0 0.078183007061163587 0.39730645121706609 0 0.09301373708766289 0.40175012648401748 0 0.078183007061163587 0.39730645121706609 0 0.0779125114683729 0.4107996813321716 0 0.065929237187869999 0.38841376689227869 0 0.078183007061163587 0.39730645121706609 0 0.065774511826563423 0.40583773171119408 0 0.078183007061163587 0.39730645121706609 0 0.065774511826563423 0.40583773171119408 0 0.0779125114683729 0.4107996813321716 0 0.065774511826563423 0.40583773171119408 0 0.0779125114683729 0.4107996813321716 0 0.065639666334966471 0.42409002317344818 0 0.0779125114683729 0.4107996813321716 0 0.065639666334966471 0.42409002317344818 0 0.085233479690329184 0.42595657570789891 0 0.077453222292990773 0.45016302493177879 0 0.065639666334966471 0.42409002317344818 0 0.085233479690329184 0.42595657570789891 0 0.09301373708766289 0.40175012648401748 0 0.085233479690329184 0.42595657570789891 0 0.09301373708766289 0.40175012648401748 0 0.0779125114683729 0.4107996813321716 0 0.085233479690329184 0.42595657570789891 0 0.09301373708766289 0.40175012648401748 0 0.085233479690329184 0.42595657570789891 0 0.096641093798834857 0.4103746730739769 0 0.096641093798834857 0.4103746730739769 0 0.106123573628292 0.43180747591342172 0 0.096641093798834857 0.4103746730739769 0 0.1162621503634904 0.41872732341568758 0 0.11303311796937431 0.39768424579749467 0 0.096641093798834857 0.4103746730739769 0 0.106123573628292 0.43180747591342172 0 0.1162621503634904 0.41872732341568758 0 0.096641093798834857 0.4103746730739769 0 0.1162621503634904 0.41872732341568758 0 0.085233479690329184 0.42595657570789891 0 0.096641093798834857 0.4103746730739769 0 0.106123573628292 0.43180747591342172 0 0.096722182691352548 0.44869154901932268 0 0.085233479690329184 0.42595657570789891 0 0.106123573628292 0.43180747591342172 0 0.1205619018159948 0.44674810255646558 0 0.1162621503634904 0.41872732341568758 0 0.1205619018159948 0.44674810255646558 0 0.106123573628292 0.43180747591342172 0 0.1162621503634904 0.41872732341568758 0 0.1162621503634904 0.41872732341568758 0 0.11303311796937431 0.39768424579749467 0 0.11303311796937431 0.39768424579749467 0 0.1231373165426977 0.3806134049577457 0 0.1271742827044339 0.39597619803598749 0 0.1162621503634904 0.41872732341568758 0 0.11303311796937431 0.39768424579749467 0 0.1271742827044339 0.39597619803598749 0 0.11303311796937431 0.39768424579749467 0 0.1098040855752573 0.37664116817930182 0 0.11303311796937431 0.39768424579749467 0 0.1098040855752573 0.37664116817930182 0 0.1231373165426977 0.3806134049577457 0 0.09301373708766289 0.40175012648401748 0 0.10162794664532369 0.38287681265592 0 0.1017514530376761 0.37456476915266362 0 0.11303311796937431 0.39768424579749467 0 0.1098040855752573 0.37664116817930182 0 0.10162794664532369 0.38287681265592 0 0.09301373708766289 0.40175012648401748 0 0.1017514530376761 0.37456476915266362 0 0.09301373708766289 0.40175012648401748 0 0.096641093798834857 0.4103746730739769 0 0.10162794664532369 0.38287681265592 0 0.096641093798834857 0.4103746730739769 0 0.10162794664532369 0.38287681265592 0 0.096641093798834857 0.4103746730739769 0 0.11303311796937431 0.39768424579749467 0 0.10162794664532369 0.38287681265592 0 0.09301373708766289 0.40175012648401748 0 0.096641093798834857 0.4103746730739769 0 0.10657505318114149 0.3555980905611088 0 0.1040837309638282 0.33936254988137232 0 0.10657505318114149 0.3555980905611088 0 0.096269577202366938 0.34885221845001108 0 0.090674694454237537 0.35844253683721511 0 0.10657505318114149 0.3555980905611088 0 0.1081370103155585 0.34698533999968961 0 0.1040837309638282 0.33936254988137232 0 0.10657505318114149 0.3555980905611088 0 0.096269577202366938 0.34885221845001108 0 0.1040837309638282 0.33936254988137232 0 0.10657505318114149 0.3555980905611088 0 0.1081370103155585 0.34698533999968961 0 0.1081370103155585 0.34698533999968961 0 0.1105857944332822 0.35159063999376577 0 0.10657505318114149 0.3555980905611088 0 0.1081370103155585 0.34698533999968961 0 0.1105857944332822 0.35159063999376577 0 0.10657505318114149 0.3555980905611088 0 0.097223947907205094 0.36469260341832099 0 0.090674694454237537 0.35844253683721511 0 0.1098040855752573 0.37664116817930182 0 0.10657505318114149 0.3555980905611088 0 0.1098040855752573 0.37664116817930182 0 0.10162794664532369 0.38287681265592 0 0.10657505318114149 0.3555980905611088 0 0.10657505318114149 0.3555980905611088 0 0.097223947907205094 0.36469260341832099 0 0.1017514530376761 0.37456476915266362 0 0.10162794664532369 0.38287681265592 0 0.10657505318114149 0.3555980905611088 0 0.10162794664532369 0.38287681265592 0 0.10657505318114149 0.3555980905611088 0 0.1017514530376761 0.37456476915266362 0 0.097223947907205094 0.36469260341832099 0 0.1017514530376761 0.37456476915266362 0 0.089894590955766338 0.37016501712229671 0 0.1231373165426977 0.3806134049577457 0 0.1176766025370503 0.36283148293627721 0 0.13271547193899449 0.36524458735671972 0 0.1098040855752573 0.37664116817930182 0 0.10657505318114149 0.3555980905611088 0 0.1176766025370503 0.36283148293627721 0 0.1098040855752573 0.37664116817930182 0 0.1231373165426977 0.3806134049577457 0 0.1176766025370503 0.36283148293627721 0 0.1176766025370503 0.36283148293627721 0 0.1232256624926347 0.35239419723674059 0 0.13271547193899449 0.36524458735671972 0 0.10657505318114149 0.3555980905611088 0 0.1176766025370503 0.36283148293627721 0 0.1105857944332822 0.35159063999376577 0 0.1176766025370503 0.36283148293627721 0 0.1232256624926347 0.35239419723674059 0 0.1105857944332822 0.35159063999376577 0 0.1081370103155585 0.34698533999968961 0 0.1105857944332822 0.35159063999376577 0 0.1168368962248217 0.34531303274388031 0 0.1232256624926347 0.35239419723674059 0 0.1105857944332822 0.35159063999376577 0 0.1168368962248217 0.34531303274388031 0 0.1232256624926347 0.35239419723674059 0 0.1168368962248217 0.34531303274388031 0 0.1260676383484185 0.3399282146226113 0 0.1081370103155585 0.34698533999968961 0 0.1173014636805894 0.33730338313169689 0 0.1117137236550247 0.32726307032677399 0 0.1081370103155585 0.34698533999968961 0 0.1117137236550247 0.32726307032677399 0 0.1168368962248217 0.34531303274388031 0 0.1173014636805894 0.33730338313169689 0 0.1260676383484185 0.3399282146226113 0 0.1173014636805894 0.33730338313169689 0 0.12375204985912221 0.32702725796552912 0 0.1260676383484185 0.3399282146226113 0 0.1173014636805894 0.33730338313169689 0 0.12375204985912221 0.32702725796552912 0 0.1117137236550247 0.32726307032677399 0 0.1081370103155585 0.34698533999968961 0 0.1168368962248217 0.34531303274388031 0 0.1173014636805894 0.33730338313169689 0 0.1117137236550247 0.32726307032677399 0 0.11529043699448981 0.30754080065385803 0 0.1117137236550247 0.32726307032677399 0 0.1095765413243488 0.31862098055757049 0 0.11529043699448981 0.30754080065385803 0 0.1214195525311879 0.31440901896845502 0 0.1117137236550247 0.32726307032677399 0 0.11529043699448981 0.30754080065385803 0 0.1214195525311879 0.31440901896845502 0 0.12375204985912221 0.32702725796552912 0 0.12817088130983889 0.317450689473041 0 0.1214195525311879 0.31440901896845502 0 0.12375204985912221 0.32702725796552912 0 0.1117137236550247 0.32726307032677399 0 0.1040837309638282 0.33936254988137232 0 0.090103400857782137 0.31307047550514489 0 0.1040837309638282 0.33936254988137232 0 0.1025673515982234 0.32948055280164651 0 0.090103400857782137 0.31307047550514489 0 0.10278173829001019 0.3206216626476312 0 0.1025673515982234 0.32948055280164651 0 0.090103400857782137 0.31307047550514489 0 0.1095765413243488 0.31862098055757049 0 0.10278173829001019 0.3206216626476312 0 0.099947674014671917 0.31467323404701991 0 0.1095765413243488 0.31862098055757049 0 0.099947674014671917 0.31467323404701991 0 0.09732687347400408 0.30507295899279041 0 0.1117137236550247 0.32726307032677399 0 0.1095765413243488 0.31862098055757049 0 0.10278173829001019 0.3206216626476312 0 0.1117137236550247 0.32726307032677399 0 0.10278173829001019 0.3206216626476312 0 0.1025673515982234 0.32948055280164651 0 0.10278173829001019 0.3206216626476312 0 0.099947674014671917 0.31467323404701991 0 0.090103400857782137 0.31307047550514489 0 0.096269577202366938 0.34885221845001108 0 0.1040837309638282 0.33936254988137232 0 0.085896102217652828 0.34083244099607402 0 0.1081370103155585 0.34698533999968961 0 0.1117137236550247 0.32726307032677399 0 0.1040837309638282 0.33936254988137232 0 0.1081370103155585 0.34698533999968961 0 0.1040837309638282 0.33936254988137232 0 0.1117137236550247 0.32726307032677399 0 0.1040837309638282 0.33936254988137232 0 0.1025673515982234 0.32948055280164651 0 0.1040837309638282 0.33936254988137232 0 0.1025673515982234 0.32948055280164651 0 0.1040837309638282 0.33936254988137232 0 0.085896102217652828 0.34083244099607402 0 0.090103400857782137 0.31307047550514489 0 0.085896102217652828 0.34083244099607402 0 0.090103400857782137 0.31307047550514489 0 0.073944851781294785 0.32640562720437011 0 0.073944851781294785 0.32640562720437011 0 0.05926959110604698 0.32438382341666039 0 0.066452600317618793 0.30933520022964911 0 0.090103400857782137 0.31307047550514489 0 0.073944851781294785 0.32640562720437011 0 0.066452600317618793 0.30933520022964911 0 0.068002564407373206 0.3444061958743222 0 0.05926959110604698 0.32438382341666039 0 0.085896102217652828 0.34083244099607402 0 0.073944851781294785 0.32640562720437011 0 0.068002564407373206 0.3444061958743222 0 0.073944851781294785 0.32640562720437011 0 0.068002564407373206 0.3444061958743222 0 0.05926959110604698 0.32438382341666039 0 0.068002564407373206 0.3444061958743222 0 0.081709153938225559 0.35166937446406898 0 0.076735537708699481 0.364428568331984 0 0.068002564407373206 0.3444061958743222 0 0.076735537708699481 0.364428568331984 0 0.068002564407373206 0.3444061958743222 0 0.076735537708699481 0.364428568331984 0 0.058880509289504487 0.35752542115937253 0 0.085896102217652828 0.34083244099607402 0 0.068002564407373206 0.3444061958743222 0 0.081709153938225559 0.35166937446406898 0 0.081709153938225559 0.35166937446406898 0 0.090674694454237537 0.35844253683721511 0 0.076735537708699481 0.364428568331984 0 0.096269577202366938 0.34885221845001108 0 0.081709153938225559 0.35166937446406898 0 0.090674694454237537 0.35844253683721511 0 0.096269577202366938 0.34885221845001108 0 0.085896102217652828 0.34083244099607402 0 0.081709153938225559 0.35166937446406898 0 0.084874637398179506 0.3830893474080016 0 0.089894590955766338 0.37016501712229671 0 0.076735537708699481 0.364428568331984 0 0.084874637398179506 0.3830893474080016 0 0.076735537708699481 0.364428568331984 0 0.097223947907205094 0.36469260341832099 0 0.090674694454237537 0.35844253683721511 0 0.089894590955766338 0.37016501712229671 0 0.090674694454237537 0.35844253683721511 0 0.089894590955766338 0.37016501712229671 0 0.076735537708699481 0.364428568331984 0 0.090674694454237537 0.35844253683721511 0 0.076735537708699481 0.364428568331984 0 0.076735537708699481 0.364428568331984 0 0.055078026168592691 0.37372917012189599 0 0.058880509289504487 0.35752542115937253 0 0.07065435961583541 0.37741521318853999 0 0.084874637398179506 0.3830893474080016 0 0.076735537708699481 0.364428568331984 0 0.07065435961583541 0.37741521318853999 0 0.076735537708699481 0.364428568331984 0 0.055078026168592691 0.37372917012189599 0 0.076735537708699481 0.364428568331984 0 0.055078026168592691 0.37372917012189599 0 0.055078026168592691 0.37372917012189599 0 0.058880509289504487 0.35752542115937253 0 0.039125882353897343 0.35680699826087081 0 0.068002564407373206 0.3444061958743222 0 0.058880509289504487 0.35752542115937253 0 0.05148455776782021 0.34576385860545072 0 0.058880509289504487 0.35752542115937253 0 0.05148455776782021 0.34576385860545072 0 0.039125882353897343 0.35680699826087081 0 0.039125882353897343 0.35680699826087081 0 0.031548662582759998 0.36398682567210089 0 0.025752053585936779 0.33511492304397028 0 0.05148455776782021 0.34576385860545072 0 0.039125882353897343 0.35680699826087081 0 0.044831250079309708 0.3305842246099347 0 0.033420514628485373 0.38302977191180709 0 0.039125882353897343 0.35680699826087081 0 0.031548662582759998 0.36398682567210089 0 0.033420514628485373 0.38302977191180709 0 0.055078026168592691 0.37372917012189599 0 0.039125882353897343 0.35680699826087081 0 0.033420514628485373 0.38302977191180709 0 0.039125882353897343 0.35680699826087081 0 0.033420514628485373 0.38302977191180709 0 0.031548662582759998 0.36398682567210089 0 0.023779055828078009 0.37097747554075361 0 0.017055050774382831 0.3783760363496293 0 0.023779055828078009 0.37097747554075361 0 0.014905446519761849 0.37011919055753012 0 0.023779055828078009 0.37097747554075361 0 0.019349684376360511 0.36318206543595072 0 0.014905446519761849 0.37011919055753012 0 0.031548662582759998 0.36398682567210089 0 0.019349684376360511 0.36318206543595072 0 0.019690074755218789 0.35178644121934483 0 0.031548662582759998 0.36398682567210089 0 0.023779055828078009 0.37097747554075361 0 0.019349684376360511 0.36318206543595072 0 0.031548662582759998 0.36398682567210089 0 0.025752053585936779 0.33511492304397028 0 0.031548662582759998 0.36398682567210089 0 0.019690074755218789 0.35178644121934483 0 0.025752053585936779 0.33511492304397028 0 0.019349684376360511 0.36318206543595072 0 0.019690074755218789 0.35178644121934483 0 0.0119730942360182 0.35563939605115702 0 0.0119730942360182 0.35563939605115702 0 0.0038095970876644218 0.35606187191015221 0 0.0077169544749549623 0.36306791211952738 0 -0.0077202170519437719 0.34710906184019069 0 0.0082446038140756572 0.34376242611402219 0 0.0038095970876644218 0.35606187191015221 0 0.0119730942360182 0.35563939605115702 0 0.0082446038140756572 0.34376242611402219 0 0.0038095970876644218 0.35606187191015221 0 0.019690074755218789 0.35178644121934483 0 0.0119730942360182 0.35563939605115702 0 0.0082446038140756572 0.34376242611402219 0 -0.0045677851665312944 0.36532665559408428 0 0.0038095970876644218 0.35606187191015221 0 0.0077169544749549623 0.36306791211952738 0 -0.0087141207398781558 0.37710904293520409 0 0.0053185270157129726 0.37689571945341471 0 0.0077169544749549623 0.36306791211952738 0 0.0053185270157129726 0.37689571945341471 0 0.0077169544749549623 0.36306791211952738 0 0.014905446519761849 0.37011919055753012 0 0.019349684376360511 0.36318206543595072 0 0.0077169544749549623 0.36306791211952738 0 0.014905446519761849 0.37011919055753012 0 0.019349684376360511 0.36318206543595072 0 0.0119730942360182 0.35563939605115702 0 0.0077169544749549623 0.36306791211952738 0 -0.009249588209606344 0.30814111102660002 0 0.0094307060340404689 0.32376070079746733 0 0.01995544458911469 0.30624302041583928 0 -0.005758602284471958 0.33512988219008361 0 0.0082446038140756572 0.34376242611402219 0 0.0094307060340404689 0.32376070079746733 0 0.0082446038140756572 0.34376242611402219 0 0.0094307060340404689 0.32376070079746733 0 0.025752053585936779 0.33511492304397028 0 0.019690074755218789 0.35178644121934483 0 0.0082446038140756572 0.34376242611402219 0 0.025752053585936779 0.33511492304397028 0 0.025752053585936779 0.33511492304397028 0 0.01995544458911469 0.30624302041583928 0 0.025752053585936779 0.33511492304397028 0 0.034898059553693392 0.31581284699138767 0 0.01995544458911469 0.30624302041583928 0 0.0094307060340404689 0.32376070079746733 0 0.025752053585936779 0.33511492304397028 0 0.01995544458911469 0.30624302041583928 0 0.034898059553693392 0.31581284699138767 0 0.044831250079309708 0.3305842246099347 0 0.05053661780472133 0.30436145095899841 0 0.025752053585936779 0.33511492304397028 0 0.034898059553693392 0.31581284699138767 0 0.044831250079309708 0.3305842246099347 0 0.039125882353897343 0.35680699826087081 0 0.025752053585936779 0.33511492304397028 0 0.044831250079309708 0.3305842246099347 0 0.039125882353897343 0.35680699826087081 0 0.044831250079309708 0.3305842246099347 0 0.068002564407373206 0.3444061958743222 0 0.05148455776782021 0.34576385860545072 0 0.05926959110604698 0.32438382341666039 0 0.05148455776782021 0.34576385860545072 0 0.044831250079309708 0.3305842246099347 0 0.05926959110604698 0.32438382341666039 0 0.044831250079309708 0.3305842246099347 0 0.05053661780472133 0.30436145095899841 0 0.044831250079309708 0.3305842246099347 0 0.05926959110604698 0.32438382341666039 0 0.05053661780472133 0.30436145095899841 0 0.05926959110604698 0.32438382341666039 0 0.05053661780472133 0.30436145095899841 0 0.05926959110604698 0.32438382341666039 0 0.05053661780472133 0.30436145095899841 0 0.066452600317618793 0.30933520022964911 0 0.059204269303370749 0.30137448027593422 0 0.05053661780472133 0.30436145095899841 0 0.066452600317618793 0.30933520022964911 0 0.04765756321016474 0.29776054867416191 0 0.05053661780472133 0.30436145095899841 0 0.052561166870736087 0.29505630281458828 0 0.059204269303370749 0.30137448027593422 0 0.05053661780472133 0.30436145095899841 0 0.052561166870736087 0.29505630281458828 0 0.05053661780472133 0.30436145095899841 0 0.052561166870736087 0.29505630281458828 0 0.04765756321016474 0.29776054867416191 0 0.05053661780472133 0.30436145095899841 0 0.052561166870736087 0.29505630281458828 0 0.036977033779240318 0.28312664447104818 0 0.062988366650143207 0.29302398426469728 0 0.036977033779240318 0.28312664447104818 0 0.048149862160842181 0.27985089866820428 0 0.062988366650143207 0.29302398426469728 0 0.036977033779240318 0.28312664447104818 0 0.062988366650143207 0.29302398426469728 0 0.048149862160842181 0.27985089866820428 0 0.054778979573680928 0.27715841955607551 0 0.062988366650143207 0.29302398426469728 0 0.059204269303370749 0.30137448027593422 0 0.052561166870736087 0.29505630281458828 0 0.062988366650143207 0.29302398426469728 0 0.04765756321016474 0.29776054867416191 0 0.036186098738389023 0.29603891009636157 0 0.036977033779240318 0.28312664447104818 0 0.04765756321016474 0.29776054867416191 0 0.052561166870736087 0.29505630281458828 0 0.036977033779240318 0.28312664447104818 0 0.036186098738389023 0.29603891009636157 0 0.036977033779240318 0.28312664447104818 0 0.027757552790527541 0.29644954410470781 0 0.034898059553693392 0.31581284699138767 0 0.05053661780472133 0.30436145095899841 0 0.039754971674175903 0.30430037111620312 0 0.04765756321016474 0.29776054867416191 0 0.05053661780472133 0.30436145095899841 0 0.039754971674175903 0.30430037111620312 0 0.04765756321016474 0.29776054867416191 0 0.036186098738389023 0.29603891009636157 0 0.039754971674175903 0.30430037111620312 0 0.036186098738389023 0.29603891009636157 0 0.039754971674175903 0.30430037111620312 0 0.028740536311392211 0.30567206060121932 0 0.034898059553693392 0.31581284699138767 0 0.039754971674175903 0.30430037111620312 0 0.028740536311392211 0.30567206060121932 0 0.034898059553693392 0.31581284699138767 0 0.028740536311392211 0.30567206060121932 0 0.01995544458911469 0.30624302041583928 0 0.028740536311392211 0.30567206060121932 0 0.01995544458911469 0.30624302041583928 0 0.01995544458911469 0.30624302041583928 0 0.027757552790527541 0.29644954410470781 0 0.016928650534501429 0.29116708493907051 0 0.01995544458911469 0.30624302041583928 0 0.016928650534501429 0.29116708493907051 0 0.036186098738389023 0.29603891009636157 0 0.028740536311392211 0.30567206060121932 0 0.027757552790527541 0.29644954410470781 0 0.028740536311392211 0.30567206060121932 0 0.01995544458911469 0.30624302041583928 0 0.027757552790527541 0.29644954410470781 0 0.036977033779240318 0.28312664447104818 0 0.016928650534501429 0.29116708493907051 0 0.013901856479889301 0.2760911494623014 0 0.036977033779240318 0.28312664447104818 0 0.027757552790527541 0.29644954410470781 0 0.016928650534501429 0.29116708493907051 0 0.016928650534501429 0.29116708493907051 0 0.0075090435902615098 0.27971283806045072 0 0.013901856479889301 0.2760911494623014 0 0.016928650534501429 0.29116708493907051 0 0.013901856479889301 0.2760911494623014 0 0.016928650534501429 0.29116708493907051 0 0.002380999114604244 0.28599596302517022 0 0.0075090435902615098 0.27971283806045072 0 0.016928650534501429 0.29116708493907051 0 0.002380999114604244 0.28599596302517022 0 0.0038021096493471361 0.29689124930627131 0 0.01995544458911469 0.30624302041583928 0 0.016928650534501429 0.29116708493907051 0 0.0038021096493471361 0.29689124930627131 0 -0.009249588209606344 0.30814111102660002 0 0.01995544458911469 0.30624302041583928 0 -0.009249588209606344 0.30814111102660002 0 0.01995544458911469 0.30624302041583928 0 0.0038021096493471361 0.29689124930627131 0 0.012944211518790589 0.24639919126045251 0 0.001894876929373096 0.24743045501984201 0 0.027350481215018482 0.26092432701142793 0 0.001894876929373096 0.24743045501984201 0 0.01235577794179212 0.26160751525750708 0 0.027350481215018482 0.26092432701142793 0 0.001894876929373096 0.24743045501984201 0 0.027350481215018482 0.26092432701142793 0 0.01235577794179212 0.26160751525750708 0 0.0066431973405819862 0.26423936680728111 0 0.01332705073189009 0.26743114199411 0 0.001894876929373096 0.24743045501984201 0 0.01235577794179212 0.26160751525750708 0 0.0027594708259384838 0.25829047161104352 0 0.01235577794179212 0.26160751525750708 0 0.0027594708259384838 0.25829047161104352 0 0.0066431973405819862 0.26423936680728111 0 -0.00067809962666212902 0.26216505597133072 0 0.0027594708259384838 0.25829047161104352 0 0.0066431973405819862 0.26423936680728111 0 -0.00067809962666212902 0.26216505597133072 0 0.0066431973405819862 0.26423936680728111 0 0.010965700908337589 0.27322930467739909 0 -0.001267499687089951 0.2776013217203892 0 0.0075090435902615098 0.27971283806045072 0 0.010965700908337589 0.27322930467739909 0 -0.001267499687089951 0.2776013217203892 0 0.002380999114604244 0.28599596302517022 0 0.0075090435902615098 0.27971283806045072 0 0.0075090435902615098 0.27971283806045072 0 0.013901856479889301 0.2760911494623014 0 0.010965700908337589 0.27322930467739909 0 0.010965700908337589 0.27322930467739909 0 0.01332705073189009 0.26743114199411 0 0.022419763759722669 0.26962443384228668 0 0.0066431973405819862 0.26423936680728111 0 0.010965700908337589 0.27322930467739909 0 0.01332705073189009 0.26743114199411 0 0.036977033779240318 0.28312664447104818 0 0.010965700908337589 0.27322930467739909 0 0.022419763759722669 0.26962443384228668 0 0.01235577794179212 0.26160751525750708 0 0.01332705073189009 0.26743114199411 0 0.022419763759722669 0.26962443384228668 0 0.036977033779240318 0.28312664447104818 0 0.013901856479889301 0.2760911494623014 0 0.010965700908337589 0.27322930467739909 0 0.036977033779240318 0.28312664447104818 0 0.010965700908337589 0.27322930467739909 0 0.036977033779240318 0.28312664447104818 0 0.022419763759722669 0.26962443384228668 0 0.032397819765571212 0.27218151163944088 0 0.022419763759722669 0.26962443384228668 0 0.027350481215018482 0.26092432701142793 0 0.032397819765571212 0.27218151163944088 0 0.018629400856135309 0.24429501886194191 0 0.012944211518790589 0.24639919126045251 0 0.027350481215018482 0.26092432701142793 0 0.018629400856135309 0.24429501886194191 0 0.027350481215018482 0.26092432701142793 0 0.02692674034290404 0.25134916217479408 0 0.01235577794179212 0.26160751525750708 0 0.022419763759722669 0.26962443384228668 0 0.027350481215018482 0.26092432701142793 0 0.027350481215018482 0.26092432701142793 0 0.02692674034290404 0.25134916217479408 0 0.036501911092354018 0.25177276941539839 0 0.027350481215018482 0.26092432701142793 0 0.036501911092354018 0.25177276941539839 0 0.052806085500663583 0.27441819900301412 0 0.036501911092354018 0.25177276941539839 0 0.052806085500663583 0.27441819900301412 0 0.027350481215018482 0.26092432701142793 0 0.039536256484267153 0.27410031615862712 0 0.052806085500663583 0.27441819900301412 0 0.027350481215018482 0.26092432701142793 0 0.052806085500663583 0.27441819900301412 0 0.036977033779240318 0.28312664447104818 0 0.032397819765571212 0.27218151163944088 0 0.039536256484267153 0.27410031615862712 0 0.027350481215018482 0.26092432701142793 0 0.032397819765571212 0.27218151163944088 0 0.039536256484267153 0.27410031615862712 0 0.039536256484267153 0.27410031615862712 0 0.048149862160842181 0.27985089866820428 0 0.052806085500663583 0.27441819900301412 0 0.036977033779240318 0.28312664447104818 0 0.039536256484267153 0.27410031615862712 0 0.048149862160842181 0.27985089866820428 0 0.052806085500663583 0.27441819900301412 0 0.051790667069154861 0.2547103276228454 0 0.069466372585565969 0.27425949764399721 0 0.052806085500663583 0.27441819900301412 0 0.054778979573680928 0.27715841955607551 0 0.076123070751733898 0.28677840112891878 0 0.048149862160842181 0.27985089866820428 0 0.052806085500663583 0.27441819900301412 0 0.054778979573680928 0.27715841955607551 0 0.052806085500663583 0.27441819900301412 0 0.054778979573680928 0.27715841955607551 0 0.051790667069154861 0.2547103276228454 0 0.069466372585565969 0.27425949764399721 0 0.036501911092354018 0.25177276941539839 0 0.052806085500663583 0.27441819900301412 0 0.051790667069154861 0.2547103276228454 0 0.051790667069154861 0.2547103276228454 0 0.062472563593505302 0.26110660749064829 0 0.069466372585565969 0.27425949764399721 0 0.051790667069154861 0.2547103276228454 0 0.062472563593505302 0.26110660749064829 0 0.063392491700480919 0.2510828642249095 0 0.07090317009537217 0.25886987532900169 0 0.089645379702363526 0.25980927980688501 0 0.066829182329119829 0.26693814307945207 0 0.063392491700480919 0.2510828642249095 0 0.07090317009537217 0.25886987532900169 0 0.074261774750864804 0.25289133929391111 0 0.062472563593505302 0.26110660749064829 0 0.063392491700480919 0.2510828642249095 0 0.07090317009537217 0.25886987532900169 0 0.062472563593505302 0.26110660749064829 0 0.07090317009537217 0.25886987532900169 0 0.066829182329119829 0.26693814307945207 0 0.07090317009537217 0.25886987532900169 0 0.074261774750864804 0.25289133929391111 0 0.089645379702363526 0.25980927980688501 0 0.072073934872957782 0.23900016577853919 0 0.074261774750864804 0.25289133929391111 0 0.089645379702363526 0.25980927980688501 0 0.089645379702363526 0.25980927980688501 0 0.066829182329119829 0.26693814307945207 0 0.089645379702363526 0.25980927980688501 0 0.084738505220855201 0.27427167124983992 0 0.066829182329119829 0.26693814307945207 0 0.084738505220855201 0.27427167124983992 0 0.069466372585565969 0.27425949764399721 0 0.085077205623658711 0.29152493742801078 0 0.084738505220855201 0.27427167124983992 0 0.095910340366493346 0.28464594086445177 0 0.099818528257267281 0.27185690653089678 0 0.089645379702363526 0.25980927980688501 0 0.084738505220855201 0.27427167124983992 0 0.099818528257267281 0.27185690653089678 0 0.084738505220855201 0.27427167124983992 0 0.066829182329119829 0.26693814307945207 0 0.069466372585565969 0.27425949764399721 0 0.052806085500663583 0.27441819900301412 0 0.069466372585565969 0.27425949764399721 0 0.076123070751733898 0.28677840112891878 0 0.052806085500663583 0.27441819900301412 0 0.076123070751733898 0.28677840112891878 0 0.069466372585565969 0.27425949764399721 0 0.076123070751733898 0.28677840112891878 0 0.062472563593505302 0.26110660749064829 0 0.069466372585565969 0.27425949764399721 0 0.062472563593505302 0.26110660749064829 0 0.066829182329119829 0.26693814307945207 0 0.069466372585565969 0.27425949764399721 0 0.069466372585565969 0.27425949764399721 0 0.085077205623658711 0.29152493742801078 0 0.069466372585565969 0.27425949764399721 0 0.076123070751733898 0.28677840112891878 0 0.085077205623658711 0.29152493742801078 0 0.062988366650143207 0.29302398426469728 0 0.076123070751733898 0.28677840112891878 0 0.066452600317618793 0.30933520022964911 0 0.054778979573680928 0.27715841955607551 0 0.062988366650143207 0.29302398426469728 0 0.076123070751733898 0.28677840112891878 0 0.090103400857782137 0.31307047550514489 0 0.076123070751733898 0.28677840112891878 0 0.066452600317618793 0.30933520022964911 0 0.059204269303370749 0.30137448027593422 0 0.062988366650143207 0.29302398426469728 0 0.066452600317618793 0.30933520022964911 0 0.090103400857782137 0.31307047550514489 0 0.076123070751733898 0.28677840112891878 0 0.085077205623658711 0.29152493742801078 0 0.090103400857782137 0.31307047550514489 0 0.076123070751733898 0.28677840112891878 0 0.090103400857782137 0.31307047550514489 0 0.085077205623658711 0.29152493742801078 0 0.09732687347400408 0.30507295899279041 0 0.085077205623658711 0.29152493742801078 0 0.09732687347400408 0.30507295899279041 0 0.084738505220855201 0.27427167124983992 0 0.085077205623658711 0.29152493742801078 0 0.095910340366493346 0.28464594086445177 0 0.076123070751733898 0.28677840112891878 0 0.085077205623658711 0.29152493742801078 0 0.085077205623658711 0.29152493742801078 0 0.095910340366493346 0.28464594086445177 0 0.10018382130907411 0.29953286904093468 0 0.085077205623658711 0.29152493742801078 0 0.10018382130907411 0.29953286904093468 0 0.095910340366493346 0.28464594086445177 0 0.10809736708577181 0.28553666446189058 0 0.10018382130907411 0.29953286904093468 0 0.10809736708577181 0.28553666446189058 0 0.10018382130907411 0.29953286904093468 0 0.10959494141679089 0.29761357018739809 0 0.099947674014671917 0.31467323404701991 0 0.090103400857782137 0.31307047550514489 0 0.09732687347400408 0.30507295899279041 0 0.085077205623658711 0.29152493742801078 0 0.09732687347400408 0.30507295899279041 0 0.10018382130907411 0.29953286904093468 0 0.09732687347400408 0.30507295899279041 0 0.10018382130907411 0.29953286904093468 0 0.1055944182754792 0.3076919023112884 0 0.10018382130907411 0.29953286904093468 0 0.11529043699448981 0.30754080065385803 0 0.10959494141679089 0.29761357018739809 0 0.10018382130907411 0.29953286904093468 0 0.11529043699448981 0.30754080065385803 0 0.1095765413243488 0.31862098055757049 0 0.09732687347400408 0.30507295899279041 0 0.1055944182754792 0.3076919023112884 0 0.10018382130907411 0.29953286904093468 0 0.1055944182754792 0.3076919023112884 0 0.11529043699448981 0.30754080065385803 0 0.1095765413243488 0.31862098055757049 0 0.09732687347400408 0.30507295899279041 0 0.1095765413243488 0.31862098055757049 0 0.1055944182754792 0.3076919023112884 0 0.11529043699448981 0.30754080065385803 0 0.11529043699448981 0.30754080065385803 0 0.11637637905870279 0.30155283343175482 0 0.11810871752106521 0.30621928700195911 0 0.11529043699448981 0.30754080065385803 0 0.10959494141679089 0.29761357018739809 0 0.11637637905870279 0.30155283343175482 0 0.10959494141679089 0.29761357018739809 0 0.11637637905870279 0.30155283343175482 0 0.1164892219926046 0.29243334627748818 0 0.11529043699448981 0.30754080065385803 0 0.11637637905870279 0.30155283343175482 0 0.11637637905870279 0.30155283343175482 0 0.1222906650571363 0.2985709440566281 0 0.1164892219926046 0.29243334627748818 0 0.1222906650571363 0.2985709440566281 0 0.1206025954822835 0.30378795350269022 0 0.1243783730770044 0.30485679470236721 0 0.11637637905870279 0.30155283343175482 0 0.1222906650571363 0.2985709440566281 0 0.1206025954822835 0.30378795350269022 0 0.11637637905870279 0.30155283343175482 0 0.1206025954822835 0.30378795350269022 0 0.11810871752106521 0.30621928700195911 0 0.1206025954822835 0.30378795350269022 0 0.11810871752106521 0.30621928700195911 0 0.1213521300308707 0.30775440284793348 0 0.11529043699448981 0.30754080065385803 0 0.11810871752106521 0.30621928700195911 0 0.11930841490252821 0.30912172642276631 0 0.11810871752106521 0.30621928700195911 0 0.1213521300308707 0.30775440284793348 0 0.11930841490252821 0.30912172642276631 0 0.1243783730770044 0.30485679470236721 0 0.1213521300308707 0.30775440284793348 0 0.1244342991148414 0.30898461385241399 0 0.1206025954822835 0.30378795350269022 0 0.1243783730770044 0.30485679470236721 0 0.1213521300308707 0.30775440284793348 0 0.1214195525311879 0.31440901896845502 0 0.1244342991148414 0.30898461385241399 0 0.12900107104525951 0.30968741412501871 0 0.1214195525311879 0.31440901896845502 0 0.1213521300308707 0.30775440284793348 0 0.1244342991148414 0.30898461385241399 0 0.1214195525311879 0.31440901896845502 0 0.11529043699448981 0.30754080065385803 0 0.11930841490252821 0.30912172642276631 0 0.1214195525311879 0.31440901896845502 0 0.1213521300308707 0.30775440284793348 0 0.11930841490252821 0.30912172642276631 0 0.10809736708577181 0.28553666446189058 0 0.1164892219926046 0.29243334627748818 0 0.1210835213650209 0.28058702695229848 0 0.10809736708577181 0.28553666446189058 0 0.10959494141679089 0.29761357018739809 0 0.1164892219926046 0.29243334627748818 0 0.1222906650571363 0.2985709440566281 0 0.1164892219926046 0.29243334627748818 0 0.12596292383497329 0.28976449579057961 0 0.1164892219926046 0.29243334627748818 0 0.1210835213650209 0.28058702695229848 0 0.12596292383497329 0.28976449579057961 0 0.10809736708577181 0.28553666446189058 0 0.1210835213650209 0.28058702695229848 0 0.1147979612748997 0.2707881575742877 0 0.1210835213650209 0.28058702695229848 0 0.1147979612748997 0.2707881575742877 0 0.12791172371537049 0.26609555254785411 0 0.1147979612748997 0.2707881575742877 0 0.116065923487036 0.25155424759680489 0 0.099818528257267281 0.27185690653089678 0 0.1147979612748997 0.2707881575742877 0 0.116065923487036 0.25155424759680489 0 0.12791172371537049 0.26609555254785411 0 0.089645379702363526 0.25980927980688501 0 0.116065923487036 0.25155424759680489 0 0.089645379702363526 0.25980927980688501 0 0.116065923487036 0.25155424759680489 0 0.099818528257267281 0.27185690653089678 0 0.089645379702363526 0.25980927980688501 0 0.099818528257267281 0.27185690653089678 0 0.095910340366493346 0.28464594086445177 0 0.10809736708577181 0.28553666446189058 0 0.099818528257267281 0.27185690653089678 0 0.10809736708577181 0.28553666446189058 0 0.1147979612748997 0.2707881575742877 0 0.099818528257267281 0.27185690653089678 0 0.14627836463393121 0.26809473379089088 0 0.14256315404166739 0.2804585798755338 0 0.1332419302865058 0.27890394506169119 0 0.14627836463393121 0.26809473379089088 0 0.14256315404166739 0.2804585798755338 0 0.15383705453569649 0.27951082009548711 0 0.14627836463393121 0.26809473379089088 0 0.15383705453569649 0.27951082009548711 0 0.1609818760820641 0.2708255403471686 0 0.14248646727170791 0.24329921538672239 0 0.14627836463393121 0.26809473379089088 0 0.1631161995596529 0.25657386530356069 0 0.14248646727170791 0.24329921538672239 0 0.116065923487036 0.25155424759680489 0 0.12791172371537049 0.26609555254785411 0 0.14248646727170791 0.24329921538672239 0 0.14627836463393121 0.26809473379089088 0 0.12791172371537049 0.26609555254785411 0 0.14627836463393121 0.26809473379089088 0 0.12791172371537049 0.26609555254785411 0 0.1332419302865058 0.27890394506169119 0 0.1210835213650209 0.28058702695229848 0 0.12791172371537049 0.26609555254785411 0 0.1332419302865058 0.27890394506169119 0 0.1332419302865058 0.27890394506169119 0 0.12596292383497329 0.28976449579057961 0 0.13463915166403909 0.29011289163129678 0 0.1210835213650209 0.28058702695229848 0 0.1332419302865058 0.27890394506169119 0 0.12596292383497329 0.28976449579057961 0 0.1222906650571363 0.2985709440566281 0 0.12596292383497329 0.28976449579057961 0 0.12923992476061211 0.29615108028493942 0 0.12596292383497329 0.28976449579057961 0 0.12923992476061211 0.29615108028493942 0 0.13463915166403909 0.29011289163129678 0 0.13463915166403909 0.29011289163129678 0 0.13544399911061031 0.29845687749894129 0 0.1416447250157222 0.29544082675589128 0 0.12923992476061211 0.29615108028493942 0 0.13463915166403909 0.29011289163129678 0 0.13544399911061031 0.29845687749894129 0 0.14256315404166739 0.2804585798755338 0 0.1332419302865058 0.27890394506169119 0 0.13463915166403909 0.29011289163129678 0 0.1243783730770044 0.30485679470236721 0 0.1244342991148414 0.30898461385241399 0 0.12900107104525951 0.30968741412501871 0 0.1243783730770044 0.30485679470236721 0 0.12900107104525951 0.30968741412501871 0 0.1290658347258283 0.30205966601357243 0 0.12900107104525951 0.30968741412501871 0 0.1290658347258283 0.30205966601357243 0 0.1340409753043473 0.30463488541353972 0 0.1222906650571363 0.2985709440566281 0 0.1243783730770044 0.30485679470236721 0 0.1290658347258283 0.30205966601357243 0 0.1222906650571363 0.2985709440566281 0 0.12923992476061211 0.29615108028493942 0 0.1290658347258283 0.30205966601357243 0 0.12923992476061211 0.29615108028493942 0 0.1290658347258283 0.30205966601357243 0 0.13544399911061031 0.29845687749894129 0 0.13544399911061031 0.29845687749894129 0 0.14170706289926879 0.30357921339911909 0 0.1416447250157222 0.29544082675589128 0 0.13544399911061031 0.29845687749894129 0 0.1340409753043473 0.30463488541353972 0 0.14170706289926879 0.30357921339911909 0 0.1290658347258283 0.30205966601357243 0 0.13544399911061031 0.29845687749894129 0 0.1340409753043473 0.30463488541353972 0 0.13598458437900529 0.30983158877234418 0 0.14130712994747449 0.31140798331507108 0 0.14170706289926879 0.30357921339911909 0 0.12900107104525951 0.30968741412501871 0 0.1340409753043473 0.30463488541353972 0 0.13598458437900529 0.30983158877234418 0 0.1340409753043473 0.30463488541353972 0 0.13598458437900529 0.30983158877234418 0 0.14170706289926879 0.30357921339911909 0 0.13598458437900529 0.30983158877234418 0 0.14130712994747449 0.31140798331507108 0 0.13528824775885559 0.3155805734405937 0 0.12900107104525951 0.30968741412501871 0 0.13598458437900529 0.30983158877234418 0 0.13528824775885559 0.3155805734405937 0 0.1483486037307668 0.31106151759990119 0 0.14130712994747449 0.31140798331507108 0 0.14170706289926879 0.30357921339911909 0 0.1483486037307668 0.31106151759990119 0 0.14170706289926879 0.30357921339911909 0 0.1513591925520972 0.30423422291399321 0 0.14170706289926879 0.30357921339911909 0 0.14924189349128261 0.29698436464102829 0 0.1513591925520972 0.30423422291399321 0 0.14170706289926879 0.30357921339911909 0 0.14924189349128261 0.29698436464102829 0 0.1416447250157222 0.29544082675589128 0 0.1513591925520972 0.30423422291399321 0 0.15847128754916129 0.30901971199088751 0 0.1567398971697517 0.30020769771567818 0 0.14924189349128261 0.29698436464102829 0 0.1513591925520972 0.30423422291399321 0 0.1567398971697517 0.30020769771567818 0 0.1483486037307668 0.31106151759990119 0 0.1513591925520972 0.30423422291399321 0 0.15847128754916129 0.30901971199088751 0 0.1483486037307668 0.31106151759990119 0 0.15847128754916129 0.30901971199088751 0 0.1531779528472626 0.31690967251270458 0 0.14256315404166739 0.2804585798755338 0 0.15383705453569649 0.27951082009548711 0 0.14728728951424691 0.28871625735014939 0 0.14256315404166739 0.2804585798755338 0 0.13463915166403909 0.29011289163129678 0 0.14728728951424691 0.28871625735014939 0 0.14924189349128261 0.29698436464102829 0 0.14728728951424691 0.28871625735014939 0 0.1416447250157222 0.29544082675589128 0 0.13463915166403909 0.29011289163129678 0 0.14728728951424691 0.28871625735014939 0 0.1416447250157222 0.29544082675589128 0 0.14924189349128261 0.29698436464102829 0 0.1576814993112734 0.29111844862325259 0 0.1567398971697517 0.30020769771567818 0 0.14924189349128261 0.29698436464102829 0 0.14728728951424691 0.28871625735014939 0 0.1576814993112734 0.29111844862325259 0 0.15383705453569649 0.27951082009548711 0 0.14728728951424691 0.28871625735014939 0 0.1576814993112734 0.29111844862325259 0 0.15383705453569649 0.27951082009548711 0 0.1576814993112734 0.29111844862325259 0 0.16532030222413041 0.28061774918364429 0 0.1576814993112734 0.29111844862325259 0 0.1689979645595176 0.28949488405725932 0 0.16532030222413041 0.28061774918364429 0 0.1576814993112734 0.29111844862325259 0 0.1689979645595176 0.28949488405725932 0 0.16694561294494401 0.29968174040922901 0 0.1689979645595176 0.28949488405725932 0 0.16694561294494401 0.29968174040922901 0 0.17866142019044989 0.29199773726540068 0 0.1689979645595176 0.28949488405725932 0 0.17498255083596301 0.28300150235233201 0 0.16532030222413041 0.28061774918364429 0 0.1576814993112734 0.29111844862325259 0 0.1567398971697517 0.30020769771567818 0 0.16694561294494401 0.29968174040922901 0 0.15847128754916129 0.30901971199088751 0 0.1567398971697517 0.30020769771567818 0 0.16694561294494401 0.29968174040922901 0 0.16694561294494401 0.29968174040922901 0 0.17666858027807311 0.3015349886251833 0 0.1707678241303611 0.31259989648156872 0 0.15847128754916129 0.30901971199088751 0 0.16694561294494401 0.29968174040922901 0 0.1707678241303611 0.31259989648156872 0 0.17666858027807311 0.3015349886251833 0 0.18371952992762389 0.30785332357736089 0 0.1707678241303611 0.31259989648156872 0 0.16694561294494401 0.29968174040922901 0 0.17666858027807311 0.3015349886251833 0 0.17866142019044989 0.29199773726540068 0 0.17666858027807311 0.3015349886251833 0 0.18371952992762389 0.30785332357736089 0 0.1898902111984884 0.29891268329407239 0 0.18371952992762389 0.30785332357736089 0 0.1898902111984884 0.29891268329407239 0 0.17666858027807311 0.3015349886251833 0 0.17866142019044989 0.29199773726540068 0 0.1898902111984884 0.29891268329407239 0 0.17498255083596301 0.28300150235233201 0 0.17866142019044989 0.29199773726540068 0 0.1849298445554361 0.28099903695767547 0 0.1689979645595176 0.28949488405725932 0 0.17498255083596301 0.28300150235233201 0 0.17866142019044989 0.29199773726540068 0 0.17866142019044989 0.29199773726540068 0 0.18677859260729601 0.28760164196875848 0 0.1898902111984884 0.29891268329407239 0 0.17866142019044989 0.29199773726540068 0 0.18677859260729601 0.28760164196875848 0 0.1849298445554361 0.28099903695767547 0 0.1849298445554361 0.28099903695767547 0 0.17528279401001801 0.2714166079934146 0 0.19094745617081291 0.27038549871767581 0 0.17528279401001801 0.2714166079934146 0 0.18564289691528729 0.25868749876629671 0 0.19094745617081291 0.27038549871767581 0 0.17498255083596301 0.28300150235233201 0 0.1849298445554361 0.28099903695767547 0 0.17528279401001801 0.2714166079934146 0 0.17528279401001801 0.2714166079934146 0 0.16532030222413041 0.28061774918364429 0 0.1609818760820641 0.2708255403471686 0 0.17498255083596301 0.28300150235233201 0 0.17528279401001801 0.2714166079934146 0 0.16532030222413041 0.28061774918364429 0 0.17528279401001801 0.2714166079934146 0 0.1609818760820641 0.2708255403471686 0 0.1631161995596529 0.25657386530356069 0 0.15383705453569649 0.27951082009548711 0 0.16532030222413041 0.28061774918364429 0 0.1609818760820641 0.2708255403471686 0 0.14627836463393121 0.26809473379089088 0 0.1609818760820641 0.2708255403471686 0 0.1631161995596529 0.25657386530356069 0 0.16890701105638031 0.23504418317664161 0 0.1631161995596529 0.25657386530356069 0 0.18564289691528729 0.25868749876629671 0 0.17528279401001801 0.2714166079934146 0 0.1631161995596529 0.25657386530356069 0 0.18564289691528729 0.25868749876629671 0 0.1956251304139873 0.24830732682566101 0 0.18564289691528729 0.25868749876629671 0 0.20465537480646501 0.25892384109831479 0 0.18564289691528729 0.25868749876629671 0 0.19094745617081291 0.27038549871767581 0 0.20465537480646501 0.25892384109831479 0 0.2050239072751949 0.2492833193895482 0 0.1956251304139873 0.24830732682566101 0 0.20465537480646501 0.25892384109831479 0 0.19094745617081291 0.27038549871767581 0 0.20212350544635149 0.27452240688285762 0 0.1917381003592612 0.28136787577326228 0 0.1849298445554361 0.28099903695767547 0 0.19094745617081291 0.27038549871767581 0 0.1917381003592612 0.28136787577326228 0 0.19094745617081291 0.27038549871767581 0 0.20212350544635149 0.27452240688285762 0 0.20465537480646501 0.25892384109831479 0 0.21559138507808229 0.27635001083075639 0 0.2170338530129477 0.25958452376210089 0 0.2223889939606305 0.26849190584137572 0 0.20212350544635149 0.27452240688285762 0 0.2170338530129477 0.25958452376210089 0 0.20037669147028589 0.28371892366973078 0 0.2170338530129477 0.25958452376210089 0 0.20037669147028589 0.28371892366973078 0 0.21559138507808229 0.27635001083075639 0 0.2170338530129477 0.25958452376210089 0 0.20037669147028589 0.28371892366973078 0 0.20212350544635149 0.27452240688285762 0 0.20465537480646501 0.25892384109831479 0 0.21458810326103989 0.25029177234766842 0 0.20212350544635149 0.27452240688285762 0 0.2170338530129477 0.25958452376210089 0 0.21458810326103989 0.25029177234766842 0 0.20212350544635149 0.27452240688285762 0 0.21458810326103989 0.25029177234766842 0 0.2050239072751949 0.2492833193895482 0 0.20465537480646501 0.25892384109831479 0 0.21458810326103989 0.25029177234766842 0 0.20465537480646501 0.25892384109831479 0 0.21458810326103989 0.25029177234766842 0 0.23169913173193779 0.25404958449575432 0 0.22942687348362151 0.26728355318502178 0 0.24090080429007341 0.26281353644332878 0 0.23169913173193779 0.25404958449575432 0 0.2249153238939712 0.26221153605608138 0 0.22942687348362151 0.26728355318502178 0 0.2170338530129477 0.25958452376210089 0 0.2249153238939712 0.26221153605608138 0 0.2223889939606305 0.26849190584137572 0 0.2170338530129477 0.25958452376210089 0 0.23169913173193779 0.25404958449575432 0 0.2249153238939712 0.26221153605608138 0 0.2223889939606305 0.26849190584137572 0 0.2255322572178127 0.27738204478537232 0 0.22942687348362151 0.26728355318502178 0 0.2249153238939712 0.26221153605608138 0 0.2223889939606305 0.26849190584137572 0 0.22942687348362151 0.26728355318502178 0 0.21559138507808229 0.27635001083075639 0 0.2255322572178127 0.27738204478537232 0 0.21985426169801439 0.28935406669317137 0 0.21559138507808229 0.27635001083075639 0 0.2223889939606305 0.26849190584137572 0 0.2255322572178127 0.27738204478537232 0 0.2255322572178127 0.27738204478537232 0 0.23621117140834261 0.27732665952701641 0 0.23095623596381579 0.2876536505458 0 0.2255322572178127 0.27738204478537232 0 0.22942687348362151 0.26728355318502178 0 0.23621117140834261 0.27732665952701641 0 0.23621117140834261 0.27732665952701641 0 0.24818821145747599 0.27522177653690871 0 0.24090080429007341 0.26281353644332878 0 0.22942687348362151 0.26728355318502178 0 0.23621117140834261 0.27732665952701641 0 0.24090080429007341 0.26281353644332878 0 0.24818821145747599 0.27522177653690871 0 0.24090080429007341 0.26281353644332878 0 0.25530776412370298 0.26639583896058622 0 0.23995652529561701 0.25039133628829258 0 0.24090080429007341 0.26281353644332878 0 0.25404003316197471 0.25208422786308371 0 0.23169913173193779 0.25404958449575432 0 0.23995652529561701 0.25039133628829258 0 0.24090080429007341 0.26281353644332878 0 0.23765651747073049 0.31117848176507701 0 0.2454028482605469 0.29267792886045368 0 0.25114017462525878 0.31153615041935723 0 0.23765651747073049 0.31117848176507701 0 0.2454028482605469 0.29267792886045368 0 0.2283396740985745 0.30195705682751389 0 0.2454028482605469 0.29267792886045368 0 0.23095623596381579 0.2876536505458 0 0.2283396740985745 0.30195705682751389 0 0.23621117140834261 0.27732665952701641 0 0.24818821145747599 0.27522177653690871 0 0.2454028482605469 0.29267792886045368 0 0.23621117140834261 0.27732665952701641 0 0.2454028482605469 0.29267792886045368 0 0.23095623596381579 0.2876536505458 0 0.2255322572178127 0.27738204478537232 0 0.23095623596381579 0.2876536505458 0 0.21985426169801439 0.28935406669317137 0 0.23095623596381579 0.2876536505458 0 0.21985426169801439 0.28935406669317137 0 0.2283396740985745 0.30195705682751389 0 0.2283396740985745 0.30195705682751389 0 0.2184758680590754 0.31184724711422762 0 0.22801070301179061 0.32060690690137728 0 0.21985426169801439 0.28935406669317137 0 0.2283396740985745 0.30195705682751389 0 0.21670572119465931 0.30172893354768798 0 0.23765651747073049 0.31117848176507701 0 0.2283396740985745 0.30195705682751389 0 0.22801070301179061 0.32060690690137728 0 0.2283396740985745 0.30195705682751389 0 0.2184758680590754 0.31184724711422762 0 0.21670572119465931 0.30172893354768798 0 0.2184758680590754 0.31184724711422762 0 0.21670572119465931 0.30172893354768798 0 0.20632342479934371 0.30585855598863948 0 0.21670572119465931 0.30172893354768798 0 0.20632342479934371 0.30585855598863948 0 0.21141614329998781 0.29390938293380992 0 0.20632342479934371 0.30585855598863948 0 0.21141614329998781 0.29390938293380992 0 0.2042452804315445 0.29308429151921322 0 0.21559138507808229 0.27635001083075639 0 0.21985426169801439 0.28935406669317137 0 0.2104384150331686 0.28649738738125968 0 0.21985426169801439 0.28935406669317137 0 0.21141614329998781 0.29390938293380992 0 0.2104384150331686 0.28649738738125968 0 0.21985426169801439 0.28935406669317137 0 0.21670572119465931 0.30172893354768798 0 0.21141614329998781 0.29390938293380992 0 0.21141614329998781 0.29390938293380992 0 0.2042452804315445 0.29308429151921322 0 0.2104384150331686 0.28649738738125968 0 0.2042452804315445 0.29308429151921322 0 0.2104384150331686 0.28649738738125968 0 0.20037669147028589 0.28371892366973078 0 0.21559138507808229 0.27635001083075639 0 0.2104384150331686 0.28649738738125968 0 0.20037669147028589 0.28371892366973078 0 0.20212350544635149 0.27452240688285762 0 0.20037669147028589 0.28371892366973078 0 0.1898902111984884 0.29891268329407239 0 0.18677859260729601 0.28760164196875848 0 0.1917381003592612 0.28136787577326228 0 0.1898902111984884 0.29891268329407239 0 0.20037669147028589 0.28371892366973078 0 0.1976595376627992 0.29976589533378561 0 0.1898902111984884 0.29891268329407239 0 0.2042452804315445 0.29308429151921322 0 0.20037669147028589 0.28371892366973078 0 0.1976595376627992 0.29976589533378561 0 0.20212350544635149 0.27452240688285762 0 0.1898902111984884 0.29891268329407239 0 0.20212350544635149 0.27452240688285762 0 0.1917381003592612 0.28136787577326228 0 0.1898902111984884 0.29891268329407239 0 0.20037669147028589 0.28371892366973078 0 0.1898902111984884 0.29891268329407239 0 0.18677859260729601 0.28760164196875848 0 0.1849298445554361 0.28099903695767547 0 0.1917381003592612 0.28136787577326228 0 0.20632342479934371 0.30585855598863948 0 0.19412409721151189 0.30848045781950378 0 0.19635424873152091 0.31866253726922511 0 0.20632342479934371 0.30585855598863948 0 0.1976595376627992 0.29976589533378561 0 0.19412409721151189 0.30848045781950378 0 0.20632342479934371 0.30585855598863948 0 0.2042452804315445 0.29308429151921322 0 0.1976595376627992 0.29976589533378561 0 0.18371952992762389 0.30785332357736089 0 0.1976595376627992 0.29976589533378561 0 0.1898902111984884 0.29891268329407239 0 0.18371952992762389 0.30785332357736089 0 0.19412409721151189 0.30848045781950378 0 0.19635424873152091 0.31866253726922511 0 0.18371952992762389 0.30785332357736089 0 0.1976595376627992 0.29976589533378561 0 0.19412409721151189 0.30848045781950378 0 0.19635424873152091 0.31866253726922511 0 0.19329834396814641 0.33328399686629978 0 0.21150607161232149 0.3245036863190196 0 0.19635424873152091 0.31866253726922511 0 0.19329834396814641 0.33328399686629978 0 0.1818581672390053 0.32281790922797782 0 0.19329834396814641 0.33328399686629978 0 0.20841238186686439 0.34472105417207632 0 0.1876990638134575 0.35190483133425488 0 0.19329834396814641 0.33328399686629978 0 0.21150607161232149 0.3245036863190196 0 0.20841238186686439 0.34472105417207632 0 0.21150607161232149 0.3245036863190196 0 0.22736457019319431 0.33776348264759248 0 0.20841238186686439 0.34472105417207632 0 0.20632342479934371 0.30585855598863948 0 0.19635424873152091 0.31866253726922511 0 0.21150607161232149 0.3245036863190196 0 0.2184758680590754 0.31184724711422762 0 0.20632342479934371 0.30585855598863948 0 0.21150607161232149 0.3245036863190196 0 0.21150607161232149 0.3245036863190196 0 0.22801070301179061 0.32060690690137728 0 0.22736457019319431 0.33776348264759248 0 0.2184758680590754 0.31184724711422762 0 0.21150607161232149 0.3245036863190196 0 0.22801070301179061 0.32060690690137728 0 0.22801070301179061 0.32060690690137728 0 0.22736457019319431 0.33776348264759248 0 0.24490867605631639 0.32967072069511189 0 0.22736457019319431 0.33776348264759248 0 0.24490867605631639 0.32967072069511189 0 0.24521693247762111 0.35027114815259558 0 0.23765651747073049 0.31117848176507701 0 0.22801070301179061 0.32060690690137728 0 0.24490867605631639 0.32967072069511189 0 0.23765651747073049 0.31117848176507701 0 0.24490867605631639 0.32967072069511189 0 0.25114017462525878 0.31153615041935723 0 0.24305895760768401 0.36641304215893011 0 0.24521693247762111 0.35027114815259558 0 0.22613265613425179 0.35680737964537468 0 0.22736457019319431 0.33776348264759248 0 0.24521693247762111 0.35027114815259558 0 0.22613265613425179 0.35680737964537468 0 0.22736457019319431 0.33776348264759248 0 0.22613265613425179 0.35680737964537468 0 0.20841238186686439 0.34472105417207632 0 0.22613265613425179 0.35680737964537468 0 0.20200890290724041 0.36500873302905812 0 0.22860253219506471 0.37841014948266538 0 0.24305895760768401 0.36641304215893011 0 0.22613265613425179 0.35680737964537468 0 0.22860253219506471 0.37841014948266538 0 0.20200890290724041 0.36500873302905812 0 0.22860253219506471 0.37841014948266538 0 0.22613265613425179 0.35680737964537468 0 0.20841238186686439 0.34472105417207632 0 0.20200890290724041 0.36500873302905812 0 0.20841238186686439 0.34472105417207632 0 0.1876990638134575 0.35190483133425488 0 0.20200890290724041 0.36500873302905812 0 0.1876990638134575 0.35190483133425488 0 0.20200890290724041 0.36500873302905812 0 0.17637045729064621 0.37495278481954358 0 0.1876990638134575 0.35190483133425488 0 0.17637045729064621 0.37495278481954358 0 0.16909864488713719 0.35514267549568418 0 0.15975417249048229 0.36968310563447321 0 0.16909864488713719 0.35514267549568418 0 0.14990537096685039 0.36070173528474042 0 0.17637045729064621 0.37495278481954358 0 0.15975417249048229 0.36968310563447321 0 0.16909864488713719 0.35514267549568418 0 0.16909864488713719 0.35514267549568418 0 0.1770056519607103 0.33831974362286749 0 0.1619384281755652 0.34052596047808847 0 0.16909864488713719 0.35514267549568418 0 0.14990537096685039 0.36070173528474042 0 0.15416632756111201 0.34898696826244741 0 0.16909864488713719 0.35514267549568418 0 0.1619384281755652 0.34052596047808847 0 0.15416632756111201 0.34898696826244741 0 0.1876990638134575 0.35190483133425488 0 0.16909864488713719 0.35514267549568418 0 0.1770056519607103 0.33831974362286749 0 0.19329834396814641 0.33328399686629978 0 0.1770056519607103 0.33831974362286749 0 0.1818581672390053 0.32281790922797782 0 0.19329834396814641 0.33328399686629978 0 0.1876990638134575 0.35190483133425488 0 0.1770056519607103 0.33831974362286749 0 0.1770056519607103 0.33831974362286749 0 0.1818581672390053 0.32281790922797782 0 0.1657389141743941 0.32607447656151611 0 0.1818581672390053 0.32281790922797782 0 0.1707678241303611 0.31259989648156872 0 0.1657389141743941 0.32607447656151611 0 0.18371952992762389 0.30785332357736089 0 0.19635424873152091 0.31866253726922511 0 0.1818581672390053 0.32281790922797782 0 0.18371952992762389 0.30785332357736089 0 0.1818581672390053 0.32281790922797782 0 0.1707678241303611 0.31259989648156872 0 0.1707678241303611 0.31259989648156872 0 0.1657389141743941 0.32607447656151611 0 0.16084478468494731 0.31759224325908281 0 0.1657389141743941 0.32607447656151611 0 0.15632698434060879 0.32309477146443721 0 0.16084478468494731 0.31759224325908281 0 0.1657389141743941 0.32607447656151611 0 0.15632698434060879 0.32309477146443721 0 0.1534459738215358 0.33116830427909388 0 0.15847128754916129 0.30901971199088751 0 0.1707678241303611 0.31259989648156872 0 0.16084478468494731 0.31759224325908281 0 0.15847128754916129 0.30901971199088751 0 0.16084478468494731 0.31759224325908281 0 0.1531779528472626 0.31690967251270458 0 0.15632698434060879 0.32309477146443721 0 0.16084478468494731 0.31759224325908281 0 0.1531779528472626 0.31690967251270458 0 0.1770056519607103 0.33831974362286749 0 0.1657389141743941 0.32607447656151611 0 0.1619384281755652 0.34052596047808847 0 0.1657389141743941 0.32607447656151611 0 0.1619384281755652 0.34052596047808847 0 0.1534459738215358 0.33116830427909388 0 0.1619384281755652 0.34052596047808847 0 0.14537830609435001 0.34101383565047871 0 0.15416632756111201 0.34898696826244741 0 0.1619384281755652 0.34052596047808847 0 0.1534459738215358 0.33116830427909388 0 0.14537830609435001 0.34101383565047871 0 0.1534459738215358 0.33116830427909388 0 0.1427633336259623 0.33140140495610498 0 0.14842729617490411 0.32372916070978858 0 0.1534459738215358 0.33116830427909388 0 0.1427633336259623 0.33140140495610498 0 0.14537830609435001 0.34101383565047871 0 0.1427633336259623 0.33140140495610498 0 0.14537830609435001 0.34101383565047871 0 0.13654253772275141 0.33890423694427602 0 0.1483486037307668 0.31106151759990119 0 0.1531779528472626 0.31690967251270458 0 0.14487070829517959 0.31682928085866202 0 0.1531779528472626 0.31690967251270458 0 0.14842729617490411 0.32372916070978858 0 0.14487070829517959 0.31682928085866202 0 0.15632698434060879 0.32309477146443721 0 0.1534459738215358 0.33116830427909388 0 0.14842729617490411 0.32372916070978858 0 0.15632698434060879 0.32309477146443721 0 0.1531779528472626 0.31690967251270458 0 0.14842729617490411 0.32372916070978858 0 0.1427633336259623 0.33140140495610498 0 0.14842729617490411 0.32372916070978858 0 0.1402378637359267 0.32270884290342983 0 0.14842729617490411 0.32372916070978858 0 0.14487070829517959 0.31682928085866202 0 0.1402378637359267 0.32270884290342983 0 0.1483486037307668 0.31106151759990119 0 0.14130712994747449 0.31140798331507108 0 0.14487070829517959 0.31682928085866202 0 0.14130712994747449 0.31140798331507108 0 0.14487070829517959 0.31682928085866202 0 0.13528824775885559 0.3155805734405937 0 0.14487070829517959 0.31682928085866202 0 0.13528824775885559 0.3155805734405937 0 0.1402378637359267 0.32270884290342983 0 0.13528824775885559 0.3155805734405937 0 0.1330765722643745 0.32249408610517011 0 0.1402378637359267 0.32270884290342983 0 0.1330765722643745 0.32249408610517011 0 0.1402378637359267 0.32270884290342983 0 0.13309473665224339 0.33072661256584468 0 0.12375204985912221 0.32702725796552912 0 0.1330765722643745 0.32249408610517011 0 0.13309473665224339 0.33072661256584468 0 0.12375204985912221 0.32702725796552912 0 0.1330765722643745 0.32249408610517011 0 0.12817088130983889 0.317450689473041 0 0.13528824775885559 0.3155805734405937 0 0.1330765722643745 0.32249408610517011 0 0.12817088130983889 0.317450689473041 0 0.1214195525311879 0.31440901896845502 0 0.12900107104525951 0.30968741412501871 0 0.12817088130983889 0.317450689473041 0 0.12900107104525951 0.30968741412501871 0 0.13528824775885559 0.3155805734405937 0 0.12817088130983889 0.317450689473041 0 0.14537830609435001 0.34101383565047871 0 0.13654253772275141 0.33890423694427602 0 0.13685475473781181 0.34959577292381833 0 0.13654253772275141 0.33890423694427602 0 0.1260676383484185 0.3399282146226113 0 0.13685475473781181 0.34959577292381833 0 0.1427633336259623 0.33140140495610498 0 0.13654253772275141 0.33890423694427602 0 0.13309473665224339 0.33072661256584468 0 0.1427633336259623 0.33140140495610498 0 0.1402378637359267 0.32270884290342983 0 0.13309473665224339 0.33072661256584468 0 0.12375204985912221 0.32702725796552912 0 0.13309473665224339 0.33072661256584468 0 0.1260676383484185 0.3399282146226113 0 0.13654253772275141 0.33890423694427602 0 0.13309473665224339 0.33072661256584468 0 0.1260676383484185 0.3399282146226113 0 0.1232256624926347 0.35239419723674059 0 0.13685475473781181 0.34959577292381833 0 0.13271547193899449 0.36524458735671972 0 0.1232256624926347 0.35239419723674059 0 0.1260676383484185 0.3399282146226113 0 0.13685475473781181 0.34959577292381833 0 0.13685475473781181 0.34959577292381833 0 0.13271547193899449 0.36524458735671972 0 0.14990537096685039 0.36070173528474042 0 0.13271547193899449 0.36524458735671972 0 0.14727668153694909 0.37350977329143831 0 0.1384203385310763 0.3853027474406937 0 0.13271547193899449 0.36524458735671972 0 0.14727668153694909 0.37350977329143831 0 0.14990537096685039 0.36070173528474042 0 0.15975417249048229 0.36968310563447321 0 0.14727668153694909 0.37350977329143831 0 0.14990537096685039 0.36070173528474042 0 0.14537830609435001 0.34101383565047871 0 0.13685475473781181 0.34959577292381833 0 0.15416632756111201 0.34898696826244741 0 0.13685475473781181 0.34959577292381833 0 0.14990537096685039 0.36070173528474042 0 0.15416632756111201 0.34898696826244741 0 0.15196678808574959 0.39634912392256672 0 0.1402717845598023 0.40641241395674649 0 0.16129649351817349 0.40676751558544272 0 0.15196678808574959 0.39634912392256672 0 0.1384203385310763 0.3853027474406937 0 0.1402717845598023 0.40641241395674649 0 0.15196678808574959 0.39634912392256672 0 0.15611970777082879 0.38410855928095938 0 0.1384203385310763 0.3853027474406937 0 0.14727668153694909 0.37350977329143831 0 0.15611970777082879 0.38410855928095938 0 0.1384203385310763 0.3853027474406937 0 0.15975417249048229 0.36968310563447321 0 0.14727668153694909 0.37350977329143831 0 0.15611970777082879 0.38410855928095938 0 0.1231373165426977 0.3806134049577457 0 0.13271547193899449 0.36524458735671972 0 0.1384203385310763 0.3853027474406937 0 0.1231373165426977 0.3806134049577457 0 0.1384203385310763 0.3853027474406937 0 0.1271742827044339 0.39597619803598749 0 0.1384203385310763 0.3853027474406937 0 0.1271742827044339 0.39597619803598749 0 0.1402717845598023 0.40641241395674649 0 0.1162621503634904 0.41872732341568758 0 0.1271742827044339 0.39597619803598749 0 0.1402717845598023 0.40641241395674649 0 0.1162621503634904 0.41872732341568758 0 0.1402717845598023 0.40641241395674649 0 0.14380353536204241 0.43078456768362461 0 0.1162621503634904 0.41872732341568758 0 0.14380353536204241 0.43078456768362461 0 0.1205619018159948 0.44674810255646558 0 0.1162621503634904 0.41872732341568758 0 0.13914808732176639 0.43525501877606959 0 0.1162621503634904 0.41872732341568758 0 0.13914808732176639 0.43525501877606959 0 0.14380353536204241 0.43078456768362461 0 0.1402717845598023 0.40641241395674649 0 0.16129649351817349 0.40676751558544272 0 0.1583102357697074 0.42239552662274649 0 0.1402717845598023 0.40641241395674649 0 0.14380353536204241 0.43078456768362461 0 0.1583102357697074 0.42239552662274649 0 0.16129649351817349 0.40676751558544272 0 0.17483444504792359 0.42517132393635743 0 0.1767108048052333 0.40648620419478521 0 0.16129649351817349 0.40676751558544272 0 0.1583102357697074 0.42239552662274649 0 0.17483444504792359 0.42517132393635743 0 0.1583102357697074 0.42239552662274649 0 0.17483444504792359 0.42517132393635743 0 0.1713449203605947 0.44284181195156158 0 0.14380353536204241 0.43078456768362461 0 0.1713449203605947 0.44284181195156158 0 0.14380353536204241 0.43078456768362461 0 0.1583102357697074 0.42239552662274649 0 0.1713449203605947 0.44284181195156158 0 0.17483444504792359 0.42517132393635743 0 0.18216746451451801 0.43740730714955978 0 0.1713449203605947 0.44284181195156158 0 0.17483444504792359 0.42517132393635743 0 0.1713449203605947 0.44284181195156158 0 0.17483444504792359 0.42517132393635743 0 0.1894098998784805 0.41329321868770491 0 0.19020123220431809 0.42989189963497759 0 0.17483444504792359 0.42517132393635743 0 0.18216746451451801 0.43740730714955978 0 0.19020123220431809 0.42989189963497759 0 0.17483444504792359 0.42517132393635743 0 0.1767108048052333 0.40648620419478521 0 0.1894098998784805 0.41329321868770491 0 0.1767108048052333 0.40648620419478521 0 0.16971698500113649 0.39319336099264368 0 0.18829620058045249 0.39400560177177729 0 0.1767108048052333 0.40648620419478521 0 0.18829620058045249 0.39400560177177729 0 0.1894098998784805 0.41329321868770491 0 0.15196678808574959 0.39634912392256672 0 0.15611970777082879 0.38410855928095938 0 0.16971698500113649 0.39319336099264368 0 0.15196678808574959 0.39634912392256672 0 0.16129649351817349 0.40676751558544272 0 0.16971698500113649 0.39319336099264368 0 0.16129649351817349 0.40676751558544272 0 0.1767108048052333 0.40648620419478521 0 0.16971698500113649 0.39319336099264368 0 0.17637045729064621 0.37495278481954358 0 0.15975417249048229 0.36968310563447321 0 0.15611970777082879 0.38410855928095938 0 0.17637045729064621 0.37495278481954358 0 0.15611970777082879 0.38410855928095938 0 0.16971698500113649 0.39319336099264368 0 0.17637045729064621 0.37495278481954358 0 0.16971698500113649 0.39319336099264368 0 0.18829620058045249 0.39400560177177729 0 0.20200890290724041 0.36500873302905812 0 0.18829620058045249 0.39400560177177729 0 0.21022739730807871 0.38998636848418261 0 0.20200890290724041 0.36500873302905812 0 0.17637045729064621 0.37495278481954358 0 0.18829620058045249 0.39400560177177729 0 0.18829620058045249 0.39400560177177729 0 0.21022739730807871 0.38998636848418261 0 0.20498907662426999 0.40636669370009521 0 0.18829620058045249 0.39400560177177729 0 0.20498907662426999 0.40636669370009521 0 0.1894098998784805 0.41329321868770491 0 0.21022739730807871 0.38998636848418261 0 0.225418264115859 0.4045632601918206 0 0.20498907662426999 0.40636669370009521 0 0.20200890290724041 0.36500873302905812 0 0.21022739730807871 0.38998636848418261 0 0.22860253219506471 0.37841014948266538 0 0.21022739730807871 0.38998636848418261 0 0.22860253219506471 0.37841014948266538 0 0.225418264115859 0.4045632601918206 0 0.225418264115859 0.4045632601918206 0 0.2490748840761759 0.41447913741323361 0 0.25519616148288887 0.39181156593627298 0 0.22860253219506471 0.37841014948266538 0 0.225418264115859 0.4045632601918206 0 0.25519616148288887 0.39181156593627298 0 0.22860253219506471 0.37841014948266538 0 0.25519616148288887 0.39181156593627298 0 0.24305895760768401 0.36641304215893011 0 0.22860253219506471 0.37841014948266538 0 0.25519616148288887 0.39181156593627298 0 0.2490748840761759 0.41447913741323361 0 0.23040520055063371 0.42472223384156732 0 0.24517769652138269 0.43868647355565088 0 0.225418264115859 0.4045632601918206 0 0.2490748840761759 0.41447913741323361 0 0.23040520055063371 0.42472223384156732 0 0.225418264115859 0.4045632601918206 0 0.23040520055063371 0.42472223384156732 0 0.20794960100346549 0.42683021087399747 0 0.23040520055063371 0.42472223384156732 0 0.20794960100346549 0.42683021087399747 0 0.2229924843016429 0.43948176305630821 0 0.23040520055063371 0.42472223384156732 0 0.2229924843016429 0.43948176305630821 0 0.24517769652138269 0.43868647355565088 0 0.225418264115859 0.4045632601918206 0 0.20794960100346549 0.42683021087399747 0 0.20498907662426999 0.40636669370009521 0 0.20794960100346549 0.42683021087399747 0 0.20498907662426999 0.40636669370009521 0 0.1894098998784805 0.41329321868770491 0 0.20794960100346549 0.42683021087399747 0 0.19020123220431809 0.42989189963497759 0 0.19426067079655579 0.44330707928475449 0 0.20794960100346549 0.42683021087399747 0 0.1894098998784805 0.41329321868770491 0 0.19020123220431809 0.42989189963497759 0 0.18216746451451801 0.43740730714955978 0 0.19020123220431809 0.42989189963497759 0 0.19426067079655579 0.44330707928475449 0 0.19426067079655579 0.44330707928475449 0 0.1940681668251448 0.45640187690020761 0 0.18254949088188149 0.4477470207382499 0 0.19426067079655579 0.44330707928475449 0 0.1940681668251448 0.45640187690020761 0 0.20814429074563079 0.44944136850783811 0 0.1940681668251448 0.45640187690020761 0 0.20814429074563079 0.44944136850783811 0 0.2039949308663013 0.472197178379127 0 0.1940681668251448 0.45640187690020761 0 0.2039949308663013 0.472197178379127 0 0.18608081776579821 0.46867989557539208 0 0.1940681668251448 0.45640187690020761 0 0.18608081776579821 0.46867989557539208 0 0.18254949088188149 0.4477470207382499 0 0.20814429074563079 0.44944136850783811 0 0.22852149564367849 0.45772005811557609 0 0.2039949308663013 0.472197178379127 0 0.20794960100346549 0.42683021087399747 0 0.19426067079655579 0.44330707928475449 0 0.20814429074563079 0.44944136850783811 0 0.20794960100346549 0.42683021087399747 0 0.20814429074563079 0.44944136850783811 0 0.2229924843016429 0.43948176305630821 0 0.2229924843016429 0.43948176305630821 0 0.22852149564367849 0.45772005811557609 0 0.24517769652138269 0.43868647355565088 0 0.20814429074563079 0.44944136850783811 0 0.2229924843016429 0.43948176305630821 0 0.22852149564367849 0.45772005811557609 0 0.22852149564367849 0.45772005811557609 0 0.2480713074063006 0.45455858161591112 0 0.2508124586903176 0.47172026355836871 0 0.22852149564367849 0.45772005811557609 0 0.2480713074063006 0.45455858161591112 0 0.24517769652138269 0.43868647355565088 0 0.24658834009167641 0.5 0 0.2268462464291012 0.47913099520174052 0 0.2508124586903176 0.47172026355836871 0 0.22852149564367849 0.45772005811557609 0 0.2268462464291012 0.47913099520174052 0 0.2508124586903176 0.47172026355836871 0 0.22852149564367849 0.45772005811557609 0 0.2268462464291012 0.47913099520174052 0 0.2039949308663013 0.472197178379127 0 0.24658834009167641 0.5 0 0.2268462464291012 0.47913099520174052 0 0.21774471386125249 0.5 0 0.2039949308663013 0.472197178379127 0 0.18890108763082861 0.5 0 0.18608081776579821 0.46867989557539208 0 0.21774471386125249 0.5 0 0.2039949308663013 0.472197178379127 0 0.18890108763082861 0.5 0 0.2268462464291012 0.47913099520174052 0 0.21774471386125249 0.5 0 0.2039949308663013 0.472197178379127 0 0.18890108763082861 0.5 0 0.16570119088049859 0.47142090597577962 0 0.18608081776579821 0.46867989557539208 0 0.18890108763082861 0.5 0 0.1600574614004048 0.499999999999998 0 0.16570119088049859 0.47142090597577962 0 0.1600574614004048 0.499999999999998 0 0.16570119088049859 0.47142090597577962 0 0.1600574614004048 0.499999999999998 0 0.16570119088049859 0.47142090597577962 0 0.1473140710794911 0.47841155746419622 0 0.16570119088049859 0.47142090597577962 0 0.18608081776579821 0.46867989557539208 0 0.18254949088188149 0.4477470207382499 0 0.16570119088049859 0.47142090597577962 0 0.18254949088188149 0.4477470207382499 0 0.1713449203605947 0.44284181195156158 0 0.18216746451451801 0.43740730714955978 0 0.19426067079655579 0.44330707928475449 0 0.18254949088188149 0.4477470207382499 0 0.18254949088188149 0.4477470207382499 0 0.1713449203605947 0.44284181195156158 0 0.18216746451451801 0.43740730714955978 0 0.18254949088188149 0.4477470207382499 0 0.1713449203605947 0.44284181195156158 0 0.16570119088049859 0.47142090597577962 0 0.1713449203605947 0.44284181195156158 0 0.16570119088049859 0.47142090597577962 0 0.1713449203605947 0.44284181195156158 0 0.15076126992746861 0.45128164001408699 0 0.16570119088049859 0.47142090597577962 0 0.14979107830043681 0.4659705410046826 0 0.15076126992746861 0.45128164001408699 0 0.14979107830043681 0.4659705410046826 0 0.15076126992746861 0.45128164001408699 0 0.13538778131428869 0.46276806056466779 0 0.13914808732176639 0.43525501877606959 0 0.14380353536204241 0.43078456768362461 0 0.15076126992746861 0.45128164001408699 0 0.14380353536204241 0.43078456768362461 0 0.1713449203605947 0.44284181195156158 0 0.15076126992746861 0.45128164001408699 0 0.13914808732176639 0.43525501877606959 0 0.15076126992746861 0.45128164001408699 0 0.13538778131428869 0.46276806056466779 0 0.13914808732176639 0.43525501877606959 0 0.13538778131428869 0.46276806056466779 0 0.1205619018159948 0.44674810255646558 0 0.13914808732176639 0.43525501877606959 0 0.13538778131428869 0.46276806056466779 0 0.1248616532684987 0.47476888169724352 0 0.1205619018159948 0.44674810255646558 0 0.13538778131428869 0.46276806056466779 0 0.13538778131428869 0.46276806056466779 0 0.13162747530681079 0.49028110235326611 0 0.1248616532684987 0.47476888169724352 0 0.13538778131428869 0.46276806056466779 0 0.13162747530681079 0.49028110235326611 0 0.13538778131428869 0.46276806056466779 0 0.13162747530681079 0.49028110235326611 0 0.1473140710794911 0.47841155746419622 0 0.1248616532684987 0.47476888169724352 0 0.13162747530681079 0.49028110235326611 0 0.1248616532684987 0.47476888169724352 0 0.1287333349596296 0.50000000000000233 0 0.1248616532684987 0.47476888169724352 0 0.13162747530681079 0.49028110235326611 0 0.1287333349596296 0.50000000000000233 0 0.13162747530681079 0.49028110235326611 0 0.1302991587401483 0.50000000000000044 0 0.13162747530681079 0.49028110235326611 0 0.1302991587401483 0.50000000000000044 0 0.13586647714571501 0.50000000000000044 0 0.13162747530681079 0.49028110235326611 0 0.1287333349596296 0.50000000000000233 0 0.1302991587401483 0.50000000000000044 0 0.13162747530681079 0.49028110235326611 0 0.13586647714571501 0.50000000000000044 0 0.14406777576738011 0.49099847585001533 0 0.13162747530681079 0.49028110235326611 0 0.13586647714571501 0.50000000000000044 0 0.1600574614004048 0.499999999999998 0 0.13586647714571501 0.50000000000000044 0 0.14406777576738011 0.49099847585001533 0 0.1600574614004048 0.499999999999998 0 0.14406777576738011 0.49099847585001533 0 0.1473140710794911 0.47841155746419622 0 0.13162747530681079 0.49028110235326611 0 0.14406777576738011 0.49099847585001533 0 0.1473140710794911 0.47841155746419622 0 0.16570119088049859 0.47142090597577962 0 0.14979107830043681 0.4659705410046826 0 0.1473140710794911 0.47841155746419622 0 0.14979107830043681 0.4659705410046826 0 0.13538778131428869 0.46276806056466779 0 0.1473140710794911 0.47841155746419622 0 0.3484716028812469 0.46927922019571022 0 0.3639431844790027 0.47792576209206161 0 0.36215729707138089 0.45952194433731441 0 0.3484716028812469 0.46927922019571022 0 0.34825454286986979 0.4866410253547736 0 0.3639431844790027 0.47792576209206161 0 0.34825454286986979 0.4866410253547736 0 0.36196284501337178 0.5 0 0.3639431844790027 0.47792576209206161 0 0.34825454286986979 0.4866410253547736 0 0.36196284501337178 0.5 0 0.33311921878294798 0.5 0 0.36196284501337178 0.5 0 0.3639431844790027 0.47792576209206161 0 0.38120033573297152 0.48442634992442057 0 0.3639431844790027 0.47792576209206161 0 0.37844435483634198 0.4675903904274426 0 0.38120033573297152 0.48442634992442057 0 0.3639431844790027 0.47792576209206161 0 0.36215729707138089 0.45952194433731441 0 0.37844435483634198 0.4675903904274426 0 0.36215729707138089 0.45952194433731441 0 0.37809165231809289 0.44568724501072521 0 0.37844435483634198 0.4675903904274426 0 0.36215729707138089 0.45952194433731441 0 0.35494335133579169 0.44207750056399991 0 0.37809165231809289 0.44568724501072521 0 0.35494335133579169 0.44207750056399991 0 0.365542703577178 0.42914551292816783 0 0.37809165231809289 0.44568724501072521 0 0.35494335133579169 0.44207750056399991 0 0.33746945485668051 0.4332718215327816 0 0.35494335133579169 0.44207750056399991 0 0.33933393763431879 0.44574212964051668 0 0.33746945485668051 0.4332718215327816 0 0.36215729707138089 0.45952194433731441 0 0.35494335133579169 0.44207750056399991 0 0.34904963657780902 0.45457154773394731 0 0.35494335133579169 0.44207750056399991 0 0.34904963657780902 0.45457154773394731 0 0.33933393763431879 0.44574212964051668 0 0.3484716028812469 0.46927922019571022 0 0.36215729707138089 0.45952194433731441 0 0.34904963657780902 0.45457154773394731 0 0.3484716028812469 0.46927922019571022 0 0.34904963657780902 0.45457154773394731 0 0.33768006752307722 0.45817683321967928 0 0.33768006752307722 0.45817683321967928 0 0.32516604183334019 0.44948070643492349 0 0.3263791186886712 0.4718105620932988 0 0.3484716028812469 0.46927922019571022 0 0.33768006752307722 0.45817683321967928 0 0.3263791186886712 0.4718105620932988 0 0.33933393763431879 0.44574212964051668 0 0.32516604183334019 0.44948070643492349 0 0.33457771181584611 0.43369686048393857 0 0.32516604183334019 0.44948070643492349 0 0.33457771181584611 0.43369686048393857 0 0.33933393763431879 0.44574212964051668 0 0.33457771181584611 0.43369686048393857 0 0.33746945485668051 0.4332718215327816 0 0.34904963657780902 0.45457154773394731 0 0.33768006752307722 0.45817683321967928 0 0.33933393763431879 0.44574212964051668 0 0.33768006752307722 0.45817683321967928 0 0.33933393763431879 0.44574212964051668 0 0.32516604183334019 0.44948070643492349 0 0.32516604183334019 0.44948070643492349 0 0.30610823095482448 0.43788140873538328 0 0.33457771181584611 0.43369686048393857 0 0.32516604183334019 0.44948070643492349 0 0.30909376894118562 0.45443190325323968 0 0.30610823095482448 0.43788140873538328 0 0.32516604183334019 0.44948070643492349 0 0.3263791186886712 0.4718105620932988 0 0.30909376894118562 0.45443190325323968 0 0.3263791186886712 0.4718105620932988 0 0.30059931196992168 0.47005809262963882 0 0.31153103284441203 0.48323920778459489 0 0.3484716028812469 0.46927922019571022 0 0.34825454286986979 0.4866410253547736 0 0.3263791186886712 0.4718105620932988 0 0.34825454286986979 0.4866410253547736 0 0.3263791186886712 0.4718105620932988 0 0.33311921878294798 0.5 0 0.3263791186886712 0.4718105620932988 0 0.33311921878294798 0.5 0 0.31153103284441203 0.48323920778459489 0 0.33311921878294798 0.5 0 0.30427559255252412 0.5 0 0.31153103284441203 0.48323920778459489 0 0.30427559255252412 0.5 0 0.31153103284441203 0.48323920778459489 0 0.29110307967174748 0.48580921065493432 0 0.30059931196992168 0.47005809262963882 0 0.31153103284441203 0.48323920778459489 0 0.29110307967174748 0.48580921065493432 0 0.30059931196992168 0.47005809262963882 0 0.29110307967174748 0.48580921065493432 0 0.27585954767988607 0.47408041721782612 0 0.30427559255252412 0.5 0 0.29110307967174748 0.48580921065493432 0 0.27543196632210021 0.5 0 0.27543196632210021 0.5 0 0.27585954767988607 0.47408041721782612 0 0.26198527678341299 0.48673919500437729 0 0.29110307967174748 0.48580921065493432 0 0.27543196632210021 0.5 0 0.27585954767988607 0.47408041721782612 0 0.27585954767988607 0.47408041721782612 0 0.2508124586903176 0.47172026355836871 0 0.26198527678341299 0.48673919500437729 0 0.24658834009167641 0.5 0 0.2508124586903176 0.47172026355836871 0 0.26198527678341299 0.48673919500437729 0 0.24658834009167641 0.5 0 0.27543196632210021 0.5 0 0.26198527678341299 0.48673919500437729 0 0.2480713074063006 0.45455858161591112 0 0.24517769652138269 0.43868647355565088 0 0.26777357876982372 0.45010753123404867 0 0.24517769652138269 0.43868647355565088 0 0.26777357876982372 0.45010753123404867 0 0.26600993858745892 0.42808938636359573 0 0.2480713074063006 0.45455858161591112 0 0.2508124586903176 0.47172026355836871 0 0.26777357876982372 0.45010753123404867 0 0.27585954767988607 0.47408041721782612 0 0.2508124586903176 0.47172026355836871 0 0.26777357876982372 0.45010753123404867 0 0.27585954767988607 0.47408041721782612 0 0.26777357876982372 0.45010753123404867 0 0.28975077836376328 0.45156795454144122 0 0.26777357876982372 0.45010753123404867 0 0.28975077836376328 0.45156795454144122 0 0.28607917402868899 0.43188291486824332 0 0.28975077836376328 0.45156795454144122 0 0.30610823095482448 0.43788140873538328 0 0.28607917402868899 0.43188291486824332 0 0.30059931196992168 0.47005809262963882 0 0.27585954767988607 0.47408041721782612 0 0.28975077836376328 0.45156795454144122 0 0.3263791186886712 0.4718105620932988 0 0.30059931196992168 0.47005809262963882 0 0.30909376894118562 0.45443190325323968 0 0.30059931196992168 0.47005809262963882 0 0.28975077836376328 0.45156795454144122 0 0.30909376894118562 0.45443190325323968 0 0.28975077836376328 0.45156795454144122 0 0.30909376894118562 0.45443190325323968 0 0.30610823095482448 0.43788140873538328 0 0.30610823095482448 0.43788140873538328 0 0.30869255759955722 0.41877018355733042 0 0.28607917402868899 0.43188291486824332 0 0.3075810200549029 0.4073564129674252 0 0.30869255759955722 0.41877018355733042 0 0.30232024370737348 0.40459188745546998 0 0.31142364564813352 0.41093370315849659 0 0.3075810200549029 0.4073564129674252 0 0.31015955469665918 0.40201373970895371 0 0.31142364564813352 0.41093370315849659 0 0.3075810200549029 0.4073564129674252 0 0.30869255759955722 0.41877018355733042 0 0.30869255759955722 0.41877018355733042 0 0.29605666041485018 0.40551048050067168 0 0.30232024370737348 0.40459188745546998 0 0.30869255759955722 0.41877018355733042 0 0.2819443595412231 0.40529087474680159 0 0.30869255759955722 0.41877018355733042 0 0.2819443595412231 0.40529087474680159 0 0.29605666041485018 0.40551048050067168 0 0.30869255759955722 0.41877018355733042 0 0.28607917402868899 0.43188291486824332 0 0.2819443595412231 0.40529087474680159 0 0.2490748840761759 0.41447913741323361 0 0.26600993858745892 0.42808938636359573 0 0.2819443595412231 0.40529087474680159 0 0.26777357876982372 0.45010753123404867 0 0.28607917402868899 0.43188291486824332 0 0.26600993858745892 0.42808938636359573 0 0.28607917402868899 0.43188291486824332 0 0.26600993858745892 0.42808938636359573 0 0.2819443595412231 0.40529087474680159 0 0.2490748840761759 0.41447913741323361 0 0.24517769652138269 0.43868647355565088 0 0.26600993858745892 0.42808938636359573 0 0.2490748840761759 0.41447913741323361 0 0.25519616148288887 0.39181156593627298 0 0.2819443595412231 0.40529087474680159 0 0.25519616148288887 0.39181156593627298 0 0.2618259464583832 0.36726095095448358 0 0.25519616148288887 0.39181156593627298 0 0.27405714121884811 0.38409687161834088 0 0.2618259464583832 0.36726095095448358 0 0.24305895760768401 0.36641304215893011 0 0.25519616148288887 0.39181156593627298 0 0.2618259464583832 0.36726095095448358 0 0.2490748840761759 0.41447913741323361 0 0.25519616148288887 0.39181156593627298 0 0.27405714121884811 0.38409687161834088 0 0.2819443595412231 0.40529087474680159 0 0.28762179706039948 0.39125587461843808 0 0.25519616148288887 0.39181156593627298 0 0.2819443595412231 0.40529087474680159 0 0.25519616148288887 0.39181156593627298 0 0.27405714121884811 0.38409687161834088 0 0.2819443595412231 0.40529087474680159 0 0.27405714121884811 0.38409687161834088 0 0.28403056220722062 0.37531448917755911 0 0.2737626695690904 0.37327007608818358 0 0.27405714121884811 0.38409687161834088 0 0.28403056220722062 0.37531448917755911 0 0.28762179706039948 0.39125587461843808 0 0.29405085274881382 0.37834813740539031 0 0.28762179706039948 0.39125587461843808 0 0.30049862001061489 0.39881078008944609 0 0.28403056220722062 0.37531448917755911 0 0.29405085274881382 0.37834813740539031 0 0.28762179706039948 0.39125587461843808 0 0.2819443595412231 0.40529087474680159 0 0.28762179706039948 0.39125587461843808 0 0.29316512877403511 0.40022580951085568 0 0.28762179706039948 0.39125587461843808 0 0.29316512877403511 0.40022580951085568 0 0.30049862001061489 0.39881078008944609 0 0.2819443595412231 0.40529087474680159 0 0.29316512877403511 0.40022580951085568 0 0.29605666041485018 0.40551048050067168 0 0.29316512877403511 0.40022580951085568 0 0.29605666041485018 0.40551048050067168 0 0.30042223720462058 0.4004666581126537 0 0.29605666041485018 0.40551048050067168 0 0.30232024370737348 0.40459188745546998 0 0.30042223720462058 0.4004666581126537 0 0.29316512877403511 0.40022580951085568 0 0.30042223720462058 0.4004666581126537 0 0.30049862001061489 0.39881078008944609 0 0.30042223720462058 0.4004666581126537 0 0.30049862001061489 0.39881078008944609 0 0.30232024370737348 0.40459188745546998 0 0.30049862001061489 0.39881078008944609 0 0.30232024370737348 0.40459188745546998 0 0.30049862001061489 0.39881078008944609 0 0.30430913302558388 0.40020258685778032 0 0.30232024370737348 0.40459188745546998 0 0.30042223720462058 0.4004666581126537 0 0.30049862001061489 0.39881078008944609 0 0.30049862001061489 0.39881078008944609 0 0.30098622665836988 0.38824011406760628 0 0.30049862001061489 0.39881078008944609 0 0.30430913302558388 0.40020258685778032 0 0.30098622665836988 0.38824011406760628 0 0.30098622665836988 0.38824011406760628 0 0.30110064445947421 0.38575968774854158 0 0.31262554991773928 0.39787599139405988 0 0.31015955469665918 0.40201373970895371 0 0.30098622665836988 0.38824011406760628 0 0.30110064445947421 0.38575968774854158 0 0.31262554991773928 0.39787599139405988 0 0.30430913302558388 0.40020258685778032 0 0.31015955469665918 0.40201373970895371 0 0.30098622665836988 0.38824011406760628 0 0.31015955469665918 0.40201373970895371 0 0.30098622665836988 0.38824011406760628 0 0.31262554991773928 0.39787599139405988 0 0.3075810200549029 0.4073564129674252 0 0.30232024370737348 0.40459188745546998 0 0.30430913302558388 0.40020258685778032 0 0.3075810200549029 0.4073564129674252 0 0.30430913302558388 0.40020258685778032 0 0.31015955469665918 0.40201373970895371 0 0.29405085274881382 0.37834813740539031 0 0.30049862001061489 0.39881078008944609 0 0.29405085274881382 0.37834813740539031 0 0.30049862001061489 0.39881078008944609 0 0.30098622665836988 0.38824011406760628 0 0.30110064445947421 0.38575968774854158 0 0.30177514978199971 0.3711373061071076 0 0.30110064445947421 0.38575968774854158 0 0.3104817065657739 0.3858680532317833 0 0.30177514978199971 0.3711373061071076 0 0.29405085274881382 0.37834813740539031 0 0.30110064445947421 0.38575968774854158 0 0.30177514978199971 0.3711373061071076 0 0.29405085274881382 0.37834813740539031 0 0.30110064445947421 0.38575968774854158 0 0.29405085274881382 0.37834813740539031 0 0.30098622665836988 0.38824011406760628 0 0.30110064445947421 0.38575968774854158 0 0.29405085274881382 0.37834813740539031 0 0.30098622665836988 0.38824011406760628 0 0.30098622665836988 0.38824011406760628 0 0.30110064445947421 0.38575968774854158 0 0.30110064445947421 0.38575968774854158 0 0.3104817065657739 0.3858680532317833 0 0.31262554991773928 0.39787599139405988 0 0.3104817065657739 0.3858680532317833 0 0.30177514978199971 0.3711373061071076 0 0.3104817065657739 0.3858680532317833 0 0.31717345926189522 0.3709258031848055 0 0.30177514978199971 0.3711373061071076 0 0.3104817065657739 0.3858680532317833 0 0.3376156911696272 0.37620073599141618 0 0.3104817065657739 0.3858680532317833 0 0.3376156911696272 0.37620073599141618 0 0.31717345926189522 0.3709258031848055 0 0.3104817065657739 0.3858680532317833 0 0.3376156911696272 0.37620073599141618 0 0.3351802944883514 0.39738750443412002 0 0.3376156911696272 0.37620073599141618 0 0.3351802944883514 0.39738750443412002 0 0.34879159400795012 0.38769315231290841 0 0.3351802944883514 0.39738750443412002 0 0.33658962428999861 0.41133204962483783 0 0.34988972217452752 0.40801784569160632 0 0.3351802944883514 0.39738750443412002 0 0.32415045537600512 0.40999229503957763 0 0.33658962428999861 0.41133204962483783 0 0.3351802944883514 0.39738750443412002 0 0.31909953512109351 0.40044867980609039 0 0.32415045537600512 0.40999229503957763 0 0.3104817065657739 0.3858680532317833 0 0.3351802944883514 0.39738750443412002 0 0.31909953512109351 0.40044867980609039 0 0.3104817065657739 0.3858680532317833 0 0.31909953512109351 0.40044867980609039 0 0.3104817065657739 0.3858680532317833 0 0.31262554991773928 0.39787599139405988 0 0.31909953512109351 0.40044867980609039 0 0.31262554991773928 0.39787599139405988 0 0.32415045537600512 0.40999229503957763 0 0.31015955469665918 0.40201373970895371 0 0.31262554991773928 0.39787599139405988 0 0.32415045537600512 0.40999229503957763 0 0.31262554991773928 0.39787599139405988 0 0.31909953512109351 0.40044867980609039 0 0.32415045537600512 0.40999229503957763 0 0.31015955469665918 0.40201373970895371 0 0.31933288273494848 0.41578736535030097 0 0.32415045537600512 0.40999229503957763 0 0.31142364564813352 0.41093370315849659 0 0.31015955469665918 0.40201373970895371 0 0.31933288273494848 0.41578736535030097 0 0.30869255759955722 0.41877018355733042 0 0.31933288273494848 0.41578736535030097 0 0.32906281765607392 0.42006619542527468 0 0.31015955469665918 0.40201373970895371 0 0.31933288273494848 0.41578736535030097 0 0.31142364564813352 0.41093370315849659 0 0.30869255759955722 0.41877018355733042 0 0.31933288273494848 0.41578736535030097 0 0.31933288273494848 0.41578736535030097 0 0.32415045537600512 0.40999229503957763 0 0.32906281765607392 0.42006619542527468 0 0.30869255759955722 0.41877018355733042 0 0.33457771181584611 0.43369686048393857 0 0.33544075565789128 0.43224949236785898 0 0.30869255759955722 0.41877018355733042 0 0.33544075565789128 0.43224949236785898 0 0.30610823095482448 0.43788140873538328 0 0.30869255759955722 0.41877018355733042 0 0.33457771181584611 0.43369686048393857 0 0.30869255759955722 0.41877018355733042 0 0.33544075565789128 0.43224949236785898 0 0.32906281765607392 0.42006619542527468 0 0.30610823095482448 0.43788140873538328 0 0.33457771181584611 0.43369686048393857 0 0.33457771181584611 0.43369686048393857 0 0.33544075565789128 0.43224949236785898 0 0.33746945485668051 0.4332718215327816 0 0.33457771181584611 0.43369686048393857 0 0.33544075565789128 0.43224949236785898 0 0.33544075565789128 0.43224949236785898 0 0.33746945485668051 0.4332718215327816 0 0.35001853239939229 0.42365555934674631 0 0.33544075565789128 0.43224949236785898 0 0.33746945485668051 0.4332718215327816 0 0.33457771181584611 0.43369686048393857 0 0.33746945485668051 0.4332718215327816 0 0.33544075565789128 0.43224949236785898 0 0.33658962428999861 0.41133204962483783 0 0.34988972217452752 0.40801784569160632 0 0.33544075565789128 0.43224949236785898 0 0.32906281765607392 0.42006619542527468 0 0.33658962428999861 0.41133204962483783 0 0.33544075565789128 0.43224949236785898 0 0.34988972217452752 0.40801784569160632 0 0.32415045537600512 0.40999229503957763 0 0.32906281765607392 0.42006619542527468 0 0.33658962428999861 0.41133204962483783 0 0.33544075565789128 0.43224949236785898 0 0.34988972217452752 0.40801784569160632 0 0.35001853239939229 0.42365555934674631 0 0.34988972217452752 0.40801784569160632 0 0.36165970526353591 0.41519797525725338 0 0.36412400085156282 0.39702719229323191 0 0.34988972217452752 0.40801784569160632 0 0.35001853239939229 0.42365555934674631 0 0.36165970526353591 0.41519797525725338 0 0.35494335133579169 0.44207750056399991 0 0.33746945485668051 0.4332718215327816 0 0.365542703577178 0.42914551292816783 0 0.33746945485668051 0.4332718215327816 0 0.35001853239939229 0.42365555934674631 0 0.365542703577178 0.42914551292816783 0 0.33746945485668051 0.4332718215327816 0 0.365542703577178 0.42914551292816783 0 0.35001853239939229 0.42365555934674631 0 0.365542703577178 0.42914551292816783 0 0.36165970526353591 0.41519797525725338 0 0.365542703577178 0.42914551292816783 0 0.36165970526353591 0.41519797525725338 0 0.37744029411777058 0.41252948965876268 0 0.36165970526353591 0.41519797525725338 0 0.36412400085156282 0.39702719229323191 0 0.37744029411777058 0.41252948965876268 0 0.36412400085156282 0.39702719229323191 0 0.38026367080056678 0.39066664182047522 0 0.37744029411777058 0.41252948965876268 0 0.34988972217452752 0.40801784569160632 0 0.36412400085156282 0.39702719229323191 0 0.36433868869116592 0.38378619901535488 0 0.36433868869116592 0.38378619901535488 0 0.3773824667175657 0.37546563606013739 0 0.38026367080056678 0.39066664182047522 0 0.36433868869116592 0.38378619901535488 0 0.36474967577348072 0.36653341875104961 0 0.3773824667175657 0.37546563606013739 0 0.36412400085156282 0.39702719229323191 0 0.36433868869116592 0.38378619901535488 0 0.38026367080056678 0.39066664182047522 0 0.36433868869116592 0.38378619901535488 0 0.36474967577348072 0.36653341875104961 0 0.36412400085156282 0.39702719229323191 0 0.36433868869116592 0.38378619901535488 0 0.3376156911696272 0.37620073599141618 0 0.34879159400795012 0.38769315231290841 0 0.36474967577348072 0.36653341875104961 0 0.36433868869116592 0.38378619901535488 0 0.34879159400795012 0.38769315231290841 0 0.36474967577348072 0.36653341875104961 0 0.3351802944883514 0.39738750443412002 0 0.34988972217452752 0.40801784569160632 0 0.34879159400795012 0.38769315231290841 0 0.34988972217452752 0.40801784569160632 0 0.36433868869116592 0.38378619901535488 0 0.34988972217452752 0.40801784569160632 0 0.36433868869116592 0.38378619901535488 0 0.34879159400795012 0.38769315231290841 0 0.34699100967064078 0.35539672769273539 0 0.36474967577348072 0.36653341875104961 0 0.36518945593320651 0.34509967395937191 0 0.34699100967064078 0.35539672769273539 0 0.36518945593320651 0.34509967395937191 0 0.348137396692076 0.34077307725183559 0 0.3376156911696272 0.37620073599141618 0 0.34699100967064078 0.35539672769273539 0 0.36474967577348072 0.36653341875104961 0 0.3376156911696272 0.37620073599141618 0 0.36474967577348072 0.36653341875104961 0 0.36474967577348072 0.36653341875104961 0 0.36518945593320651 0.34509967395937191 0 0.36474967577348072 0.36653341875104961 0 0.36518945593320651 0.34509967395937191 0 0.3855881021147175 0.35910908792858098 0 0.36518945593320651 0.34509967395937191 0 0.36562923609293069 0.32366592916769399 0 0.36518945593320651 0.34509967395937191 0 0.36562923609293069 0.32366592916769399 0 0.348137396692076 0.34077307725183559 0 0.36518945593320651 0.34509967395937191 0 0.36562923609293069 0.32366592916769399 0 0.38128435600444488 0.32837669887387311 0 0.36562923609293069 0.32366592916769399 0 0.36606901625265492 0.30223218437601618 0 0.38242981621443428 0.31397380775534678 0 0.36562923609293069 0.32366592916769399 0 0.36606901625265492 0.30223218437601618 0 0.36562923609293069 0.32366592916769399 0 0.34238706329751362 0.32476320095938682 0 0.35183379698966949 0.31056891257481539 0 0.36562923609293069 0.32366592916769399 0 0.348137396692076 0.34077307725183559 0 0.34238706329751362 0.32476320095938682 0 0.348137396692076 0.34077307725183559 0 0.33072504187423118 0.34237289876026822 0 0.34238706329751362 0.32476320095938682 0 0.33072504187423118 0.34237289876026822 0 0.34238706329751362 0.32476320095938682 0 0.32122702449841589 0.32177081607522939 0 0.34238706329751362 0.32476320095938682 0 0.33644502425256478 0.30910566618648461 0 0.35183379698966949 0.31056891257481539 0 0.34238706329751362 0.32476320095938682 0 0.32122702449841589 0.32177081607522939 0 0.33644502425256478 0.30910566618648461 0 0.32122702449841589 0.32177081607522939 0 0.31445651652981632 0.33878768779705848 0 0.30372390616191358 0.32889084998335888 0 0.33072504187423118 0.34237289876026822 0 0.32122702449841589 0.32177081607522939 0 0.31445651652981632 0.33878768779705848 0 0.33072504187423118 0.34237289876026822 0 0.31445651652981632 0.33878768779705848 0 0.31594857135045817 0.35062531106266931 0 0.33072504187423118 0.34237289876026822 0 0.31594857135045817 0.35062531106266931 0 0.32442852787466708 0.36030442639367111 0 0.31594857135045817 0.35062531106266931 0 0.32442852787466708 0.36030442639367111 0 0.31156622091740832 0.36111849420004938 0 0.34699100967064078 0.35539672769273539 0 0.348137396692076 0.34077307725183559 0 0.33072504187423118 0.34237289876026822 0 0.34699100967064078 0.35539672769273539 0 0.33072504187423118 0.34237289876026822 0 0.32442852787466708 0.36030442639367111 0 0.3376156911696272 0.37620073599141618 0 0.34699100967064078 0.35539672769273539 0 0.32442852787466708 0.36030442639367111 0 0.3376156911696272 0.37620073599141618 0 0.32442852787466708 0.36030442639367111 0 0.31717345926189522 0.3709258031848055 0 0.32442852787466708 0.36030442639367111 0 0.31717345926189522 0.3709258031848055 0 0.31156622091740832 0.36111849420004938 0 0.30177514978199971 0.3711373061071076 0 0.30274952797195698 0.35001407804523332 0 0.31717345926189522 0.3709258031848055 0 0.31156622091740832 0.36111849420004938 0 0.30177514978199971 0.3711373061071076 0 0.31156622091740832 0.36111849420004938 0 0.30177514978199971 0.3711373061071076 0 0.30274952797195698 0.35001407804523332 0 0.30177514978199971 0.3711373061071076 0 0.30274952797195698 0.35001407804523332 0 0.29106955940472562 0.3530243656434488 0 0.31445651652981632 0.33878768779705848 0 0.31594857135045817 0.35062531106266931 0 0.30274952797195698 0.35001407804523332 0 0.31594857135045817 0.35062531106266931 0 0.31156622091740832 0.36111849420004938 0 0.30274952797195698 0.35001407804523332 0 0.29106955940472562 0.3530243656434488 0 0.28705150305193838 0.35613499197806497 0 0.28036396902745148 0.33491142517978989 0 0.28705150305193838 0.35613499197806497 0 0.28036396902745148 0.33491142517978989 0 0.28705150305193838 0.35613499197806497 0 0.27644360280618341 0.34191623842927221 0 0.28036396902745148 0.33491142517978989 0 0.29106955940472562 0.3530243656434488 0 0.28036396902745148 0.33491142517978989 0 0.30274952797195698 0.35001407804523332 0 0.29106955940472562 0.3530243656434488 0 0.29374099595638509 0.3392252011883215 0 0.28705150305193838 0.35613499197806497 0 0.28458867991473008 0.36361942358965982 0 0.27543832275303448 0.34988028840297991 0 0.29405085274881382 0.37834813740539031 0 0.28705150305193838 0.35613499197806497 0 0.28458867991473008 0.36361942358965982 0 0.29405085274881382 0.37834813740539031 0 0.28705150305193838 0.35613499197806497 0 0.30177514978199971 0.3711373061071076 0 0.29106955940472562 0.3530243656434488 0 0.29405085274881382 0.37834813740539031 0 0.30177514978199971 0.3711373061071076 0 0.28705150305193838 0.35613499197806497 0 0.30177514978199971 0.3711373061071076 0 0.29106955940472562 0.3530243656434488 0 0.28705150305193838 0.35613499197806497 0 0.29405085274881382 0.37834813740539031 0 0.28458867991473008 0.36361942358965982 0 0.28403056220722062 0.37531448917755911 0 0.2815017213106239 0.3651550498314205 0 0.27898286169525299 0.37041503512408969 0 0.29405085274881382 0.37834813740539031 0 0.2815017213106239 0.3651550498314205 0 0.28403056220722062 0.37531448917755911 0 0.29405085274881382 0.37834813740539031 0 0.2815017213106239 0.3651550498314205 0 0.29405085274881382 0.37834813740539031 0 0.28458867991473008 0.36361942358965982 0 0.2815017213106239 0.3651550498314205 0 0.28403056220722062 0.37531448917755911 0 0.27898286169525299 0.37041503512408969 0 0.2737626695690904 0.37327007608818358 0 0.27663649369407689 0.36792052539919551 0 0.2737626695690904 0.37327007608818358 0 0.27125000512352843 0.36234153133647429 0 0.27405714121884811 0.38409687161834088 0 0.2737626695690904 0.37327007608818358 0 0.2618259464583832 0.36726095095448358 0 0.2815017213106239 0.3651550498314205 0 0.27898286169525299 0.37041503512408969 0 0.27663649369407689 0.36792052539919551 0 0.27898286169525299 0.37041503512408969 0 0.27663649369407689 0.36792052539919551 0 0.2737626695690904 0.37327007608818358 0 0.2737626695690904 0.37327007608818358 0 0.27125000512352843 0.36234153133647429 0 0.2618259464583832 0.36726095095448358 0 0.27125000512352843 0.36234153133647429 0 0.26895258987243392 0.3519619622574508 0 0.2618259464583832 0.36726095095448358 0 0.2815017213106239 0.3651550498314205 0 0.27125000512352843 0.36234153133647429 0 0.26895258987243392 0.3519619622574508 0 0.2815017213106239 0.3651550498314205 0 0.27663649369407689 0.36792052539919551 0 0.27125000512352843 0.36234153133647429 0 0.28458867991473008 0.36361942358965982 0 0.2815017213106239 0.3651550498314205 0 0.27543832275303448 0.34988028840297991 0 0.2815017213106239 0.3651550498314205 0 0.26895258987243392 0.3519619622574508 0 0.28458867991473008 0.36361942358965982 0 0.27543832275303448 0.34988028840297991 0 0.26895258987243392 0.3519619622574508 0 0.2618259464583832 0.36726095095448358 0 0.2684557314338783 0.34271033597269462 0 0.2815017213106239 0.3651550498314205 0 0.27543832275303448 0.34988028840297991 0 0.26895258987243392 0.3519619622574508 0 0.28705150305193838 0.35613499197806497 0 0.27543832275303448 0.34988028840297991 0 0.27644360280618341 0.34191623842927221 0 0.27543832275303448 0.34988028840297991 0 0.2684557314338783 0.34271033597269462 0 0.27644360280618341 0.34191623842927221 0 0.27543832275303448 0.34988028840297991 0 0.26895258987243392 0.3519619622574508 0 0.2684557314338783 0.34271033597269462 0 0.2618259464583832 0.36726095095448358 0 0.2684557314338783 0.34271033597269462 0 0.24521693247762111 0.35027114815259558 0 0.2618259464583832 0.36726095095448358 0 0.2684557314338783 0.34271033597269462 0 0.24305895760768401 0.36641304215893011 0 0.24521693247762111 0.35027114815259558 0 0.2618259464583832 0.36726095095448358 0 0.24490867605631639 0.32967072069511189 0 0.26050839607327853 0.32387463406168998 0 0.25114017462525878 0.31153615041935723 0 0.26050839607327853 0.32387463406168998 0 0.25114017462525878 0.31153615041935723 0 0.26342424027676908 0.31148804944983333 0 0.24490867605631639 0.32967072069511189 0 0.26050839607327853 0.32387463406168998 0 0.2684557314338783 0.34271033597269462 0 0.24490867605631639 0.32967072069511189 0 0.24521693247762111 0.35027114815259558 0 0.2684557314338783 0.34271033597269462 0 0.26050839607327853 0.32387463406168998 0 0.2684557314338783 0.34271033597269462 0 0.27508551640937329 0.31815972099090539 0 0.2684557314338783 0.34271033597269462 0 0.27508551640937329 0.31815972099090539 0 0.2684557314338783 0.34271033597269462 0 0.27787730485363338 0.33070420273373929 0 0.27508551640937329 0.31815972099090539 0 0.2684557314338783 0.34271033597269462 0 0.27644360280618341 0.34191623842927221 0 0.27787730485363338 0.33070420273373929 0 0.27644360280618341 0.34191623842927221 0 0.28036396902745148 0.33491142517978989 0 0.27787730485363338 0.33070420273373929 0 0.28036396902745148 0.33491142517978989 0 0.27787730485363338 0.33070420273373929 0 0.28036396902745148 0.33491142517978989 0 0.27787730485363338 0.33070420273373929 0 0.27508551640937329 0.31815972099090539 0 0.28036396902745148 0.33491142517978989 0 0.27508551640937329 0.31815972099090539 0 0.26050839607327853 0.32387463406168998 0 0.27508551640937329 0.31815972099090539 0 0.26342424027676908 0.31148804944983333 0 0.27584787744150779 0.31533663815394608 0 0.27508551640937329 0.31815972099090539 0 0.2839587577339367 0.31315639516335231 0 0.27584787744150779 0.31533663815394608 0 0.27508551640937329 0.31815972099090539 0 0.28036396902745148 0.33491142517978989 0 0.27508551640937329 0.31815972099090539 0 0.28884331716543121 0.32432796479040632 0 0.27508551640937329 0.31815972099090539 0 0.2839587577339367 0.31315639516335231 0 0.28884331716543121 0.32432796479040632 0 0.2839587577339367 0.31315639516335231 0 0.28884331716543121 0.32432796479040632 0 0.29436859405188742 0.31561290386725788 0 0.28884331716543121 0.32432796479040632 0 0.29436859405188742 0.31561290386725788 0 0.30372390616191358 0.32889084998335888 0 0.29106955940472562 0.3530243656434488 0 0.28036396902745148 0.33491142517978989 0 0.29374099595638509 0.3392252011883215 0 0.28036396902745148 0.33491142517978989 0 0.28884331716543121 0.32432796479040632 0 0.29374099595638509 0.3392252011883215 0 0.28884331716543121 0.32432796479040632 0 0.29374099595638509 0.3392252011883215 0 0.30372390616191358 0.32889084998335888 0 0.30274952797195698 0.35001407804523332 0 0.29374099595638509 0.3392252011883215 0 0.30372390616191358 0.32889084998335888 0 0.31445651652981632 0.33878768779705848 0 0.30274952797195698 0.35001407804523332 0 0.30372390616191358 0.32889084998335888 0 0.30274952797195698 0.35001407804523332 0 0.30372390616191358 0.32889084998335888 0 0.29436859405188742 0.31561290386725788 0 0.30372390616191358 0.32889084998335888 0 0.30469828435187041 0.30776762192148471 0 0.32122702449841589 0.32177081607522939 0 0.30372390616191358 0.32889084998335888 0 0.30469828435187041 0.30776762192148471 0 0.30372390616191358 0.32889084998335888 0 0.30469828435187041 0.30776762192148471 0 0.30469828435187041 0.30776762192148471 0 0.29887142377560671 0.29447355700322281 0 0.31975384086217118 0.29390073052843008 0 0.30469828435187041 0.30776762192148471 0 0.29887142377560671 0.29447355700322281 0 0.29061870484628499 0.30392168747768772 0 0.29887142377560671 0.29447355700322281 0 0.29803417524575498 0.27809430922643119 0 0.31975384086217118 0.29390073052843008 0 0.29887142377560671 0.29447355700322281 0 0.28125211357195179 0.28868343586208051 0 0.29803417524575498 0.27809430922643119 0 0.29887142377560671 0.29447355700322281 0 0.28125211357195179 0.28868343586208051 0 0.29061870484628499 0.30392168747768772 0 0.29436859405188742 0.31561290386725788 0 0.30469828435187041 0.30776762192148471 0 0.29061870484628499 0.30392168747768772 0 0.2839587577339367 0.31315639516335231 0 0.29436859405188742 0.31561290386725788 0 0.29061870484628499 0.30392168747768772 0 0.28125211357195179 0.28868343586208051 0 0.29061870484628499 0.30392168747768772 0 0.27979091010679558 0.3031930520058399 0 0.2839587577339367 0.31315639516335231 0 0.29061870484628499 0.30392168747768772 0 0.27979091010679558 0.3031930520058399 0 0.27584787744150779 0.31533663815394608 0 0.2839587577339367 0.31315639516335231 0 0.27979091010679558 0.3031930520058399 0 0.27584787744150779 0.31533663815394608 0 0.27979091010679558 0.3031930520058399 0 0.26696287399916629 0.2923816923273807 0 0.27508551640937329 0.31815972099090539 0 0.26696287399916629 0.2923816923273807 0 0.27508551640937329 0.31815972099090539 0 0.26696287399916629 0.2923816923273807 0 0.26342424027676908 0.31148804944983333 0 0.27584787744150779 0.31533663815394608 0 0.27508551640937329 0.31815972099090539 0 0.26696287399916629 0.2923816923273807 0 0.28125211357195179 0.28868343586208051 0 0.26696287399916629 0.2923816923273807 0 0.26185531842249993 0.2787869231154117 0 0.28125211357195179 0.28868343586208051 0 0.27979091010679558 0.3031930520058399 0 0.26696287399916629 0.2923816923273807 0 0.2454028482605469 0.29267792886045368 0 0.26696287399916629 0.2923816923273807 0 0.26185531842249993 0.2787869231154117 0 0.24818821145747599 0.27522177653690871 0 0.2454028482605469 0.29267792886045368 0 0.26185531842249993 0.2787869231154117 0 0.26696287399916629 0.2923816923273807 0 0.25114017462525878 0.31153615041935723 0 0.26342424027676908 0.31148804944983333 0 0.2454028482605469 0.29267792886045368 0 0.26696287399916629 0.2923816923273807 0 0.25114017462525878 0.31153615041935723 0 0.25404003316197471 0.25208422786308371 0 0.25530776412370298 0.26639583896058622 0 0.27103688063193948 0.26427270241964718 0 0.24090080429007341 0.26281353644332878 0 0.25404003316197471 0.25208422786308371 0 0.25530776412370298 0.26639583896058622 0 0.25530776412370298 0.26639583896058622 0 0.26185531842249993 0.2787869231154117 0 0.27103688063193948 0.26427270241964718 0 0.24818821145747599 0.27522177653690871 0 0.25530776412370298 0.26639583896058622 0 0.26185531842249993 0.2787869231154117 0 0.28125211357195179 0.28868343586208051 0 0.26185531842249993 0.2787869231154117 0 0.27103688063193948 0.26427270241964718 0 0.25404003316197471 0.25208422786308371 0 0.27103688063193948 0.26427270241964718 0 0.27355486584907379 0.24364475180805101 0 0.27103688063193948 0.26427270241964718 0 0.29692855903906679 0.25537037528416417 0 0.27355486584907379 0.24364475180805101 0 0.27103688063193948 0.26427270241964718 0 0.29803417524575498 0.27809430922643119 0 0.29692855903906679 0.25537037528416417 0 0.28125211357195179 0.28868343586208051 0 0.27103688063193948 0.26427270241964718 0 0.29803417524575498 0.27809430922643119 0 0.29803417524575498 0.27809430922643119 0 0.29692855903906679 0.25537037528416417 0 0.32239972953691409 0.26902358330948362 0 0.29692855903906679 0.25537037528416417 0 0.32239972953691409 0.26902358330948362 0 0.32448256229391081 0.244023600812113 0 0.34859232732963041 0.2656914204712259 0 0.32448256229391081 0.244023600812113 0 0.35052125483258301 0.2434514759103418 0 0.32239972953691409 0.26902358330948362 0 0.34859232732963041 0.2656914204712259 0 0.32448256229391081 0.244023600812113 0 0.32239972953691409 0.26902358330948362 0 0.34580587121379802 0.29027056413174801 0 0.34859232732963041 0.2656914204712259 0 0.32239972953691409 0.26902358330948362 0 0.34859232732963041 0.2656914204712259 0 0.29803417524575498 0.27809430922643119 0 0.32239972953691409 0.26902358330948362 0 0.31975384086217118 0.29390073052843008 0 0.32122702449841589 0.32177081607522939 0 0.30469828435187041 0.30776762192148471 0 0.31975384086217118 0.29390073052843008 0 0.32122702449841589 0.32177081607522939 0 0.31975384086217118 0.29390073052843008 0 0.33644502425256478 0.30910566618648461 0 0.31975384086217118 0.29390073052843008 0 0.33644502425256478 0.30910566618648461 0 0.34580587121379802 0.29027056413174801 0 0.32239972953691409 0.26902358330948362 0 0.31975384086217118 0.29390073052843008 0 0.34580587121379802 0.29027056413174801 0 0.34580587121379802 0.29027056413174801 0 0.35183379698966949 0.31056891257481539 0 0.36606901625265492 0.30223218437601618 0 0.33644502425256478 0.30910566618648461 0 0.34580587121379802 0.29027056413174801 0 0.35183379698966949 0.31056891257481539 0 0.36562923609293069 0.32366592916769399 0 0.35183379698966949 0.31056891257481539 0 0.36606901625265492 0.30223218437601618 0 0.36606901625265492 0.30223218437601618 0 0.37288852905391068 0.28307277276217568 0 0.38313639778678782 0.29894980138166888 0 0.34580587121379802 0.29027056413174801 0 0.36606901625265492 0.30223218437601618 0 0.37288852905391068 0.28307277276217568 0 0.37288852905391068 0.28307277276217568 0 0.37478492512234668 0.26235925763296819 0 0.34859232732963041 0.2656914204712259 0 0.37478492512234668 0.26235925763296819 0 0.34859232732963041 0.2656914204712259 0 0.37478492512234668 0.26235925763296819 0 0.34859232732963041 0.2656914204712259 0 0.35052125483258301 0.2434514759103418 0 0.34580587121379802 0.29027056413174801 0 0.37288852905391068 0.28307277276217568 0 0.34859232732963041 0.2656914204712259 0 0.40237095019481112 0.27711100542787093 0 0.40097752291506289 0.25902709479471048 0 0.38795285511664351 0.27501277358291848 0 0.40237095019481112 0.27711100542787093 0 0.38795285511664351 0.27501277358291848 0 0.39245341439736259 0.28869000139839213 0 0.37478492512234668 0.26235925763296819 0 0.40097752291506289 0.25902709479471048 0 0.37478492512234668 0.26235925763296819 0 0.40097752291506289 0.25902709479471048 0 0.38795285511664351 0.27501277358291848 0 0.37478492512234668 0.26235925763296819 0 0.40097752291506289 0.25902709479471048 0 0.39333580902427501 0.24081282939082621 0 0.37288852905391068 0.28307277276217568 0 0.37478492512234668 0.26235925763296819 0 0.38795285511664351 0.27501277358291848 0 0.37288852905391068 0.28307277276217568 0 0.38795285511664351 0.27501277358291848 0 0.39245341439736259 0.28869000139839213 0 0.37288852905391068 0.28307277276217568 0 0.38313639778678782 0.29894980138166888 0 0.39245341439736259 0.28869000139839213 0 0.38313639778678782 0.29894980138166888 0 0.40184121301557668 0.30678024061641418 0 0.38242981621443428 0.31397380775534678 0 0.36606901625265492 0.30223218437601618 0 0.38313639778678782 0.29894980138166888 0 0.38242981621443428 0.31397380775534678 0 0.38313639778678782 0.29894980138166888 0 0.40184121301557668 0.30678024061641418 0 0.39245341439736259 0.28869000139839213 0 0.40184121301557668 0.30678024061641418 0 0.39245341439736259 0.28869000139839213 0 0.4080647950624654 0.29173952990842672 0 0.40237095019481112 0.27711100542787093 0 0.39245341439736259 0.28869000139839213 0 0.4080647950624654 0.29173952990842672 0 0.4080647950624654 0.29173952990842672 0 0.42111158276914429 0.29961990628964941 0 0.41801819212357011 0.2740782959756311 0 0.42111158276914429 0.29961990628964941 0 0.41801819212357011 0.2740782959756311 0 0.42111158276914429 0.29961990628964941 0 0.41431845905081632 0.31211616404088999 0 0.42420497341471841 0.32516151660366771 0 0.40184121301557668 0.30678024061641418 0 0.41169384258873692 0.3030193229363472 0 0.41431845905081632 0.31211616404088999 0 0.4080647950624654 0.29173952990842672 0 0.41169384258873692 0.3030193229363472 0 0.42111158276914429 0.29961990628964941 0 0.40184121301557668 0.30678024061641418 0 0.4080647950624654 0.29173952990842672 0 0.41169384258873692 0.3030193229363472 0 0.41169384258873692 0.3030193229363472 0 0.42111158276914429 0.29961990628964941 0 0.41431845905081632 0.31211616404088999 0 0.42111158276914429 0.29961990628964941 0 0.42420497341471841 0.32516151660366771 0 0.42111158276914429 0.29961990628964941 0 0.42968026012840121 0.30115694743242971 0 0.43130474666914309 0.31304161877190062 0 0.42968026012840121 0.30115694743242971 0 0.44258646999382029 0.30990113159980692 0 0.42968026012840121 0.30115694743242971 0 0.44258646999382029 0.30990113159980692 0 0.43130474666914309 0.31304161877190062 0 0.42111158276914429 0.29961990628964941 0 0.42800801910193731 0.28582653817902792 0 0.41801819212357011 0.2740782959756311 0 0.42968026012840121 0.30115694743242971 0 0.42800801910193731 0.28582653817902792 0 0.44797459424715858 0.28113195035900113 0 0.42111158276914429 0.29961990628964941 0 0.42968026012840121 0.30115694743242971 0 0.42800801910193731 0.28582653817902792 0 0.4349067289361882 0.26981889711766149 0 0.41801819212357011 0.2740782959756311 0 0.42717012070777932 0.25569493195645271 0 0.42800801910193731 0.28582653817902792 0 0.4349067289361882 0.26981889711766149 0 0.44797459424715858 0.28113195035900113 0 0.42800801910193731 0.28582653817902792 0 0.4349067289361882 0.26981889711766149 0 0.41801819212357011 0.2740782959756311 0 0.40237095019481112 0.27711100542787093 0 0.4080647950624654 0.29173952990842672 0 0.41801819212357011 0.2740782959756311 0 0.40237095019481112 0.27711100542787093 0 0.40097752291506289 0.25902709479471048 0 0.41801819212357011 0.2740782959756311 0 0.40097752291506289 0.25902709479471048 0 0.42717012070777932 0.25569493195645271 0 0.40097752291506289 0.25902709479471048 0 0.41801819212357011 0.2740782959756311 0 0.42717012070777932 0.25569493195645271 0 0.40097752291506289 0.25902709479471048 0 0.42717012070777932 0.25569493195645271 0 0.41286841049430861 0.24788583003777651 0 0.42717012070777932 0.25569493195645271 0 0.45336271850049548 0.25236276911819511 0 0.42717012070777932 0.25569493195645271 0 0.45336271850049548 0.25236276911819511 0 0.44134696414428898 0.24814556957704689 0 0.4349067289361882 0.26981889711766149 0 0.42717012070777932 0.25569493195645271 0 0.45336271850049548 0.25236276911819511 0 0.44797459424715858 0.28113195035900113 0 0.45336271850049548 0.25236276911819511 0 0.4349067289361882 0.26981889711766149 0 0.44797459424715858 0.28113195035900113 0 0.45336271850049548 0.25236276911819511 0 0.44797459424715858 0.28113195035900113 0 0.46860043072286323 0.26090172283992602 0 0.47518926652314969 0.27560515809727743 0 0.44797459424715858 0.28113195035900113 0 0.45336271850049548 0.25236276911819511 0 0.46860043072286323 0.26090172283992602 0 0.45336271850049548 0.25236276911819511 0 0.46860043072286323 0.26090172283992602 0 0.48180965237011408 0.2487438147612096 0 0.45336271850049548 0.25236276911819511 0 0.48180965237011408 0.2487438147612096 0 0.46860043072286323 0.26090172283992602 0 0.48241006781490819 0.26268970127635521 0 0.48180965237011408 0.2487438147612096 0 0.46860043072286323 0.26090172283992602 0 0.48241006781490819 0.26268970127635521 0 0.47518926652314969 0.27560515809727743 0 0.48241006781490819 0.26268970127635521 0 0.47518926652314969 0.27560515809727743 0 0.48864569132575902 0.27555399191102209 0 0.48864569132575902 0.27555399191102209 0 0.5 0.25788891558126559 0 0.5 0.28784398070901179 0 0.48241006781490819 0.26268970127635521 0 0.5 0.25788891558126559 0 0.48180965237011408 0.2487438147612096 0 0.48241006781490819 0.26268970127635521 0 0.48864569132575902 0.27555399191102209 0 0.5 0.25788891558126559 0 0.49687855588093471 0.30562269631142192 0 0.5 0.28784398070901179 0 0.5 0.31779904583675789 0 0.48491490847636098 0.30901068293115042 0 0.49687855588093471 0.30562269631142192 0 0.48562912229073679 0.29374220389120048 0 0.48491490847636098 0.30901068293115042 0 0.49687855588093471 0.30562269631142192 0 0.48893996521802741 0.32077530068026477 0 0.48864569132575902 0.27555399191102209 0 0.5 0.28784398070901179 0 0.48562912229073679 0.29374220389120048 0 0.49687855588093471 0.30562269631142192 0 0.5 0.28784398070901179 0 0.48562912229073679 0.29374220389120048 0 0.47518926652314969 0.27560515809727743 0 0.48864569132575902 0.27555399191102209 0 0.48562912229073679 0.29374220389120048 0 0.47518926652314969 0.27560515809727743 0 0.48562912229073679 0.29374220389120048 0 0.46816558308298489 0.29083511245767268 0 0.48562912229073679 0.29374220389120048 0 0.47222103054853309 0.30536857664361422 0 0.46816558308298489 0.29083511245767268 0 0.48491490847636098 0.30901068293115042 0 0.48562912229073679 0.29374220389120048 0 0.47222103054853309 0.30536857664361422 0 0.48491490847636098 0.30901068293115042 0 0.47222103054853309 0.30536857664361422 0 0.47648252662976798 0.31886183994020412 0 0.47222103054853309 0.30536857664361422 0 0.45866337291811637 0.30169365927876157 0 0.46179392227446953 0.32291451832445861 0 0.45866337291811637 0.30169365927876157 0 0.44258646999382029 0.30990113159980692 0 0.46179392227446953 0.32291451832445861 0 0.47222103054853309 0.30536857664361422 0 0.45866337291811637 0.30169365927876157 0 0.46816558308298489 0.29083511245767268 0 0.44797459424715858 0.28113195035900113 0 0.45866337291811637 0.30169365927876157 0 0.46816558308298489 0.29083511245767268 0 0.44797459424715858 0.28113195035900113 0 0.47518926652314969 0.27560515809727743 0 0.46816558308298489 0.29083511245767268 0 0.44797459424715858 0.28113195035900113 0 0.44258646999382029 0.30990113159980692 0 0.42968026012840121 0.30115694743242971 0 0.44797459424715858 0.28113195035900113 0 0.44258646999382029 0.30990113159980692 0 0.44797459424715858 0.28113195035900113 0 0.45866337291811637 0.30169365927876157 0 0.44258646999382029 0.30990113159980692 0 0.44258646999382029 0.30990113159980692 0 0.46179392227446953 0.32291451832445861 0 0.44258646999382029 0.30990113159980692 0 0.43894044703962998 0.32936859193394902 0 0.46179392227446953 0.32291451832445861 0 0.44258646999382029 0.30990113159980692 0 0.43894044703962998 0.32936859193394902 0 0.44258646999382029 0.30990113159980692 0 0.43894044703962998 0.32936859193394902 0 0.43130474666914309 0.31304161877190062 0 0.43894044703962998 0.32936859193394902 0 0.45181909328986353 0.33594590439129729 0 0.43529442408543872 0.34883605226809089 0 0.43894044703962998 0.32936859193394902 0 0.45181909328986353 0.33594590439129729 0 0.46179392227446953 0.32291451832445861 0 0.45181909328986353 0.33594590439129729 0 0.46495921083649527 0.33796731498031379 0 0.45493863887308472 0.34850758154427958 0 0.45181909328986353 0.33594590439129729 0 0.46495921083649527 0.33796731498031379 0 0.46179392227446953 0.32291451832445861 0 0.47648252662976798 0.31886183994020412 0 0.48100137455512032 0.33592790504910791 0 0.48893996521802741 0.32077530068026477 0 0.46179392227446953 0.32291451832445861 0 0.47648252662976798 0.31886183994020412 0 0.48100137455512032 0.33592790504910791 0 0.47222103054853309 0.30536857664361422 0 0.46179392227446953 0.32291451832445861 0 0.47648252662976798 0.31886183994020412 0 0.48491490847636098 0.30901068293115042 0 0.47648252662976798 0.31886183994020412 0 0.48893996521802741 0.32077530068026477 0 0.46179392227446953 0.32291451832445861 0 0.48100137455512032 0.33592790504910791 0 0.46495921083649527 0.33796731498031379 0 0.48100137455512032 0.33592790504910791 0 0.47458285366073072 0.34817911082046721 0 0.46495921083649527 0.33796731498031379 0 0.46179392227446953 0.32291451832445861 0 0.48100137455512032 0.33592790504910791 0 0.48100137455512032 0.33592790504910791 0 0.47458285366073072 0.34817911082046721 0 0.48100137455512032 0.33592790504910791 0 0.48893996521802741 0.32077530068026477 0 0.48100137455512032 0.33592790504910791 0 0.4984937498586452 0.34777929695842291 0 0.5 0.31779904583675789 0 0.48893996521802741 0.32077530068026477 0 0.4984937498586452 0.34777929695842291 0 0.5 0.31779904583675789 0 0.4984937498586452 0.34777929695842291 0 0.50000000000000433 0.34775411096450393 0 0.48100137455512032 0.33592790504910791 0 0.48893996521802741 0.32077530068026477 0 0.4984937498586452 0.34777929695842291 0 0.49687855588093471 0.30562269631142192 0 0.48893996521802741 0.32077530068026477 0 0.49687855588093471 0.30562269631142192 0 0.5 0.31779904583675789 0 0.48893996521802741 0.32077530068026477 0 0.5 0.37175840028027313 0 0.48688174284785979 0.35971936811564431 0 0.50000000000000433 0.34775411096450393 0 0.5 0.37175840028027313 0 0.48688174284785979 0.35971936811564431 0 0.48177296974371542 0.3780796821533936 0 0.48100137455512032 0.33592790504910791 0 0.4984937498586452 0.34777929695842291 0 0.47458285366073072 0.34817911082046721 0 0.48688174284785979 0.35971936811564431 0 0.4984937498586452 0.34777929695842291 0 0.47458285366073072 0.34817911082046721 0 0.48688174284785979 0.35971936811564431 0 0.4984937498586452 0.34777929695842291 0 0.50000000000000433 0.34775411096450393 0 0.4984937498586452 0.34777929695842291 0 0.47458285366073072 0.34817911082046721 0 0.4984937498586452 0.34777929695842291 0 0.50000000000000433 0.34775411096450393 0 0.48688174284785979 0.35971936811564431 0 0.47458285366073072 0.34817911082046721 0 0.46644088382406917 0.36371991056145853 0 0.47458285366073072 0.34817911082046721 0 0.46644088382406917 0.36371991056145853 0 0.46644088382406917 0.36371991056145853 0 0.45829891398740957 0.37926071030245079 0 0.48177296974371542 0.3780796821533936 0 0.48688174284785979 0.35971936811564431 0 0.46644088382406917 0.36371991056145853 0 0.48177296974371542 0.3780796821533936 0 0.46644088382406917 0.36371991056145853 0 0.45829891398740957 0.37926071030245079 0 0.46644088382406917 0.36371991056145853 0 0.45450488254489102 0.36219879314378839 0 0.45829891398740957 0.37926071030245079 0 0.46495921083649527 0.33796731498031379 0 0.47458285366073072 0.34817911082046721 0 0.45493863887308472 0.34850758154427958 0 0.47458285366073072 0.34817911082046721 0 0.45493863887308472 0.34850758154427958 0 0.47458285366073072 0.34817911082046721 0 0.46644088382406917 0.36371991056145853 0 0.45493863887308472 0.34850758154427958 0 0.46644088382406917 0.36371991056145853 0 0.45450488254489102 0.36219879314378839 0 0.45493863887308472 0.34850758154427958 0 0.45181909328986353 0.33594590439129729 0 0.45493863887308472 0.34850758154427958 0 0.43529442408543872 0.34883605226809089 0 0.45493863887308472 0.34850758154427958 0 0.44448268479035308 0.35511800724889642 0 0.43529442408543872 0.34883605226809089 0 0.45493863887308472 0.34850758154427958 0 0.43529442408543872 0.34883605226809089 0 0.45450488254489102 0.36219879314378839 0 0.45493863887308472 0.34850758154427958 0 0.44448268479035308 0.35511800724889642 0 0.44448268479035308 0.35511800724889642 0 0.44279863902385319 0.36498191861006751 0 0.43487683942449812 0.35106569067825599 0 0.44448268479035308 0.35511800724889642 0 0.43529442408543872 0.34883605226809089 0 0.43487683942449812 0.35106569067825599 0 0.45450488254489102 0.36219879314378839 0 0.44279863902385319 0.36498191861006751 0 0.45829891398740957 0.37926071030245079 0 0.44279863902385319 0.36498191861006751 0 0.45829891398740957 0.37926071030245079 0 0.45450488254489102 0.36219879314378839 0 0.44448268479035308 0.35511800724889642 0 0.44279863902385319 0.36498191861006751 0 0.42892444364691579 0.3641293946929936 0 0.42225433889660879 0.37545697575276449 0 0.43605286711449009 0.38080977408974359 0 0.44279863902385319 0.36498191861006751 0 0.42892444364691579 0.3641293946929936 0 0.43605286711449009 0.38080977408974359 0 0.44279863902385319 0.36498191861006751 0 0.42892444364691579 0.3641293946929936 0 0.42729836406029548 0.35070312691768563 0 0.42892444364691579 0.3641293946929936 0 0.41660844069210962 0.35988002802349189 0 0.42225433889660879 0.37545697575276449 0 0.41660844069210962 0.35988002802349189 0 0.40918213701441342 0.3736144609854074 0 0.42225433889660879 0.37545697575276449 0 0.41660844069210962 0.35988002802349189 0 0.40918213701441342 0.3736144609854074 0 0.40205795884979889 0.36380219258680641 0 0.40642652845595439 0.35168475710611302 0 0.41593005466970517 0.35003896004439389 0 0.41338688547046137 0.33788792813028518 0 0.41660844069210962 0.35988002802349189 0 0.40642652845595439 0.35168475710611302 0 0.40205795884979889 0.36380219258680641 0 0.41660844069210962 0.35988002802349189 0 0.40642652845595439 0.35168475710611302 0 0.41593005466970517 0.35003896004439389 0 0.41660844069210962 0.35988002802349189 0 0.41593005466970517 0.35003896004439389 0 0.42729836406029548 0.35070312691768563 0 0.42729836406029548 0.35070312691768563 0 0.41338688547046137 0.33788792813028518 0 0.41593005466970517 0.35003896004439389 0 0.42729836406029548 0.35070312691768563 0 0.41338688547046137 0.33788792813028518 0 0.42892444364691579 0.3641293946929936 0 0.41660844069210962 0.35988002802349189 0 0.42729836406029548 0.35070312691768563 0 0.42892444364691579 0.3641293946929936 0 0.42729836406029548 0.35070312691768563 0 0.44279863902385319 0.36498191861006751 0 0.42729836406029548 0.35070312691768563 0 0.43487683942449812 0.35106569067825599 0 0.44279863902385319 0.36498191861006751 0 0.42729836406029548 0.35070312691768563 0 0.43109136567724748 0.3489063315667284 0 0.43529442408543872 0.34883605226809089 0 0.42729836406029548 0.35070312691768563 0 0.43109136567724748 0.3489063315667284 0 0.43487683942449812 0.35106569067825599 0 0.43109136567724748 0.3489063315667284 0 0.43529442408543872 0.34883605226809089 0 0.43487683942449812 0.35106569067825599 0 0.43529442408543872 0.34883605226809089 0 0.43487683942449812 0.35106569067825599 0 0.42729836406029548 0.35070312691768563 0 0.42420497341471841 0.32516151660366771 0 0.43894044703962998 0.32936859193394902 0 0.43529442408543872 0.34883605226809089 0 0.43894044703962998 0.32936859193394902 0 0.43109136567724748 0.3489063315667284 0 0.43529442408543872 0.34883605226809089 0 0.42729836406029548 0.35070312691768563 0 0.43109136567724748 0.3489063315667284 0 0.42420497341471841 0.32516151660366771 0 0.43894044703962998 0.32936859193394902 0 0.43109136567724748 0.3489063315667284 0 0.42420497341471841 0.32516151660366771 0 0.43894044703962998 0.32936859193394902 0 0.43130474666914309 0.31304161877190062 0 0.42420497341471841 0.32516151660366771 0 0.42111158276914429 0.29961990628964941 0 0.43130474666914309 0.31304161877190062 0 0.42420497341471841 0.32516151660366771 0 0.40184121301557668 0.30678024061641418 0 0.41431845905081632 0.31211616404088999 0 0.41140534993910638 0.32360132811636988 0 0.41431845905081632 0.31211616404088999 0 0.42420497341471841 0.32516151660366771 0 0.41140534993910638 0.32360132811636988 0 0.42729836406029548 0.35070312691768563 0 0.42420497341471841 0.32516151660366771 0 0.41338688547046137 0.33788792813028518 0 0.42420497341471841 0.32516151660366771 0 0.41140534993910638 0.32360132811636988 0 0.41338688547046137 0.33788792813028518 0 0.41140534993910638 0.32360132811636988 0 0.41338688547046137 0.33788792813028518 0 0.39947540688062583 0.32507272934288628 0 0.41338688547046137 0.33788792813028518 0 0.39947540688062583 0.32507272934288628 0 0.40642652845595439 0.35168475710611302 0 0.41338688547046137 0.33788792813028518 0 0.39105145014164849 0.3414869239971704 0 0.41338688547046137 0.33788792813028518 0 0.39105145014164849 0.3414869239971704 0 0.39947540688062583 0.32507272934288628 0 0.40184121301557668 0.30678024061641418 0 0.41140534993910638 0.32360132811636988 0 0.39947540688062583 0.32507272934288628 0 0.40184121301557668 0.30678024061641418 0 0.39947540688062583 0.32507272934288628 0 0.38242981621443428 0.31397380775534678 0 0.36562923609293069 0.32366592916769399 0 0.38242981621443428 0.31397380775534678 0 0.38128435600444488 0.32837669887387311 0 0.39947540688062583 0.32507272934288628 0 0.38242981621443428 0.31397380775534678 0 0.38128435600444488 0.32837669887387311 0 0.39105145014164849 0.3414869239971704 0 0.39947540688062583 0.32507272934288628 0 0.38128435600444488 0.32837669887387311 0 0.36518945593320651 0.34509967395937191 0 0.39105145014164849 0.3414869239971704 0 0.38128435600444488 0.32837669887387311 0 0.36518945593320651 0.34509967395937191 0 0.39105145014164849 0.3414869239971704 0 0.3855881021147175 0.35910908792858098 0 0.36474967577348072 0.36653341875104961 0 0.3855881021147175 0.35910908792858098 0 0.3855881021147175 0.35910908792858098 0 0.39248458597179969 0.37472262889043839 0 0.3773824667175657 0.37546563606013739 0 0.36474967577348072 0.36653341875104961 0 0.3855881021147175 0.35910908792858098 0 0.3773824667175657 0.37546563606013739 0 0.40918213701441342 0.3736144609854074 0 0.39248458597179969 0.37472262889043839 0 0.40205795884979889 0.36380219258680641 0 0.3855881021147175 0.35910908792858098 0 0.39248458597179969 0.37472262889043839 0 0.40205795884979889 0.36380219258680641 0 0.40642652845595439 0.35168475710611302 0 0.39105145014164849 0.3414869239971704 0 0.3855881021147175 0.35910908792858098 0 0.40642652845595439 0.35168475710611302 0 0.3855881021147175 0.35910908792858098 0 0.40642652845595439 0.35168475710611302 0 0.3855881021147175 0.35910908792858098 0 0.40205795884979889 0.36380219258680641 0 0.39221066862400811 0.40518894945558848 0 0.39940032860097008 0.38986983405391068 0 0.41033309730305728 0.40785957742124029 0 0.40918213701441342 0.3736144609854074 0 0.39248458597179969 0.37472262889043839 0 0.39940032860097008 0.38986983405391068 0 0.39248458597179969 0.37472262889043839 0 0.39940032860097008 0.38986983405391068 0 0.38026367080056678 0.39066664182047522 0 0.39248458597179969 0.37472262889043839 0 0.3773824667175657 0.37546563606013739 0 0.38026367080056678 0.39066664182047522 0 0.39221066862400811 0.40518894945558848 0 0.39940032860097008 0.38986983405391068 0 0.38026367080056678 0.39066664182047522 0 0.39221066862400811 0.40518894945558848 0 0.38026367080056678 0.39066664182047522 0 0.37744029411777058 0.41252948965876268 0 0.39221066862400811 0.40518894945558848 0 0.37744029411777058 0.41252948965876268 0 0.39361595229767549 0.42501920432355378 0 0.365542703577178 0.42914551292816783 0 0.39361595229767549 0.42501920432355378 0 0.37809165231809289 0.44568724501072521 0 0.365542703577178 0.42914551292816783 0 0.37744029411777058 0.41252948965876268 0 0.39361595229767549 0.42501920432355378 0 0.365542703577178 0.42914551292816783 0 0.39361595229767549 0.42501920432355378 0 0.39361595229767549 0.42501920432355378 0 0.41035062152962531 0.4256058815429955 0 0.40092741287151468 0.44093224530230651 0 0.39361595229767549 0.42501920432355378 0 0.40092741287151468 0.44093224530230651 0 0.37809165231809289 0.44568724501072521 0 0.39361595229767549 0.42501920432355378 0 0.41033309730305728 0.40785957742124029 0 0.41035062152962531 0.4256058815429955 0 0.39221066862400811 0.40518894945558848 0 0.39361595229767549 0.42501920432355378 0 0.41033309730305728 0.40785957742124029 0 0.41033309730305728 0.40785957742124029 0 0.41035062152962531 0.4256058815429955 0 0.42646345733135449 0.42088686527347441 0 0.41035062152962531 0.4256058815429955 0 0.4216403136361262 0.43569606407888728 0 0.42646345733135449 0.42088686527347441 0 0.41035062152962531 0.4256058815429955 0 0.4216403136361262 0.43569606407888728 0 0.40092741287151468 0.44093224530230651 0 0.43504649219903713 0.43385430946487219 0 0.42646345733135449 0.42088686527347441 0 0.44292677264660579 0.42392515796168401 0 0.4216403136361262 0.43569606407888728 0 0.43504649219903713 0.43385430946487219 0 0.42646345733135449 0.42088686527347441 0 0.4216403136361262 0.43569606407888728 0 0.43504649219903713 0.43385430946487219 0 0.4309855774719657 0.44262377444488737 0 0.41033309730305728 0.40785957742124029 0 0.42646345733135449 0.42088686527347441 0 0.43473852811684172 0.40482082561786309 0 0.42646345733135449 0.42088686527347441 0 0.43473852811684172 0.40482082561786309 0 0.44292677264660579 0.42392515796168401 0 0.43473852811684172 0.40482082561786309 0 0.42003555557297712 0.38799376876492359 0 0.43605286711449009 0.38080977408974359 0 0.41033309730305728 0.40785957742124029 0 0.43473852811684172 0.40482082561786309 0 0.42003555557297712 0.38799376876492359 0 0.39940032860097008 0.38986983405391068 0 0.41033309730305728 0.40785957742124029 0 0.42003555557297712 0.38799376876492359 0 0.40918213701441342 0.3736144609854074 0 0.39940032860097008 0.38986983405391068 0 0.42003555557297712 0.38799376876492359 0 0.40918213701441342 0.3736144609854074 0 0.42003555557297712 0.38799376876492359 0 0.42225433889660879 0.37545697575276449 0 0.42003555557297712 0.38799376876492359 0 0.42225433889660879 0.37545697575276449 0 0.43605286711449009 0.38080977408974359 0 0.44279863902385319 0.36498191861006751 0 0.43605286711449009 0.38080977408974359 0 0.45829891398740957 0.37926071030245079 0 0.43605286711449009 0.38080977408974359 0 0.44916269767969552 0.39669925538146661 0 0.45829891398740957 0.37926071030245079 0 0.43473852811684172 0.40482082561786309 0 0.43605286711449009 0.38080977408974359 0 0.44916269767969552 0.39669925538146661 0 0.43473852811684172 0.40482082561786309 0 0.44916269767969552 0.39669925538146661 0 0.45819524916971172 0.41557138043250991 0 0.44916269767969552 0.39669925538146661 0 0.47914945699370431 0.3984681476517854 0 0.45819524916971172 0.41557138043250991 0 0.44916269767969552 0.39669925538146661 0 0.45829891398740957 0.37926071030245079 0 0.47914945699370431 0.3984681476517854 0 0.45829891398740957 0.37926071030245079 0 0.47914945699370431 0.3984681476517854 0 0.44916269767969552 0.39669925538146661 0 0.45829891398740957 0.37926071030245079 0 0.45829891398740957 0.37926071030245079 0 0.48177296974371542 0.3780796821533936 0 0.47914945699370431 0.3984681476517854 0 0.47914945699370431 0.3984681476517854 0 0.5 0.39471699264069632 0 0.49999999999999928 0.41767558500111929 0 0.48177296974371542 0.3780796821533936 0 0.47914945699370431 0.3984681476517854 0 0.5 0.39471699264069632 0 0.5 0.37175840028027313 0 0.48177296974371542 0.3780796821533936 0 0.5 0.39471699264069632 0 0.48950419912568011 0.43203648207583117 0 0.49999999999999928 0.41767558500111929 0 0.47941257652712138 0.42859526255965119 0 0.48950419912568011 0.43203648207583117 0 0.49999999999999928 0.41767558500111929 0 0.50000000000000022 0.44212157098762489 0 0.49999999999999928 0.41767558500111929 0 0.47638758820359789 0.4177788365799131 0 0.47941257652712138 0.42859526255965119 0 0.47914945699370431 0.3984681476517854 0 0.49999999999999928 0.41767558500111929 0 0.47638758820359789 0.4177788365799131 0 0.47914945699370431 0.3984681476517854 0 0.49999999999999928 0.41767558500111929 0 0.47914945699370431 0.3984681476517854 0 0.47638758820359789 0.4177788365799131 0 0.45819524916971172 0.41557138043250991 0 0.47638758820359789 0.4177788365799131 0 0.46959145424244531 0.42892785421681912 0 0.47941257652712138 0.42859526255965119 0 0.48950419912568011 0.43203648207583117 0 0.47941257652712138 0.42859526255965119 0 0.47860421997559988 0.43975350975492877 0 0.46959145424244531 0.42892785421681912 0 0.47941257652712138 0.42859526255965119 0 0.47860421997559988 0.43975350975492877 0 0.46959145424244531 0.42892785421681912 0 0.45720843995119947 0.43738544852223271 0 0.45819524916971172 0.41557138043250991 0 0.46959145424244531 0.42892785421681912 0 0.45720843995119947 0.43738544852223271 0 0.47860421997559988 0.43975350975492877 0 0.47638758820359789 0.4177788365799131 0 0.46959145424244531 0.42892785421681912 0 0.45819524916971172 0.41557138043250991 0 0.43473852811684172 0.40482082561786309 0 0.45819524916971172 0.41557138043250991 0 0.44292677264660579 0.42392515796168401 0 0.45720843995119947 0.43738544852223271 0 0.45819524916971172 0.41557138043250991 0 0.44292677264660579 0.42392515796168401 0 0.45720843995119947 0.43738544852223271 0 0.44292677264660579 0.42392515796168401 0 0.44501475256406542 0.43710487641451851 0 0.43504649219903713 0.43385430946487219 0 0.44292677264660579 0.42392515796168401 0 0.44501475256406542 0.43710487641451851 0 0.44501475256406542 0.43710487641451851 0 0.44086930591740259 0.443703986550611 0 0.44426520485267701 0.44828521544284999 0 0.43504649219903713 0.43385430946487219 0 0.44501475256406542 0.43710487641451851 0 0.44086930591740259 0.443703986550611 0 0.44576605402647751 0.45131382091928901 0 0.43097115028835131 0.45382894378787952 0 0.4371491165808723 0.44919465112914592 0 0.44086930591740259 0.443703986550611 0 0.44106718496795649 0.44783878756079798 0 0.4371491165808723 0.44919465112914592 0 0.44106718496795649 0.44783878756079798 0 0.44576605402647751 0.45131382091928901 0 0.4371491165808723 0.44919465112914592 0 0.44086930591740259 0.443703986550611 0 0.44426520485267701 0.44828521544284999 0 0.44106718496795649 0.44783878756079798 0 0.44426520485267701 0.44828521544284999 0 0.44576605402647751 0.45131382091928901 0 0.44086930591740259 0.443703986550611 0 0.44106718496795649 0.44783878756079798 0 0.44426520485267701 0.44828521544284999 0 0.45720843995119947 0.43738544852223271 0 0.44501475256406542 0.43710487641451851 0 0.44426520485267701 0.44828521544284999 0 0.44576605402647751 0.45131382091928901 0 0.44334270512280699 0.46695283516179431 0 0.45751300038554987 0.46615712058798953 0 0.44426520485267701 0.44828521544284999 0 0.45751300038554987 0.46615712058798953 0 0.44576605402647751 0.45131382091928901 0 0.44334270512280699 0.46695283516179431 0 0.42744619309891668 0.4675425472795256 0 0.44426520485267701 0.44828521544284999 0 0.44576605402647751 0.45131382091928901 0 0.45751300038554987 0.46615712058798953 0 0.44426520485267701 0.44828521544284999 0 0.45751300038554987 0.46615712058798953 0 0.47213260242633898 0.44992772785007767 0 0.44426520485267701 0.44828521544284999 0 0.47213260242633898 0.44992772785007767 0 0.45720843995119947 0.43738544852223271 0 0.47860421997559988 0.43975350975492877 0 0.45720843995119947 0.43738544852223271 0 0.44426520485267701 0.44828521544284999 0 0.47213260242633898 0.44992772785007767 0 0.47213260242633898 0.44992772785007767 0 0.47860421997559988 0.43975350975492877 0 0.50000000000000067 0.45157024025730719 0 0.45720843995119947 0.43738544852223271 0 0.47213260242633898 0.44992772785007767 0 0.47860421997559988 0.43975350975492877 0 0.47213260242633898 0.44992772785007767 0 0.48064266697128027 0.4673483066551633 0 0.50000000000000067 0.45157024025730719 0 0.45751300038554987 0.46615712058798953 0 0.47213260242633898 0.44992772785007767 0 0.48064266697128027 0.4673483066551633 0 0.48064266697128027 0.4673483066551633 0 0.5 0.46843982966384828 0 0.50000000000000067 0.45157024025730719 0 0.47860421997559988 0.43975350975492877 0 0.50000000000000022 0.44212157098762489 0 0.47860421997559988 0.43975350975492877 0 0.50000000000000067 0.45157024025730719 0 0.50000000000000022 0.44212157098762489 0 0.47213260242633898 0.44992772785007767 0 0.50000000000000067 0.45157024025730719 0 0.48950419912568011 0.43203648207583117 0 0.47860421997559988 0.43975350975492877 0 0.50000000000000022 0.44212157098762489 0 0.48834007405180069 0.49233461120087918 0 0.50000000000000222 0.48530941907038949 0 0.47076079591842229 0.48402902573312923 0 0.48834007405180069 0.49233461120087918 0 0.5 0.5 0 0.48259950028877657 0.49999999999999922 0 0.50000000000000222 0.48530941907038949 0 0.47076079591842229 0.48402902573312923 0 0.48834007405180069 0.49233461120087918 0 0.5 0.5 0 0.50000000000000222 0.48530941907038949 0 0.50000000000000222 0.48530941907038949 0 0.48785086572242647 0.47628164528063233 0 0.47076079591842229 0.48402902573312923 0 0.48064266697128027 0.4673483066551633 0 0.5 0.46843982966384828 0 0.48785086572242647 0.47628164528063233 0 0.5 0.46843982966384828 0 0.50000000000000222 0.48530941907038949 0 0.48785086572242647 0.47628164528063233 0 0.45751300038554987 0.46615712058798953 0 0.48064266697128027 0.4673483066551633 0 0.47076079591842229 0.48402902573312923 0 0.48064266697128027 0.4673483066551633 0 0.48785086572242647 0.47628164528063233 0 0.47076079591842229 0.48402902573312923 0 0.47076079591842229 0.48402902573312923 0 0.48259950028877657 0.49999999999999922 0 0.45965124302753141 0.5 0 0.48834007405180069 0.49233461120087918 0 0.47076079591842229 0.48402902573312923 0 0.48259950028877657 0.49999999999999922 0 0.47076079591842229 0.48402902573312923 0 0.48259950028877657 0.49999999999999922 0 0.47076079591842229 0.48402902573312923 0 0.45965124302753141 0.5 0 0.44264557298028417 0.48279785186037327 0 0.45751300038554987 0.46615712058798953 0 0.47076079591842229 0.48402902573312923 0 0.47076079591842229 0.48402902573312923 0 0.44264557298028417 0.48279785186037327 0 0.45751300038554987 0.46615712058798953 0 0.47076079591842229 0.48402902573312923 0 0.44264557298028417 0.48279785186037327 0 0.44334270512280699 0.46695283516179431 0 0.44264557298028417 0.48279785186037327 0 0.42744619309891668 0.4675425472795256 0 0.44334270512280699 0.46695283516179431 0 0.45751300038554987 0.46615712058798953 0 0.44264557298028417 0.48279785186037327 0 0.45965124302753141 0.5 0 0.44264557298028417 0.48279785186037327 0 0.43670298576628619 0.5 0 0.44264557298028417 0.48279785186037327 0 0.42814010978677508 0.48883471415535268 0 0.41453035004214622 0.48156667798761449 0 0.43670298576628619 0.5 0 0.42814010978677508 0.48883471415535268 0 0.41868153035838401 0.49097432677342312 0 0.44264557298028417 0.48279785186037327 0 0.43670298576628619 0.5 0 0.42814010978677508 0.48883471415535268 0 0.43670298576628619 0.5 0 0.41375472850504103 0.5 0 0.41868153035838401 0.49097432677342312 0 0.41375472850504103 0.5 0 0.41868153035838401 0.49097432677342312 0 0.40912633217135602 0.48377127363976219 0 0.42814010978677508 0.48883471415535268 0 0.41868153035838401 0.49097432677342312 0 0.41453035004214622 0.48156667798761449 0 0.41868153035838401 0.49097432677342312 0 0.40912633217135602 0.48377127363976219 0 0.41453035004214622 0.48156667798761449 0 0.40882198151684829 0.470458307354371 0 0.40912633217135602 0.48377127363976219 0 0.42744619309891668 0.4675425472795256 0 0.40912633217135602 0.48377127363976219 0 0.42744619309891668 0.4675425472795256 0 0.40912633217135602 0.48377127363976219 0 0.41453035004214622 0.48156667798761449 0 0.42744619309891668 0.4675425472795256 0 0.40882198151684829 0.470458307354371 0 0.40912633217135602 0.48377127363976219 0 0.40257181831080802 0.47789339995616598 0 0.44264557298028417 0.48279785186037327 0 0.41453035004214622 0.48156667798761449 0 0.44264557298028417 0.48279785186037327 0 0.41453035004214622 0.48156667798761449 0 0.42744619309891668 0.4675425472795256 0 0.44576605402647751 0.45131382091928901 0 0.42744619309891668 0.4675425472795256 0 0.44576605402647751 0.45131382091928901 0 0.43097115028835131 0.45382894378787952 0 0.42744619309891668 0.4675425472795256 0 0.43097115028835131 0.45382894378787952 0 0.42744619309891668 0.4675425472795256 0 0.41709851720120961 0.46055572465752248 0 0.44086930591740259 0.443703986550611 0 0.4309855774719657 0.44262377444488737 0 0.4371491165808723 0.44919465112914592 0 0.43504649219903713 0.43385430946487219 0 0.44086930591740259 0.443703986550611 0 0.4309855774719657 0.44262377444488737 0 0.43097115028835131 0.45382894378787952 0 0.4309855774719657 0.44262377444488737 0 0.4371491165808723 0.44919465112914592 0 0.43097115028835131 0.45382894378787952 0 0.4309855774719657 0.44262377444488737 0 0.41665312800777271 0.44940921386284588 0 0.4216403136361262 0.43569606407888728 0 0.4309855774719657 0.44262377444488737 0 0.41665312800777271 0.44940921386284588 0 0.41665312800777271 0.44940921386284588 0 0.4029362549212489 0.45832899449672349 0 0.40092741287151468 0.44093224530230651 0 0.4216403136361262 0.43569606407888728 0 0.41665312800777271 0.44940921386284588 0 0.40092741287151468 0.44093224530230651 0 0.40882198151684829 0.470458307354371 0 0.42744619309891668 0.4675425472795256 0 0.41709851720120961 0.46055572465752248 0 0.43097115028835131 0.45382894378787952 0 0.41665312800777271 0.44940921386284588 0 0.41709851720120961 0.46055572465752248 0 0.41665312800777271 0.44940921386284588 0 0.41709851720120961 0.46055572465752248 0 0.4029362549212489 0.45832899449672349 0 0.40882198151684829 0.470458307354371 0 0.41709851720120961 0.46055572465752248 0 0.4029362549212489 0.45832899449672349 0 0.40882198151684829 0.470458307354371 0 0.4029362549212489 0.45832899449672349 0 0.3944208343110962 0.47305259584339332 0 0.4029362549212489 0.45832899449672349 0 0.38943508825963058 0.45629052964312111 0 0.3944208343110962 0.47305259584339332 0 0.4029362549212489 0.45832899449672349 0 0.40092741287151468 0.44093224530230651 0 0.38943508825963058 0.45629052964312111 0 0.40092741287151468 0.44093224530230651 0 0.37809165231809289 0.44568724501072521 0 0.38943508825963058 0.45629052964312111 0 0.37809165231809289 0.44568724501072521 0 0.38943508825963058 0.45629052964312111 0 0.37844435483634198 0.4675903904274426 0 0.38943508825963058 0.45629052964312111 0 0.37844435483634198 0.4675903904274426 0 0.3944208343110962 0.47305259584339332 0 0.37844435483634198 0.4675903904274426 0 0.38120033573297152 0.48442634992442057 0 0.3944208343110962 0.47305259584339332 0 0.38120033573297152 0.48442634992442057 0 0.3944208343110962 0.47305259584339332 0 0.39562515835400552 0.48382872387274839 0 0.36196284501337178 0.5 0 0.38120033573297152 0.48442634992442057 0 0.39080647124379558 0.49999999999999922 0 0.38120033573297152 0.48442634992442057 0 0.39080647124379558 0.49999999999999922 0 0.39562515835400552 0.48382872387274839 0 0.40912633217135602 0.48377127363976219 0 0.39080647124379558 0.49999999999999922 0 0.40912633217135602 0.48377127363976219 0 0.39080647124379558 0.49999999999999922 0 0.39562515835400552 0.48382872387274839 0 0.41375472850504103 0.5 0 0.40912633217135602 0.48377127363976219 0 0.39080647124379558 0.49999999999999922 0 0.40912633217135602 0.48377127363976219 0 0.40257181831080802 0.47789339995616598 0 0.39562515835400552 0.48382872387274839 0 0.40882198151684829 0.470458307354371 0 0.40257181831080802 0.47789339995616598 0 0.3944208343110962 0.47305259584339332 0 0.40257181831080802 0.47789339995616598 0 0.3944208343110962 0.47305259584339332 0 0.39562515835400552 0.48382872387274839 0 0.34137977846588119 0.091947059702449957 0 0.3184977734976509 0.082531855017860187 0 0.34137977846588119 0.091947059702449957 0 0.33853514524224232 0.092154422351098803 0 0.3184977734976509 0.082531855017860187 0 0.33853514524224232 0.092154422351098803 0 0.3184977734976509 0.082531855017860187 0 0.3305269393921435 0.093893314460775035 0 0.34137977846588119 0.091947059702449957 0 0.33488127772135701 0.070909675734900868 0 0.3184977734976509 0.082531855017860187 0 0.33488127772135701 0.070909675734900868 0 0.35624300874513559 0.071190975121652081 0 0.33828509493208109 0.051113002016081502 0 0.3184977734976509 0.082531855017860187 0 0.31750720709783492 0.060828210965220328 0 0.30506359630307739 0.067813250175554993 0 0.33488127772135701 0.070909675734900868 0 0.32846421329825382 0.059059627678852658 0 0.31750720709783492 0.060828210965220328 0 0.33488127772135701 0.070909675734900868 0 0.3184977734976509 0.082531855017860187 0 0.31750720709783492 0.060828210965220328 0 0.3184977734976509 0.082531855017860187 0 0.3254096333834442 0.096971455496547829 0 0.3305269393921435 0.093893314460775035 0 0.3184977734976509 0.082531855017860187 0 0.3254096333834442 0.096971455496547829 0 0.31111548734401751 0.094174984339189319 0 0.3254096333834442 0.096971455496547829 0 0.33219394353324039 0.1121017755840282 0 0.31111548734401751 0.094174984339189319 0 0.33219394353324039 0.1121017755840282 0 0.31111548734401751 0.094174984339189319 0 0.33219394353324039 0.1121017755840282 0 0.31151194808720201 0.1150643222194616 0 0.31111548734401751 0.094174984339189319 0 0.33219394353324039 0.1121017755840282 0 0.31151194808720201 0.1150643222194616 0 0.32387679174541939 0.1297141718462434 0 0.33219394353324039 0.1121017755840282 0 0.32387679174541939 0.1297141718462434 0 0.35327239972246333 0.1300285668288671 0 0.33219394353324039 0.1121017755840282 0 0.35327239972246333 0.1300285668288671 0 0.33219394353324039 0.1121017755840282 0 0.34279585490336462 0.1026082003979065 0 0.35159211237321392 0.11222190062690381 0 0.33853514524224232 0.092154422351098803 0 0.3305269393921435 0.093893314460775035 0 0.33650548478629722 0.09727411407467923 0 0.3254096333834442 0.096971455496547829 0 0.33351858274250701 0.1005678965871936 0 0.3305269393921435 0.093893314460775035 0 0.33351858274250701 0.1005678965871936 0 0.3305269393921435 0.093893314460775035 0 0.33650548478629722 0.09727411407467923 0 0.3254096333834442 0.096971455496547829 0 0.33219394353324039 0.1121017755840282 0 0.33351858274250701 0.1005678965871936 0 0.33219394353324039 0.1121017755840282 0 0.33351858274250701 0.1005678965871936 0 0.34279585490336462 0.1026082003979065 0 0.33351858274250701 0.1005678965871936 0 0.34279585490336462 0.1026082003979065 0 0.33650548478629722 0.09727411407467923 0 0.33853514524224232 0.092154422351098803 0 0.34279585490336462 0.1026082003979065 0 0.33650548478629722 0.09727411407467923 0 0.34279585490336462 0.1026082003979065 0 0.35159211237321392 0.11222190062690381 0 0.36426178343411147 0.1013622643870397 0 0.33853514524224232 0.092154422351098803 0 0.34279585490336462 0.1026082003979065 0 0.36426178343411147 0.1013622643870397 0 0.34137977846588119 0.091947059702449957 0 0.33853514524224232 0.092154422351098803 0 0.36426178343411147 0.1013622643870397 0 0.33853514524224232 0.092154422351098803 0 0.36426178343411147 0.1013622643870397 0 0.34137977846588119 0.091947059702449957 0 0.36426178343411147 0.1013622643870397 0 0.33219394353324039 0.1121017755840282 0 0.35159211237321392 0.11222190062690381 0 0.35327239972246333 0.1300285668288671 0 0.35159211237321392 0.11222190062690381 0 0.36649271172908648 0.1176987398754743 0 0.35327239972246333 0.1300285668288671 0 0.35159211237321392 0.11222190062690381 0 0.36649271172908648 0.1176987398754743 0 0.36426178343411147 0.1013622643870397 0 0.36649271172908648 0.1176987398754743 0 0.36938385952287339 0.13266757129752671 0 0.38138511069115272 0.12353481432135879 0 0.36649271172908648 0.1176987398754743 0 0.36426178343411147 0.1013622643870397 0 0.3795225325030368 0.1068242515199407 0 0.36426178343411147 0.1013622643870397 0 0.3795225325030368 0.1068242515199407 0 0.36426178343411147 0.1013622643870397 0 0.3742009225581896 0.091268948227223284 0 0.3795225325030368 0.1068242515199407 0 0.3742009225581896 0.091268948227223284 0 0.35754778501084228 0.087847667021068221 0 0.35624300874513559 0.071190975121652081 0 0.36426178343411147 0.1013622643870397 0 0.3742009225581896 0.091268948227223284 0 0.35754778501084228 0.087847667021068221 0 0.3742009225581896 0.091268948227223284 0 0.35624300874513559 0.071190975121652081 0 0.34137977846588119 0.091947059702449957 0 0.35754778501084228 0.087847667021068221 0 0.35624300874513559 0.071190975121652081 0 0.34137977846588119 0.091947059702449957 0 0.36426178343411147 0.1013622643870397 0 0.35754778501084228 0.087847667021068221 0 0.34137977846588119 0.091947059702449957 0 0.33488127772135701 0.070909675734900868 0 0.35624300874513559 0.071190975121652081 0 0.3742009225581896 0.091268948227223284 0 0.35624300874513559 0.071190975121652081 0 0.37575225644292037 0.071709270247263784 0 0.35624300874513559 0.071190975121652081 0 0.36737709041569239 0.056764699852256018 0 0.37575225644292037 0.071709270247263784 0 0.36737709041569239 0.056764699852256018 0 0.36443667806580698 0.054513224756226962 0 0.39058826119953283 0.057913447496371839 0 0.36443667806580698 0.054513224756226962 0 0.36984281421283938 0.03924660656396721 0 0.37608467898805159 0.048096788967416412 0 0.36984281421283938 0.03924660656396721 0 0.35576481933353549 0.041718099984820838 0 0.3798040161112804 0.028996110171619349 0 0.35576481933353549 0.041718099984820838 0 0.36136411866671431 0.026161729739540451 0 0.37786156531075732 0.02725125369877367 0 0.35576481933353549 0.041718099984820838 0 0.3798040161112804 0.028996110171619349 0 0.37786156531075732 0.02725125369877367 0 0.35576481933353549 0.041718099984820838 0 0.3798040161112804 0.028996110171619349 0 0.36984281421283938 0.03924660656396721 0 0.37726993283737248 0.041439113600633092 0 0.37608467898805159 0.048096788967416412 0 0.36984281421283938 0.03924660656396721 0 0.37675727284589372 0.036323400775862158 0 0.37726993283737248 0.041439113600633092 0 0.36443667806580698 0.054513224756226962 0 0.36984281421283938 0.03924660656396721 0 0.35576481933353549 0.041718099984820838 0 0.35576481933353549 0.041718099984820838 0 0.36136411866671431 0.026161729739540451 0 0.34099279295720591 0.031691385536231111 0 0.35576481933353549 0.041718099984820838 0 0.34539840685914608 0.044617690611648012 0 0.34099279295720591 0.031691385536231111 0 0.35624300874513559 0.071190975121652081 0 0.34416591963185211 0.055615952208139578 0 0.33828509493208109 0.051113002016081502 0 0.36443667806580698 0.054513224756226962 0 0.34416591963185211 0.055615952208139578 0 0.33828509493208109 0.051113002016081502 0 0.36737709041569239 0.056764699852256018 0 0.34416591963185211 0.055615952208139578 0 0.35624300874513559 0.071190975121652081 0 0.33828509493208109 0.051113002016081502 0 0.35624300874513559 0.071190975121652081 0 0.36737709041569239 0.056764699852256018 0 0.34416591963185211 0.055615952208139578 0 0.36443667806580698 0.054513224756226962 0 0.33828509493208109 0.051113002016081502 0 0.36443667806580698 0.054513224756226962 0 0.34539840685914608 0.044617690611648012 0 0.33828509493208109 0.051113002016081502 0 0.36443667806580698 0.054513224756226962 0 0.35576481933353549 0.041718099984820838 0 0.34539840685914608 0.044617690611648012 0 0.36737709041569239 0.056764699852256018 0 0.36443667806580698 0.054513224756226962 0 0.34416591963185211 0.055615952208139578 0 0.35686418876597309 0.010252504770385159 0 0.37537418671591988 0.012891754799621079 0 0.3700201466167648 -0.002195575246397889 0 0.35686418876597309 0.010252504770385159 0 0.37786156531075732 0.02725125369877367 0 0.36136411866671431 0.026161729739540451 0 0.35686418876597309 0.010252504770385159 0 0.37786156531075732 0.02725125369877367 0 0.35686418876597309 0.010252504770385159 0 0.37537418671591988 0.012891754799621079 0 0.37786156531075732 0.02725125369877367 0 0.36136411866671431 0.026161729739540451 0 0.35686418876597309 0.010252504770385159 0 0.34167945108238768 0.015605415956853899 0 0.36136411866671431 0.026161729739540451 0 0.34167945108238768 0.015605415956853899 0 0.34099279295720591 0.031691385536231111 0 0.35686418876597309 0.010252504770385159 0 0.34167945108238768 0.015605415956853899 0 0.33586681222118892 -0.0067462441580033658 0 0.35686418876597309 0.010252504770385159 0 0.33586681222118892 -0.0067462441580033658 0 0.34167945108238768 0.015605415956853899 0 0.32490055802469708 0.021190940670656921 0 0.33586681222118892 -0.0067462441580033658 0 0.34167945108238768 0.015605415956853899 0 0.32490055802469708 0.021190940670656921 0 0.34099279295720591 0.031691385536231111 0 0.32490055802469708 0.021190940670656921 0 0.34099279295720591 0.031691385536231111 0 0.32801258046435111 0.036170166979635328 0 0.32490055802469708 0.021190940670656921 0 0.31497710433926901 0.036033128519756527 0 0.30595588987094691 0.026092456194660541 0 0.32490055802469708 0.021190940670656921 0 0.31046320235639918 0.0067575729804437252 0 0.30595588987094691 0.026092456194660541 0 0.32490055802469708 0.021190940670656921 0 0.32801258046435111 0.036170166979635328 0 0.31497710433926901 0.036033128519756527 0 0.32490055802469708 0.021190940670656921 0 0.31046320235639918 0.0067575729804437252 0 0.33586681222118892 -0.0067462441580033658 0 0.33488127772135701 0.070909675734900868 0 0.32846421329825382 0.059059627678852658 0 0.33828509493208109 0.051113002016081502 0 0.33828509493208109 0.051113002016081502 0 0.33632782521092219 0.048924662700562782 0 0.31456469921871788 0.048028881697348168 0 0.34539840685914608 0.044617690611648012 0 0.33828509493208109 0.051113002016081502 0 0.33632782521092219 0.048924662700562782 0 0.33828509493208109 0.051113002016081502 0 0.33632782521092219 0.048924662700562782 0 0.34539840685914608 0.044617690611648012 0 0.33609782728063148 0.04111054955314445 0 0.34099279295720591 0.031691385536231111 0 0.34539840685914608 0.044617690611648012 0 0.33632782521092219 0.048924662700562782 0 0.33609782728063148 0.04111054955314445 0 0.33609782728063148 0.04111054955314445 0 0.34099279295720591 0.031691385536231111 0 0.32801258046435111 0.036170166979635328 0 0.33632782521092219 0.048924662700562782 0 0.33609782728063148 0.04111054955314445 0 0.33051084790212298 0.042529329228536181 0 0.33632782521092219 0.048924662700562782 0 0.33051084790212298 0.042529329228536181 0 0.32327528761916352 0.043108517346294839 0 0.33609782728063148 0.04111054955314445 0 0.33051084790212298 0.042529329228536181 0 0.32801258046435111 0.036170166979635328 0 0.33632782521092219 0.048924662700562782 0 0.32327528761916352 0.043108517346294839 0 0.31456469921871788 0.048028881697348168 0 0.33051084790212298 0.042529329228536181 0 0.32327528761916352 0.043108517346294839 0 0.32801258046435111 0.036170166979635328 0 0.32327528761916352 0.043108517346294839 0 0.32801258046435111 0.036170166979635328 0 0.31497710433926901 0.036033128519756527 0 0.32327528761916352 0.043108517346294839 0 0.31497710433926901 0.036033128519756527 0 0.31456469921871788 0.048028881697348168 0 0.33828509493208109 0.051113002016081502 0 0.31456469921871788 0.048028881697348168 0 0.32846421329825382 0.059059627678852658 0 0.33828509493208109 0.051113002016081502 0 0.31456469921871788 0.048028881697348168 0 0.32846421329825382 0.059059627678852658 0 0.31456469921871788 0.048028881697348168 0 0.31750720709783492 0.060828210965220328 0 0.31456469921871788 0.048028881697348168 0 0.31750720709783492 0.060828210965220328 0 0.30386903740065402 0.05697431224277244 0 0.31750720709783492 0.060828210965220328 0 0.30386903740065402 0.05697431224277244 0 0.30506359630307739 0.067813250175554993 0 0.31456469921871788 0.048028881697348168 0 0.30386903740065402 0.05697431224277244 0 0.29084430350535467 0.044944761378613682 0 0.30386903740065402 0.05697431224277244 0 0.29325963230024937 0.057606978803657879 0 0.29690158384745241 0.06457818982176422 0 0.31456469921871788 0.048028881697348168 0 0.30257644158749403 0.037675663858353942 0 0.29084430350535467 0.044944761378613682 0 0.31456469921871788 0.048028881697348168 0 0.29084430350535467 0.044944761378613682 0 0.30257644158749403 0.037675663858353942 0 0.28728110375769011 0.032980092644635972 0 0.30595588987094691 0.026092456194660541 0 0.31497710433926901 0.036033128519756527 0 0.31456469921871788 0.048028881697348168 0 0.30257644158749403 0.037675663858353942 0 0.31497710433926901 0.036033128519756527 0 0.30257644158749403 0.037675663858353942 0 0.30595588987094691 0.026092456194660541 0 0.28728110375769011 0.032980092644635972 0 0.28354425329012439 0.021068516806879451 0 0.27754771987688809 0.040797440569893019 0 0.30257644158749403 0.037675663858353942 0 0.29084430350535467 0.044944761378613682 0 0.28728110375769011 0.032980092644635972 0 0.28728110375769011 0.032980092644635972 0 0.2844924432277231 0.043204628682168907 0 0.27754771987688809 0.040797440569893019 0 0.29084430350535467 0.044944761378613682 0 0.28728110375769011 0.032980092644635972 0 0.2844924432277231 0.043204628682168907 0 0.2844924432277231 0.043204628682168907 0 0.28229664577095948 0.054096220135532967 0 0.27754771987688809 0.040797440569893019 0 0.29084430350535467 0.044944761378613682 0 0.2844924432277231 0.043204628682168907 0 0.28229664577095948 0.054096220135532967 0 0.29084430350535467 0.044944761378613682 0 0.28229664577095948 0.054096220135532967 0 0.29325963230024937 0.057606978803657879 0 0.28229664577095948 0.054096220135532967 0 0.28695696052130792 0.062426000594819037 0 0.29325963230024937 0.057606978803657879 0 0.28229664577095948 0.054096220135532967 0 0.28695696052130792 0.062426000594819037 0 0.27961998430175328 0.060695812266760227 0 0.28695696052130792 0.062426000594819037 0 0.29325963230024937 0.057606978803657879 0 0.29690158384745241 0.06457818982176422 0 0.30386903740065402 0.05697431224277244 0 0.29084430350535467 0.044944761378613682 0 0.29325963230024937 0.057606978803657879 0 0.31046320235639918 0.0067575729804437252 0 0.29633736445586178 0.016145334388179639 0 0.2895407867033607 0.0013395930438658619 0 0.31046320235639918 0.0067575729804437252 0 0.30595588987094691 0.026092456194660541 0 0.29633736445586178 0.016145334388179639 0 0.28728110375769011 0.032980092644635972 0 0.29633736445586178 0.016145334388179639 0 0.28354425329012439 0.021068516806879451 0 0.28728110375769011 0.032980092644635972 0 0.30595588987094691 0.026092456194660541 0 0.29633736445586178 0.016145334388179639 0 0.29633736445586178 0.016145334388179639 0 0.28354425329012439 0.021068516806879451 0 0.2895407867033607 0.0013395930438658619 0 0.28354425329012439 0.021068516806879451 0 0.2895407867033607 0.0013395930438658619 0 0.27605408581287011 0.0090157940159830471 0 0.28354425329012439 0.021068516806879451 0 0.2895407867033607 0.0013395930438658619 0 0.2895407867033607 0.0013395930438658619 0 0.27605408581287011 0.0090157940159830471 0 0.26778398551549509 -0.0036893303100333872 0 0.27605408581287011 0.0090157940159830471 0 0.26417056773795178 0.0090152440179189393 0 0.26778398551549509 -0.0036893303100333872 0 0.27605408581287011 0.0090157940159830471 0 0.26936383070045983 0.02007531215695801 0 0.26417056773795178 0.0090152440179189393 0 0.28354425329012439 0.021068516806879451 0 0.27754771987688809 0.040797440569893019 0 0.28354425329012439 0.021068516806879451 0 0.27605408581287011 0.0090157940159830471 0 0.26936383070045983 0.02007531215695801 0 0.28354425329012439 0.021068516806879451 0 0.26936383070045983 0.02007531215695801 0 0.27332262009486957 0.033728107725222278 0 0.26936383070045983 0.02007531215695801 0 0.26667678125960848 0.028969541142501901 0 0.27332262009486957 0.033728107725222278 0 0.26936383070045983 0.02007531215695801 0 0.26667678125960848 0.028969541142501901 0 0.25978705670837199 0.02772172808684556 0 0.26667678125960848 0.028969541142501901 0 0.25978705670837199 0.02772172808684556 0 0.26423361753473251 0.034353016600981737 0 0.24818833723327199 0.02644705719899533 0 0.25978705670837199 0.02772172808684556 0 0.25442723867738032 0.016379625870619269 0 0.24818833723327199 0.02644705719899533 0 0.25978705670837199 0.02772172808684556 0 0.25704478259505842 0.035809011079610743 0 0.26936383070045983 0.02007531215695801 0 0.25978705670837199 0.02772172808684556 0 0.25442723867738032 0.016379625870619269 0 0.26936383070045983 0.02007531215695801 0 0.25442723867738032 0.016379625870619269 0 0.26417056773795178 0.0090152440179189393 0 0.25442723867738032 0.016379625870619269 0 0.26417056773795178 0.0090152440179189393 0 0.25322369798355371 0.0032948183560677501 0 0.26417056773795178 0.0090152440179189393 0 0.25322369798355371 0.0032948183560677501 0 0.26778398551549509 -0.0036893303100333872 0 0.28229664577095948 0.054096220135532967 0 0.27155118646365262 0.060526364332906778 0 0.27754771987688809 0.040797440569893019 0 0.26803735397675288 0.057537922442449492 0 0.27155118646365262 0.060526364332906778 0 0.27754771987688809 0.040797440569893019 0 0.27155118646365262 0.060526364332906778 0 0.27754771987688809 0.040797440569893019 0 0.26803735397675288 0.057537922442449492 0 0.26717674565759131 0.061414912581717808 0 0.27155118646365262 0.060526364332906778 0 0.26803735397675288 0.057537922442449492 0 0.26717674565759131 0.061414912581717808 0 0.26717674565759131 0.061414912581717808 0 0.27082486665434358 0.062915996334918609 0 0.26717674565759131 0.061414912581717808 0 0.27155118646365262 0.060526364332906778 0 0.27082486665434358 0.062915996334918609 0 0.27155118646365262 0.060526364332906778 0 0.27082486665434358 0.062915996334918609 0 0.26803735397675288 0.057537922442449492 0 0.27155118646365262 0.060526364332906778 0 0.27155118646365262 0.060526364332906778 0 0.27961998430175328 0.060695812266760227 0 0.27767514445109232 0.065734664003783444 0 0.28229664577095948 0.054096220135532967 0 0.27155118646365262 0.060526364332906778 0 0.27961998430175328 0.060695812266760227 0 0.28354425329012439 0.021068516806879451 0 0.27754771987688809 0.040797440569893019 0 0.27332262009486957 0.033728107725222278 0 0.26803735397675288 0.057537922442449492 0 0.27754771987688809 0.040797440569893019 0 0.27332262009486957 0.033728107725222278 0 0.26803735397675288 0.057537922442449492 0 0.27332262009486957 0.033728107725222278 0 0.26337349528673171 0.044011131262296957 0 0.26803735397675288 0.057537922442449492 0 0.27332262009486957 0.033728107725222278 0 0.26667678125960848 0.028969541142501901 0 0.27332262009486957 0.033728107725222278 0 0.26423361753473251 0.034353016600981737 0 0.27332262009486957 0.033728107725222278 0 0.26337349528673171 0.044011131262296957 0 0.26423361753473251 0.034353016600981737 0 0.25978705670837199 0.02772172808684556 0 0.26423361753473251 0.034353016600981737 0 0.25704478259505842 0.035809011079610743 0 0.26337349528673171 0.044011131262296957 0 0.26423361753473251 0.034353016600981737 0 0.25704478259505842 0.035809011079610743 0 0.2492733855269578 0.041579555173777823 0 0.24818833723327199 0.02644705719899533 0 0.25704478259505842 0.035809011079610743 0 0.2492733855269578 0.041579555173777823 0 0.26337349528673171 0.044011131262296957 0 0.25704478259505842 0.035809011079610743 0 0.2492733855269578 0.041579555173777823 0 0.26803735397675288 0.057537922442449492 0 0.26337349528673171 0.044011131262296957 0 0.2492733855269578 0.041579555173777823 0 0.26803735397675288 0.057537922442449492 0 0.24629062771517271 0.052820950830226497 0 0.2492733855269578 0.041579555173777823 0 0.26803735397675288 0.057537922442449492 0 0.24874122334595 0.07170785510379532 0 0.24629062771517271 0.052820950830226497 0 0.26717674565759131 0.061414912581717808 0 0.24629062771517271 0.052820950830226497 0 0.26717674565759131 0.061414912581717808 0 0.24629062771517271 0.052820950830226497 0 0.26803735397675288 0.057537922442449492 0 0.26717674565759131 0.061414912581717808 0 0.24874122334595 0.07170785510379532 0 0.26717674565759131 0.061414912581717808 0 0.26207170159221099 0.084412837492877896 0 0.26717674565759131 0.061414912581717808 0 0.26207170159221099 0.084412837492877896 0 0.26717674565759131 0.061414912581717808 0 0.26459661937193729 0.083407271434054076 0 0.26207170159221099 0.084412837492877896 0 0.24736227196270541 0.090270970101712061 0 0.24874122334595 0.07170785510379532 0 0.26207170159221099 0.084412837492877896 0 0.24736227196270541 0.090270970101712061 0 0.26207170159221099 0.084412837492877896 0 0.24736227196270541 0.090270970101712061 0 0.26016144869860108 0.09301841504440217 0 0.25459763100830068 0.096141582858552177 0 0.24736227196270541 0.090270970101712061 0 0.26207170159221099 0.084412837492877896 0 0.26016144869860108 0.09301841504440217 0 0.24736227196270541 0.090270970101712061 0 0.25459763100830068 0.096141582858552177 0 0.26459661937193729 0.083407271434054076 0 0.26207170159221099 0.084412837492877896 0 0.26207170159221099 0.084412837492877896 0 0.26016144869860108 0.09301841504440217 0 0.26459661937193729 0.083407271434054076 0 0.2619867778419176 0.09199379318438361 0 0.26207170159221099 0.084412837492877896 0 0.2619867778419176 0.09199379318438361 0 0.26016144869860108 0.09301841504440217 0 0.26459661937193729 0.083407271434054076 0 0.26207170159221099 0.084412837492877896 0 0.2619867778419176 0.09199379318438361 0 0.2619867778419176 0.09199379318438361 0 0.26016144869860108 0.09301841504440217 0 0.26459661937193729 0.083407271434054076 0 0.28765643041333783 0.074223541376674432 0 0.26459661937193729 0.083407271434054076 0 0.27601190449835611 0.084120993139366301 0 0.28765643041333783 0.074223541376674432 0 0.2619867778419176 0.09199379318438361 0 0.27601190449835611 0.084120993139366301 0 0.27597760534302263 0.093816081557894046 0 0.2619867778419176 0.09199379318438361 0 0.27601190449835611 0.084120993139366301 0 0.26459661937193729 0.083407271434054076 0 0.2619867778419176 0.09199379318438361 0 0.27601190449835611 0.084120993139366301 0 0.27601190449835611 0.084120993139366301 0 0.28527214605629803 0.093542631019163408 0 0.27597760534302263 0.093816081557894046 0 0.26459661937193729 0.083407271434054076 0 0.27082486665434358 0.062915996334918609 0 0.26717674565759131 0.061414912581717808 0 0.26459661937193729 0.083407271434054076 0 0.27082486665434358 0.062915996334918609 0 0.26459661937193729 0.083407271434054076 0 0.27082486665434358 0.062915996334918609 0 0.27767514445109232 0.065734664003783444 0 0.26459661937193729 0.083407271434054076 0 0.27767514445109232 0.065734664003783444 0 0.28765643041333783 0.074223541376674432 0 0.27155118646365262 0.060526364332906778 0 0.27082486665434358 0.062915996334918609 0 0.27767514445109232 0.065734664003783444 0 0.27082486665434358 0.062915996334918609 0 0.27767514445109232 0.065734664003783444 0 0.27155118646365262 0.060526364332906778 0 0.27767514445109232 0.065734664003783444 0 0.27767514445109232 0.065734664003783444 0 0.28765643041333783 0.074223541376674432 0 0.27767514445109232 0.065734664003783444 0 0.29306802488508721 0.072068336257275281 0 0.28695696052130792 0.062426000594819037 0 0.27961998430175328 0.060695812266760227 0 0.27767514445109232 0.065734664003783444 0 0.28695696052130792 0.062426000594819037 0 0.27767514445109232 0.065734664003783444 0 0.29306802488508721 0.072068336257275281 0 0.28695696052130792 0.062426000594819037 0 0.29306802488508721 0.072068336257275281 0 0.29690158384745241 0.06457818982176422 0 0.29561576852942001 0.073116650333272012 0 0.29306802488508721 0.072068336257275281 0 0.29561576852942001 0.073116650333272012 0 0.29306802488508721 0.072068336257275281 0 0.29003703115479512 0.076248193094349867 0 0.29306802488508721 0.072068336257275281 0 0.28765643041333783 0.074223541376674432 0 0.29306802488508721 0.072068336257275281 0 0.29003703115479512 0.076248193094349867 0 0.28765643041333783 0.074223541376674432 0 0.29561576852942001 0.073116650333272012 0 0.29003703115479512 0.076248193094349867 0 0.27767514445109232 0.065734664003783444 0 0.29306802488508721 0.072068336257275281 0 0.28765643041333783 0.074223541376674432 0 0.29003703115479512 0.076248193094349867 0 0.28765643041333783 0.074223541376674432 0 0.27601190449835611 0.084120993139366301 0 0.29003703115479512 0.076248193094349867 0 0.27601190449835611 0.084120993139366301 0 0.29003703115479512 0.076248193094349867 0 0.28765643041333783 0.074223541376674432 0 0.27601190449835611 0.084120993139366301 0 0.29003703115479512 0.076248193094349867 0 0.28870857493654689 0.086239244916881869 0 0.27601190449835611 0.084120993139366301 0 0.28870857493654689 0.086239244916881869 0 0.28527214605629803 0.093542631019163408 0 0.28870857493654689 0.086239244916881869 0 0.28527214605629803 0.093542631019163408 0 0.29246213629446111 0.095768124011444758 0 0.28870857493654689 0.086239244916881869 0 0.29698271976236568 0.089899813846382556 0 0.29246213629446111 0.095768124011444758 0 0.29003703115479512 0.076248193094349867 0 0.28870857493654689 0.086239244916881869 0 0.29698271976236568 0.089899813846382556 0 0.29561576852942001 0.073116650333272012 0 0.29003703115479512 0.076248193094349867 0 0.31111548734401751 0.094174984339189319 0 0.29003703115479512 0.076248193094349867 0 0.31111548734401751 0.094174984339189319 0 0.29003703115479512 0.076248193094349867 0 0.29698271976236568 0.089899813846382556 0 0.31111548734401751 0.094174984339189319 0 0.3184977734976509 0.082531855017860187 0 0.29561576852942001 0.073116650333272012 0 0.31111548734401751 0.094174984339189319 0 0.3184977734976509 0.082531855017860187 0 0.29561576852942001 0.073116650333272012 0 0.3184977734976509 0.082531855017860187 0 0.29561576852942001 0.073116650333272012 0 0.30506359630307739 0.067813250175554993 0 0.31750720709783492 0.060828210965220328 0 0.30506359630307739 0.067813250175554993 0 0.29306802488508721 0.072068336257275281 0 0.30506359630307739 0.067813250175554993 0 0.29690158384745241 0.06457818982176422 0 0.30386903740065402 0.05697431224277244 0 0.30506359630307739 0.067813250175554993 0 0.29690158384745241 0.06457818982176422 0 0.29306802488508721 0.072068336257275281 0 0.30506359630307739 0.067813250175554993 0 0.29561576852942001 0.073116650333272012 0 0.30506359630307739 0.067813250175554993 0 0.29561576852942001 0.073116650333272012 0 0.29306802488508721 0.072068336257275281 0 0.30506359630307739 0.067813250175554993 0 0.31151194808720201 0.1150643222194616 0 0.30247500772594699 0.1071381656543656 0 0.29129275041579278 0.1172303442398579 0 0.31151194808720201 0.1150643222194616 0 0.29622008012258699 0.12991313160987961 0 0.32387679174541939 0.1297141718462434 0 0.31151194808720201 0.1150643222194616 0 0.29129275041579278 0.1172303442398579 0 0.29622008012258699 0.12991313160987961 0 0.31151194808720201 0.1150643222194616 0 0.31111548734401751 0.094174984339189319 0 0.30247500772594699 0.1071381656543656 0 0.31111548734401751 0.094174984339189319 0 0.30128354362195031 0.098124169066782854 0 0.30247500772594699 0.1071381656543656 0 0.29698271976236568 0.089899813846382556 0 0.30128354362195031 0.098124169066782854 0 0.29246213629446111 0.095768124011444758 0 0.29698271976236568 0.089899813846382556 0 0.31111548734401751 0.094174984339189319 0 0.30128354362195031 0.098124169066782854 0 0.30128354362195031 0.098124169066782854 0 0.30247500772594699 0.1071381656543656 0 0.29260899031297011 0.10538418601464609 0 0.29260899031297011 0.10538418601464609 0 0.29246213629446111 0.095768124011444758 0 0.28702757351663483 0.1001100210532227 0 0.30128354362195031 0.098124169066782854 0 0.29260899031297011 0.10538418601464609 0 0.29246213629446111 0.095768124011444758 0 0.28527214605629803 0.093542631019163408 0 0.29246213629446111 0.095768124011444758 0 0.28702757351663483 0.1001100210532227 0 0.28527214605629803 0.093542631019163408 0 0.28702757351663483 0.1001100210532227 0 0.28108272677848523 0.099874609951530163 0 0.29260899031297011 0.10538418601464609 0 0.28356239405763972 0.106033323917978 0 0.28664880997705461 0.11131452551203889 0 0.29260899031297011 0.10538418601464609 0 0.28702757351663483 0.1001100210532227 0 0.28356239405763972 0.106033323917978 0 0.28702757351663483 0.1001100210532227 0 0.28356239405763972 0.106033323917978 0 0.28108272677848523 0.099874609951530163 0 0.28356239405763972 0.106033323917978 0 0.2814598539497668 0.10990299155730229 0 0.28664880997705461 0.11131452551203889 0 0.27786688771157569 0.1150217509861922 0 0.29622008012258699 0.12991313160987961 0 0.28664880997705461 0.11131452551203889 0 0.29129275041579278 0.1172303442398579 0 0.27786688771157569 0.1150217509861922 0 0.27786688771157569 0.1150217509861922 0 0.27913813953766042 0.12972245958528131 0 0.29622008012258699 0.12991313160987961 0 0.29129275041579278 0.1172303442398579 0 0.27786688771157569 0.1150217509861922 0 0.29622008012258699 0.12991313160987961 0 0.2814598539497668 0.10990299155730229 0 0.28664880997705461 0.11131452551203889 0 0.27786688771157569 0.1150217509861922 0 0.30247500772594699 0.1071381656543656 0 0.29260899031297011 0.10538418601464609 0 0.29129275041579278 0.1172303442398579 0 0.29260899031297011 0.10538418601464609 0 0.28664880997705461 0.11131452551203889 0 0.29129275041579278 0.1172303442398579 0 0.27418517611644572 0.1163335826691398 0 0.26638390190257438 0.1102685147937751 0 0.25655208948606423 0.10927836717886751 0 0.27786688771157569 0.1150217509861922 0 0.27418517611644572 0.1163335826691398 0 0.27913813953766042 0.12972245958528131 0 0.27418517611644572 0.1163335826691398 0 0.27248198541775659 0.12784311929978001 0 0.27913813953766042 0.12972245958528131 0 0.2814598539497668 0.10990299155730229 0 0.27786688771157569 0.1150217509861922 0 0.27702128122739278 0.10689832557857171 0 0.27786688771157569 0.1150217509861922 0 0.27418517611644572 0.1163335826691398 0 0.26638390190257438 0.1102685147937751 0 0.27418517611644572 0.1163335826691398 0 0.26888095198589312 0.11979825388229511 0 0.26487973471170051 0.1148861259760711 0 0.27418517611644572 0.1163335826691398 0 0.26888095198589312 0.11979825388229511 0 0.27248198541775659 0.12784311929978001 0 0.26888095198589312 0.11979825388229511 0 0.26519442307348812 0.1188177922564181 0 0.26487973471170051 0.1148861259760711 0 0.26888095198589312 0.11979825388229511 0 0.26562400985315288 0.1251654340079911 0 0.27248198541775659 0.12784311929978001 0 0.26888095198589312 0.11979825388229511 0 0.26519442307348812 0.1188177922564181 0 0.26562400985315288 0.1251654340079911 0 0.27786688771157569 0.1150217509861922 0 0.26638390190257438 0.1102685147937751 0 0.25872482925013801 0.09949030162923457 0 0.27786688771157569 0.1150217509861922 0 0.25872482925013801 0.09949030162923457 0 0.27786688771157569 0.1150217509861922 0 0.27150352658480642 0.1040925172930806 0 0.25872482925013801 0.09949030162923457 0 0.28527214605629803 0.093542631019163408 0 0.27597760534302263 0.093816081557894046 0 0.28108272677848523 0.099874609951530163 0 0.27597760534302263 0.093816081557894046 0 0.28108272677848523 0.099874609951530163 0 0.27461357126647679 0.10027579108255071 0 0.27786688771157569 0.1150217509861922 0 0.27702128122739278 0.10689832557857171 0 0.27150352658480642 0.1040925172930806 0 0.27461357126647679 0.10027579108255071 0 0.27702128122739278 0.10689832557857171 0 0.27150352658480642 0.1040925172930806 0 0.28356239405763972 0.106033323917978 0 0.28108272677848523 0.099874609951530163 0 0.27702128122739278 0.10689832557857171 0 0.28108272677848523 0.099874609951530163 0 0.27461357126647679 0.10027579108255071 0 0.27702128122739278 0.10689832557857171 0 0.28356239405763972 0.106033323917978 0 0.2814598539497668 0.10990299155730229 0 0.27702128122739278 0.10689832557857171 0 0.2619867778419176 0.09199379318438361 0 0.27597760534302263 0.093816081557894046 0 0.26850219741802223 0.0981363484555835 0 0.27150352658480642 0.1040925172930806 0 0.26850219741802223 0.0981363484555835 0 0.25872482925013801 0.09949030162923457 0 0.27461357126647679 0.10027579108255071 0 0.27150352658480642 0.1040925172930806 0 0.26850219741802223 0.0981363484555835 0 0.27597760534302263 0.093816081557894046 0 0.27461357126647679 0.10027579108255071 0 0.26850219741802223 0.0981363484555835 0 0.2619867778419176 0.09199379318438361 0 0.26850219741802223 0.0981363484555835 0 0.25872482925013801 0.09949030162923457 0 0.2619867778419176 0.09199379318438361 0 0.26016144869860108 0.09301841504440217 0 0.25872482925013801 0.09949030162923457 0 0.2619867778419176 0.09199379318438361 0 0.25872482925013801 0.09949030162923457 0 0.26016144869860108 0.09301841504440217 0 0.25872482925013801 0.09949030162923457 0 0.26016144869860108 0.09301841504440217 0 0.25872482925013801 0.09949030162923457 0 0.25459763100830068 0.096141582858552177 0 0.26638390190257438 0.1102685147937751 0 0.25872482925013801 0.09949030162923457 0 0.26054083413963042 0.1068609537315081 0 0.26638390190257438 0.1102685147937751 0 0.26054083413963042 0.1068609537315081 0 0.25655208948606423 0.10927836717886751 0 0.25872482925013801 0.09949030162923457 0 0.258042440935632 0.10497087790269199 0 0.26054083413963042 0.1068609537315081 0 0.25872482925013801 0.09949030162923457 0 0.258042440935632 0.10497087790269199 0 0.258042440935632 0.10497087790269199 0 0.26054083413963042 0.1068609537315081 0 0.25655208948606423 0.10927836717886751 0 0.25872482925013801 0.09949030162923457 0 0.25655208948606423 0.10927836717886751 0 0.25872482925013801 0.09949030162923457 0 0.25655208948606423 0.10927836717886751 0 0.25459763100830068 0.096141582858552177 0 0.24174744587836799 0.1033548466348798 0 0.25655208948606423 0.10927836717886751 0 0.25459763100830068 0.096141582858552177 0 0.25872482925013801 0.09949030162923457 0 0.258042440935632 0.10497087790269199 0 0.25655208948606423 0.10927836717886751 0 0.25872482925013801 0.09949030162923457 0 0.25459763100830068 0.096141582858552177 0 0.26016144869860108 0.09301841504440217 0 0.25459763100830068 0.096141582858552177 0 0.27418517611644572 0.1163335826691398 0 0.25655208948606423 0.10927836717886751 0 0.26487973471170051 0.1148861259760711 0 0.27418517611644572 0.1163335826691398 0 0.25655208948606423 0.10927836717886751 0 0.2613903323121034 0.11972876860365821 0 0.25824300399834771 0.11754386918627879 0 0.25813574029091341 0.12532111527980791 0 0.2613903323121034 0.11972876860365821 0 0.25824300399834771 0.11754386918627879 0 0.26064106818342869 0.11649387083006101 0 0.2613903323121034 0.11972876860365821 0 0.26303182906276251 0.1167652494283456 0 0.26064106818342869 0.11649387083006101 0 0.2613903323121034 0.11972876860365821 0 0.25813574029091341 0.12532111527980791 0 0.26562400985315288 0.1251654340079911 0 0.2613903323121034 0.11972876860365821 0 0.26519442307348812 0.1188177922564181 0 0.26562400985315288 0.1251654340079911 0 0.2613903323121034 0.11972876860365821 0 0.26519442307348812 0.1188177922564181 0 0.26303182906276251 0.1167652494283456 0 0.26487973471170051 0.1148861259760711 0 0.2618287337373767 0.1148464313763837 0 0.2589676606418963 0.1122376160430168 0 0.25655208948606423 0.10927836717886751 0 0.26487973471170051 0.1148861259760711 0 0.2589676606418963 0.1122376160430168 0 0.26519442307348812 0.1188177922564181 0 0.26487973471170051 0.1148861259760711 0 0.26303182906276251 0.1167652494283456 0 0.26487973471170051 0.1148861259760711 0 0.2618287337373767 0.1148464313763837 0 0.26303182906276251 0.1167652494283456 0 0.2618287337373767 0.1148464313763837 0 0.26303182906276251 0.1167652494283456 0 0.26064106818342869 0.11649387083006101 0 0.2618287337373767 0.1148464313763837 0 0.26064106818342869 0.11649387083006101 0 0.26015078570541528 0.1146524558252945 0 0.2618287337373767 0.1148464313763837 0 0.2589676606418963 0.1122376160430168 0 0.26015078570541528 0.1146524558252945 0 0.2589676606418963 0.1122376160430168 0 0.26015078570541528 0.1146524558252945 0 0.25777400528710798 0.1147846643059361 0 0.25824300399834771 0.11754386918627879 0 0.26015078570541528 0.1146524558252945 0 0.25777400528710798 0.1147846643059361 0 0.25824300399834771 0.11754386918627879 0 0.26064106818342869 0.11649387083006101 0 0.26015078570541528 0.1146524558252945 0 0.24646482385440791 0.1109165710353929 0 0.25655208948606423 0.10927836717886751 0 0.255186127323073 0.11543194682551421 0 0.25824300399834771 0.11754386918627879 0 0.25777400528710798 0.1147846643059361 0 0.255186127323073 0.11543194682551421 0 0.2589676606418963 0.1122376160430168 0 0.25777400528710798 0.1147846643059361 0 0.255186127323073 0.11543194682551421 0 0.25655208948606423 0.10927836717886751 0 0.255186127323073 0.11543194682551421 0 0.25655208948606423 0.10927836717886751 0 0.2589676606418963 0.1122376160430168 0 0.255186127323073 0.11543194682551421 0 0.255186127323073 0.11543194682551421 0 0.25238596385504641 0.12804651946228041 0 0.24420216851797599 0.1292372680552665 0 0.255186127323073 0.11543194682551421 0 0.25238596385504641 0.12804651946228041 0 0.255186127323073 0.11543194682551421 0 0.25238596385504641 0.12804651946228041 0 0.25813574029091341 0.12532111527980791 0 0.25824300399834771 0.11754386918627879 0 0.255186127323073 0.11543194682551421 0 0.25813574029091341 0.12532111527980791 0 0.25238596385504641 0.12804651946228041 0 0.25813574029091341 0.12532111527980791 0 0.26818611498992623 0.1403022215883418 0 0.24420216851797599 0.1292372680552665 0 0.26818611498992623 0.1403022215883418 0 0.24301228879775941 0.13939302681245261 0 0.24420216851797599 0.1292372680552665 0 0.26818611498992623 0.1403022215883418 0 0.24420216851797599 0.1292372680552665 0 0.25238596385504641 0.12804651946228041 0 0.26818611498992623 0.1403022215883418 0 0.25813574029091341 0.12532111527980791 0 0.26562400985315288 0.1251654340079911 0 0.26818611498992623 0.1403022215883418 0 0.27248198541775659 0.12784311929978001 0 0.26818611498992623 0.1403022215883418 0 0.27913813953766042 0.12972245958528131 0 0.26562400985315288 0.1251654340079911 0 0.27248198541775659 0.12784311929978001 0 0.26818611498992623 0.1403022215883418 0 0.26818611498992623 0.1403022215883418 0 0.27913813953766042 0.12972245958528131 0 0.28414721419066807 0.1482284927670183 0 0.26818611498992623 0.1403022215883418 0 0.26583546295036609 0.16369396270660089 0 0.28414721419066807 0.1482284927670183 0 0.26818611498992623 0.1403022215883418 0 0.25486404381895789 0.1523024957907583 0 0.26583546295036609 0.16369396270660089 0 0.24301228879775941 0.13939302681245261 0 0.26818611498992623 0.1403022215883418 0 0.25486404381895789 0.1523024957907583 0 0.2424223085377801 0.16582077205563811 0 0.25486404381895789 0.1523024957907583 0 0.26583546295036609 0.16369396270660089 0 0.2424223085377801 0.16582077205563811 0 0.26032431562704572 0.18342712708893841 0 0.26583546295036609 0.16369396270660089 0 0.26032431562704572 0.18342712708893841 0 0.27712404590978218 0.18082877805207789 0 0.26583546295036609 0.16369396270660089 0 0.27712404590978218 0.18082877805207789 0 0.26583546295036609 0.16369396270660089 0 0.28977860037431658 0.16805367250728201 0 0.26583546295036609 0.16369396270660089 0 0.28977860037431658 0.16805367250728201 0 0.28414721419066807 0.1482284927670183 0 0.27712404590978218 0.18082877805207789 0 0.28977860037431658 0.16805367250728201 0 0.29478084704188562 0.18627619782702401 0 0.28977860037431658 0.16805367250728201 0 0.29478084704188562 0.18627619782702401 0 0.31259037162619269 0.16725562300018509 0 0.29478084704188562 0.18627619782702401 0 0.31732062797233113 0.1926592597090995 0 0.31259037162619269 0.16725562300018509 0 0.28977860037431658 0.16805367250728201 0 0.29946190776947251 0.15165108642358641 0 0.31259037162619269 0.16725562300018509 0 0.29946190776947251 0.15165108642358641 0 0.31457327253359829 0.14480451223356691 0 0.31259037162619269 0.16725562300018509 0 0.29946190776947251 0.15165108642358641 0 0.29622008012258699 0.12991313160987961 0 0.31457327253359829 0.14480451223356691 0 0.29622008012258699 0.12991313160987961 0 0.31457327253359829 0.14480451223356691 0 0.29622008012258699 0.12991313160987961 0 0.32387679174541939 0.1297141718462434 0 0.31457327253359829 0.14480451223356691 0 0.27913813953766042 0.12972245958528131 0 0.29622008012258699 0.12991313160987961 0 0.28414721419066807 0.1482284927670183 0 0.29946190776947251 0.15165108642358641 0 0.29622008012258699 0.12991313160987961 0 0.28414721419066807 0.1482284927670183 0 0.28977860037431658 0.16805367250728201 0 0.29946190776947251 0.15165108642358641 0 0.28414721419066807 0.1482284927670183 0 0.27355486584907379 0.24364475180805101 0 0.25452501640087027 0.2374112721999547 0 0.26408278890255732 0.22479217687295791 0 0.25404003316197471 0.25208422786308371 0 0.27355486584907379 0.24364475180805101 0 0.25452501640087027 0.2374112721999547 0 0.24523436150048811 0.24199469982198529 0 0.25404003316197471 0.25208422786308371 0 0.25452501640087027 0.2374112721999547 0 0.24868260911088891 0.2303107595792985 0 0.2471090749199483 0.2357199094212839 0 0.25452501640087027 0.2374112721999547 0 0.24868260911088891 0.2303107595792985 0 0.25452501640087027 0.2374112721999547 0 0.26408278890255732 0.22479217687295791 0 0.24868260911088891 0.2303107595792985 0 0.26408278890255732 0.22479217687295791 0 0.25357276657721323 0.21641202867955539 0 0.27355486584907379 0.24364475180805101 0 0.26408278890255732 0.22479217687295791 0 0.28109637724199782 0.22150209212538899 0 0.26408278890255732 0.22479217687295791 0 0.28109637724199782 0.22150209212538899 0 0.27306509823529962 0.19947215684549871 0 0.26408278890255732 0.22479217687295791 0 0.25357276657721323 0.21641202867955539 0 0.27306509823529962 0.19947215684549871 0 0.25357276657721323 0.21641202867955539 0 0.25471258750952741 0.20148162901819469 0 0.27306509823529962 0.19947215684549871 0 0.25357276657721323 0.21641202867955539 0 0.27306509823529962 0.19947215684549871 0 0.2418323282778008 0.1922485172988235 0 0.26032431562704572 0.18342712708893841 0 0.25471258750952741 0.20148162901819469 0 0.26032431562704572 0.18342712708893841 0 0.25471258750952741 0.20148162901819469 0 0.27306509823529962 0.19947215684549871 0 0.26032431562704572 0.18342712708893841 0 0.27712404590978218 0.18082877805207789 0 0.27306509823529962 0.19947215684549871 0 0.29478084704188562 0.18627619782702401 0 0.27306509823529962 0.19947215684549871 0 0.29788838547339219 0.20777731020547871 0 0.27712404590978218 0.18082877805207789 0 0.29478084704188562 0.18627619782702401 0 0.27306509823529962 0.19947215684549871 0 0.29478084704188562 0.18627619782702401 0 0.29788838547339219 0.20777731020547871 0 0.31732062797233113 0.1926592597090995 0 0.29788838547339219 0.20777731020547871 0 0.31916040529159301 0.2166328624030785 0 0.31732062797233113 0.1926592597090995 0 0.28109637724199782 0.22150209212538899 0 0.27306509823529962 0.19947215684549871 0 0.29788838547339219 0.20777731020547871 0 0.28109637724199782 0.22150209212538899 0 0.29788838547339219 0.20777731020547871 0 0.29668368374297521 0.23238313674276659 0 0.27355486584907379 0.24364475180805101 0 0.28109637724199782 0.22150209212538899 0 0.29668368374297521 0.23238313674276659 0 0.29788838547339219 0.20777731020547871 0 0.29668368374297521 0.23238313674276659 0 0.31916040529159301 0.2166328624030785 0 0.29692855903906679 0.25537037528416417 0 0.29668368374297521 0.23238313674276659 0 0.32448256229391081 0.244023600812113 0 0.29692855903906679 0.25537037528416417 0 0.27355486584907379 0.24364475180805101 0 0.29668368374297521 0.23238313674276659 0 0.32448256229391081 0.244023600812113 0 0.33724611662768478 0.226971671205 0 0.35052125483258301 0.2434514759103418 0 0.32448256229391081 0.244023600812113 0 0.33724611662768478 0.226971671205 0 0.31916040529159301 0.2166328624030785 0 0.29668368374297521 0.23238313674276659 0 0.32448256229391081 0.244023600812113 0 0.31916040529159301 0.2166328624030785 0 0.33724611662768478 0.226971671205 0 0.31916040529159301 0.2166328624030785 0 0.34036716376080012 0.20191553243135291 0 0.31916040529159301 0.2166328624030785 0 0.31732062797233113 0.1926592597090995 0 0.34036716376080012 0.20191553243135291 0 0.31732062797233113 0.1926592597090995 0 0.34036716376080012 0.20191553243135291 0 0.33327910971122948 0.1769249887409369 0 0.34036716376080012 0.20191553243135291 0 0.33327910971122948 0.1769249887409369 0 0.35363051640006049 0.1838751638919715 0 0.34036716376080012 0.20191553243135291 0 0.36940151407566268 0.20038014978660379 0 0.35363051640006049 0.1838751638919715 0 0.36940151407566268 0.20038014978660379 0 0.35418005050780299 0.2186338278764331 0 0.36970064025412291 0.2313836502337521 0 0.34036716376080012 0.20191553243135291 0 0.36940151407566268 0.20038014978660379 0 0.35418005050780299 0.2186338278764331 0 0.33724611662768478 0.226971671205 0 0.34036716376080012 0.20191553243135291 0 0.35418005050780299 0.2186338278764331 0 0.33724611662768478 0.226971671205 0 0.35418005050780299 0.2186338278764331 0 0.35052125483258301 0.2434514759103418 0 0.35418005050780299 0.2186338278764331 0 0.36970064025412291 0.2313836502337521 0 0.35052125483258301 0.2434514759103418 0 0.37478492512234668 0.26235925763296819 0 0.36970064025412291 0.2313836502337521 0 0.35052125483258301 0.2434514759103418 0 0.33497932682518311 0.1519205034936916 0 0.32387679174541939 0.1297141718462434 0 0.35327239972246333 0.1300285668288671 0 0.33497932682518311 0.1519205034936916 0 0.31457327253359829 0.14480451223356691 0 0.31259037162619269 0.16725562300018509 0 0.33497932682518311 0.1519205034936916 0 0.32387679174541939 0.1297141718462434 0 0.31457327253359829 0.14480451223356691 0 0.33497932682518311 0.1519205034936916 0 0.31259037162619269 0.16725562300018509 0 0.33327910971122948 0.1769249887409369 0 0.31732062797233113 0.1926592597090995 0 0.31259037162619269 0.16725562300018509 0 0.33327910971122948 0.1769249887409369 0 0.33497932682518311 0.1519205034936916 0 0.33327910971122948 0.1769249887409369 0 0.34907151432127381 0.16521020144779211 0 0.34907151432127381 0.16521020144779211 0 0.35363051640006049 0.1838751638919715 0 0.37277469716236061 0.17385369407461371 0 0.33327910971122948 0.1769249887409369 0 0.34907151432127381 0.16521020144779211 0 0.35363051640006049 0.1838751638919715 0 0.36940151407566268 0.20038014978660379 0 0.35363051640006049 0.1838751638919715 0 0.37277469716236061 0.17385369407461371 0 0.37277469716236061 0.17385369407461371 0 0.36285879787080821 0.15032831482926681 0 0.3843829660287168 0.1587008111838667 0 0.34907151432127381 0.16521020144779211 0 0.37277469716236061 0.17385369407461371 0 0.36285879787080821 0.15032831482926681 0 0.36285879787080821 0.15032831482926681 0 0.36938385952287339 0.13266757129752671 0 0.38232915319187621 0.14145147187989651 0 0.33497932682518311 0.1519205034936916 0 0.36285879787080821 0.15032831482926681 0 0.35327239972246333 0.1300285668288671 0 0.33497932682518311 0.1519205034936916 0 0.34907151432127381 0.16521020144779211 0 0.36285879787080821 0.15032831482926681 0 0.36649271172908648 0.1176987398754743 0 0.35327239972246333 0.1300285668288671 0 0.36938385952287339 0.13266757129752671 0 0.36285879787080821 0.15032831482926681 0 0.35327239972246333 0.1300285668288671 0 0.36938385952287339 0.13266757129752671 0 0.39421974672685411 0.13240309148155921 0 0.38232915319187621 0.14145147187989651 0 0.38138511069115272 0.12353481432135879 0 0.36938385952287339 0.13266757129752671 0 0.38232915319187621 0.14145147187989651 0 0.38138511069115272 0.12353481432135879 0 0.39421974672685411 0.13240309148155921 0 0.41199731756477831 0.13352747615702071 0 0.3942733283070321 0.11371104406223111 0 0.39421974672685411 0.13240309148155921 0 0.40120830104283178 0.15077536395034899 0 0.41199731756477831 0.13352747615702071 0 0.39421974672685411 0.13240309148155921 0 0.40120830104283178 0.15077536395034899 0 0.38232915319187621 0.14145147187989651 0 0.36285879787080821 0.15032831482926681 0 0.38232915319187621 0.14145147187989651 0 0.3843829660287168 0.1587008111838667 0 0.40120830104283178 0.15077536395034899 0 0.38232915319187621 0.14145147187989651 0 0.3843829660287168 0.1587008111838667 0 0.37277469716236061 0.17385369407461371 0 0.3843829660287168 0.1587008111838667 0 0.39936082591505218 0.176604797209717 0 0.37277469716236061 0.17385369407461371 0 0.39936082591505218 0.176604797209717 0 0.38992891259608609 0.19548318162929729 0 0.40120830104283178 0.15077536395034899 0 0.39936082591505218 0.176604797209717 0 0.41410660213767347 0.1652382216241598 0 0.40120830104283178 0.15077536395034899 0 0.3843829660287168 0.1587008111838667 0 0.39936082591505218 0.176604797209717 0 0.40120830104283178 0.15077536395034899 0 0.41410660213767347 0.1652382216241598 0 0.42972130682252457 0.1533439082518103 0 0.39936082591505218 0.176604797209717 0 0.41410660213767347 0.1652382216241598 0 0.42626679864566441 0.18172907206941921 0 0.42626679864566441 0.18172907206941921 0 0.42972130682252457 0.1533439082518103 0 0.45055708181009879 0.1690731760043504 0 0.41410660213767347 0.1652382216241598 0 0.42626679864566441 0.18172907206941921 0 0.42972130682252457 0.1533439082518103 0 0.42972130682252457 0.1533439082518103 0 0.43054248402473921 0.1250848439374013 0 0.44904083753606949 0.1441389705362057 0 0.42972130682252457 0.1533439082518103 0 0.43054248402473921 0.1250848439374013 0 0.41199731756477831 0.13352747615702071 0 0.43054248402473921 0.1250848439374013 0 0.41199731756477831 0.13352747615702071 0 0.41135066019799099 0.1182158826350982 0 0.40120830104283178 0.15077536395034899 0 0.42972130682252457 0.1533439082518103 0 0.41199731756477831 0.13352747615702071 0 0.42972130682252457 0.1533439082518103 0 0.41199731756477831 0.13352747615702071 0 0.40097752291506289 0.25902709479471048 0 0.39333580902427501 0.24081282939082621 0 0.41286841049430861 0.24788583003777651 0 0.37478492512234668 0.26235925763296819 0 0.36970064025412291 0.2313836502337521 0 0.39333580902427501 0.24081282939082621 0 0.36970064025412291 0.2313836502337521 0 0.39333580902427501 0.24081282939082621 0 0.39338333076520482 0.2163019563834182 0 0.39338333076520482 0.2163019563834182 0 0.41736514745474701 0.23222376298023259 0 0.39333580902427501 0.24081282939082621 0 0.39338333076520482 0.2163019563834182 0 0.41736514745474701 0.23222376298023259 0 0.39338333076520482 0.2163019563834182 0 0.38992891259608609 0.19548318162929729 0 0.41508715600771068 0.20488700545500521 0 0.36940151407566268 0.20038014978660379 0 0.39338333076520482 0.2163019563834182 0 0.36940151407566268 0.20038014978660379 0 0.39338333076520482 0.2163019563834182 0 0.38992891259608609 0.19548318162929729 0 0.36940151407566268 0.20038014978660379 0 0.36970064025412291 0.2313836502337521 0 0.39338333076520482 0.2163019563834182 0 0.36940151407566268 0.20038014978660379 0 0.37277469716236061 0.17385369407461371 0 0.38992891259608609 0.19548318162929729 0 0.39936082591505218 0.176604797209717 0 0.38992891259608609 0.19548318162929729 0 0.41508715600771068 0.20488700545500521 0 0.39936082591505218 0.176604797209717 0 0.42626679864566441 0.18172907206941921 0 0.41508715600771068 0.20488700545500521 0 0.42626679864566441 0.18172907206941921 0 0.44140000057487638 0.20455834627575151 0 0.44473765559285833 0.18692520255949671 0 0.42626679864566441 0.18172907206941921 0 0.41508715600771068 0.20488700545500521 0 0.44140000057487638 0.20455834627575151 0 0.41508715600771068 0.20488700545500521 0 0.43790507610234408 0.2273079216372012 0 0.44140000057487638 0.20455834627575151 0 0.39338333076520482 0.2163019563834182 0 0.41508715600771068 0.20488700545500521 0 0.41736514745474701 0.23222376298023259 0 0.41508715600771068 0.20488700545500521 0 0.41736514745474701 0.23222376298023259 0 0.43790507610234408 0.2273079216372012 0 0.42717012070777932 0.25569493195645271 0 0.41736514745474701 0.23222376298023259 0 0.44134696414428898 0.24814556957704689 0 0.41736514745474701 0.23222376298023259 0 0.44134696414428898 0.24814556957704689 0 0.41736514745474701 0.23222376298023259 0 0.44134696414428898 0.24814556957704689 0 0.43790507610234408 0.2273079216372012 0 0.39333580902427501 0.24081282939082621 0 0.41736514745474701 0.23222376298023259 0 0.41286841049430861 0.24788583003777651 0 0.42717012070777932 0.25569493195645271 0 0.41736514745474701 0.23222376298023259 0 0.41286841049430861 0.24788583003777651 0 0.45336271850049548 0.25236276911819511 0 0.45602225988021539 0.23816249748875179 0 0.48180965237011408 0.2487438147612096 0 0.45336271850049548 0.25236276911819511 0 0.45602225988021539 0.23816249748875179 0 0.44134696414428898 0.24814556957704689 0 0.44600400848591359 0.23698591979390529 0 0.43790507610234408 0.2273079216372012 0 0.45336271850049548 0.25236276911819511 0 0.44134696414428898 0.24814556957704689 0 0.44600400848591359 0.23698591979390529 0 0.45336271850049548 0.25236276911819511 0 0.45602225988021539 0.23816249748875179 0 0.44600400848591359 0.23698591979390529 0 0.45602225988021539 0.23816249748875179 0 0.44600400848591359 0.23698591979390529 0 0.45492939023952461 0.2194397610932603 0 0.44600400848591359 0.23698591979390529 0 0.43790507610234408 0.2273079216372012 0 0.45492939023952461 0.2194397610932603 0 0.45602225988021539 0.23816249748875179 0 0.45492939023952461 0.2194397610932603 0 0.47419086539053962 0.2296972043723752 0 0.45492939023952461 0.2194397610932603 0 0.46072674134079361 0.19234021588846559 0 0.47847088324409548 0.2092058758105422 0 0.45492939023952461 0.2194397610932603 0 0.44140000057487638 0.20455834627575151 0 0.46072674134079361 0.19234021588846559 0 0.43790507610234408 0.2273079216372012 0 0.45492939023952461 0.2194397610932603 0 0.44140000057487638 0.20455834627575151 0 0.44140000057487638 0.20455834627575151 0 0.46072674134079361 0.19234021588846559 0 0.44473765559285833 0.18692520255949671 0 0.46072674134079361 0.19234021588846559 0 0.4812983336831132 0.1885899983914231 0 0.47847088324409548 0.2092058758105422 0 0.4812983336831132 0.1885899983914231 0 0.5 0.19797878532577309 0 0.47847088324409548 0.2092058758105422 0 0.5 0.19797878532577309 0 0.47847088324409548 0.2092058758105422 0 0.5 0.22793385045351919 0 0.47847088324409548 0.2092058758105422 0 0.47419086539053962 0.2296972043723752 0 0.5 0.22793385045351919 0 0.45492939023952461 0.2194397610932603 0 0.47847088324409548 0.2092058758105422 0 0.47419086539053962 0.2296972043723752 0 0.5 0.25788891558126559 0 0.5 0.22793385045351919 0 0.48180965237011408 0.2487438147612096 0 0.47419086539053962 0.2296972043723752 0 0.5 0.22793385045351919 0 0.48180965237011408 0.2487438147612096 0 0.45602225988021539 0.23816249748875179 0 0.47419086539053962 0.2296972043723752 0 0.48180965237011408 0.2487438147612096 0 0.46287167922105149 0.15545842773829099 0 0.44904083753606949 0.1441389705362057 0 0.45055708181009879 0.1690731760043504 0 0.46287167922105149 0.15545842773829099 0 0.46355845200513762 0.13850516077978961 0 0.47909635670674228 0.14767892477560191 0 0.46287167922105149 0.15545842773829099 0 0.46355845200513762 0.13850516077978961 0 0.44904083753606949 0.1441389705362057 0 0.46355845200513762 0.13850516077978961 0 0.47795750643906171 0.12649365297180731 0 0.4559740449914913 0.1245921335342187 0 0.46355845200513762 0.13850516077978961 0 0.44904083753606949 0.1441389705362057 0 0.4559740449914913 0.1245921335342187 0 0.43054248402473921 0.1250848439374013 0 0.44904083753606949 0.1441389705362057 0 0.4559740449914913 0.1245921335342187 0 0.42972130682252457 0.1533439082518103 0 0.44904083753606949 0.1441389705362057 0 0.45055708181009879 0.1690731760043504 0 0.42626679864566441 0.18172907206941921 0 0.45055708181009879 0.1690731760043504 0 0.44473765559285833 0.18692520255949671 0 0.46072674134079361 0.19234021588846559 0 0.45055708181009879 0.1690731760043504 0 0.44473765559285833 0.18692520255949671 0 0.46072674134079361 0.19234021588846559 0 0.45055708181009879 0.1690731760043504 0 0.4752785409050499 0.1685484481011886 0 0.46287167922105149 0.15545842773829099 0 0.45055708181009879 0.1690731760043504 0 0.4752785409050499 0.1685484481011886 0 0.45055708181009879 0.1690731760043504 0 0.4752785409050499 0.1685484481011886 0 0.46287167922105149 0.15545842773829099 0 0.4752785409050499 0.1685484481011886 0 0.47909635670674228 0.14767892477560191 0 0.46072674134079361 0.19234021588846559 0 0.4812983336831132 0.1885899983914231 0 0.4752785409050499 0.1685484481011886 0 0.4812983336831132 0.1885899983914231 0 0.4752785409050499 0.1685484481011886 0 0.50000000000000111 0.1680237201980268 0 0.4812983336831132 0.1885899983914231 0 0.5 0.19797878532577309 0 0.50000000000000111 0.1680237201980268 0 0.4752785409050499 0.1685484481011886 0 0.50000000000000111 0.1680237201980268 0 0.4752785409050499 0.1685484481011886 0 0.50000000000000111 0.1680237201980268 0 0.47909635670674228 0.14767892477560191 0 0.50000000000000111 0.1680237201980268 0 0.5 0.14405257421324749 0 0.47909635670674228 0.14767892477560191 0 0.46355845200513762 0.13850516077978961 0 0.47909635670674228 0.14767892477560191 0 0.47795750643906171 0.12649365297180731 0 0.5 0.14405257421324749 0 0.47795750643906171 0.12649365297180731 0 0.5 0.12008142822846821 0 0.5 0.14405257421324749 0 0.47909635670674228 0.14767892477560191 0 0.47795750643906171 0.12649365297180731 0 0.47795750643906171 0.12649365297180731 0 0.5 0.12008142822846821 0 0.48437617198066579 0.1083096126220475 0 0.48437617198066579 0.1083096126220475 0 0.5 0.096110282243688894 0 0.4787628640296252 0.09057766153942011 0 0.5 0.12008142822846821 0 0.48437617198066579 0.1083096126220475 0 0.5 0.096110282243688894 0 0.48437617198066579 0.1083096126220475 0 0.4787628640296252 0.09057766153942011 0 0.46516048943464161 0.10828503812685281 0 0.47795750643906171 0.12649365297180731 0 0.48437617198066579 0.1083096126220475 0 0.46516048943464161 0.10828503812685281 0 0.49999999999999389 0.072139136258909636 0 0.47264706529987838 0.068582714068275596 0 0.5 0.096110282243688894 0 0.49999999999999389 0.072139136258909636 0 0.4787628640296252 0.09057766153942011 0 0.49999999999999389 0.072139136258909636 0 0.4787628640296252 0.09057766153942011 0 0.47264706529987838 0.068582714068275596 0 0.47264706529987838 0.068582714068275596 0 0.44529413059976319 0.065026291877640793 0 0.47264706529987838 0.068582714068275596 0 0.45009241250792742 0.089848104882156193 0 0.44529413059976319 0.065026291877640793 0 0.4787628640296252 0.09057766153942011 0 0.47264706529987838 0.068582714068275596 0 0.45009241250792742 0.089848104882156193 0 0.45009241250792742 0.089848104882156193 0 0.44529413059976319 0.065026291877640793 0 0.42710943965072512 0.080764761008918995 0 0.4559740449914913 0.1245921335342187 0 0.46516048943464161 0.10828503812685281 0 0.44660059903698529 0.1095612823054605 0 0.47795750643906171 0.12649365297180731 0 0.4559740449914913 0.1245921335342187 0 0.46516048943464161 0.10828503812685281 0 0.45009241250792742 0.089848104882156193 0 0.46516048943464161 0.10828503812685281 0 0.44660059903698529 0.1095612823054605 0 0.4787628640296252 0.09057766153942011 0 0.45009241250792742 0.089848104882156193 0 0.46516048943464161 0.10828503812685281 0 0.45009241250792742 0.089848104882156193 0 0.44660059903698529 0.1095612823054605 0 0.42999027194599682 0.1018780191517587 0 0.43054248402473921 0.1250848439374013 0 0.4559740449914913 0.1245921335342187 0 0.44660059903698529 0.1095612823054605 0 0.43054248402473921 0.1250848439374013 0 0.44660059903698529 0.1095612823054605 0 0.42999027194599682 0.1018780191517587 0 0.43054248402473921 0.1250848439374013 0 0.41661501870526302 0.10782610780512 0 0.42999027194599682 0.1018780191517587 0 0.43054248402473921 0.1250848439374013 0 0.41135066019799099 0.1182158826350982 0 0.41661501870526302 0.10782610780512 0 0.43054248402473921 0.1250848439374013 0 0.41135066019799099 0.1182158826350982 0 0.41135066019799099 0.1182158826350982 0 0.41661501870526302 0.10782610780512 0 0.40605193543095291 0.1101899923625959 0 0.41199731756477831 0.13352747615702071 0 0.40856435551682457 0.1195913393650266 0 0.41135066019799099 0.1182158826350982 0 0.41661501870526302 0.10782610780512 0 0.42999027194599682 0.1018780191517587 0 0.41050144950628809 0.092342992232264526 0 0.41661501870526302 0.10782610780512 0 0.41050144950628809 0.092342992232264526 0 0.40408322644931421 0.10337105767737099 0 0.41661501870526302 0.10782610780512 0 0.40605193543095291 0.1101899923625959 0 0.40408322644931421 0.10337105767737099 0 0.45009241250792742 0.089848104882156193 0 0.42999027194599682 0.1018780191517587 0 0.42710943965072512 0.080764761008918995 0 0.42999027194599682 0.1018780191517587 0 0.42710943965072512 0.080764761008918995 0 0.41050144950628809 0.092342992232264526 0 0.44529413059976319 0.065026291877640793 0 0.42710943965072512 0.080764761008918995 0 0.41794119589964812 0.061469869687005997 0 0.44529413059976319 0.065026291877640793 0 0.41794119589964812 0.061469869687005997 0 0.42710943965072512 0.080764761008918995 0 0.40780427562880051 0.074340584248736047 0 0.41794119589964812 0.061469869687005997 0 0.42710943965072512 0.080764761008918995 0 0.40780427562880051 0.074340584248736047 0 0.41050144950628809 0.092342992232264526 0 0.41050144950628809 0.092342992232264526 0 0.39288103188780799 0.079211850819119467 0 0.39173805803946632 0.094638931286680023 0 0.40780427562880051 0.074340584248736047 0 0.41050144950628809 0.092342992232264526 0 0.39288103188780799 0.079211850819119467 0 0.40780427562880051 0.074340584248736047 0 0.39058826119953283 0.057913447496371839 0 0.41794119589964812 0.061469869687005997 0 0.40780427562880051 0.074340584248736047 0 0.39288103188780799 0.079211850819119467 0 0.39058826119953283 0.057913447496371839 0 0.39288103188780799 0.079211850819119467 0 0.37575225644292037 0.071709270247263784 0 0.39058826119953283 0.057913447496371839 0 0.3742009225581896 0.091268948227223284 0 0.39288103188780799 0.079211850819119467 0 0.39173805803946632 0.094638931286680023 0 0.3742009225581896 0.091268948227223284 0 0.39288103188780799 0.079211850819119467 0 0.37575225644292037 0.071709270247263784 0 0.3742009225581896 0.091268948227223284 0 0.39215883637124299 0.11134692133279479 0 0.39173805803946632 0.094638931286680023 0 0.3742009225581896 0.091268948227223284 0 0.39215883637124299 0.11134692133279479 0 0.3742009225581896 0.091268948227223284 0 0.3795225325030368 0.1068242515199407 0 0.39215883637124299 0.11134692133279479 0 0.3795225325030368 0.1068242515199407 0 0.39215883637124299 0.11134692133279479 0 0.3795225325030368 0.1068242515199407 0 0.38138511069115272 0.12353481432135879 0 0.3942733283070321 0.11371104406223111 0 0.36649271172908648 0.1176987398754743 0 0.3795225325030368 0.1068242515199407 0 0.38138511069115272 0.12353481432135879 0 0.39421974672685411 0.13240309148155921 0 0.38138511069115272 0.12353481432135879 0 0.3942733283070321 0.11371104406223111 0 0.3795225325030368 0.1068242515199407 0 0.3942733283070321 0.11371104406223111 0 0.3795225325030368 0.1068242515199407 0 0.39215883637124299 0.11134692133279479 0 0.3942733283070321 0.11371104406223111 0 0.41135066019799099 0.1182158826350982 0 0.39215883637124299 0.11134692133279479 0 0.40605193543095291 0.1101899923625959 0 0.41135066019799099 0.1182158826350982 0 0.39215883637124299 0.11134692133279479 0 0.3942733283070321 0.11371104406223111 0 0.41135066019799099 0.1182158826350982 0 0.39215883637124299 0.11134692133279479 0 0.41199731756477831 0.13352747615702071 0 0.40856435551682457 0.1195913393650266 0 0.3942733283070321 0.11371104406223111 0 0.41199731756477831 0.13352747615702071 0 0.3942733283070321 0.11371104406223111 0 0.40856435551682457 0.1195913393650266 0 0.41135066019799099 0.1182158826350982 0 0.3942733283070321 0.11371104406223111 0 0.39215883637124299 0.11134692133279479 0 0.3942733283070321 0.11371104406223111 0 0.40856435551682457 0.1195913393650266 0 0.3942733283070321 0.11371104406223111 0 0.39215883637124299 0.11134692133279479 0 0.40408322644931421 0.10337105767737099 0 0.39173805803946632 0.094638931286680023 0 0.39215883637124299 0.11134692133279479 0 0.40605193543095291 0.1101899923625959 0 0.40408322644931421 0.10337105767737099 0 0.41050144950628809 0.092342992232264526 0 0.40408322644931421 0.10337105767737099 0 0.39173805803946632 0.094638931286680023 0 0.4038432128890253 0.016274120358417851 0 0.39452024459155199 0.029629145094844 0 0.3798040161112804 0.028996110171619349 0 0.4038432128890253 0.016274120358417851 0 0.39452024459155199 0.029629145094844 0 0.40714332068978548 0.032011032787191827 0 0.4038432128890253 0.016274120358417851 0 0.3798040161112804 0.028996110171619349 0 0.4038432128890253 0.016274120358417851 0 0.39390920682105918 0.0040204267233196643 0 0.38813729234829519 0.016219836643301819 0 0.4038432128890253 0.016274120358417851 0 0.39390920682105918 0.0040204267233196643 0 0.40369857438468087 -0.0060371637805465179 0 0.39390920682105918 0.0040204267233196643 0 0.38212023564171321 0.001094655884648786 0 0.38813729234829519 0.016219836643301819 0 0.38212023564171321 0.001094655884648786 0 0.37537418671591988 0.012891754799621079 0 0.3700201466167648 -0.002195575246397889 0 0.38212023564171321 0.001094655884648786 0 0.37537418671591988 0.012891754799621079 0 0.38813729234829519 0.016219836643301819 0 0.38029426512156322 0.021339738828328979 0 0.38813729234829519 0.016219836643301819 0 0.3798040161112804 0.028996110171619349 0 0.4038432128890253 0.016274120358417851 0 0.38813729234829519 0.016219836643301819 0 0.3798040161112804 0.028996110171619349 0 0.37537418671591988 0.012891754799621079 0 0.38029426512156322 0.021339738828328979 0 0.37786156531075732 0.02725125369877367 0 0.37537418671591988 0.012891754799621079 0 0.38029426512156322 0.021339738828328979 0 0.38813729234829519 0.016219836643301819 0 0.39452024459155199 0.029629145094844 0 0.3798040161112804 0.028996110171619349 0 0.384792923869274 0.033192425096464057 0 0.38029426512156322 0.021339738828328979 0 0.3798040161112804 0.028996110171619349 0 0.37786156531075732 0.02725125369877367 0 0.36984281421283938 0.03924660656396721 0 0.3798040161112804 0.028996110171619349 0 0.37675727284589372 0.036323400775862158 0 0.3798040161112804 0.028996110171619349 0 0.38012370578730592 0.033949837724153123 0 0.37675727284589372 0.036323400775862158 0 0.3798040161112804 0.028996110171619349 0 0.38012370578730592 0.033949837724153123 0 0.384792923869274 0.033192425096464057 0 0.38012370578730592 0.033949837724153123 0 0.38115894465086869 0.037510150111343843 0 0.384792923869274 0.033192425096464057 0 0.38012370578730592 0.033949837724153123 0 0.38115894465086869 0.037510150111343843 0 0.37675727284589372 0.036323400775862158 0 0.38115894465086869 0.037510150111343843 0 0.37675727284589372 0.036323400775862158 0 0.37726993283737248 0.041439113600633092 0 0.37726993283737248 0.041439113600633092 0 0.38325871491723518 0.0441773091346798 0 0.37608467898805159 0.048096788967416412 0 0.38115894465086869 0.037510150111343843 0 0.37726993283737248 0.041439113600633092 0 0.38325871491723518 0.0441773091346798 0 0.38115894465086869 0.037510150111343843 0 0.38325871491723518 0.0441773091346798 0 0.38884635116990662 0.036871995634108659 0 0.38325871491723518 0.0441773091346798 0 0.38884635116990662 0.036871995634108659 0 0.39118926401298038 0.043344116461786472 0 0.39452024459155199 0.029629145094844 0 0.38884635116990662 0.036871995634108659 0 0.384792923869274 0.033192425096464057 0 0.38115894465086869 0.037510150111343843 0 0.38884635116990662 0.036871995634108659 0 0.384792923869274 0.033192425096464057 0 0.36737709041569239 0.056764699852256018 0 0.39058826119953283 0.057913447496371839 0 0.36443667806580698 0.054513224756226962 0 0.37608467898805159 0.048096788967416412 0 0.39058826119953283 0.057913447496371839 0 0.36737709041569239 0.056764699852256018 0 0.37575225644292037 0.071709270247263784 0 0.39058826119953283 0.057913447496371839 0 0.36443667806580698 0.054513224756226962 0 0.39058826119953283 0.057913447496371839 0 0.38325871491723518 0.0441773091346798 0 0.37608467898805159 0.048096788967416412 0 0.39058826119953283 0.057913447496371839 0 0.38325871491723518 0.0441773091346798 0 0.39058826119953283 0.057913447496371839 0 0.39118926401298038 0.043344116461786472 0 0.39058826119953283 0.057913447496371839 0 0.39917917489280202 0.048669550515315511 0 0.40824027372044169 0.058787065978875973 0 0.39058826119953283 0.057913447496371839 0 0.40824027372044169 0.058787065978875973 0 0.39058826119953283 0.057913447496371839 0 0.41794119589964812 0.061469869687005997 0 0.40824027372044169 0.058787065978875973 0 0.39058826119953283 0.057913447496371839 0 0.41794119589964812 0.061469869687005997 0 0.39058826119953283 0.057913447496371839 0 0.39917917489280202 0.048669550515315511 0 0.39118926401298038 0.043344116461786472 0 0.39917917489280202 0.048669550515315511 0 0.40803146459590139 0.044566129264659721 0 0.40824027372044169 0.058787065978875973 0 0.39452024459155199 0.029629145094844 0 0.38884635116990662 0.036871995634108659 0 0.39784661093515339 0.038736993374884177 0 0.39917917489280202 0.048669550515315511 0 0.39784661093515339 0.038736993374884177 0 0.39118926401298038 0.043344116461786472 0 0.38884635116990662 0.036871995634108659 0 0.39784661093515339 0.038736993374884177 0 0.39118926401298038 0.043344116461786472 0 0.39917917489280202 0.048669550515315511 0 0.39784661093515339 0.038736993374884177 0 0.40803146459590139 0.044566129264659721 0 0.39452024459155199 0.029629145094844 0 0.39784661093515339 0.038736993374884177 0 0.40714332068978548 0.032011032787191827 0 0.39784661093515339 0.038736993374884177 0 0.40714332068978548 0.032011032787191827 0 0.40803146459590139 0.044566129264659721 0 0.40714332068978548 0.032011032787191827 0 0.40803146459590139 0.044566129264659721 0 0.41964440497126981 0.040250358009145122 0 0.40803146459590139 0.044566129264659721 0 0.41964440497126981 0.040250358009145122 0 0.41733432138732551 0.050785193364838402 0 0.40714332068978548 0.032011032787191827 0 0.41964440497126981 0.040250358009145122 0 0.41891932927970088 0.026081136014491389 0 0.40824027372044169 0.058787065978875973 0 0.41733432138732551 0.050785193364838402 0 0.42589228624135061 0.059660684461379461 0 0.40824027372044169 0.058787065978875973 0 0.42589228624135061 0.059660684461379461 0 0.41794119589964812 0.061469869687005997 0 0.40824027372044169 0.058787065978875973 0 0.42589228624135061 0.059660684461379461 0 0.40803146459590139 0.044566129264659721 0 0.40824027372044169 0.058787065978875973 0 0.41733432138732551 0.050785193364838402 0 0.41964440497126981 0.040250358009145122 0 0.41733432138732551 0.050785193364838402 0 0.42647272639553008 0.050672874727357403 0 0.44529413059976319 0.065026291877640793 0 0.42589228624135061 0.059660684461379461 0 0.43583307009461808 0.053135938561971199 0 0.44529413059976319 0.065026291877640793 0 0.41794119589964812 0.061469869687005997 0 0.42589228624135061 0.059660684461379461 0 0.42589228624135061 0.059660684461379461 0 0.42647272639553008 0.050672874727357403 0 0.43583307009461808 0.053135938561971199 0 0.41733432138732551 0.050785193364838402 0 0.42589228624135061 0.059660684461379461 0 0.42647272639553008 0.050672874727357403 0 0.42647272639553008 0.050672874727357403 0 0.43583307009461808 0.053135938561971199 0 0.4340740022190257 0.043822740937536728 0 0.41964440497126981 0.040250358009145122 0 0.42987588244635011 0.033334548906864728 0 0.41891932927970088 0.026081136014491389 0 0.41964440497126981 0.040250358009145122 0 0.4340740022190257 0.043822740937536728 0 0.42987588244635011 0.033334548906864728 0 0.41964440497126981 0.040250358009145122 0 0.42647272639553008 0.050672874727357403 0 0.4340740022190257 0.043822740937536728 0 0.4340740022190257 0.043822740937536728 0 0.42987588244635011 0.033334548906864728 0 0.44528176508543132 0.032905620831071007 0 0.42987588244635011 0.033334548906864728 0 0.43184963590009789 0.021236349906575389 0 0.44528176508543132 0.032905620831071007 0 0.43184963590009789 0.021236349906575389 0 0.42259879527057942 0.015927249454054739 0 0.43188165484739188 0.01287087804949661 0 0.43184963590009789 0.021236349906575389 0 0.42259879527057942 0.015927249454054739 0 0.41891932927970088 0.026081136014491389 0 0.42987588244635011 0.033334548906864728 0 0.43184963590009789 0.021236349906575389 0 0.41891932927970088 0.026081136014491389 0 0.4038432128890253 0.016274120358417851 0 0.42259879527057942 0.015927249454054739 0 0.41891932927970088 0.026081136014491389 0 0.4038432128890253 0.016274120358417851 0 0.40714332068978548 0.032011032787191827 0 0.41891932927970088 0.026081136014491389 0 0.4038432128890253 0.016274120358417851 0 0.41402040698134779 -0.0025911497673051101 0 0.40369857438468087 -0.0060371637805465179 0 0.4038432128890253 0.016274120358417851 0 0.42788240966677021 0.003552130545216341 0 0.4038432128890253 0.016274120358417851 0 0.42101935538117791 0.0050386314779034547 0 0.41402040698134779 -0.0025911497673051101 0 0.4038432128890253 0.016274120358417851 0 0.42259879527057942 0.015927249454054739 0 0.42788240966677021 0.003552130545216341 0 0.4038432128890253 0.016274120358417851 0 0.42101935538117791 0.0050386314779034547 0 0.42788240966677021 0.003552130545216341 0 0.42788240966677021 0.003552130545216341 0 0.43188165484739188 0.01287087804949661 0 0.44740740452026229 0.01137317045841814 0 0.42259879527057942 0.015927249454054739 0 0.42788240966677021 0.003552130545216341 0 0.43188165484739188 0.01287087804949661 0 0.43184963590009789 0.021236349906575389 0 0.43188165484739188 0.01287087804949661 0 0.44740740452026229 0.01137317045841814 0 0.42788240966677021 0.003552130545216341 0 0.44740740452026229 0.01137317045841814 0 0.45192160644451512 -0.0091698592679851504 0 0.43184963590009789 0.021236349906575389 0 0.44740740452026229 0.01137317045841814 0 0.44528176508543132 0.032905620831071007 0 0.44740740452026229 0.01137317045841814 0 0.44528176508543132 0.032905620831071007 0 0.46875558315454652 0.02621282055229885 0 0.44740740452026229 0.01137317045841814 0 0.4740075662235973 0.0028935560396234419 0 0.46875558315454652 0.02621282055229885 0 0.44740740452026229 0.01137317045841814 0 0.4740075662235973 0.0028935560396234419 0 0.45192160644451512 -0.0091698592679851504 0 0.44529413059976319 0.065026291877640793 0 0.44587589901867808 0.047550444472131762 0 0.4614262583005877 0.04791767975015173 0 0.44529413059976319 0.065026291877640793 0 0.43583307009461808 0.053135938561971199 0 0.44587589901867808 0.047550444472131762 0 0.43583307009461808 0.053135938561971199 0 0.4340740022190257 0.043822740937536728 0 0.44587589901867808 0.047550444472131762 0 0.44587589901867808 0.047550444472131762 0 0.44528176508543132 0.032905620831071007 0 0.4614262583005877 0.04791767975015173 0 0.4340740022190257 0.043822740937536728 0 0.44587589901867808 0.047550444472131762 0 0.44528176508543132 0.032905620831071007 0 0.44528176508543132 0.032905620831071007 0 0.4614262583005877 0.04791767975015173 0 0.46875558315454652 0.02621282055229885 0 0.47264706529987838 0.068582714068275596 0 0.44529413059976319 0.065026291877640793 0 0.4614262583005877 0.04791767975015173 0 0.47264706529987838 0.068582714068275596 0 0.4614262583005877 0.04791767975015173 0 0.48053199367993171 0.043851827509569327 0 0.4614262583005877 0.04791767975015173 0 0.48053199367993171 0.043851827509569327 0 0.46875558315454652 0.02621282055229885 0 0.48053199367993171 0.043851827509569327 0 0.5 0.04545089247058498 0 0.5 0.018762648682260189 0 0.49999999999999389 0.072139136258909636 0 0.47264706529987838 0.068582714068275596 0 0.48053199367993171 0.043851827509569327 0 0.49999999999999389 0.072139136258909636 0 0.48053199367993171 0.043851827509569327 0 0.5 0.04545089247058498 0 0.48053199367993171 0.043851827509569327 0 0.46875558315454652 0.02621282055229885 0 0.5 0.018762648682260189 0 0.4740075662235973 0.0028935560396234419 0 0.46875558315454652 0.02621282055229885 0 0.5 0.018762648682260189 0 0.4740075662235973 0.0028935560396234419 0 0.5 0.018762648682260189 0 0.5 -0.0079255951060647756 0 0.4740075662235973 0.0028935560396234419 0 0.5 -0.0079255951060647756 0 0.47596080322225992 -0.02189184908118659 0 0.47596080322225992 -0.02189184908118659 0 0.50000000000000377 -0.034613838894389633 0 0.5 -0.0079255951060647756 0 0.47596080322225992 -0.02189184908118659 0 0.50000000000000377 -0.034613838894389633 0 0.47596080322225992 -0.02189184908118659 0 0.50000000000000377 -0.034613838894389633 0 0.48339532061042467 -0.042675677639817791 0 0.50000000000000377 -0.034613838894389633 0 0.5 -0.052291970509826757 0 0.48339532061042467 -0.042675677639817791 0 0.5 -0.052291970509826757 0 0.48378938215607542 -0.060491629721736481 0 0.49999999999999678 -0.069970102125263903 0 0.5 -0.052291970509826757 0 0.48378938215607542 -0.060491629721736481 0 0.48339532061042467 -0.042675677639817791 0 0.48378938215607542 -0.060491629721736481 0 0.47035919737641452 -0.05083356829212015 0 0.48339532061042467 -0.042675677639817791 0 0.48378938215607542 -0.060491629721736481 0 0.47035919737641452 -0.05083356829212015 0 0.46263532094350251 -0.0655193079319734 0 0.47596080322225992 -0.02189184908118659 0 0.48339532061042467 -0.042675677639817791 0 0.46122373864745198 -0.034064038759572521 0 0.47035919737641452 -0.05083356829212015 0 0.48339532061042467 -0.042675677639817791 0 0.46122373864745198 -0.034064038759572521 0 0.46122373864745198 -0.034064038759572521 0 0.45641225836005789 -0.05051217933658872 0 0.44483042593949818 -0.041063070916932051 0 0.47035919737641452 -0.05083356829212015 0 0.46122373864745198 -0.034064038759572521 0 0.45641225836005789 -0.05051217933658872 0 0.45641225836005789 -0.05051217933658872 0 0.44526353314296241 -0.062107813217869068 0 0.46263532094350251 -0.0655193079319734 0 0.47035919737641452 -0.05083356829212015 0 0.45641225836005789 -0.05051217933658872 0 0.46263532094350251 -0.0655193079319734 0 0.45641225836005789 -0.05051217933658872 0 0.44526353314296241 -0.062107813217869068 0 0.44483042593949818 -0.041063070916932051 0 0.44526353314296241 -0.062107813217869068 0 0.44483042593949818 -0.041063070916932051 0 0.42768193525564641 -0.052738548234870043 0 0.46122373864745198 -0.034064038759572521 0 0.44483042593949818 -0.041063070916932051 0 0.44260817666721519 -0.025216613737701819 0 0.44483042593949818 -0.041063070916932051 0 0.44260817666721519 -0.025216613737701819 0 0.43454865465473302 -0.032105158367880783 0 0.46122373864745198 -0.034064038759572521 0 0.44260817666721519 -0.025216613737701819 0 0.45192160644451512 -0.0091698592679851504 0 0.42788240966677021 0.003552130545216341 0 0.45192160644451512 -0.0091698592679851504 0 0.44260817666721519 -0.025216613737701819 0 0.45192160644451512 -0.0091698592679851504 0 0.43543049063324413 -0.012350052332502739 0 0.42788240966677021 0.003552130545216341 0 0.45192160644451512 -0.0091698592679851504 0 0.43543049063324413 -0.012350052332502739 0 0.4740075662235973 0.0028935560396234419 0 0.47596080322225992 -0.02189184908118659 0 0.45192160644451512 -0.0091698592679851504 0 0.47596080322225992 -0.02189184908118659 0 0.45192160644451512 -0.0091698592679851504 0 0.47596080322225992 -0.02189184908118659 0 0.46122373864745198 -0.034064038759572521 0 0.45192160644451512 -0.0091698592679851504 0 0.47621403880257929 -0.099362679963144546 0 0.45825176112352212 -0.1171944005084963 0 0.47461064769812122 -0.12772964805397971 0 0.50000000000000433 -0.1143432737178363 0 0.47621403880257929 -0.099362679963144546 0 0.47461064769812122 -0.12772964805397971 0 0.50000000000000433 -0.1143432737178363 0 0.47461064769812122 -0.12772964805397971 0 0.49999999999998102 -0.1000967699598443 0 0.47621403880257929 -0.099362679963144546 0 0.49999999999998102 -0.1000967699598443 0 0.47621403880257929 -0.099362679963144546 0 0.48785951469139027 -0.086657123706384981 0 0.50000000000000433 -0.1143432737178363 0 0.49999999999998102 -0.1000967699598443 0 0.47621403880257929 -0.099362679963144546 0 0.47621403880257929 -0.099362679963144546 0 0.48785951469139027 -0.086657123706384981 0 0.47522401996300467 -0.077198942777287505 0 0.47621403880257929 -0.099362679963144546 0 0.47522401996300467 -0.077198942777287505 0 0.46460819440086443 -0.0896918568577834 0 0.49999999999998102 -0.1000967699598443 0 0.48785951469139027 -0.086657123706384981 0 0.49999999999999678 -0.069970102125263903 0 0.49999999999999678 -0.069970102125263903 0 0.47522401996300467 -0.077198942777287505 0 0.48785951469139027 -0.086657123706384981 0 0.49999999999999678 -0.069970102125263903 0 0.47522401996300467 -0.077198942777287505 0 0.48378938215607542 -0.060491629721736481 0 0.49999999999999678 -0.069970102125263903 0 0.47522401996300467 -0.077198942777287505 0 0.48378938215607542 -0.060491629721736481 0 0.47522401996300467 -0.077198942777287505 0 0.46263532094350251 -0.0655193079319734 0 0.47522401996300467 -0.077198942777287505 0 0.46263532094350251 -0.0655193079319734 0 0.4504480399260129 -0.084427783429311939 0 0.44526353314296241 -0.062107813217869068 0 0.46263532094350251 -0.0655193079319734 0 0.4504480399260129 -0.084427783429311939 0 0.44526353314296241 -0.062107813217869068 0 0.4504480399260129 -0.084427783429311939 0 0.43069868055782679 -0.078899440675300136 0 0.4504480399260129 -0.084427783429311939 0 0.45242807760517778 -0.098628589966444233 0 0.42864211640777627 -0.097894499969741214 0 0.4504480399260129 -0.084427783429311939 0 0.42567205988902129 -0.091656624081337568 0 0.47522401996300467 -0.077198942777287505 0 0.4504480399260129 -0.084427783429311939 0 0.47522401996300467 -0.077198942777287505 0 0.4504480399260129 -0.084427783429311939 0 0.46460819440086443 -0.0896918568577834 0 0.4504480399260129 -0.084427783429311939 0 0.46460819440086443 -0.0896918568577834 0 0.45242807760517778 -0.098628589966444233 0 0.47621403880257929 -0.099362679963144546 0 0.45242807760517778 -0.098628589966444233 0 0.45825176112352212 -0.1171944005084963 0 0.47621403880257929 -0.099362679963144546 0 0.45242807760517778 -0.098628589966444233 0 0.47621403880257929 -0.099362679963144546 0 0.46460819440086443 -0.0896918568577834 0 0.45242807760517778 -0.098628589966444233 0 0.45242807760517778 -0.098628589966444233 0 0.42864211640777627 -0.097894499969741214 0 0.45242807760517778 -0.098628589966444233 0 0.43893170590200609 -0.1195052611799315 0 0.42864211640777627 -0.097894499969741214 0 0.45242807760517778 -0.098628589966444233 0 0.43893170590200609 -0.1195052611799315 0 0.45825176112352212 -0.1171944005084963 0 0.42080162445294911 -0.1170697999396166 0 0.40604313277712428 -0.1171380761358455 0 0.41368108829086198 -0.13554811058748131 0 0.42080162445294911 -0.1170697999396166 0 0.40662173914453831 -0.097214899993173481 0 0.40604313277712428 -0.1171380761358455 0 0.43893170590200609 -0.1195052611799315 0 0.42080162445294911 -0.1170697999396166 0 0.430889964195386 -0.135117951771525 0 0.43893170590200609 -0.1195052611799315 0 0.42080162445294911 -0.1170697999396166 0 0.42864211640777627 -0.097894499969741214 0 0.43893170590200609 -0.1195052611799315 0 0.42864211640777627 -0.097894499969741214 0 0.42864211640777627 -0.097894499969741214 0 0.42567205988902129 -0.091656624081337568 0 0.42864211640777627 -0.097894499969741214 0 0.40662173914453831 -0.097214899993173481 0 0.42567205988902129 -0.091656624081337568 0 0.42080162445294911 -0.1170697999396166 0 0.42864211640777627 -0.097894499969741214 0 0.40662173914453831 -0.097214899993173481 0 0.42864211640777627 -0.097894499969741214 0 0.40662173914453831 -0.097214899993173481 0 0.40662173914453831 -0.097214899993173481 0 0.42567205988902129 -0.091656624081337568 0 0.40662173914453831 -0.097214899993173481 0 0.41829766411352998 -0.087706900461061957 0 0.42567205988902129 -0.091656624081337568 0 0.40662173914453831 -0.097214899993173481 0 0.41020628866808312 -0.08357079425946129 0 0.41829766411352998 -0.087706900461061957 0 0.41020628866808312 -0.08357079425946129 0 0.42012861486432151 -0.07981881462850364 0 0.41094109939792961 -0.074512111623280808 0 0.41020628866808312 -0.08357079425946129 0 0.41094109939792961 -0.074512111623280808 0 0.40556094342569721 -0.078918860306745137 0 0.41020628866808312 -0.08357079425946129 0 0.42012861486432151 -0.07981881462850364 0 0.41829766411352998 -0.087706900461061957 0 0.42012861486432151 -0.07981881462850364 0 0.41829766411352998 -0.087706900461061957 0 0.42254342745458301 -0.084546146485576762 0 0.41829766411352998 -0.087706900461061957 0 0.42461385466063262 -0.08943412331831832 0 0.42254342745458301 -0.084546146485576762 0 0.42567205988902129 -0.091656624081337568 0 0.42461385466063262 -0.08943412331831832 0 0.43069868055782679 -0.078899440675300136 0 0.4504480399260129 -0.084427783429311939 0 0.42567205988902129 -0.091656624081337568 0 0.43069868055782679 -0.078899440675300136 0 0.4504480399260129 -0.084427783429311939 0 0.42864211640777627 -0.097894499969741214 0 0.42567205988902129 -0.091656624081337568 0 0.42567205988902129 -0.091656624081337568 0 0.42461385466063262 -0.08943412331831832 0 0.41829766411352998 -0.087706900461061957 0 0.42567205988902129 -0.091656624081337568 0 0.42461385466063262 -0.08943412331831832 0 0.42012861486432151 -0.07981881462850364 0 0.43069868055782679 -0.078899440675300136 0 0.42254342745458301 -0.084546146485576762 0 0.42461385466063262 -0.08943412331831832 0 0.43069868055782679 -0.078899440675300136 0 0.42254342745458301 -0.084546146485576762 0 0.43069868055782679 -0.078899440675300136 0 0.42085386234523608 -0.065266903626460593 0 0.41911482919747139 -0.073234494934215744 0 0.43069868055782679 -0.078899440675300136 0 0.42085386234523608 -0.065266903626460593 0 0.42768193525564641 -0.052738548234870043 0 0.44526353314296241 -0.062107813217869068 0 0.43069868055782679 -0.078899440675300136 0 0.42768193525564641 -0.052738548234870043 0 0.43069868055782679 -0.078899440675300136 0 0.42768193525564641 -0.052738548234870043 0 0.42012861486432151 -0.07981881462850364 0 0.43069868055782679 -0.078899440675300136 0 0.41911482919747139 -0.073234494934215744 0 0.42085386234523608 -0.065266903626460593 0 0.41911482919747139 -0.073234494934215744 0 0.41247118756252621 -0.068972059658544485 0 0.41911482919747139 -0.073234494934215744 0 0.41094109939792961 -0.074512111623280808 0 0.41247118756252621 -0.068972059658544485 0 0.42012861486432151 -0.07981881462850364 0 0.41911482919747139 -0.073234494934215744 0 0.41094109939792961 -0.074512111623280808 0 0.41094109939792961 -0.074512111623280808 0 0.41247118756252621 -0.068972059658544485 0 0.40519344017519737 -0.069697512887539489 0 0.42085386234523608 -0.065266903626460593 0 0.41247118756252621 -0.068972059658544485 0 0.40625270669679608 -0.06214927522122575 0 0.41247118756252621 -0.068972059658544485 0 0.40519344017519737 -0.069697512887539489 0 0.40625270669679608 -0.06214927522122575 0 0.40519344017519737 -0.069697512887539489 0 0.3909339432522656 -0.07145852807871525 0 0.40625270669679608 -0.06214927522122575 0 0.41094109939792961 -0.074512111623280808 0 0.40094221169150912 -0.074554002884685597 0 0.40556094342569721 -0.078918860306745137 0 0.40519344017519737 -0.069697512887539489 0 0.40094221169150912 -0.074554002884685597 0 0.3909339432522656 -0.07145852807871525 0 0.41094109939792961 -0.074512111623280808 0 0.40519344017519737 -0.069697512887539489 0 0.40094221169150912 -0.074554002884685597 0 0.40094221169150912 -0.074554002884685597 0 0.3909339432522656 -0.07145852807871525 0 0.39616481607021642 -0.077435810443283751 0 0.3909339432522656 -0.07145852807871525 0 0.39616481607021642 -0.077435810443283751 0 0.39262893539182381 -0.080692178350181262 0 0.39181446083091098 -0.066763706552935329 0 0.38421934743036401 -0.068446750892908373 0 0.38398729378694407 -0.058429379279077209 0 0.38421934743036401 -0.068446750892908373 0 0.37813424473731178 -0.068262582352726586 0 0.38398729378694407 -0.058429379279077209 0 0.37813424473731178 -0.068262582352726586 0 0.38294139036628899 -0.080331335386894381 0 0.37353404377441052 -0.075370636612477671 0 0.38421934743036401 -0.068446750892908373 0 0.37813424473731178 -0.068262582352726586 0 0.38294139036628899 -0.080331335386894381 0 0.39181446083091098 -0.066763706552935329 0 0.38294139036628899 -0.080331335386894381 0 0.39181446083091098 -0.066763706552935329 0 0.38421934743036401 -0.068446750892908373 0 0.38294139036628899 -0.080331335386894381 0 0.3909339432522656 -0.07145852807871525 0 0.39181446083091098 -0.066763706552935329 0 0.38294139036628899 -0.080331335386894381 0 0.38598565568847482 -0.085166122563822014 0 0.39289996883908601 -0.089154852807517448 0 0.39262893539182381 -0.080692178350181262 0 0.3909339432522656 -0.07145852807871525 0 0.38598565568847482 -0.085166122563822014 0 0.39262893539182381 -0.080692178350181262 0 0.3909339432522656 -0.07145852807871525 0 0.37406831990166722 -0.093898964220853504 0 0.3909339432522656 -0.07145852807871525 0 0.38598565568847482 -0.085166122563822014 0 0.37406831990166722 -0.093898964220853504 0 0.3909339432522656 -0.07145852807871525 0 0.38294139036628899 -0.080331335386894381 0 0.37406831990166722 -0.093898964220853504 0 0.38294139036628899 -0.080331335386894381 0 0.37406831990166722 -0.093898964220853504 0 0.38598565568847482 -0.085166122563822014 0 0.38240509603332101 -0.092127683864182172 0 0.37406831990166722 -0.093898964220853504 0 0.38240509603332101 -0.092127683864182172 0 0.39289996883908601 -0.089154852807517448 0 0.38960421283109031 -0.096689699614190994 0 0.38598565568847482 -0.085166122563822014 0 0.38240509603332101 -0.092127683864182172 0 0.39289996883908601 -0.089154852807517448 0 0.39289996883908601 -0.089154852807517448 0 0.39262893539182381 -0.080692178350181262 0 0.40015417394526698 -0.083038532459552866 0 0.39616481607021642 -0.077435810443283751 0 0.39262893539182381 -0.080692178350181262 0 0.40015417394526698 -0.083038532459552866 0 0.40094221169150912 -0.074554002884685597 0 0.40556094342569721 -0.078918860306745137 0 0.40015417394526698 -0.083038532459552866 0 0.40094221169150912 -0.074554002884685597 0 0.39616481607021642 -0.077435810443283751 0 0.40015417394526698 -0.083038532459552866 0 0.41020628866808312 -0.08357079425946129 0 0.40556094342569721 -0.078918860306745137 0 0.40015417394526698 -0.083038532459552866 0 0.40662173914453831 -0.097214899993173481 0 0.39289996883908601 -0.089154852807517448 0 0.40015417394526698 -0.083038532459552866 0 0.40662173914453831 -0.097214899993173481 0 0.41020628866808312 -0.08357079425946129 0 0.40015417394526698 -0.083038532459552866 0 0.40662173914453831 -0.097214899993173481 0 0.3851668720105898 -0.10347474583943909 0 0.38960421283109031 -0.096689699614190994 0 0.40662173914453831 -0.097214899993173481 0 0.3851668720105898 -0.10347474583943909 0 0.40662173914453831 -0.097214899993173481 0 0.39289996883908601 -0.089154852807517448 0 0.38960421283109031 -0.096689699614190994 0 0.40662173914453831 -0.097214899993173481 0 0.38960421283109031 -0.096689699614190994 0 0.40662173914453831 -0.097214899993173481 0 0.3851668720105898 -0.10347474583943909 0 0.39374350655696688 -0.1137959578468639 0 0.38960421283109031 -0.096689699614190994 0 0.37237061700676077 -0.09615783082836224 0 0.3851668720105898 -0.10347474583943909 0 0.38960421283109031 -0.096689699614190994 0 0.37237061700676077 -0.09615783082836224 0 0.38240509603332101 -0.092127683864182172 0 0.38960421283109031 -0.096689699614190994 0 0.37237061700676077 -0.09615783082836224 0 0.38240509603332101 -0.092127683864182172 0 0.37406831990166722 -0.093898964220853504 0 0.37237061700676077 -0.09615783082836224 0 0.3785150876385216 -0.1195111518185689 0 0.39374350655696688 -0.1137959578468639 0 0.39237070121405998 -0.13164091544729051 0 0.3851668720105898 -0.10347474583943909 0 0.3785150876385216 -0.1195111518185689 0 0.36371200487664068 -0.10973459168570281 0 0.3851668720105898 -0.10347474583943909 0 0.3785150876385216 -0.1195111518185689 0 0.39374350655696688 -0.1137959578468639 0 0.40662173914453831 -0.097214899993173481 0 0.39374350655696688 -0.1137959578468639 0 0.40604313277712428 -0.1171380761358455 0 0.39374350655696688 -0.1137959578468639 0 0.40604313277712428 -0.1171380761358455 0 0.39237070121405998 -0.13164091544729051 0 0.41728163952739061 -0.019334187549187701 0 0.42284227266732188 -0.010769512158268201 0 0.42466518995346408 -0.026577655794440151 0 0.41728163952739061 -0.019334187549187701 0 0.41227128108974659 -0.029924501558089681 0 0.42466518995346408 -0.026577655794440151 0 0.41227128108974659 -0.029924501558089681 0 0.40863720631140932 -0.019892986955346081 0 0.40014031603924488 -0.033106741091830219 0 0.41728163952739061 -0.019334187549187701 0 0.41227128108974659 -0.029924501558089681 0 0.40863720631140932 -0.019892986955346081 0 0.41728163952739061 -0.019334187549187701 0 0.40863720631140932 -0.019892986955346081 0 0.41436166681859882 -0.01226683791037885 0 0.40863720631140932 -0.019892986955346081 0 0.41436166681859882 -0.01226683791037885 0 0.40369857438468087 -0.0060371637805465179 0 0.42101935538117791 0.0050386314779034547 0 0.41402040698134779 -0.0025911497673051101 0 0.42284227266732188 -0.010769512158268201 0 0.41402040698134779 -0.0025911497673051101 0 0.41436166681859882 -0.01226683791037885 0 0.40369857438468087 -0.0060371637805465179 0 0.41402040698134779 -0.0025911497673051101 0 0.41436166681859882 -0.01226683791037885 0 0.42284227266732188 -0.010769512158268201 0 0.41728163952739061 -0.019334187549187701 0 0.41436166681859882 -0.01226683791037885 0 0.42284227266732188 -0.010769512158268201 0 0.42284227266732188 -0.010769512158268201 0 0.43543049063324413 -0.012350052332502739 0 0.42769414368384923 -0.02254750278133769 0 0.42101935538117791 0.0050386314779034547 0 0.42284227266732188 -0.010769512158268201 0 0.42101935538117791 0.0050386314779034547 0 0.42788240966677021 0.003552130545216341 0 0.42284227266732188 -0.010769512158268201 0 0.42788240966677021 0.003552130545216341 0 0.42284227266732188 -0.010769512158268201 0 0.43543049063324413 -0.012350052332502739 0 0.42284227266732188 -0.010769512158268201 0 0.42466518995346408 -0.026577655794440151 0 0.42284227266732188 -0.010769512158268201 0 0.42769414368384923 -0.02254750278133769 0 0.42466518995346408 -0.026577655794440151 0 0.44260817666721519 -0.025216613737701819 0 0.43543049063324413 -0.012350052332502739 0 0.42769414368384923 -0.02254750278133769 0 0.42769414368384923 -0.02254750278133769 0 0.42466518995346408 -0.026577655794440151 0 0.43454865465473302 -0.032105158367880783 0 0.42769414368384923 -0.02254750278133769 0 0.42466518995346408 -0.026577655794440151 0 0.44260817666721519 -0.025216613737701819 0 0.42769414368384923 -0.02254750278133769 0 0.43454865465473302 -0.032105158367880783 0 0.42466518995346408 -0.026577655794440151 0 0.43454865465473302 -0.032105158367880783 0 0.42768193525564641 -0.052738548234870043 0 0.42466518995346408 -0.026577655794440151 0 0.42768193525564641 -0.052738548234870043 0 0.44483042593949818 -0.041063070916932051 0 0.43454865465473302 -0.032105158367880783 0 0.42768193525564641 -0.052738548234870043 0 0.42085386234523608 -0.065266903626460593 0 0.42768193525564641 -0.052738548234870043 0 0.40779956660286398 -0.049018091936576927 0 0.42085386234523608 -0.065266903626460593 0 0.40779956660286398 -0.049018091936576927 0 0.40625270669679608 -0.06214927522122575 0 0.42466518995346408 -0.026577655794440151 0 0.42768193525564641 -0.052738548234870043 0 0.40779956660286398 -0.049018091936576927 0 0.42466518995346408 -0.026577655794440151 0 0.40779956660286398 -0.049018091936576927 0 0.41227128108974659 -0.029924501558089681 0 0.42466518995346408 -0.026577655794440151 0 0.40779956660286398 -0.049018091936576927 0 0.41227128108974659 -0.029924501558089681 0 0.40779956660286398 -0.049018091936576927 0 0.40014031603924488 -0.033106741091830219 0 0.40779956660286398 -0.049018091936576927 0 0.40014031603924488 -0.033106741091830219 0 0.3912967176308087 -0.04756724484766426 0 0.40014031603924488 -0.033106741091830219 0 0.3912967176308087 -0.04756724484766426 0 0.38547037370043469 -0.032308846426106139 0 0.3909339432522656 -0.07145852807871525 0 0.40779956660286398 -0.049018091936576927 0 0.40625270669679608 -0.06214927522122575 0 0.3909339432522656 -0.07145852807871525 0 0.39181446083091098 -0.066763706552935329 0 0.40779956660286398 -0.049018091936576927 0 0.39181446083091098 -0.066763706552935329 0 0.40779956660286398 -0.049018091936576927 0 0.3912967176308087 -0.04756724484766426 0 0.3909339432522656 -0.07145852807871525 0 0.40779956660286398 -0.049018091936576927 0 0.3912967176308087 -0.04756724484766426 0 0.38398729378694407 -0.058429379279077209 0 0.37514153202862571 -0.045861082966856079 0 0.39181446083091098 -0.066763706552935329 0 0.3912967176308087 -0.04756724484766426 0 0.38398729378694407 -0.058429379279077209 0 0.38398729378694407 -0.058429379279077209 0 0.37514153202862571 -0.045861082966856079 0 0.37192531576168952 -0.05914395824800911 0 0.37813424473731178 -0.068262582352726586 0 0.38398729378694407 -0.058429379279077209 0 0.37192531576168952 -0.05914395824800911 0 0.3912967176308087 -0.04756724484766426 0 0.38547037370043469 -0.032308846426106139 0 0.37514153202862571 -0.045861082966856079 0 0.38547037370043469 -0.032308846426106139 0 0.37514153202862571 -0.045861082966856079 0 0.36877413775607049 -0.02995327657106206 0 0.38547037370043469 -0.032308846426106139 0 0.37927030083329177 -0.015743113788958679 0 0.36877413775607049 -0.02995327657106206 0 0.38547037370043469 -0.032308846426106139 0 0.37927030083329177 -0.015743113788958679 0 0.39536675090020662 -0.019928774827198261 0 0.40014031603924488 -0.033106741091830219 0 0.38547037370043469 -0.032308846426106139 0 0.39536675090020662 -0.019928774827198261 0 0.40863720631140932 -0.019892986955346081 0 0.40014031603924488 -0.033106741091830219 0 0.39536675090020662 -0.019928774827198261 0 0.40863720631140932 -0.019892986955346081 0 0.39536675090020662 -0.019928774827198261 0 0.40369857438468087 -0.0060371637805465179 0 0.39536675090020662 -0.019928774827198261 0 0.40369857438468087 -0.0060371637805465179 0 0.39174671884158141 -0.0074493154892236006 0 0.39390920682105918 0.0040204267233196643 0 0.40369857438468087 -0.0060371637805465179 0 0.39174671884158141 -0.0074493154892236006 0 0.38212023564171321 0.001094655884648786 0 0.37927030083329177 -0.015743113788958679 0 0.39174671884158141 -0.0074493154892236006 0 0.38212023564171321 0.001094655884648786 0 0.37927030083329177 -0.015743113788958679 0 0.3700201466167648 -0.002195575246397889 0 0.37927030083329177 -0.015743113788958679 0 0.39536675090020662 -0.019928774827198261 0 0.39174671884158141 -0.0074493154892236006 0 0.39390920682105918 0.0040204267233196643 0 0.38212023564171321 0.001094655884648786 0 0.39174671884158141 -0.0074493154892236006 0 0.35686418876597309 0.010252504770385159 0 0.3700201466167648 -0.002195575246397889 0 0.35727920934793722 -0.0129667368589869 0 0.37927030083329177 -0.015743113788958679 0 0.3700201466167648 -0.002195575246397889 0 0.35727920934793722 -0.0129667368589869 0 0.36877413775607049 -0.02995327657106206 0 0.35727920934793722 -0.0129667368589869 0 0.35227314840285812 -0.03152257084722427 0 0.37927030083329177 -0.015743113788958679 0 0.36877413775607049 -0.02995327657106206 0 0.35727920934793722 -0.0129667368589869 0 0.35727920934793722 -0.0129667368589869 0 0.33875503928457851 -0.02222753562310531 0 0.35227314840285812 -0.03152257084722427 0 0.35727920934793722 -0.0129667368589869 0 0.33586681222118892 -0.0067462441580033658 0 0.33875503928457851 -0.02222753562310531 0 0.35686418876597309 0.010252504770385159 0 0.35727920934793722 -0.0129667368589869 0 0.33586681222118892 -0.0067462441580033658 0 0.33586681222118892 -0.0067462441580033658 0 0.33875503928457851 -0.02222753562310531 0 0.31486943567640469 -0.023744993086391868 0 0.33875503928457851 -0.02222753562310531 0 0.31486943567640469 -0.023744993086391868 0 0.33348659077450338 -0.036157133164920148 0 0.33875503928457851 -0.02222753562310531 0 0.33348659077450338 -0.036157133164920148 0 0.35227314840285812 -0.03152257084722427 0 0.31046320235639918 0.0067575729804437252 0 0.33586681222118892 -0.0067462441580033658 0 0.3153830815233527 -0.0087530987426132929 0 0.33586681222118892 -0.0067462441580033658 0 0.31486943567640469 -0.023744993086391868 0 0.3153830815233527 -0.0087530987426132929 0 0.33586681222118892 -0.0067462441580033658 0 0.31486943567640469 -0.023744993086391868 0 0.32115491610998381 -0.052976688016941227 0 0.32092150739102382 -0.073097043805500014 0 0.30601744289912669 -0.055409131432484229 0 0.32115491610998381 -0.052976688016941227 0 0.31197137499350902 -0.041008225260955711 0 0.30601744289912669 -0.055409131432484229 0 0.31486943567640469 -0.023744993086391868 0 0.33348659077450338 -0.036157133164920148 0 0.31197137499350902 -0.041008225260955711 0 0.32115491610998381 -0.052976688016941227 0 0.33348659077450338 -0.036157133164920148 0 0.31197137499350902 -0.041008225260955711 0 0.33348659077450338 -0.036157133164920148 0 0.3363568723602065 -0.050864743298462772 0 0.35116628403686417 -0.048621598638038131 0 0.32115491610998381 -0.052976688016941227 0 0.33348659077450338 -0.036157133164920148 0 0.3363568723602065 -0.050864743298462772 0 0.32115491610998381 -0.052976688016941227 0 0.3363568723602065 -0.050864743298462772 0 0.33388625794764348 -0.064812423232177271 0 0.3363568723602065 -0.050864743298462772 0 0.34794047334546518 -0.063974584280765273 0 0.33388625794764348 -0.064812423232177271 0 0.3363568723602065 -0.050864743298462772 0 0.35116628403686417 -0.048621598638038131 0 0.34794047334546518 -0.063974584280765273 0 0.35116628403686417 -0.048621598638038131 0 0.35914505774559541 -0.060409417065886872 0 0.36392372675137458 -0.051574144679805103 0 0.35116628403686417 -0.048621598638038131 0 0.36240463436463582 -0.041692596330413237 0 0.36392372675137458 -0.051574144679805103 0 0.35116628403686417 -0.048621598638038131 0 0.35914505774559541 -0.060409417065886872 0 0.34794047334546518 -0.063974584280765273 0 0.35116628403686417 -0.048621598638038131 0 0.35227314840285812 -0.03152257084722427 0 0.36240463436463582 -0.041692596330413237 0 0.33348659077450338 -0.036157133164920148 0 0.35116628403686417 -0.048621598638038131 0 0.35227314840285812 -0.03152257084722427 0 0.37514153202862571 -0.045861082966856079 0 0.36877413775607049 -0.02995327657106206 0 0.36240463436463582 -0.041692596330413237 0 0.36877413775607049 -0.02995327657106206 0 0.35227314840285812 -0.03152257084722427 0 0.36240463436463582 -0.041692596330413237 0 0.37514153202862571 -0.045861082966856079 0 0.36240463436463582 -0.041692596330413237 0 0.36392372675137458 -0.051574144679805103 0 0.35914505774559541 -0.060409417065886872 0 0.36392372675137458 -0.051574144679805103 0 0.37192531576168952 -0.05914395824800911 0 0.37514153202862571 -0.045861082966856079 0 0.36392372675137458 -0.051574144679805103 0 0.37192531576168952 -0.05914395824800911 0 0.37813424473731178 -0.068262582352726586 0 0.37192531576168952 -0.05914395824800911 0 0.3680772617285144 -0.06977757947088653 0 0.35914505774559541 -0.060409417065886872 0 0.37192531576168952 -0.05914395824800911 0 0.3680772617285144 -0.06977757947088653 0 0.35914505774559541 -0.060409417065886872 0 0.3680772617285144 -0.06977757947088653 0 0.35837286676988928 -0.071968688592424085 0 0.3680772617285144 -0.06977757947088653 0 0.36498327826552668 -0.083111049239403226 0 0.35837286676988928 -0.071968688592424085 0 0.3680772617285144 -0.06977757947088653 0 0.37353404377441052 -0.075370636612477671 0 0.36498327826552668 -0.083111049239403226 0 0.37813424473731178 -0.068262582352726586 0 0.3680772617285144 -0.06977757947088653 0 0.37353404377441052 -0.075370636612477671 0 0.38294139036628899 -0.080331335386894381 0 0.37353404377441052 -0.075370636612477671 0 0.36498327826552668 -0.083111049239403226 0 0.36498327826552668 -0.083111049239403226 0 0.37237061700676077 -0.09615783082836224 0 0.34241852099989789 -0.095233439592861846 0 0.38294139036628899 -0.080331335386894381 0 0.36498327826552668 -0.083111049239403226 0 0.37406831990166722 -0.093898964220853504 0 0.36498327826552668 -0.083111049239403226 0 0.37406831990166722 -0.093898964220853504 0 0.37237061700676077 -0.09615783082836224 0 0.36498327826552668 -0.083111049239403226 0 0.3449175019875389 -0.076917716904771144 0 0.34241852099989789 -0.095233439592861846 0 0.36498327826552668 -0.083111049239403226 0 0.3449175019875389 -0.076917716904771144 0 0.35837286676988928 -0.071968688592424085 0 0.3449175019875389 -0.076917716904771144 0 0.34794047334546518 -0.063974584280765273 0 0.35837286676988928 -0.071968688592424085 0 0.35914505774559541 -0.060409417065886872 0 0.34794047334546518 -0.063974584280765273 0 0.35837286676988928 -0.071968688592424085 0 0.36371200487664068 -0.10973459168570281 0 0.35664352332635268 -0.13060513793896061 0 0.36779594019891898 -0.12729788290040461 0 0.3785150876385216 -0.1195111518185689 0 0.36371200487664068 -0.10973459168570281 0 0.36779594019891898 -0.12729788290040461 0 0.36371200487664068 -0.10973459168570281 0 0.37237061700676077 -0.09615783082836224 0 0.34241852099989789 -0.095233439592861846 0 0.3851668720105898 -0.10347474583943909 0 0.36371200487664068 -0.10973459168570281 0 0.37237061700676077 -0.09615783082836224 0 0.3851668720105898 -0.10347474583943909 0 0.36371200487664068 -0.10973459168570281 0 0.36371200487664068 -0.10973459168570281 0 0.37237061700676077 -0.09615783082836224 0 0.37406831990166722 -0.093898964220853504 0 0.37237061700676077 -0.09615783082836224 0 0.36371200487664068 -0.10973459168570281 0 0.34332012240242971 -0.1020930362129598 0 0.34241852099989789 -0.095233439592861846 0 0.36371200487664068 -0.10973459168570281 0 0.35002252173753962 -0.112446561286345 0 0.34332012240242971 -0.1020930362129598 0 0.37237061700676077 -0.09615783082836224 0 0.34241852099989789 -0.095233439592861846 0 0.35002252173753962 -0.112446561286345 0 0.34025414842832208 -0.11782241666052221 0 0.34332012240242971 -0.1020930362129598 0 0.36371200487664068 -0.10973459168570281 0 0.35355367174401742 -0.1211945845718113 0 0.34779048707731292 -0.1340798558009649 0 0.36371200487664068 -0.10973459168570281 0 0.35664352332635268 -0.13060513793896061 0 0.34779048707731292 -0.1340798558009649 0 0.36371200487664068 -0.10973459168570281 0 0.34779048707731292 -0.1340798558009649 0 0.36371200487664068 -0.10973459168570281 0 0.35002252173753962 -0.112446561286345 0 0.35355367174401742 -0.1211945845718113 0 0.36371200487664068 -0.10973459168570281 0 0.35355367174401742 -0.1211945845718113 0 0.35002252173753962 -0.112446561286345 0 0.35355367174401742 -0.1211945845718113 0 0.34025414842832208 -0.11782241666052221 0 0.35355367174401742 -0.1211945845718113 0 0.34025414842832208 -0.11782241666052221 0 0.34381162934489939 -0.12854128697128539 0 0.33094534805706732 -0.1177437606496905 0 0.31854024801571379 -0.1183964408803808 0 0.33718817445421712 -0.13355179710808501 0 0.34025414842832208 -0.11782241666052221 0 0.33378984816934337 -0.1086297847084315 0 0.34332012240242971 -0.1020930362129598 0 0.33094534805706732 -0.1177437606496905 0 0.34025414842832208 -0.11782241666052221 0 0.33718817445421712 -0.13355179710808501 0 0.34025414842832208 -0.11782241666052221 0 0.34332012240242971 -0.1020930362129598 0 0.33094534805706732 -0.1177437606496905 0 0.33378984816934337 -0.1086297847084315 0 0.32495432121773932 -0.110318363891034 0 0.33094534805706732 -0.1177437606496905 0 0.34025414842832208 -0.11782241666052221 0 0.33378984816934337 -0.1086297847084315 0 0.33378984816934337 -0.1086297847084315 0 0.32725903490077729 -0.10071499943534749 0 0.32495432121773932 -0.110318363891034 0 0.33378984816934337 -0.1086297847084315 0 0.33669688161811212 -0.1016678149874002 0 0.32725903490077729 -0.10071499943534749 0 0.33378984816934337 -0.1086297847084315 0 0.34332012240242971 -0.1020930362129598 0 0.33669688161811212 -0.1016678149874002 0 0.34332012240242971 -0.1020930362129598 0 0.33669688161811212 -0.1016678149874002 0 0.34241852099989789 -0.095233439592861846 0 0.33669688161811212 -0.1016678149874002 0 0.34241852099989789 -0.095233439592861846 0 0.32725903490077729 -0.10071499943534749 0 0.34241852099989789 -0.095233439592861846 0 0.31246642499303512 -0.0943090483573608 0 0.34241852099989789 -0.095233439592861846 0 0.32725903490077729 -0.10071499943534749 0 0.31246642499303512 -0.0943090483573608 0 0.32725903490077729 -0.10071499943534749 0 0.31716114910448651 -0.10565591717263 0 0.31246642499303512 -0.0943090483573608 0 0.32725903490077729 -0.10071499943534749 0 0.31716114910448651 -0.10565591717263 0 0.32495432121773932 -0.110318363891034 0 0.33094534805706732 -0.1177437606496905 0 0.32495432121773932 -0.110318363891034 0 0.31854024801571379 -0.1183964408803808 0 0.31716114910448651 -0.10565591717263 0 0.32495432121773932 -0.110318363891034 0 0.31854024801571379 -0.1183964408803808 0 0.31716114910448651 -0.10565591717263 0 0.31854024801571379 -0.1183964408803808 0 0.30531265091832138 -0.10738965970164049 0 0.3449175019875389 -0.076917716904771144 0 0.33388625794764348 -0.064812423232177271 0 0.32092150739102382 -0.073097043805500014 0 0.3449175019875389 -0.076917716904771144 0 0.34794047334546518 -0.063974584280765273 0 0.33388625794764348 -0.064812423232177271 0 0.3449175019875389 -0.076917716904771144 0 0.34241852099989789 -0.095233439592861846 0 0.32092150739102382 -0.073097043805500014 0 0.34241852099989789 -0.095233439592861846 0 0.32092150739102382 -0.073097043805500014 0 0.31246642499303512 -0.0943090483573608 0 0.32115491610998381 -0.052976688016941227 0 0.33388625794764348 -0.064812423232177271 0 0.32092150739102382 -0.073097043805500014 0 0.32092150739102382 -0.073097043805500014 0 0.28819319405889499 -0.06706419956831737 0 0.31246642499303512 -0.0943090483573608 0 0.32092150739102382 -0.073097043805500014 0 0.28819319405889499 -0.06706419956831737 0 0.30601744289912669 -0.055409131432484229 0 0.28251432898617262 -0.093384657121855619 0 0.28819319405889499 -0.06706419956831737 0 0.31246642499303512 -0.0943090483573608 0 0.28251432898617262 -0.093384657121855619 0 0.28819319405889499 -0.06706419956831737 0 0.28251432898617262 -0.093384657121855619 0 0.28819319405889499 -0.06706419956831737 0 0.2788070763813692 -0.075616481315712358 0 0.30531265091832138 -0.10738965970164049 0 0.29209333803684512 -0.1204183792118467 0 0.30316218715013699 -0.13585617877411299 0 0.31854024801571379 -0.1183964408803808 0 0.30531265091832138 -0.10738965970164049 0 0.30316218715013699 -0.13585617877411299 0 0.30531265091832138 -0.10738965970164049 0 0.30316218715013699 -0.13585617877411299 0 0.30531265091832138 -0.10738965970164049 0 0.31246642499303512 -0.0943090483573608 0 0.2913954051317153 -0.1063448066268642 0 0.28251432898617262 -0.093384657121855619 0 0.31246642499303512 -0.0943090483573608 0 0.31716114910448651 -0.10565591717263 0 0.30531265091832138 -0.10738965970164049 0 0.31246642499303512 -0.0943090483573608 0 0.28251432898617262 -0.093384657121855619 0 0.31246642499303512 -0.0943090483573608 0 0.2913954051317153 -0.1063448066268642 0 0.28251432898617262 -0.093384657121855619 0 0.2913954051317153 -0.1063448066268642 0 0.27794998204403759 -0.11453953550188679 0 0.30531265091832138 -0.10738965970164049 0 0.2913954051317153 -0.1063448066268642 0 0.29209333803684512 -0.1204183792118467 0 0.2913954051317153 -0.1063448066268642 0 0.29209333803684512 -0.1204183792118467 0 0.27794998204403759 -0.11453953550188679 0 0.27794998204403759 -0.11453953550188679 0 0.25915390151091949 -0.11811210275817149 0 0.27338563510190422 -0.1356944138819183 0 0.29209333803684512 -0.1204183792118467 0 0.27794998204403759 -0.11453953550188679 0 0.27338563510190422 -0.1356944138819183 0 0.28251432898617262 -0.093384657121855619 0 0.27794998204403759 -0.11453953550188679 0 0.25666672159796139 -0.092586939936295867 0 0.28251432898617262 -0.093384657121855619 0 0.27794998204403759 -0.11453953550188679 0 0.25915390151091949 -0.11811210275817149 0 0.25666672159796139 -0.092586939936295867 0 0.23839025179526999 -0.1151992729885977 0 0.27794998204403759 -0.11453953550188679 0 0.25915390151091949 -0.11811210275817149 0 0.25666672159796139 -0.092586939936295867 0 0.28819319405889499 -0.06706419956831737 0 0.27512965144911827 -0.070681904186227995 0 0.27783686619476677 -0.05372527893061739 0 0.26897876163713708 -0.070467118147906876 0 0.27512965144911827 -0.070681904186227995 0 0.27783686619476677 -0.05372527893061739 0 0.26897876163713708 -0.070467118147906876 0 0.26180167325791431 -0.066706815846455908 0 0.27783686619476677 -0.05372527893061739 0 0.27067132333055188 -0.076788874412469815 0 0.26897876163713708 -0.070467118147906876 0 0.26145119023330071 -0.079000043976386408 0 0.27067132333055188 -0.076788874412469815 0 0.26897876163713708 -0.070467118147906876 0 0.2788070763813692 -0.075616481315712358 0 0.26897876163713708 -0.070467118147906876 0 0.27512965144911827 -0.070681904186227995 0 0.28819319405889499 -0.06706419956831737 0 0.2788070763813692 -0.075616481315712358 0 0.27512965144911827 -0.070681904186227995 0 0.26897876163713708 -0.070467118147906876 0 0.2788070763813692 -0.075616481315712358 0 0.26897876163713708 -0.070467118147906876 0 0.2788070763813692 -0.075616481315712358 0 0.27512965144911827 -0.070681904186227995 0 0.28251432898617262 -0.093384657121855619 0 0.25666672159796139 -0.092586939936295867 0 0.28251432898617262 -0.093384657121855619 0 0.27051227275229911 -0.08315566172012806 0 0.25666672159796139 -0.092586939936295867 0 0.28251432898617262 -0.093384657121855619 0 0.2788070763813692 -0.075616481315712358 0 0.27051227275229911 -0.08315566172012806 0 0.27067132333055188 -0.076788874412469815 0 0.27051227275229911 -0.08315566172012806 0 0.26145119023330071 -0.079000043976386408 0 0.27067132333055188 -0.076788874412469815 0 0.2788070763813692 -0.075616481315712358 0 0.27051227275229911 -0.08315566172012806 0 0.26145119023330071 -0.079000043976386408 0 0.25666672159796139 -0.092586939936295867 0 0.24423239209720191 -0.080930297464084477 0 0.27051227275229911 -0.08315566172012806 0 0.26145119023330071 -0.079000043976386408 0 0.25666672159796139 -0.092586939936295867 0 0.26180167325791431 -0.066706815846455908 0 0.25764566998465072 -0.070071372177431313 0 0.24120587699226881 -0.055916030502087773 0 0.26145119023330071 -0.079000043976386408 0 0.25764566998465072 -0.070071372177431313 0 0.24423239209720191 -0.080930297464084477 0 0.25764566998465072 -0.070071372177431313 0 0.24423239209720191 -0.080930297464084477 0 0.26897876163713708 -0.070467118147906876 0 0.26145119023330071 -0.079000043976386408 0 0.25764566998465072 -0.070071372177431313 0 0.26897876163713708 -0.070467118147906876 0 0.26180167325791431 -0.066706815846455908 0 0.25764566998465072 -0.070071372177431313 0 0.26897876163713708 -0.070467118147906876 0 0.25764566998465072 -0.070071372177431313 0 0.26897876163713708 -0.070467118147906876 0 0.26180167325791431 -0.066706815846455908 0 0.26180167325791431 -0.066706815846455908 0 0.25764566998465072 -0.070071372177431313 0 0.26180167325791431 -0.066706815846455908 0 0.26029261894245981 -0.048826031507571623 0 0.24120587699226881 -0.055916030502087773 0 0.26180167325791431 -0.066706815846455908 0 0.24120587699226881 -0.055916030502087773 0 0.26180167325791431 -0.066706815846455908 0 0.26029261894245981 -0.048826031507571623 0 0.27783686619476677 -0.05372527893061739 0 0.26180167325791431 -0.066706815846455908 0 0.27783686619476677 -0.05372527893061739 0 0.26029261894245981 -0.048826031507571623 0 0.27783686619476677 -0.05372527893061739 0 0.27031708646619812 -0.033638605470610219 0 0.27783686619476677 -0.05372527893061739 0 0.27031708646619812 -0.033638605470610219 0 0.28437966209514692 -0.033534114227583768 0 0.26029261894245981 -0.048826031507571623 0 0.27031708646619812 -0.033638605470610219 0 0.25030159180115191 -0.034143426788088307 0 0.26029261894245981 -0.048826031507571623 0 0.25030159180115191 -0.034143426788088307 0 0.24120587699226881 -0.055916030502087773 0 0.25030159180115191 -0.034143426788088307 0 0.26299580833271302 -0.019789195105520681 0 0.2464198669495459 -0.012097030270161889 0 0.27031708646619812 -0.033638605470610219 0 0.25030159180115191 -0.034143426788088307 0 0.26299580833271302 -0.019789195105520681 0 0.25322369798355371 0.0032948183560677501 0 0.26778398551549509 -0.0036893303100333872 0 0.2464198669495459 -0.012097030270161889 0 0.26299580833271302 -0.019789195105520681 0 0.26778398551549509 -0.0036893303100333872 0 0.2464198669495459 -0.012097030270161889 0 0.26299580833271302 -0.019789195105520681 0 0.26778398551549509 -0.0036893303100333872 0 0.28231604015163769 -0.018351258625531171 0 0.2895407867033607 0.0013395930438658619 0 0.26778398551549509 -0.0036893303100333872 0 0.28231604015163769 -0.018351258625531171 0 0.27031708646619812 -0.033638605470610219 0 0.26299580833271302 -0.019789195105520681 0 0.28231604015163769 -0.018351258625531171 0 0.27031708646619812 -0.033638605470610219 0 0.28231604015163769 -0.018351258625531171 0 0.28437966209514692 -0.033534114227583768 0 0.28231604015163769 -0.018351258625531171 0 0.29600028882747859 -0.03087980289019443 0 0.28437966209514692 -0.033534114227583768 0 0.28231604015163769 -0.018351258625531171 0 0.29600028882747859 -0.03087980289019443 0 0.30132541624728598 -0.01217829343577128 0 0.2895407867033607 0.0013395930438658619 0 0.28231604015163769 -0.018351258625531171 0 0.30132541624728598 -0.01217829343577128 0 0.31046320235639918 0.0067575729804437252 0 0.2895407867033607 0.0013395930438658619 0 0.30132541624728598 -0.01217829343577128 0 0.31046320235639918 0.0067575729804437252 0 0.3153830815233527 -0.0087530987426132929 0 0.30132541624728598 -0.01217829343577128 0 0.31486943567640469 -0.023744993086391868 0 0.3153830815233527 -0.0087530987426132929 0 0.30132541624728598 -0.01217829343577128 0 0.31486943567640469 -0.023744993086391868 0 0.29600028882747859 -0.03087980289019443 0 0.30132541624728598 -0.01217829343577128 0 0.31486943567640469 -0.023744993086391868 0 0.31197137499350902 -0.041008225260955711 0 0.29387205913161968 -0.04074374201477949 0 0.31486943567640469 -0.023744993086391868 0 0.29600028882747859 -0.03087980289019443 0 0.29387205913161968 -0.04074374201477949 0 0.31486943567640469 -0.023744993086391868 0 0.29387205913161968 -0.04074374201477949 0 0.31197137499350902 -0.041008225260955711 0 0.30601744289912669 -0.055409131432484229 0 0.29387205913161968 -0.04074374201477949 0 0.28819319405889499 -0.06706419956831737 0 0.27783686619476677 -0.05372527893061739 0 0.29387205913161968 -0.04074374201477949 0 0.28819319405889499 -0.06706419956831737 0 0.29387205913161968 -0.04074374201477949 0 0.27783686619476677 -0.05372527893061739 0 0.29387205913161968 -0.04074374201477949 0 0.28819319405889499 -0.06706419956831737 0 0.30601744289912669 -0.055409131432484229 0 0.29387205913161968 -0.04074374201477949 0 0.27783686619476677 -0.05372527893061739 0 0.28437966209514692 -0.033534114227583768 0 0.29387205913161968 -0.04074374201477949 0 0.29600028882747859 -0.03087980289019443 0 0.28437966209514692 -0.033534114227583768 0 0.29387205913161968 -0.04074374201477949 0 0.29600028882747859 -0.03087980289019443 0 0.29387205913161968 -0.04074374201477949 0 0.28925369461552242 -0.21547475378801551 0 0.29798535605087828 -0.20438389051808681 0 0.27851755886665591 -0.20371457102860641 0 0.28925369461552242 -0.21547475378801551 0 0.28465086540799672 -0.2254021489655588 0 0.27851755886665591 -0.20371457102860641 0 0.28925369461552242 -0.21547475378801551 0 0.29798535605087828 -0.20438389051808681 0 0.29625974568445868 -0.22722646109941139 0 0.28994099481116897 -0.19128490440727269 0 0.29798535605087828 -0.20438389051808681 0 0.29971096641729777 -0.18154131993676231 0 0.28994099481116897 -0.19128490440727269 0 0.27851755886665591 -0.20371457102860641 0 0.28355009790984409 -0.17549983614563519 0 0.28994099481116897 -0.19128490440727269 0 0.29798535605087828 -0.20438389051808681 0 0.27851755886665591 -0.20371457102860641 0 0.30866677822314281 -0.19370433905286669 0 0.29798535605087828 -0.20438389051808681 0 0.29971096641729777 -0.18154131993676231 0 0.29798535605087828 -0.20438389051808681 0 0.29971096641729777 -0.18154131993676231 0 0.30866677822314281 -0.19370433905286669 0 0.30817512199612251 -0.208018461664154 0 0.29798535605087828 -0.20438389051808681 0 0.29798535605087828 -0.20438389051808681 0 0.29625974568445868 -0.22722646109941139 0 0.30367267472900389 -0.2178556058656746 0 0.31200739898088131 -0.22851072207886541 0 0.31883562653249692 -0.20986103607638071 0 0.29798535605087828 -0.20438389051808681 0 0.30367267472900389 -0.2178556058656746 0 0.29625974568445868 -0.22722646109941139 0 0.30817512199612251 -0.208018461664154 0 0.29798535605087828 -0.20438389051808681 0 0.30367267472900389 -0.2178556058656746 0 0.30817512199612251 -0.208018461664154 0 0.30367267472900389 -0.2178556058656746 0 0.31883562653249692 -0.20986103607638071 0 0.30367267472900389 -0.2178556058656746 0 0.31883562653249692 -0.20986103607638071 0 0.31200739898088131 -0.22851072207886541 0 0.30517917142926537 -0.24716040808135001 0 0.29625974568445868 -0.22722646109941139 0 0.30367267472900389 -0.2178556058656746 0 0.31200739898088131 -0.22851072207886541 0 0.29625974568445868 -0.22722646109941139 0 0.31200739898088131 -0.22851072207886541 0 0.30517917142926537 -0.24716040808135001 0 0.30517917142926537 -0.24716040808135001 0 0.28765229627979871 -0.24304032400626949 0 0.29625974568445868 -0.22722646109941139 0 0.28765229627979871 -0.24304032400626949 0 0.29625974568445868 -0.22722646109941139 0 0.28465086540799672 -0.2254021489655588 0 0.28765229627979871 -0.24304032400626949 0 0.28465086540799672 -0.2254021489655588 0 0.27348501982346762 -0.23192930591157759 0 0.28925369461552242 -0.21547475378801551 0 0.29625974568445868 -0.22722646109941139 0 0.28465086540799672 -0.2254021489655588 0 0.28465086540799672 -0.2254021489655588 0 0.27348501982346762 -0.23192930591157759 0 0.27851755886665591 -0.20371457102860641 0 0.27348501982346762 -0.23192930591157759 0 0.25787859859726192 -0.24372773219337371 0 0.26845248078028039 -0.26014404079454911 0 0.28765229627979871 -0.24304032400626949 0 0.27348501982346762 -0.23192930591157759 0 0.26845248078028039 -0.26014404079454911 0 0.27348501982346762 -0.23192930591157759 0 0.26845248078028039 -0.26014404079454911 0 0.27348501982346762 -0.23192930591157759 0 0.25787859859726192 -0.24372773219337371 0 0.2485278721491469 -0.22983386195931649 0 0.27348501982346762 -0.23192930591157759 0 0.25806059678156651 -0.21160485628964759 0 0.2485278721491469 -0.22983386195931649 0 0.27348501982346762 -0.23192930591157759 0 0.27851755886665591 -0.20371457102860641 0 0.27348501982346762 -0.23192930591157759 0 0.25806059678156651 -0.21160485628964759 0 0.27851755886665591 -0.20371457102860641 0 0.27851755886665591 -0.20371457102860641 0 0.26140201073716351 -0.19316186481753209 0 0.27335445324682811 -0.1824409541049711 0 0.25806059678156651 -0.21160485628964759 0 0.27851755886665591 -0.20371457102860641 0 0.26140201073716351 -0.19316186481753209 0 0.27851755886665591 -0.20371457102860641 0 0.28355009790984409 -0.17549983614563519 0 0.25806059678156651 -0.21160485628964759 0 0.26140201073716351 -0.19316186481753209 0 0.24624710011957149 -0.19756578472926509 0 0.26140201073716351 -0.19316186481753209 0 0.25030889548151403 -0.1837077448593728 0 0.24624710011957149 -0.19756578472926509 0 0.25969225384889538 -0.18295045636353721 0 0.2550208565069661 -0.17514012483034949 0 0.27335445324682811 -0.1824409541049711 0 0.26140201073716351 -0.19316186481753209 0 0.25030889548151403 -0.1837077448593728 0 0.25969225384889538 -0.18295045636353721 0 0.25030889548151403 -0.1837077448593728 0 0.25969225384889538 -0.18295045636353721 0 0.2550208565069661 -0.17514012483034949 0 0.2550208565069661 -0.17514012483034949 0 0.2530488896403309 -0.16079061319898569 0 0.27335445324682811 -0.1824409541049711 0 0.26140201073716351 -0.19316186481753209 0 0.25969225384889538 -0.18295045636353721 0 0.27335445324682811 -0.1824409541049711 0 0.2530488896403309 -0.16079061319898569 0 0.272260185211738 -0.168331689764908 0 0.26878477807763418 -0.16016356734556891 0 0.2530488896403309 -0.16079061319898569 0 0.26878477807763418 -0.16016356734556891 0 0.26293682869207591 -0.15391070786642169 0 0.2530488896403309 -0.16079061319898569 0 0.27335445324682811 -0.1824409541049711 0 0.272260185211738 -0.168331689764908 0 0.27899515764395177 -0.15443660918041571 0 0.28355009790984409 -0.17549983614563519 0 0.2530488896403309 -0.16079061319898569 0 0.272260185211738 -0.168331689764908 0 0.27335445324682811 -0.1824409541049711 0 0.272260185211738 -0.168331689764908 0 0.26878477807763418 -0.16016356734556891 0 0.27899515764395177 -0.15443660918041571 0 0.272260185211738 -0.168331689764908 0 0.27335445324682811 -0.1824409541049711 0 0.28355009790984409 -0.17549983614563519 0 0.27851755886665591 -0.20371457102860641 0 0.27335445324682811 -0.1824409541049711 0 0.28355009790984409 -0.17549983614563519 0 0.25915390151091949 -0.11811210275817149 0 0.25133622254172122 -0.13557462765415079 0 0.27338563510190422 -0.1356944138819183 0 0.25133622254172122 -0.13557462765415079 0 0.27338563510190422 -0.1356944138819183 0 0.25133622254172122 -0.13557462765415079 0 0.25208407187516418 -0.1419613505697605 0 0.27338563510190422 -0.1356944138819183 0 0.26557247671991108 -0.14774187414890411 0 0.25208407187516418 -0.1419613505697605 0 0.27142481771649529 -0.14478242884651979 0 0.25208407187516418 -0.1419613505697605 0 0.27142481771649529 -0.14478242884651979 0 0.2530488896403309 -0.16079061319898569 0 0.25208407187516418 -0.1419613505697605 0 0.26293682869207591 -0.15391070786642169 0 0.26557247671991108 -0.14774187414890411 0 0.25208407187516418 -0.1419613505697605 0 0.26293682869207591 -0.15391070786642169 0 0.27899515764395177 -0.15443660918041571 0 0.27142481771649529 -0.14478242884651979 0 0.28858263695303038 -0.1472851012626637 0 0.25208407187516418 -0.1419613505697605 0 0.27142481771649529 -0.14478242884651979 0 0.27338563510190422 -0.1356944138819183 0 0.27142481771649529 -0.14478242884651979 0 0.28858263695303038 -0.1472851012626637 0 0.27142481771649529 -0.14478242884651979 0 0.27338563510190422 -0.1356944138819183 0 0.28952553314766588 -0.14199879033185039 0 0.26878477807763418 -0.16016356734556891 0 0.27009527632936597 -0.15279308215900331 0 0.27899515764395177 -0.15443660918041571 0 0.26557247671991108 -0.14774187414890411 0 0.27009527632936597 -0.15279308215900331 0 0.27142481771649529 -0.14478242884651979 0 0.26878477807763418 -0.16016356734556891 0 0.26293682869207591 -0.15391070786642169 0 0.27009527632936597 -0.15279308215900331 0 0.26557247671991108 -0.14774187414890411 0 0.26293682869207591 -0.15391070786642169 0 0.27009527632936597 -0.15279308215900331 0 0.27009527632936597 -0.15279308215900331 0 0.27899515764395177 -0.15443660918041571 0 0.27142481771649529 -0.14478242884651979 0 0.27794998204403759 -0.11453953550188679 0 0.27338563510190422 -0.1356944138819183 0 0.27142481771649529 -0.14478242884651979 0 0.27338563510190422 -0.1356944138819183 0 0.27338563510190422 -0.1356944138819183 0 0.30316218715013699 -0.13585617877411299 0 0.29209333803684512 -0.1204183792118467 0 0.27338563510190422 -0.1356944138819183 0 0.30316218715013699 -0.13585617877411299 0 0.27338563510190422 -0.1356944138819183 0 0.28952553314766588 -0.14199879033185039 0 0.30316218715013699 -0.13585617877411299 0 0.27142481771649529 -0.14478242884651979 0 0.28952553314766588 -0.14199879033185039 0 0.28858263695303038 -0.1472851012626637 0 0.28858263695303038 -0.1472851012626637 0 0.30013596324633868 -0.14897029159077979 0 0.28952553314766588 -0.14199879033185039 0 0.28858263695303038 -0.1472851012626637 0 0.30013596324633868 -0.14897029159077979 0 0.28952553314766588 -0.14199879033185039 0 0.28858263695303038 -0.1472851012626637 0 0.28858263695303038 -0.1472851012626637 0 0.30013596324633868 -0.14897029159077979 0 0.29372711844303928 -0.1600295372122347 0 0.30316218715013699 -0.13585617877411299 0 0.30143657678371732 -0.15869874935543771 0 0.30013596324633868 -0.14897029159077979 0 0.30316218715013699 -0.13585617877411299 0 0.30143657678371732 -0.15869874935543771 0 0.30316218715013699 -0.13585617877411299 0 0.30143657678371732 -0.15869874935543771 0 0.31253980123811259 -0.14771969478669131 0 0.30013596324633868 -0.14897029159077979 0 0.29372711844303928 -0.1600295372122347 0 0.30143657678371732 -0.15869874935543771 0 0.30143657678371732 -0.15869874935543771 0 0.31557079919726838 -0.1590044961535387 0 0.31253980123811259 -0.14771969478669131 0 0.28952553314766588 -0.14199879033185039 0 0.30013596324633868 -0.14897029159077979 0 0.30316218715013699 -0.13585617877411299 0 0.30316218715013699 -0.13585617877411299 0 0.31993283661344418 -0.13594728745244961 0 0.31253980123811259 -0.14771969478669131 0 0.30316218715013699 -0.13585617877411299 0 0.31993283661344418 -0.13594728745244961 0 0.28994099481116897 -0.19128490440727269 0 0.28355009790984409 -0.17549983614563519 0 0.29971096641729777 -0.18154131993676231 0 0.28355009790984409 -0.17549983614563519 0 0.29493031732226571 -0.16969370770665679 0 0.29971096641729777 -0.18154131993676231 0 0.27899515764395177 -0.15443660918041571 0 0.28858263695303038 -0.1472851012626637 0 0.28355009790984409 -0.17549983614563519 0 0.28858263695303038 -0.1472851012626637 0 0.28355009790984409 -0.17549983614563519 0 0.28858263695303038 -0.1472851012626637 0 0.28355009790984409 -0.17549983614563519 0 0.29372711844303928 -0.1600295372122347 0 0.29372711844303928 -0.1600295372122347 0 0.29493031732226571 -0.16969370770665679 0 0.30143657678371732 -0.15869874935543771 0 0.28355009790984409 -0.17549983614563519 0 0.29372711844303928 -0.1600295372122347 0 0.29493031732226571 -0.16969370770665679 0 0.30143657678371732 -0.15869874935543771 0 0.29971096641729777 -0.18154131993676231 0 0.30143657678371732 -0.15869874935543771 0 0.30809610970482848 -0.16795036279156811 0 0.29971096641729777 -0.18154131993676231 0 0.29493031732226571 -0.16969370770665679 0 0.30143657678371732 -0.15869874935543771 0 0.29971096641729777 -0.18154131993676231 0 0.30143657678371732 -0.15869874935543771 0 0.30809610970482848 -0.16795036279156811 0 0.31557079919726838 -0.1590044961535387 0 0.29971096641729777 -0.18154131993676231 0 0.31498869866721663 -0.1848028620899877 0 0.3156660964210305 -0.17255688572053399 0 0.30809610970482848 -0.16795036279156811 0 0.29971096641729777 -0.18154131993676231 0 0.3156660964210305 -0.17255688572053399 0 0.30866677822314281 -0.19370433905286669 0 0.29971096641729777 -0.18154131993676231 0 0.31498869866721663 -0.1848028620899877 0 0.32729102930978993 -0.18432716657830939 0 0.3156660964210305 -0.17255688572053399 0 0.33199725769327038 -0.160182781354547 0 0.31498869866721663 -0.1848028620899877 0 0.32729102930978993 -0.18432716657830939 0 0.3156660964210305 -0.17255688572053399 0 0.3156660964210305 -0.17255688572053399 0 0.31557079919726838 -0.1590044961535387 0 0.33199725769327038 -0.160182781354547 0 0.30809610970482848 -0.16795036279156811 0 0.3156660964210305 -0.17255688572053399 0 0.31557079919726838 -0.1590044961535387 0 0.32729102930978993 -0.18432716657830939 0 0.34572674800851178 -0.17666980330527179 0 0.34152908302092871 -0.19789605564194099 0 0.32729102930978993 -0.18432716657830939 0 0.33199725769327038 -0.160182781354547 0 0.34572674800851178 -0.17666980330527179 0 0.32729102930978993 -0.18432716657830939 0 0.33199725769327038 -0.160182781354547 0 0.31854024801571379 -0.1183964408803808 0 0.30316218715013699 -0.13585617877411299 0 0.31993283661344418 -0.13594728745244961 0 0.31993283661344418 -0.13594728745244961 0 0.32334883616376942 -0.1477785311756023 0 0.33670348607675138 -0.13603839613078461 0 0.31854024801571379 -0.1183964408803808 0 0.31993283661344418 -0.13594728745244961 0 0.33718817445421712 -0.13355179710808501 0 0.31854024801571379 -0.1183964408803808 0 0.33718817445421712 -0.13355179710808501 0 0.31557079919726838 -0.1590044961535387 0 0.33199725769327038 -0.160182781354547 0 0.32334883616376942 -0.1477785311756023 0 0.31993283661344418 -0.13594728745244961 0 0.32334883616376942 -0.1477785311756023 0 0.31253980123811259 -0.14771969478669131 0 0.31557079919726838 -0.1590044961535387 0 0.32334883616376942 -0.1477785311756023 0 0.31253980123811259 -0.14771969478669131 0 0.33199725769327038 -0.160182781354547 0 0.34027166502062639 -0.13605778071504529 0 0.33670348607675138 -0.13603839613078461 0 0.33199725769327038 -0.160182781354547 0 0.32334883616376942 -0.1477785311756023 0 0.33670348607675138 -0.13603839613078461 0 0.33199725769327038 -0.160182781354547 0 0.33670348607675138 -0.13603839613078461 0 0.31993283661344418 -0.13594728745244961 0 0.33670348607675138 -0.13603839613078461 0 0.31993283661344418 -0.13594728745244961 0 0.33670348607675138 -0.13603839613078461 0 0.33718817445421712 -0.13355179710808501 0 0.34025414842832208 -0.11782241666052221 0 0.33718817445421712 -0.13355179710808501 0 0.34381162934489939 -0.12854128697128539 0 0.34025414842832208 -0.11782241666052221 0 0.33718817445421712 -0.13355179710808501 0 0.34027166502062639 -0.13605778071504529 0 0.33670348607675138 -0.13603839613078461 0 0.33718817445421712 -0.13355179710808501 0 0.34027166502062639 -0.13605778071504529 0 0.33718817445421712 -0.13355179710808501 0 0.34027166502062639 -0.13605778071504529 0 0.33670348607675138 -0.13603839613078461 0 0.33670348607675138 -0.13603839613078461 0 0.33718817445421712 -0.13355179710808501 0 0.34027166502062639 -0.13605778071504529 0 0.33718817445421712 -0.13355179710808501 0 0.34381162934489939 -0.12854128697128539 0 0.33199725769327038 -0.160182781354547 0 0.34027166502062639 -0.13605778071504529 0 0.36359383050920879 -0.15501193774405861 0 0.35355367174401742 -0.1211945845718113 0 0.34381162934489939 -0.12854128697128539 0 0.34779048707731292 -0.1340798558009649 0 0.34027166502062639 -0.13605778071504529 0 0.34884821061351562 -0.13610437388577321 0 0.35664352332635268 -0.13060513793896061 0 0.34779048707731292 -0.1340798558009649 0 0.34884821061351562 -0.13610437388577321 0 0.34027166502062639 -0.13605778071504529 0 0.34779048707731292 -0.1340798558009649 0 0.34884821061351562 -0.13610437388577321 0 0.34027166502062639 -0.13605778071504529 0 0.34381162934489939 -0.12854128697128539 0 0.34779048707731292 -0.1340798558009649 0 0.35664352332635268 -0.13060513793896061 0 0.34884821061351562 -0.13610437388577321 0 0.36374720336072303 -0.13810563056468389 0 0.34884821061351562 -0.13610437388577321 0 0.36359383050920879 -0.15501193774405861 0 0.36374720336072303 -0.13810563056468389 0 0.34027166502062639 -0.13605778071504529 0 0.36359383050920879 -0.15501193774405861 0 0.34027166502062639 -0.13605778071504529 0 0.34884821061351562 -0.13610437388577321 0 0.36359383050920879 -0.15501193774405861 0 0.36359383050920879 -0.15501193774405861 0 0.36374720336072303 -0.13810563056468389 0 0.37656812491251679 -0.13846106794218549 0 0.3785150876385216 -0.1195111518185689 0 0.36779594019891898 -0.12729788290040461 0 0.37656812491251679 -0.13846106794218549 0 0.36374720336072303 -0.13810563056468389 0 0.36779594019891898 -0.12729788290040461 0 0.37656812491251679 -0.13846106794218549 0 0.35664352332635268 -0.13060513793896061 0 0.36374720336072303 -0.13810563056468389 0 0.36779594019891898 -0.12729788290040461 0 0.33199725769327038 -0.160182781354547 0 0.36359383050920879 -0.15501193774405861 0 0.34572674800851178 -0.17666980330527179 0 0.34572674800851178 -0.17666980330527179 0 0.36422253950936112 -0.1859310752075029 0 0.34152908302092871 -0.19789605564194099 0 0.36359383050920879 -0.15501193774405861 0 0.34572674800851178 -0.17666980330527179 0 0.36422253950936112 -0.1859310752075029 0 0.36359383050920879 -0.15501193774405861 0 0.36422253950936112 -0.1859310752075029 0 0.38691599599779503 -0.1739660947730671 0 0.36422253950936112 -0.1859310752075029 0 0.37220629557919183 -0.19612338441269381 0 0.37910290544765168 -0.18685571494790659 0 0.36422253950936112 -0.1859310752075029 0 0.37220629557919183 -0.19612338441269381 0 0.35685044422528578 -0.20027094664828951 0 0.37220629557919183 -0.19612338441269381 0 0.3556522221671049 -0.2162457527497984 0 0.35685044422528578 -0.20027094664828951 0 0.37220629557919183 -0.19612338441269381 0 0.3556522221671049 -0.2162457527497984 0 0.37273333868611941 -0.2093978965492076 0 0.3556522221671049 -0.2162457527497984 0 0.3731990688381891 -0.2228302363117915 0 0.37220629557919183 -0.19612338441269381 0 0.37273333868611941 -0.2093978965492076 0 0.3556522221671049 -0.2162457527497984 0 0.34913249600123192 -0.20719712371303781 0 0.34152908302092871 -0.19789605564194099 0 0.34144894007629428 -0.2139395960038605 0 0.3556522221671049 -0.2162457527497984 0 0.34913249600123192 -0.20719712371303781 0 0.35685044422528578 -0.20027094664828951 0 0.3556522221671049 -0.2162457527497984 0 0.34913249600123192 -0.20719712371303781 0 0.34144894007629428 -0.2139395960038605 0 0.36422253950936112 -0.1859310752075029 0 0.35685044422528578 -0.20027094664828951 0 0.34152908302092871 -0.19789605564194099 0 0.36422253950936112 -0.1859310752075029 0 0.34152908302092871 -0.19789605564194099 0 0.34913249600123192 -0.20719712371303781 0 0.35685044422528578 -0.20027094664828951 0 0.34152908302092871 -0.19789605564194099 0 0.32729102930978993 -0.18432716657830939 0 0.34152908302092871 -0.19789605564194099 0 0.32289957828838461 -0.19876131457419149 0 0.34152908302092871 -0.19789605564194099 0 0.31883562653249692 -0.20986103607638071 0 0.34152908302092871 -0.19789605564194099 0 0.34144894007629428 -0.2139395960038605 0 0.31883562653249692 -0.20986103607638071 0 0.34144894007629428 -0.2139395960038605 0 0.31883562653249692 -0.20986103607638071 0 0.32331405575278033 -0.23055000204260581 0 0.31883562653249692 -0.20986103607638071 0 0.32289957828838461 -0.19876131457419149 0 0.30817512199612251 -0.208018461664154 0 0.31883562653249692 -0.20986103607638071 0 0.32289957828838461 -0.19876131457419149 0 0.30866677822314281 -0.19370433905286669 0 0.30817512199612251 -0.208018461664154 0 0.32289957828838461 -0.19876131457419149 0 0.34152908302092871 -0.19789605564194099 0 0.31883562653249692 -0.20986103607638071 0 0.32289957828838461 -0.19876131457419149 0 0.30866677822314281 -0.19370433905286669 0 0.31498869866721663 -0.1848028620899877 0 0.32289957828838461 -0.19876131457419149 0 0.31498869866721663 -0.1848028620899877 0 0.32729102930978993 -0.18432716657830939 0 0.32289957828838461 -0.19876131457419149 0 0.30517917142926537 -0.24716040808135001 0 0.32331405575278033 -0.23055000204260581 0 0.30517917142926537 -0.24716040808135001 0 0.32331405575278033 -0.23055000204260581 0 0.322544075342931 -0.25649048942400782 0 0.31200739898088131 -0.22851072207886541 0 0.30517917142926537 -0.24716040808135001 0 0.32331405575278033 -0.23055000204260581 0 0.31200739898088131 -0.22851072207886541 0 0.31883562653249692 -0.20986103607638071 0 0.31200739898088131 -0.22851072207886541 0 0.31883562653249692 -0.20986103607638071 0 0.32331405575278033 -0.23055000204260581 0 0.34144894007629428 -0.2139395960038605 0 0.32331405575278033 -0.23055000204260581 0 0.34144894007629428 -0.2139395960038605 0 0.32331405575278033 -0.23055000204260581 0 0.33909814875501798 -0.23636812108690311 0 0.33909814875501798 -0.23636812108690311 0 0.322544075342931 -0.25649048942400782 0 0.32331405575278033 -0.23055000204260581 0 0.33909814875501798 -0.23636812108690311 0 0.322544075342931 -0.25649048942400782 0 0.33909814875501798 -0.23636812108690311 0 0.35007299243335749 -0.24785688602667111 0 0.33700232267718733 -0.25494009872172468 0 0.33909814875501798 -0.23636812108690311 0 0.322544075342931 -0.25649048942400782 0 0.33700232267718733 -0.25494009872172468 0 0.33909814875501798 -0.23636812108690311 0 0.35007299243335749 -0.24785688602667111 0 0.35471840821638012 -0.232162972911199 0 0.35007299243335749 -0.24785688602667111 0 0.35471840821638012 -0.232162972911199 0 0.36225179838031341 -0.2439392928582107 0 0.35007299243335749 -0.24785688602667111 0 0.36225179838031341 -0.2439392928582107 0 0.36124693131331159 -0.25807728632712912 0 0.3556522221671049 -0.2162457527497984 0 0.33909814875501798 -0.23636812108690311 0 0.3556522221671049 -0.2162457527497984 0 0.33909814875501798 -0.23636812108690311 0 0.35471840821638012 -0.232162972911199 0 0.3556522221671049 -0.2162457527497984 0 0.34144894007629428 -0.2139395960038605 0 0.33909814875501798 -0.23636812108690311 0 0.35471840821638012 -0.232162972911199 0 0.3731990688381891 -0.2228302363117915 0 0.36225179838031341 -0.2439392928582107 0 0.3556522221671049 -0.2162457527497984 0 0.35471840821638012 -0.232162972911199 0 0.3731990688381891 -0.2228302363117915 0 0.3731990688381891 -0.2228302363117915 0 0.36225179838031341 -0.2439392928582107 0 0.3731990688381891 -0.2228302363117915 0 0.36225179838031341 -0.2439392928582107 0 0.38186963046980549 -0.2367879359972051 0 0.36225179838031341 -0.2439392928582107 0 0.38186963046980549 -0.2367879359972051 0 0.37510228513818711 -0.25237727586059511 0 0.38186963046980549 -0.2367879359972051 0 0.39206528024080278 -0.24921397013056479 0 0.37510228513818711 -0.25237727586059511 0 0.39206528024080278 -0.24921397013056479 0 0.40137725565661481 -0.22692044649349019 0 0.4148006158986044 -0.24103970595398019 0 0.39206528024080278 -0.24921397013056479 0 0.4148006158986044 -0.24103970595398019 0 0.40884184876520419 -0.25890250189124958 0 0.38186963046980549 -0.2367879359972051 0 0.39206528024080278 -0.24921397013056479 0 0.40137725565661481 -0.22692044649349019 0 0.40137725565661481 -0.22692044649349019 0 0.39915185452682361 -0.21610044156742811 0 0.41396763236883027 -0.21470461273584779 0 0.40137725565661481 -0.22692044649349019 0 0.38700545273377529 -0.2233412248148075 0 0.39915185452682361 -0.21610044156742811 0 0.38186963046980549 -0.2367879359972051 0 0.40137725565661481 -0.22692044649349019 0 0.38700545273377529 -0.2233412248148075 0 0.3731990688381891 -0.2228302363117915 0 0.38186963046980549 -0.2367879359972051 0 0.38700545273377529 -0.2233412248148075 0 0.3731990688381891 -0.2228302363117915 0 0.38414633929606479 -0.2017211797653724 0 0.37273333868611941 -0.2093978965492076 0 0.3731990688381891 -0.2228302363117915 0 0.38414633929606479 -0.2017211797653724 0 0.3731990688381891 -0.2228302363117915 0 0.38675328488958288 -0.2095276895359276 0 0.38414633929606479 -0.2017211797653724 0 0.3731990688381891 -0.2228302363117915 0 0.38700545273377529 -0.2233412248148075 0 0.38675328488958288 -0.2095276895359276 0 0.38675328488958288 -0.2095276895359276 0 0.38414633929606479 -0.2017211797653724 0 0.39287005569986072 -0.20314648074516001 0 0.38414633929606479 -0.2017211797653724 0 0.38373621375160438 -0.1885238144486111 0 0.39509360975394031 -0.18061212321895309 0 0.38414633929606479 -0.2017211797653724 0 0.39509360975394031 -0.18061212321895309 0 0.37999921147615667 -0.19503406661491049 0 0.38373621375160438 -0.1885238144486111 0 0.37910290544765168 -0.18685571494790659 0 0.37999921147615667 -0.19503406661491049 0 0.38414633929606479 -0.2017211797653724 0 0.38373621375160438 -0.1885238144486111 0 0.37220629557919183 -0.19612338441269381 0 0.37999921147615667 -0.19503406661491049 0 0.37910290544765168 -0.18685571494790659 0 0.37220629557919183 -0.19612338441269381 0 0.37273333868611941 -0.2093978965492076 0 0.38414633929606479 -0.2017211797653724 0 0.37220629557919183 -0.19612338441269381 0 0.37999921147615667 -0.19503406661491049 0 0.38414633929606479 -0.2017211797653724 0 0.38414633929606479 -0.2017211797653724 0 0.39694758591794982 -0.18886739411602391 0 0.39509360975394031 -0.18061212321895309 0 0.39694758591794982 -0.18886739411602391 0 0.3969424320709618 -0.1972324897541754 0 0.40101572763622523 -0.19231380306325679 0 0.38414633929606479 -0.2017211797653724 0 0.39694758591794982 -0.18886739411602391 0 0.3969424320709618 -0.1972324897541754 0 0.38414633929606479 -0.2017211797653724 0 0.3969424320709618 -0.1972324897541754 0 0.39287005569986072 -0.20314648074516001 0 0.3969424320709618 -0.1972324897541754 0 0.400612395600416 -0.20053006859666331 0 0.39287005569986072 -0.20314648074516001 0 0.3969424320709618 -0.1972324897541754 0 0.4059814476455269 -0.19573306963025069 0 0.400612395600416 -0.20053006859666331 0 0.4059814476455269 -0.19573306963025069 0 0.400612395600416 -0.20053006859666331 0 0.40665564698531481 -0.2060082342570673 0 0.3969424320709618 -0.1972324897541754 0 0.4059814476455269 -0.19573306963025069 0 0.40101572763622523 -0.19231380306325679 0 0.4059814476455269 -0.19573306963025069 0 0.40101572763622523 -0.19231380306325679 0 0.40419144491046238 -0.1874222587525772 0 0.39694758591794982 -0.18886739411602391 0 0.40101572763622523 -0.19231380306325679 0 0.40419144491046238 -0.1874222587525772 0 0.38675328488958288 -0.2095276895359276 0 0.40665564698531481 -0.2060082342570673 0 0.38675328488958288 -0.2095276895359276 0 0.39915185452682361 -0.21610044156742811 0 0.40665564698531481 -0.2060082342570673 0 0.38675328488958288 -0.2095276895359276 0 0.39287005569986072 -0.20314648074516001 0 0.40665564698531481 -0.2060082342570673 0 0.38700545273377529 -0.2233412248148075 0 0.38675328488958288 -0.2095276895359276 0 0.39915185452682361 -0.21610044156742811 0 0.400612395600416 -0.20053006859666331 0 0.39287005569986072 -0.20314648074516001 0 0.40665564698531481 -0.2060082342570673 0 0.41396763236883027 -0.21470461273584779 0 0.40665564698531481 -0.2060082342570673 0 0.42655800908104652 -0.20248877897820619 0 0.40665564698531481 -0.2060082342570673 0 0.42655800908104652 -0.20248877897820619 0 0.39915185452682361 -0.21610044156742811 0 0.41396763236883027 -0.21470461273584779 0 0.40665564698531481 -0.2060082342570673 0 0.41396763236883027 -0.21470461273584779 0 0.42655800908104652 -0.20248877897820619 0 0.40665564698531481 -0.2060082342570673 0 0.41640017291144837 -0.19588579121564459 0 0.42655800908104652 -0.20248877897820619 0 0.4059814476455269 -0.19573306963025069 0 0.41640017291144837 -0.19588579121564459 0 0.41453364601533049 -0.1862870086825022 0 0.4059814476455269 -0.19573306963025069 0 0.40419144491046238 -0.1874222587525772 0 0.41453364601533049 -0.1862870086825022 0 0.4059814476455269 -0.19573306963025069 0 0.40665564698531481 -0.2060082342570673 0 0.41640017291144837 -0.19588579121564459 0 0.41640017291144837 -0.19588579121564459 0 0.42581299264578848 -0.18832250896932939 0 0.41453364601533049 -0.1862870086825022 0 0.42655800908104652 -0.20248877897820619 0 0.444302871767289 -0.18527179670816579 0 0.42581299264578848 -0.18832250896932939 0 0.42655800908104652 -0.20248877897820619 0 0.444302871767289 -0.18527179670816579 0 0.41640017291144837 -0.19588579121564459 0 0.42581299264578848 -0.18832250896932939 0 0.42655800908104652 -0.20248877897820619 0 0.42655800908104652 -0.20248877897820619 0 0.43237997939727391 -0.21969514264188619 0 0.44995934289594253 -0.19835057932979169 0 0.41396763236883027 -0.21470461273584779 0 0.42655800908104652 -0.20248877897820619 0 0.43237997939727391 -0.21969514264188619 0 0.43237997939727391 -0.21969514264188619 0 0.43199948472716282 -0.23703470349933331 0 0.4148006158986044 -0.24103970595398019 0 0.43237997939727391 -0.21969514264188619 0 0.4148006158986044 -0.24103970595398019 0 0.43199948472716282 -0.23703470349933331 0 0.4148006158986044 -0.24103970595398019 0 0.42892204251950339 -0.2594807324876427 0 0.43199948472716282 -0.23703470349933331 0 0.44338493428344739 -0.24574379201886831 0 0.42892204251950339 -0.2594807324876427 0 0.43237997939727391 -0.21969514264188619 0 0.4148006158986044 -0.24103970595398019 0 0.41563137083033092 -0.22558997695630109 0 0.41396763236883027 -0.21470461273584779 0 0.43237997939727391 -0.21969514264188619 0 0.41563137083033092 -0.22558997695630109 0 0.40137725565661481 -0.22692044649349019 0 0.4148006158986044 -0.24103970595398019 0 0.41563137083033092 -0.22558997695630109 0 0.40137725565661481 -0.22692044649349019 0 0.41396763236883027 -0.21470461273584779 0 0.40137725565661481 -0.22692044649349019 0 0.41396763236883027 -0.21470461273584779 0 0.41563137083033092 -0.22558997695630109 0 0.39237070121405998 -0.13164091544729051 0 0.39988799210863701 -0.14408364481314989 0 0.41368108829086198 -0.13554811058748131 0 0.40604313277712428 -0.1171380761358455 0 0.39237070121405998 -0.13164091544729051 0 0.41368108829086198 -0.13554811058748131 0 0.39237070121405998 -0.13164091544729051 0 0.37656812491251679 -0.13846106794218549 0 0.38605620033535121 -0.1499684147877679 0 0.3785150876385216 -0.1195111518185689 0 0.39237070121405998 -0.13164091544729051 0 0.37656812491251679 -0.13846106794218549 0 0.36359383050920879 -0.15501193774405861 0 0.37656812491251679 -0.13846106794218549 0 0.38605620033535121 -0.1499684147877679 0 0.39237070121405998 -0.13164091544729051 0 0.38605620033535121 -0.1499684147877679 0 0.39988799210863701 -0.14408364481314989 0 0.38605620033535121 -0.1499684147877679 0 0.39988799210863701 -0.14408364481314989 0 0.39700055726989097 -0.15664682800685811 0 0.39988799210863701 -0.14408364481314989 0 0.39700055726989097 -0.15664682800685811 0 0.40766935758353628 -0.1563629578155839 0 0.40291487034120532 -0.16553079014728059 0 0.39700055726989097 -0.15664682800685811 0 0.38691599599779503 -0.1739660947730671 0 0.40291487034120532 -0.16553079014728059 0 0.38691599599779503 -0.1739660947730671 0 0.40291487034120532 -0.16553079014728059 0 0.39700055726989097 -0.15664682800685811 0 0.40766935758353628 -0.1563629578155839 0 0.40291487034120532 -0.16553079014728059 0 0.40766935758353628 -0.1563629578155839 0 0.38605620033535121 -0.1499684147877679 0 0.39700055726989097 -0.15664682800685811 0 0.38691599599779503 -0.1739660947730671 0 0.36359383050920879 -0.15501193774405861 0 0.38691599599779503 -0.1739660947730671 0 0.36359383050920879 -0.15501193774405861 0 0.38605620033535121 -0.1499684147877679 0 0.38691599599779503 -0.1739660947730671 0 0.36422253950936112 -0.1859310752075029 0 0.38691599599779503 -0.1739660947730671 0 0.37910290544765168 -0.18685571494790659 0 0.36422253950936112 -0.1859310752075029 0 0.38691599599779503 -0.1739660947730671 0 0.38691599599779503 -0.1739660947730671 0 0.38753717637180268 -0.18155585423065651 0 0.39509360975394031 -0.18061212321895309 0 0.38373621375160438 -0.1885238144486111 0 0.38753717637180268 -0.18155585423065651 0 0.39509360975394031 -0.18061212321895309 0 0.38691599599779503 -0.1739660947730671 0 0.37910290544765168 -0.18685571494790659 0 0.38753717637180268 -0.18155585423065651 0 0.38373621375160438 -0.1885238144486111 0 0.37910290544765168 -0.18685571494790659 0 0.38753717637180268 -0.18155585423065651 0 0.40291487034120532 -0.16553079014728059 0 0.38691599599779503 -0.1739660947730671 0 0.39509360975394031 -0.18061212321895309 0 0.39694758591794982 -0.18886739411602391 0 0.39665445354372708 -0.18451779314135289 0 0.39509360975394031 -0.18061212321895309 0 0.39694758591794982 -0.18886739411602391 0 0.39665445354372708 -0.18451779314135289 0 0.40021252966215071 -0.18382207331845951 0 0.39665445354372708 -0.18451779314135289 0 0.39509360975394031 -0.18061212321895309 0 0.40021252966215071 -0.18382207331845951 0 0.38691599599779503 -0.1739660947730671 0 0.39509360975394031 -0.18061212321895309 0 0.40291487034120532 -0.16553079014728059 0 0.39509360975394031 -0.18061212321895309 0 0.40549068313545528 -0.17742909809594989 0 0.40291487034120532 -0.16553079014728059 0 0.39509360975394031 -0.18061212321895309 0 0.40549068313545528 -0.17742909809594989 0 0.40419144491046238 -0.1874222587525772 0 0.40021252966215071 -0.18382207331845951 0 0.39509360975394031 -0.18061212321895309 0 0.40549068313545528 -0.17742909809594989 0 0.40021252966215071 -0.18382207331845951 0 0.39694758591794982 -0.18886739411602391 0 0.40419144491046238 -0.1874222587525772 0 0.40021252966215071 -0.18382207331845951 0 0.42581299264578848 -0.18832250896932939 0 0.41453364601533049 -0.1862870086825022 0 0.42235201908535791 -0.17050045814039369 0 0.40549068313545528 -0.17742909809594989 0 0.41453364601533049 -0.1862870086825022 0 0.42235201908535791 -0.17050045814039369 0 0.40549068313545528 -0.17742909809594989 0 0.40419144491046238 -0.1874222587525772 0 0.41453364601533049 -0.1862870086825022 0 0.42235201908535791 -0.17050045814039369 0 0.44127751826325029 -0.16493106072254701 0 0.444302871767289 -0.18527179670816579 0 0.42581299264578848 -0.18832250896932939 0 0.42235201908535791 -0.17050045814039369 0 0.444302871767289 -0.18527179670816579 0 0.42235201908535791 -0.17050045814039369 0 0.42606808286872072 -0.1533234062687002 0 0.44127751826325029 -0.16493106072254701 0 0.40291487034120532 -0.16553079014728059 0 0.40766935758353628 -0.1563629578155839 0 0.42606808286872072 -0.1533234062687002 0 0.40291487034120532 -0.16553079014728059 0 0.42606808286872072 -0.1533234062687002 0 0.40291487034120532 -0.16553079014728059 0 0.42235201908535791 -0.17050045814039369 0 0.42606808286872072 -0.1533234062687002 0 0.40291487034120532 -0.16553079014728059 0 0.40549068313545528 -0.17742909809594989 0 0.42235201908535791 -0.17050045814039369 0 0.41182663021293903 -0.1473295298712288 0 0.42606808286872072 -0.1533234062687002 0 0.41368108829086198 -0.13554811058748131 0 0.40766935758353628 -0.1563629578155839 0 0.41182663021293903 -0.1473295298712288 0 0.42606808286872072 -0.1533234062687002 0 0.39988799210863701 -0.14408364481314989 0 0.40766935758353628 -0.1563629578155839 0 0.41182663021293903 -0.1473295298712288 0 0.39988799210863701 -0.14408364481314989 0 0.41182663021293903 -0.1473295298712288 0 0.41368108829086198 -0.13554811058748131 0 0.42606808286872072 -0.1533234062687002 0 0.430889964195386 -0.135117951771525 0 0.44922129539623712 -0.14111602239012119 0 0.42606808286872072 -0.1533234062687002 0 0.430889964195386 -0.135117951771525 0 0.41368108829086198 -0.13554811058748131 0 0.42080162445294911 -0.1170697999396166 0 0.430889964195386 -0.135117951771525 0 0.41368108829086198 -0.13554811058748131 0 0.45825176112352212 -0.1171944005084963 0 0.44922129539623712 -0.14111602239012119 0 0.47461064769812122 -0.12772964805397971 0 0.44922129539623712 -0.14111602239012119 0 0.47461064769812122 -0.12772964805397971 0 0.44922129539623712 -0.14111602239012119 0 0.47041229806123103 -0.14236165737458781 0 0.47461064769812122 -0.12772964805397971 0 0.43893170590200609 -0.1195052611799315 0 0.430889964195386 -0.135117951771525 0 0.44922129539623712 -0.14111602239012119 0 0.43893170590200609 -0.1195052611799315 0 0.45825176112352212 -0.1171944005084963 0 0.44922129539623712 -0.14111602239012119 0 0.43893170590200609 -0.1195052611799315 0 0.44922129539623712 -0.14111602239012119 0 0.42606808286872072 -0.1533234062687002 0 0.44922129539623712 -0.14111602239012119 0 0.44127751826325029 -0.16493106072254701 0 0.42606808286872072 -0.1533234062687002 0 0.44922129539623712 -0.14111602239012119 0 0.44922129539623712 -0.14111602239012119 0 0.46204773445353348 -0.16805481443812731 0 0.44922129539623712 -0.14111602239012119 0 0.46204773445353348 -0.16805481443812731 0 0.47041229806123103 -0.14236165737458781 0 0.44922129539623712 -0.14111602239012119 0 0.46204773445353348 -0.16805481443812731 0 0.44127751826325029 -0.16493106072254701 0 0.46204773445353348 -0.16805481443812731 0 0.44127751826325029 -0.16493106072254701 0 0.444302871767289 -0.18527179670816579 0 0.46204773445353348 -0.16805481443812731 0 0.444302871767289 -0.18527179670816579 0 0.46675991992270621 -0.1779516052682695 0 0.47013600328087812 -0.185042241033678 0 0.44995934289594253 -0.19835057932979169 0 0.444302871767289 -0.18527179670816579 0 0.46675991992270621 -0.1779516052682695 0 0.44995934289594253 -0.19835057932979169 0 0.46204773445353348 -0.16805481443812731 0 0.444302871767289 -0.18527179670816579 0 0.46675991992270621 -0.1779516052682695 0 0.46204773445353348 -0.16805481443812731 0 0.46675991992270621 -0.1779516052682695 0 0.46675991992270621 -0.1779516052682695 0 0.47013600328087812 -0.185042241033678 0 0.46675991992270621 -0.1779516052682695 0 0.48388214138120561 -0.17390417728894431 0 0.47927416581767118 -0.18397687174081401 0 0.46675991992270621 -0.1779516052682695 0 0.47013600328087812 -0.185042241033678 0 0.47927416581767118 -0.18397687174081401 0 0.48388214138120561 -0.17390417728894431 0 0.47927416581767118 -0.18397687174081401 0 0.48987334582395858 -0.18140433091368091 0 0.48987334582395858 -0.18140433091368091 0 0.5 -0.16492372169971509 0 0.5 -0.19225537639104809 0 0.48388214138120561 -0.17390417728894431 0 0.48987334582395858 -0.18140433091368091 0 0.5 -0.16492372169971509 0 0.47927416581767118 -0.18397687174081401 0 0.48987334582395858 -0.18140433091368091 0 0.48552241192915191 -0.19206174635411891 0 0.48388214138120561 -0.17390417728894431 0 0.5 -0.16492372169971509 0 0.48337995996135552 -0.1577718361383266 0 0.46675991992270621 -0.1779516052682695 0 0.48388214138120561 -0.17390417728894431 0 0.48337995996135552 -0.1577718361383266 0 0.46204773445353348 -0.16805481443812731 0 0.46675991992270621 -0.1779516052682695 0 0.48337995996135552 -0.1577718361383266 0 0.46204773445353348 -0.16805481443812731 0 0.48337995996135552 -0.1577718361383266 0 0.47713463147989749 -0.15341672773068571 0 0.46675991992270621 -0.1779516052682695 0 0.48337995996135552 -0.1577718361383266 0 0.46204773445353348 -0.16805481443812731 0 0.47713463147989749 -0.15341672773068571 0 0.46204773445353348 -0.16805481443812731 0 0.47041229806123103 -0.14236165737458781 0 0.47713463147989749 -0.15341672773068571 0 0.48337995996135552 -0.1577718361383266 0 0.47713463147989749 -0.15341672773068571 0 0.48456351921585428 -0.1397192317593817 0 0.47041229806123103 -0.14236165737458781 0 0.47713463147989749 -0.15341672773068571 0 0.48456351921585428 -0.1397192317593817 0 0.48337995996135552 -0.1577718361383266 0 0.50000000000000311 -0.1375920670083822 0 0.48456351921585428 -0.1397192317593817 0 0.5 -0.16492372169971509 0 0.48337995996135552 -0.1577718361383266 0 0.50000000000000311 -0.1375920670083822 0 0.48337995996135552 -0.1577718361383266 0 0.50000000000000311 -0.1375920670083822 0 0.50000000000000433 -0.1143432737178363 0 0.50000000000000311 -0.1375920670083822 0 0.48456351921585428 -0.1397192317593817 0 0.50000000000000433 -0.1143432737178363 0 0.48456351921585428 -0.1397192317593817 0 0.47461064769812122 -0.12772964805397971 0 0.47041229806123103 -0.14236165737458781 0 0.48456351921585428 -0.1397192317593817 0 0.47461064769812122 -0.12772964805397971 0 0.46695018322910392 -0.22473955239466681 0 0.44975785303280541 -0.2255898949688982 0 0.46528918090086291 -0.2095084705765255 0 0.46695018322910392 -0.22473955239466681 0 0.46086119099944728 -0.24298014516654151 0 0.44975785303280541 -0.2255898949688982 0 0.46086119099944728 -0.24298014516654151 0 0.44338493428344739 -0.24574379201886831 0 0.44975785303280541 -0.2255898949688982 0 0.43199948472716282 -0.23703470349933331 0 0.44338493428344739 -0.24574379201886831 0 0.44975785303280541 -0.2255898949688982 0 0.46086119099944728 -0.24298014516654151 0 0.44338493428344739 -0.24574379201886831 0 0.45165913482636821 -0.26068325523694041 0 0.43237997939727391 -0.21969514264188619 0 0.43199948472716282 -0.23703470349933331 0 0.44975785303280541 -0.2255898949688982 0 0.43237997939727391 -0.21969514264188619 0 0.44975785303280541 -0.2255898949688982 0 0.44995934289594253 -0.19835057932979169 0 0.43237997939727391 -0.21969514264188619 0 0.44995934289594253 -0.19835057932979169 0 0.42655800908104652 -0.20248877897820619 0 0.444302871767289 -0.18527179670816579 0 0.44995934289594253 -0.19835057932979169 0 0.42655800908104652 -0.20248877897820619 0 0.44995934289594253 -0.19835057932979169 0 0.46675991992270621 -0.1779516052682695 0 0.44995934289594253 -0.19835057932979169 0 0.44995934289594253 -0.19835057932979169 0 0.46774087741254722 -0.19520616284195491 0 0.47013600328087812 -0.185042241033678 0 0.44995934289594253 -0.19835057932979169 0 0.46774087741254722 -0.19520616284195491 0 0.44995934289594253 -0.19835057932979169 0 0.46774087741254722 -0.19520616284195491 0 0.46528918090086291 -0.2095084705765255 0 0.44975785303280541 -0.2255898949688982 0 0.44995934289594253 -0.19835057932979169 0 0.46528918090086291 -0.2095084705765255 0 0.46695018322910392 -0.22473955239466681 0 0.46528918090086291 -0.2095084705765255 0 0.48029579162163721 -0.21558854579597769 0 0.46528918090086291 -0.2095084705765255 0 0.47801733861628259 -0.20339364304417529 0 0.48029579162163721 -0.21558854579597769 0 0.47801733861628259 -0.20339364304417529 0 0.48029579162163721 -0.21558854579597769 0 0.48876710843341442 -0.20457726853354019 0 0.46774087741254722 -0.19520616284195491 0 0.47801733861628259 -0.20339364304417529 0 0.48552241192915191 -0.19206174635411891 0 0.47927416581767118 -0.18397687174081401 0 0.46774087741254722 -0.19520616284195491 0 0.48552241192915191 -0.19206174635411891 0 0.46774087741254722 -0.19520616284195491 0 0.48552241192915191 -0.19206174635411891 0 0.47013600328087812 -0.185042241033678 0 0.47927416581767118 -0.18397687174081401 0 0.46774087741254722 -0.19520616284195491 0 0.46774087741254722 -0.19520616284195491 0 0.46528918090086291 -0.2095084705765255 0 0.47801733861628259 -0.20339364304417529 0 0.47801733861628259 -0.20339364304417529 0 0.48552241192915191 -0.19206174635411891 0 0.48876710843341442 -0.20457726853354019 0 0.48987334582395858 -0.18140433091368091 0 0.48552241192915191 -0.19206174635411891 0 0.5 -0.19225537639104809 0 0.48552241192915191 -0.19206174635411891 0 0.5 -0.19225537639104809 0 0.48876710843341442 -0.20457726853354019 0 0.5 -0.19225537639104809 0 0.48876710843341442 -0.20457726853354019 0 0.5 -0.21958703108238101 0 0.48029579162163721 -0.21558854579597769 0 0.48876710843341442 -0.20457726853354019 0 0.5 -0.21958703108238101 0 0.5 -0.21958703108238101 0 0.48033598971293961 -0.23536730169414519 0 0.5 -0.24691868577371379 0 0.48029579162163721 -0.21558854579597769 0 0.5 -0.21958703108238101 0 0.48033598971293961 -0.23536730169414519 0 0.46695018322910392 -0.22473955239466681 0 0.46086119099944728 -0.24298014516654151 0 0.48033598971293961 -0.23536730169414519 0 0.46695018322910392 -0.22473955239466681 0 0.48029579162163721 -0.21558854579597769 0 0.48033598971293961 -0.23536730169414519 0 0.46086119099944728 -0.24298014516654151 0 0.48033598971293961 -0.23536730169414519 0 0.47450143065275591 -0.2599846894272051 0 0.48033598971293961 -0.23536730169414519 0 0.5 -0.24691868577371379 0 0.47450143065275591 -0.2599846894272051 0 0.5 -0.24691868577371379 0 0.50000000000000222 -0.27425034046504659 0 0.47450143065275591 -0.2599846894272051 0 0.50000000000000222 -0.27425034046504659 0 0.47605513413645029 -0.28008102786359129 0 0.47450143065275591 -0.2599846894272051 0 0.47605513413645029 -0.28008102786359129 0 0.47450143065275591 -0.2599846894272051 0 0.45931845050930209 -0.27772900618102819 0 0.46086119099944728 -0.24298014516654151 0 0.47450143065275591 -0.2599846894272051 0 0.45165913482636821 -0.26068325523694041 0 0.47450143065275591 -0.2599846894272051 0 0.45931845050930209 -0.27772900618102819 0 0.45165913482636821 -0.26068325523694041 0 0.45931845050930209 -0.27772900618102819 0 0.44355941821905998 -0.27577600561597132 0 0.45165913482636821 -0.26068325523694041 0 0.44338493428344739 -0.24574379201886831 0 0.45165913482636821 -0.26068325523694041 0 0.42892204251950339 -0.2594807324876427 0 0.44355941821905998 -0.27577600561597132 0 0.45165913482636821 -0.26068325523694041 0 0.42892204251950339 -0.2594807324876427 0 0.44743457629936911 -0.29125199491084608 0 0.45088585771739531 -0.31517042999936162 0 0.43686388954492023 -0.30206384222820981 0 0.45088585771739531 -0.31517042999936162 0 0.43602078127065758 -0.31524868357114688 0 0.43686388954492023 -0.30206384222820981 0 0.45931845050930209 -0.27772900618102819 0 0.44355941821905998 -0.27577600561597132 0 0.44743457629936911 -0.29125199491084608 0 0.44355941821905998 -0.27577600561597132 0 0.44743457629936911 -0.29125199491084608 0 0.42611848489587972 -0.28658767974219163 0 0.47605513413645029 -0.28008102786359129 0 0.45931845050930209 -0.27772900618102819 0 0.46516191830632447 -0.295844547827811 0 0.45931845050930209 -0.27772900618102819 0 0.44743457629936911 -0.29125199491084608 0 0.46516191830632447 -0.295844547827811 0 0.44743457629936911 -0.29125199491084608 0 0.46516191830632447 -0.295844547827811 0 0.45088585771739531 -0.31517042999936162 0 0.46516191830632447 -0.295844547827811 0 0.47218478901913252 -0.31616939882945228 0 0.45088585771739531 -0.31517042999936162 0 0.4860923945095682 -0.29520986964724988 0 0.47218478901913252 -0.31616939882945228 0 0.50000000000000222 -0.27425034046504659 0 0.4860923945095682 -0.29520986964724988 0 0.5 -0.307151228172029 0 0.46516191830632447 -0.295844547827811 0 0.4860923945095682 -0.29520986964724988 0 0.47218478901913252 -0.31616939882945228 0 0.47605513413645029 -0.28008102786359129 0 0.46516191830632447 -0.295844547827811 0 0.4860923945095682 -0.29520986964724988 0 0.50000000000000222 -0.27425034046504659 0 0.47605513413645029 -0.28008102786359129 0 0.4860923945095682 -0.29520986964724988 0 0.50000000000000222 -0.27425034046504659 0 0.4860923945095682 -0.29520986964724988 0 0.4860923945095682 -0.29520986964724988 0 0.5 -0.307151228172029 0 0.47218478901913252 -0.31616939882945228 0 0.5 -0.307151228172029 0 0.47500442815187882 -0.33618410333150461 0 0.5 -0.35237408365171952 0 0.5 -0.307151228172029 0 0.47500442815187882 -0.33618410333150461 0 0.47218478901913252 -0.31616939882945228 0 0.47500442815187882 -0.33618410333150461 0 0.5 -0.35237408365171952 0 0.46252966193221051 -0.36479181955861489 0 0.5 -0.35237408365171952 0 0.46252966193221051 -0.36479181955861489 0 0.4680243894331878 -0.39009447735167219 0 0.46252966193221051 -0.36479181955861489 0 0.44439653888602387 -0.37108278870097211 0 0.45518384933885458 -0.37953704158418422 0 0.46252966193221051 -0.36479181955861489 0 0.4490308344886651 -0.35295870566956811 0 0.45703493443123322 -0.33948916176555749 0 0.47500442815187882 -0.33618410333150461 0 0.46252966193221051 -0.36479181955861489 0 0.45703493443123322 -0.33948916176555749 0 0.46252966193221051 -0.36479181955861489 0 0.45703493443123322 -0.33948916176555749 0 0.4490308344886651 -0.35295870566956811 0 0.44439653888602387 -0.37108278870097211 0 0.43547581015886039 -0.35374612963373181 0 0.44432011104097457 -0.34600420025309703 0 0.4490308344886651 -0.35295870566956811 0 0.45042795048268808 -0.34263813410543531 0 0.4490308344886651 -0.35295870566956811 0 0.45703493443123322 -0.33948916176555749 0 0.45042795048268808 -0.34263813410543531 0 0.44432011104097457 -0.34600420025309703 0 0.4490308344886651 -0.35295870566956811 0 0.43547581015886039 -0.35374612963373181 0 0.44432011104097457 -0.34600420025309703 0 0.43877314986606192 -0.33818418946214152 0 0.43547581015886039 -0.35374612963373181 0 0.46252966193221051 -0.36479181955861489 0 0.4490308344886651 -0.35295870566956811 0 0.44439653888602387 -0.37108278870097211 0 0.47218478901913252 -0.31616939882945228 0 0.45845081404400378 -0.32484725803309861 0 0.45088585771739531 -0.31517042999936162 0 0.47218478901913252 -0.31616939882945228 0 0.45845081404400378 -0.32484725803309861 0 0.45827718352869679 -0.33712892801165451 0 0.47218478901913252 -0.31616939882945228 0 0.45827718352869679 -0.33712892801165451 0 0.45845081404400378 -0.32484725803309861 0 0.45465012105844921 -0.33200612518688721 0 0.44755831468875862 -0.32470483606049327 0 0.47500442815187882 -0.33618410333150461 0 0.45703493443123322 -0.33948916176555749 0 0.45827718352869679 -0.33712892801165451 0 0.47500442815187882 -0.33618410333150461 0 0.47218478901913252 -0.31616939882945228 0 0.45827718352869679 -0.33712892801165451 0 0.45703493443123322 -0.33948916176555749 0 0.4547926195999189 -0.33699511694280199 0 0.45042795048268808 -0.34263813410543531 0 0.45703493443123322 -0.33948916176555749 0 0.45827718352869679 -0.33712892801165451 0 0.4547926195999189 -0.33699511694280199 0 0.45845081404400378 -0.32484725803309861 0 0.45827718352869679 -0.33712892801165451 0 0.45465012105844921 -0.33200612518688721 0 0.4547926195999189 -0.33699511694280199 0 0.45465012105844921 -0.33200612518688721 0 0.45190540097192972 -0.33615439765103378 0 0.45827718352869679 -0.33712892801165451 0 0.4547926195999189 -0.33699511694280199 0 0.45465012105844921 -0.33200612518688721 0 0.45465012105844921 -0.33200612518688721 0 0.44749393872662357 -0.33307274595813069 0 0.44755831468875862 -0.32470483606049327 0 0.45465012105844921 -0.33200612518688721 0 0.44749393872662357 -0.33307274595813069 0 0.45190540097192972 -0.33615439765103378 0 0.4547926195999189 -0.33699511694280199 0 0.45042795048268808 -0.34263813410543531 0 0.45190540097192972 -0.33615439765103378 0 0.45042795048268808 -0.34263813410543531 0 0.45190540097192972 -0.33615439765103378 0 0.44691761172297523 -0.33872250108465612 0 0.44749393872662357 -0.33307274595813069 0 0.45190540097192972 -0.33615439765103378 0 0.44691761172297523 -0.33872250108465612 0 0.44432011104097457 -0.34600420025309703 0 0.45042795048268808 -0.34263813410543531 0 0.44691761172297523 -0.33872250108465612 0 0.44432011104097457 -0.34600420025309703 0 0.44691761172297523 -0.33872250108465612 0 0.43877314986606192 -0.33818418946214152 0 0.44749393872662357 -0.33307274595813069 0 0.44691761172297523 -0.33872250108465612 0 0.43877314986606192 -0.33818418946214152 0 0.44749393872662357 -0.33307274595813069 0 0.43877314986606192 -0.33818418946214152 0 0.43784837531542259 -0.32788377361433518 0 0.44749393872662357 -0.33307274595813069 0 0.43784837531542259 -0.32788377361433518 0 0.44755831468875862 -0.32470483606049327 0 0.43784837531542259 -0.32788377361433518 0 0.44755831468875862 -0.32470483606049327 0 0.43602078127065758 -0.31524868357114688 0 0.45845081404400378 -0.32484725803309861 0 0.44755831468875862 -0.32470483606049327 0 0.45088585771739531 -0.31517042999936162 0 0.44755831468875862 -0.32470483606049327 0 0.45088585771739531 -0.31517042999936162 0 0.43602078127065758 -0.31524868357114688 0 0.43784837531542259 -0.32788377361433518 0 0.42583518759170652 -0.33528639298719382 0 0.41775460495295358 -0.31793141321765611 0 0.43784837531542259 -0.32788377361433518 0 0.43602078127065758 -0.31524868357114688 0 0.41775460495295358 -0.31793141321765611 0 0.43877314986606192 -0.33818418946214152 0 0.43784837531542259 -0.32788377361433518 0 0.42583518759170652 -0.33528639298719382 0 0.43877314986606192 -0.33818418946214152 0 0.42583518759170652 -0.33528639298719382 0 0.43547581015886039 -0.35374612963373181 0 0.41250416259223432 -0.33960725990233392 0 0.41775460495295358 -0.31793141321765611 0 0.39805431729583179 -0.33510365622952631 0 0.41250416259223432 -0.33960725990233392 0 0.41775460495295358 -0.31793141321765611 0 0.42583518759170652 -0.33528639298719382 0 0.41250416259223432 -0.33960725990233392 0 0.41775460495295358 -0.31793141321765611 0 0.42583518759170652 -0.33528639298719382 0 0.41250416259223432 -0.33960725990233392 0 0.42034794007649889 -0.35298104146800569 0 0.43547581015886039 -0.35374612963373181 0 0.42034794007649889 -0.35298104146800569 0 0.42578668388574042 -0.37577956855813549 0 0.44439653888602387 -0.37108278870097211 0 0.43547581015886039 -0.35374612963373181 0 0.42578668388574042 -0.37577956855813549 0 0.42583518759170652 -0.33528639298719382 0 0.43547581015886039 -0.35374612963373181 0 0.42034794007649889 -0.35298104146800569 0 0.41250416259223432 -0.33960725990233392 0 0.42034794007649889 -0.35298104146800569 0 0.40725372023151529 -0.36128310658701179 0 0.41250416259223432 -0.33960725990233392 0 0.40725372023151529 -0.36128310658701179 0 0.40725372023151529 -0.36128310658701179 0 0.42578668388574042 -0.37577956855813549 0 0.40193856510946419 -0.3832261124550107 0 0.40725372023151529 -0.36128310658701179 0 0.42578668388574042 -0.37577956855813549 0 0.42034794007649889 -0.35298104146800569 0 0.40725372023151529 -0.36128310658701179 0 0.42578668388574042 -0.37577956855813549 0 0.40725372023151529 -0.36128310658701179 0 0.39425043507280438 -0.36432915978129837 0 0.40193856510946419 -0.3832261124550107 0 0.40725372023151529 -0.36128310658701179 0 0.40193856510946419 -0.3832261124550107 0 0.39425043507280438 -0.36432915978129837 0 0.38081427771294768 -0.36737052156009248 0 0.40193856510946419 -0.3832261124550107 0 0.40725372023151529 -0.36128310658701179 0 0.38699517723729038 -0.34543689852307891 0 0.39805431729583179 -0.33510365622952631 0 0.40725372023151529 -0.36128310658701179 0 0.39425043507280438 -0.36432915978129837 0 0.38699517723729038 -0.34543689852307891 0 0.40725372023151529 -0.36128310658701179 0 0.38699517723729038 -0.34543689852307891 0 0.41250416259223432 -0.33960725990233392 0 0.40725372023151529 -0.36128310658701179 0 0.39805431729583179 -0.33510365622952631 0 0.38699517723729038 -0.34543689852307891 0 0.38081427771294768 -0.36737052156009248 0 0.37640125955739012 -0.35149107478397351 0 0.38465179156333151 -0.34360390505586791 0 0.36805061276354478 -0.3427907498460791 0 0.39425043507280438 -0.36432915978129837 0 0.38699517723729038 -0.34543689852307891 0 0.38081427771294768 -0.36737052156009248 0 0.38699517723729038 -0.34543689852307891 0 0.37640125955739012 -0.35149107478397351 0 0.38081427771294768 -0.36737052156009248 0 0.38699517723729038 -0.34543689852307891 0 0.38465179156333151 -0.34360390505586791 0 0.38699517723729038 -0.34543689852307891 0 0.37640125955739012 -0.35149107478397351 0 0.38465179156333151 -0.34360390505586791 0 0.41775460495295358 -0.31793141321765611 0 0.39401776620237461 -0.32051644503610022 0 0.39805431729583179 -0.33510365622952631 0 0.38699517723729038 -0.34543689852307891 0 0.39401776620237461 -0.32051644503610022 0 0.39805431729583179 -0.33510365622952631 0 0.38699517723729038 -0.34543689852307891 0 0.39401776620237461 -0.32051644503610022 0 0.38465179156333151 -0.34360390505586791 0 0.37858644206980091 -0.32769985780377792 0 0.36805061276354478 -0.3427907498460791 0 0.38699517723729038 -0.34543689852307891 0 0.39401776620237461 -0.32051644503610022 0 0.38465179156333151 -0.34360390505586791 0 0.39401776620237461 -0.32051644503610022 0 0.38465179156333151 -0.34360390505586791 0 0.37858644206980091 -0.32769985780377792 0 0.39401776620237461 -0.32051644503610022 0 0.37858644206980091 -0.32769985780377792 0 0.37861767820969228 -0.30691821554646831 0 0.41775460495295358 -0.31793141321765611 0 0.39401776620237461 -0.32051644503610022 0 0.40104035516745928 -0.29559599154912142 0 0.39401776620237461 -0.32051644503610022 0 0.37861767820969228 -0.30691821554646831 0 0.40104035516745928 -0.29559599154912142 0 0.39401776620237461 -0.32051644503610022 0 0.40104035516745928 -0.29559599154912142 0 0.40104035516745928 -0.29559599154912142 0 0.38498320530945151 -0.287592927137584 0 0.39655653748852282 -0.27284147297554762 0 0.38498320530945151 -0.287592927137584 0 0.37764450162479901 -0.26965755496232408 0 0.36873774536035581 -0.28861226174546889 0 0.37861767820969228 -0.30691821554646831 0 0.40104035516745928 -0.29559599154912142 0 0.38498320530945151 -0.287592927137584 0 0.37861767820969228 -0.30691821554646831 0 0.38498320530945151 -0.287592927137584 0 0.36873774536035581 -0.28861226174546889 0 0.38498320530945151 -0.287592927137584 0 0.37764450162479901 -0.26965755496232408 0 0.39655653748852282 -0.27284147297554762 0 0.39206528024080278 -0.24921397013056479 0 0.37764450162479901 -0.26965755496232408 0 0.39655653748852282 -0.27284147297554762 0 0.39206528024080278 -0.24921397013056479 0 0.37764450162479901 -0.26965755496232408 0 0.37510228513818711 -0.25237727586059511 0 0.39206528024080278 -0.24921397013056479 0 0.39655653748852282 -0.27284147297554762 0 0.40884184876520419 -0.25890250189124958 0 0.40104035516745928 -0.29559599154912142 0 0.39655653748852282 -0.27284147297554762 0 0.4136044294752057 -0.2739163227279473 0 0.39655653748852282 -0.27284147297554762 0 0.4136044294752057 -0.2739163227279473 0 0.40884184876520419 -0.25890250189124958 0 0.4148006158986044 -0.24103970595398019 0 0.40884184876520419 -0.25890250189124958 0 0.42892204251950339 -0.2594807324876427 0 0.4136044294752057 -0.2739163227279473 0 0.40884184876520419 -0.25890250189124958 0 0.42892204251950339 -0.2594807324876427 0 0.4136044294752057 -0.2739163227279473 0 0.42892204251950339 -0.2594807324876427 0 0.42611848489587972 -0.28658767974219163 0 0.44355941821905998 -0.27577600561597132 0 0.42892204251950339 -0.2594807324876427 0 0.42611848489587972 -0.28658767974219163 0 0.44743457629936911 -0.29125199491084608 0 0.42611848489587972 -0.28658767974219163 0 0.43686388954492023 -0.30206384222820981 0 0.43602078127065758 -0.31524868357114688 0 0.41775460495295358 -0.31793141321765611 0 0.42179240152309172 -0.30222108271158582 0 0.42611848489587972 -0.28658767974219163 0 0.43686388954492023 -0.30206384222820981 0 0.42179240152309172 -0.30222108271158582 0 0.43602078127065758 -0.31524868357114688 0 0.43686388954492023 -0.30206384222820981 0 0.42179240152309172 -0.30222108271158582 0 0.41775460495295358 -0.31793141321765611 0 0.40104035516745928 -0.29559599154912142 0 0.42179240152309172 -0.30222108271158582 0 0.40104035516745928 -0.29559599154912142 0 0.4136044294752057 -0.2739163227279473 0 0.42611848489587972 -0.28658767974219163 0 0.40104035516745928 -0.29559599154912142 0 0.42611848489587972 -0.28658767974219163 0 0.42179240152309172 -0.30222108271158582 0 0.5 -0.5 0 0.478892924595126 -0.45923392689990328 0 0.5 -0.41454166856117469 0 0.5 -0.5 0 0.47943423265092072 -0.49342116463239621 0 0.40014079662082208 -0.5 0 0.43983937115661631 -0.46972557693384148 0 0.47943423265092072 -0.49342116463239621 0 0.40014079662082208 -0.5 0 0.43983937115661631 -0.46972557693384148 0 0.46715606132834708 -0.47012790102379598 0 0.47943423265092072 -0.49342116463239621 0 0.5 -0.5 0 0.47943423265092072 -0.49342116463239621 0 0.478892924595126 -0.45923392689990328 0 0.46715606132834708 -0.47012790102379598 0 0.47943423265092072 -0.49342116463239621 0 0.478892924595126 -0.45923392689990328 0 0.46715606132834708 -0.47012790102379598 0 0.47943423265092072 -0.49342116463239621 0 0.478892924595126 -0.45923392689990328 0 0.45487789000577361 -0.44683463741519602 0 0.47188936358571532 -0.4304781897668572 0 0.46715606132834708 -0.47012790102379598 0 0.45487789000577361 -0.44683463741519602 0 0.46715606132834708 -0.47012790102379598 0 0.478892924595126 -0.45923392689990328 0 0.45487789000577361 -0.44683463741519602 0 0.43983937115661631 -0.46972557693384148 0 0.46715606132834708 -0.47012790102379598 0 0.45487789000577361 -0.44683463741519602 0 0.43983937115661631 -0.46972557693384148 0 0.45487789000577361 -0.44683463741519602 0 0.43095981599733307 -0.44753658110846528 0 0.45487789000577361 -0.44683463741519602 0 0.43408281430989271 -0.43319973453275151 0 0.43095981599733307 -0.44753658110846528 0 0.45487789000577361 -0.44683463741519602 0 0.44259971868320003 -0.42354137380659601 0 0.45487789000577361 -0.44683463741519602 0 0.44259971868320003 -0.42354137380659601 0 0.43408281430989271 -0.43319973453275151 0 0.45487789000577361 -0.44683463741519602 0 0.44259971868320003 -0.42354137380659601 0 0.45959372781066021 -0.42263882295877442 0 0.44259971868320003 -0.42354137380659601 0 0.45186952978880229 -0.40983589673226128 0 0.45959372781066021 -0.42263882295877442 0 0.44259971868320003 -0.42354137380659601 0 0.45186952978880229 -0.40983589673226128 0 0.44161148704613862 -0.40579593671517361 0 0.44259971868320003 -0.42354137380659601 0 0.44161148704613862 -0.40579593671517361 0 0.43098246877755192 -0.41858878846052949 0 0.45186952978880229 -0.40983589673226128 0 0.45959372781066021 -0.42263882295877442 0 0.46285261119418991 -0.40477249250038388 0 0.45959372781066021 -0.42263882295877442 0 0.4735191169341651 -0.41539713514472942 0 0.46285261119418991 -0.40477249250038388 0 0.45959372781066021 -0.42263882295877442 0 0.47188936358571532 -0.4304781897668572 0 0.4735191169341651 -0.41539713514472942 0 0.45487789000577361 -0.44683463741519602 0 0.45959372781066021 -0.42263882295877442 0 0.47188936358571532 -0.4304781897668572 0 0.5 -0.41454166856117469 0 0.4735191169341651 -0.41539713514472942 0 0.4680243894331878 -0.39009447735167219 0 0.478892924595126 -0.45923392689990328 0 0.47188936358571532 -0.4304781897668572 0 0.5 -0.41454166856117469 0 0.47188936358571532 -0.4304781897668572 0 0.5 -0.41454166856117469 0 0.4735191169341651 -0.41539713514472942 0 0.5 -0.35237408365171952 0 0.5 -0.41454166856117469 0 0.4680243894331878 -0.39009447735167219 0 0.4735191169341651 -0.41539713514472942 0 0.4680243894331878 -0.39009447735167219 0 0.46252966193221051 -0.36479181955861489 0 0.45518384933885458 -0.37953704158418422 0 0.4680243894331878 -0.39009447735167219 0 0.45518384933885458 -0.37953704158418422 0 0.4680243894331878 -0.39009447735167219 0 0.44431964753996511 -0.39027603052925969 0 0.46252966193221051 -0.36479181955861489 0 0.4680243894331878 -0.39009447735167219 0 0.4735191169341651 -0.41539713514472942 0 0.4680243894331878 -0.39009447735167219 0 0.46285261119418991 -0.40477249250038388 0 0.4680243894331878 -0.39009447735167219 0 0.46285261119418991 -0.40477249250038388 0 0.44431964753996511 -0.39027603052925969 0 0.46285261119418991 -0.40477249250038388 0 0.44431964753996511 -0.39027603052925969 0 0.45186952978880229 -0.40983589673226128 0 0.44161148704613862 -0.40579593671517361 0 0.44431964753996511 -0.39027603052925969 0 0.45186952978880229 -0.40983589673226128 0 0.46285261119418991 -0.40477249250038388 0 0.44431964753996511 -0.39027603052925969 0 0.44439653888602387 -0.37108278870097211 0 0.44431964753996511 -0.39027603052925969 0 0.42578668388574042 -0.37577956855813549 0 0.44439653888602387 -0.37108278870097211 0 0.45518384933885458 -0.37953704158418422 0 0.44431964753996511 -0.39027603052925969 0 0.44431964753996511 -0.39027603052925969 0 0.42578668388574042 -0.37577956855813549 0 0.42627525148907153 -0.39512359141131242 0 0.44431964753996511 -0.39027603052925969 0 0.42578668388574042 -0.37577956855813549 0 0.44161148704613862 -0.40579593671517361 0 0.44431964753996511 -0.39027603052925969 0 0.42627525148907153 -0.39512359141131242 0 0.44161148704613862 -0.40579593671517361 0 0.42627525148907153 -0.39512359141131242 0 0.41380476734409732 -0.40903711363024231 0 0.41288573556315727 -0.39366710087554208 0 0.39662340998741341 -0.40516911832300972 0 0.41380476734409732 -0.40903711363024231 0 0.42627525148907153 -0.39512359141131242 0 0.41288573556315727 -0.39366710087554208 0 0.41380476734409732 -0.40903711363024231 0 0.42578668388574042 -0.37577956855813549 0 0.41288573556315727 -0.39366710087554208 0 0.40193856510946419 -0.3832261124550107 0 0.42578668388574042 -0.37577956855813549 0 0.42627525148907153 -0.39512359141131242 0 0.41288573556315727 -0.39366710087554208 0 0.38081427771294768 -0.36737052156009248 0 0.37463337818860382 -0.38930414459710588 0 0.3737028077843495 -0.38742295831448542 0 0.38081427771294768 -0.36737052156009248 0 0.38897026210220897 -0.39170162293651239 0 0.37463337818860382 -0.38930414459710588 0 0.38081427771294768 -0.36737052156009248 0 0.37463337818860382 -0.38930414459710588 0 0.38081427771294768 -0.36737052156009248 0 0.40193856510946419 -0.3832261124550107 0 0.38897026210220897 -0.39170162293651239 0 0.38599804764205609 -0.41227829054531151 0 0.37463337818860382 -0.38930414459710588 0 0.38897026210220897 -0.39170162293651239 0 0.39662340998741341 -0.40516911832300972 0 0.38599804764205609 -0.41227829054531151 0 0.38599804764205609 -0.41227829054531151 0 0.36755341006792419 -0.41442821452601158 0 0.37463337818860382 -0.38930414459710588 0 0.38897026210220897 -0.39170162293651239 0 0.38599804764205609 -0.41227829054531151 0 0.37463337818860382 -0.38930414459710588 0 0.40193856510946419 -0.3832261124550107 0 0.38897026210220897 -0.39170162293651239 0 0.39662340998741341 -0.40516911832300972 0 0.41288573556315727 -0.39366710087554208 0 0.40193856510946419 -0.3832261124550107 0 0.39662340998741341 -0.40516911832300972 0 0.40193856510946419 -0.3832261124550107 0 0.39662340998741341 -0.40516911832300972 0 0.38599804764205609 -0.41227829054531151 0 0.41380476734409732 -0.40903711363024231 0 0.39662340998741341 -0.40516911832300972 0 0.38599804764205609 -0.41227829054531151 0 0.41380476734409732 -0.40903711363024231 0 0.40147331832312588 -0.42054231308375889 0 0.38599804764205609 -0.41227829054531151 0 0.41380476734409732 -0.40903711363024231 0 0.38599804764205609 -0.41227829054531151 0 0.36755341006792419 -0.41442821452601158 0 0.38599804764205609 -0.41227829054531151 0 0.37837193070639508 -0.43074191130029282 0 0.36755341006792419 -0.41442821452601158 0 0.38599804764205609 -0.41227829054531151 0 0.37837193070639508 -0.43074191130029282 0 0.39716653888589531 -0.43485585418744782 0 0.37837193070639508 -0.43074191130029282 0 0.39716653888589531 -0.43485585418744782 0 0.38455236834147782 -0.44235831893697952 0 0.38599804764205609 -0.41227829054531151 0 0.39716653888589531 -0.43485585418744782 0 0.40147331832312588 -0.42054231308375889 0 0.38599804764205609 -0.41227829054531151 0 0.39716653888589531 -0.43485585418744782 0 0.40147331832312588 -0.42054231308375889 0 0.39716653888589531 -0.43485585418744782 0 0.40988830344794153 -0.42850982814637428 0 0.39716653888589531 -0.43485585418744782 0 0.40988830344794153 -0.42850982814637428 0 0.41424956646142452 -0.44145335337101582 0 0.40988830344794153 -0.42850982814637428 0 0.42255857874347952 -0.42798536962106742 0 0.41424956646142452 -0.44145335337101582 0 0.40147331832312588 -0.42054231308375889 0 0.40988830344794153 -0.42850982814637428 0 0.41380476734409732 -0.40903711363024231 0 0.40988830344794153 -0.42850982814637428 0 0.41380476734409732 -0.40903711363024231 0 0.42255857874347952 -0.42798536962106742 0 0.44161148704613862 -0.40579593671517361 0 0.41380476734409732 -0.40903711363024231 0 0.43098246877755192 -0.41858878846052949 0 0.44161148704613862 -0.40579593671517361 0 0.41380476734409732 -0.40903711363024231 0 0.41380476734409732 -0.40903711363024231 0 0.43098246877755192 -0.41858878846052949 0 0.42255857874347952 -0.42798536962106742 0 0.43408281430989271 -0.43319973453275151 0 0.42255857874347952 -0.42798536962106742 0 0.43095981599733307 -0.44753658110846528 0 0.44259971868320003 -0.42354137380659601 0 0.43098246877755192 -0.41858878846052949 0 0.43408281430989271 -0.43319973453275151 0 0.43098246877755192 -0.41858878846052949 0 0.43408281430989271 -0.43319973453275151 0 0.42255857874347952 -0.42798536962106742 0 0.42255857874347952 -0.42798536962106742 0 0.43095981599733307 -0.44753658110846528 0 0.41424956646142452 -0.44145335337101582 0 0.43983937115661631 -0.46972557693384148 0 0.42706067288056998 -0.45966910190407051 0 0.41707216494033877 -0.46659444091922031 0 0.43983937115661631 -0.46972557693384148 0 0.43095981599733307 -0.44753658110846528 0 0.42706067288056998 -0.45966910190407051 0 0.43095981599733307 -0.44753658110846528 0 0.42706067288056998 -0.45966910190407051 0 0.42037133942799187 -0.45481980865475502 0 0.42037133942799187 -0.45481980865475502 0 0.41707216494033877 -0.46659444091922031 0 0.40833503012973449 -0.45743341782958391 0 0.42706067288056998 -0.45966910190407051 0 0.42037133942799187 -0.45481980865475502 0 0.41707216494033877 -0.46659444091922031 0 0.41707216494033877 -0.46659444091922031 0 0.40833503012973449 -0.45743341782958391 0 0.39424227281986102 -0.46676003377889269 0 0.43095981599733307 -0.44753658110846528 0 0.42037133942799187 -0.45481980865475502 0 0.41424956646142452 -0.44145335337101582 0 0.42037133942799187 -0.45481980865475502 0 0.40833503012973449 -0.45743341782958391 0 0.41424956646142452 -0.44145335337101582 0 0.39716653888589531 -0.43485585418744782 0 0.40833503012973449 -0.45743341782958391 0 0.41424956646142452 -0.44145335337101582 0 0.39716653888589531 -0.43485585418744782 0 0.39345157537004599 -0.45057062730194619 0 0.38455236834147782 -0.44235831893697952 0 0.39716653888589531 -0.43485585418744782 0 0.40833503012973449 -0.45743341782958391 0 0.39345157537004599 -0.45057062730194619 0 0.39716653888589531 -0.43485585418744782 0 0.40833503012973449 -0.45743341782958391 0 0.39345157537004599 -0.45057062730194619 0 0.38455236834147782 -0.44235831893697952 0 0.38182359321740972 -0.45292134106576409 0 0.38455236834147782 -0.44235831893697952 0 0.38182359321740972 -0.45292134106576409 0 0.37194820352764257 -0.4427018608294464 0 0.37837193070639508 -0.43074191130029282 0 0.38455236834147782 -0.44235831893697952 0 0.37194820352764257 -0.4427018608294464 0 0.38182359321740972 -0.45292134106576409 0 0.39424227281986102 -0.46676003377889269 0 0.37141238069938332 -0.46692562663856529 0 0.39345157537004599 -0.45057062730194619 0 0.38182359321740972 -0.45292134106576409 0 0.39424227281986102 -0.46676003377889269 0 0.39424227281986102 -0.46676003377889269 0 0.37141238069938332 -0.46692562663856529 0 0.40833503012973449 -0.45743341782958391 0 0.39345157537004599 -0.45057062730194619 0 0.39424227281986102 -0.46676003377889269 0 0.41707216494033877 -0.46659444091922031 0 0.39424227281986102 -0.46676003377889269 0 0.41707216494033877 -0.46659444091922031 0 0.39424227281986102 -0.46676003377889269 0 0.40014079662082208 -0.5 0 0.39424227281986102 -0.46676003377889269 0 0.40014079662082208 -0.5 0 0.37141238069938332 -0.46692562663856529 0 0.43983937115661631 -0.46972557693384148 0 0.41707216494033877 -0.46659444091922031 0 0.40014079662082208 -0.5 0 0.40014079662082208 -0.5 0 0.32546065004022617 -0.5 0 0.3462765218470546 -0.48033279556006703 0 0.32546065004022617 -0.5 0 0.3462765218470546 -0.48033279556006703 0 0.30631021868456298 -0.48072311486568892 0 0.3462765218470546 -0.48033279556006703 0 0.32575259645842791 -0.46725681235791028 0 0.30631021868456298 -0.48072311486568892 0 0.3462765218470546 -0.48033279556006703 0 0.3485824885789055 -0.46709121949823779 0 0.32575259645842791 -0.46725681235791028 0 0.40014079662082208 -0.5 0 0.3462765218470546 -0.48033279556006703 0 0.37141238069938332 -0.46692562663856529 0 0.3462765218470546 -0.48033279556006703 0 0.3485824885789055 -0.46709121949823779 0 0.37141238069938332 -0.46692562663856529 0 0.3485824885789055 -0.46709121949823779 0 0.37141238069938332 -0.46692562663856529 0 0.35324569388809701 -0.44989359131069062 0 0.3485824885789055 -0.46709121949823779 0 0.35324569388809701 -0.44989359131069062 0 0.33806214337105372 -0.45777686618061397 0 0.38182359321740972 -0.45292134106576409 0 0.37141238069938332 -0.46692562663856529 0 0.35324569388809701 -0.44989359131069062 0 0.3485824885789055 -0.46709121949823779 0 0.37141238069938332 -0.46692562663856529 0 0.36060935802898147 -0.43906997082244181 0 0.37194820352764257 -0.4427018608294464 0 0.35324569388809701 -0.44989359131069062 0 0.38182359321740972 -0.45292134106576409 0 0.35324569388809701 -0.44989359131069062 0 0.37837193070639508 -0.43074191130029282 0 0.36060935802898147 -0.43906997082244181 0 0.37194820352764257 -0.4427018608294464 0 0.38182359321740972 -0.45292134106576409 0 0.37194820352764257 -0.4427018608294464 0 0.35324569388809701 -0.44989359131069062 0 0.36060935802898147 -0.43906997082244181 0 0.35324569388809701 -0.44989359131069062 0 0.34315104194743368 -0.43483422324315929 0 0.32466779455878442 -0.44686584155561709 0 0.32761501992215097 -0.43116249501185328 0 0.34315104194743368 -0.43483422324315929 0 0.35324569388809701 -0.44989359131069062 0 0.33806214337105372 -0.45777686618061397 0 0.32466779455878442 -0.44686584155561709 0 0.35324569388809701 -0.44989359131069062 0 0.32466779455878442 -0.44686584155561709 0 0.34315104194743368 -0.43483422324315929 0 0.35324569388809701 -0.44989359131069062 0 0.32466779455878442 -0.44686584155561709 0 0.3485824885789055 -0.46709121949823779 0 0.32575259645842791 -0.46725681235791028 0 0.3485824885789055 -0.46709121949823779 0 0.33806214337105372 -0.45777686618061397 0 0.32575259645842791 -0.46725681235791028 0 0.33806214337105372 -0.45777686618061397 0 0.32575259645842791 -0.46725681235791028 0 0.32466779455878442 -0.44686584155561709 0 0.32575259645842791 -0.46725681235791028 0 0.30904716904302271 -0.45792120175055678 0 0.30631021868456298 -0.48072311486568892 0 0.32575259645842791 -0.46725681235791028 0 0.32466779455878442 -0.44686584155561709 0 0.30904716904302271 -0.45792120175055678 0 0.32466779455878442 -0.44686584155561709 0 0.31800868577585262 -0.43516031519895321 0 0.30735360635596409 -0.43632211706289747 0 0.32466779455878442 -0.44686584155561709 0 0.32761501992215097 -0.43116249501185328 0 0.31800868577585262 -0.43516031519895321 0 0.32761501992215097 -0.43116249501185328 0 0.32339131420283213 -0.41656724990055422 0 0.31239832226651099 -0.42629080716544471 0 0.32761501992215097 -0.43116249501185328 0 0.31800868577585262 -0.43516031519895321 0 0.31239832226651099 -0.42629080716544471 0 0.31800868577585262 -0.43516031519895321 0 0.31239832226651099 -0.42629080716544471 0 0.30735360635596409 -0.43632211706289747 0 0.32339131420283213 -0.41656724990055422 0 0.31120060169272079 -0.4133373498197 0 0.31239832226651099 -0.42629080716544471 0 0.32339131420283213 -0.41656724990055422 0 0.319673984964159 -0.40346676889879052 0 0.31120060169272079 -0.4133373498197 0 0.319673984964159 -0.40346676889879052 0 0.30884060304287331 -0.40229515593698711 0 0.31120060169272079 -0.4133373498197 0 0.32339131420283213 -0.41656724990055422 0 0.33281994217864741 -0.40778505865636938 0 0.319673984964159 -0.40346676889879052 0 0.32761501992215097 -0.43116249501185328 0 0.32339131420283213 -0.41656724990055422 0 0.33796042338316851 -0.41787760036937549 0 0.32339131420283213 -0.41656724990055422 0 0.33281994217864741 -0.40778505865636938 0 0.33796042338316851 -0.41787760036937549 0 0.33281994217864741 -0.40778505865636938 0 0.33796042338316851 -0.41787760036937549 0 0.34601675315157321 -0.40486547886918423 0 0.32761501992215097 -0.43116249501185328 0 0.33796042338316851 -0.41787760036937549 0 0.34315104194743368 -0.43483422324315929 0 0.33796042338316851 -0.41787760036937549 0 0.34315104194743368 -0.43483422324315929 0 0.35231855835687692 -0.42655250224024699 0 0.36060935802898147 -0.43906997082244181 0 0.34315104194743368 -0.43483422324315929 0 0.35231855835687692 -0.42655250224024699 0 0.37837193070639508 -0.43074191130029282 0 0.36060935802898147 -0.43906997082244181 0 0.36755341006792419 -0.41442821452601158 0 0.36060935802898147 -0.43906997082244181 0 0.35231855835687692 -0.42655250224024699 0 0.36755341006792419 -0.41442821452601158 0 0.36060935802898147 -0.43906997082244181 0 0.36755341006792419 -0.41442821452601158 0 0.33796042338316851 -0.41787760036937549 0 0.35231855835687692 -0.42655250224024699 0 0.36755341006792419 -0.41442821452601158 0 0.33796042338316851 -0.41787760036937549 0 0.36755341006792419 -0.41442821452601158 0 0.34601675315157321 -0.40486547886918423 0 0.33796042338316851 -0.41787760036937549 0 0.36755341006792419 -0.41442821452601158 0 0.36755341006792419 -0.41442821452601158 0 0.34601675315157321 -0.40486547886918423 0 0.35566250251704978 -0.3975177511027051 0 0.34601675315157321 -0.40486547886918423 0 0.34667365318154342 -0.39629832909528578 0 0.35566250251704978 -0.3975177511027051 0 0.34667365318154342 -0.39629832909528578 0 0.34795812186604658 -0.38666189116531141 0 0.33705723519150399 -0.3961481952439429 0 0.34667365318154342 -0.39629832909528578 0 0.35566250251704978 -0.3975177511027051 0 0.34795812186604658 -0.38666189116531141 0 0.36755341006792419 -0.41442821452601158 0 0.35566250251704978 -0.3975177511027051 0 0.36706103815962848 -0.39187921332532882 0 0.36755341006792419 -0.41442821452601158 0 0.37463337818860382 -0.38930414459710588 0 0.36755341006792419 -0.41442821452601158 0 0.36706103815962848 -0.39187921332532882 0 0.37463337818860382 -0.38930414459710588 0 0.35566250251704978 -0.3975177511027051 0 0.36706103815962848 -0.39187921332532882 0 0.35924801608749379 -0.38543857686598643 0 0.38081427771294768 -0.36737052156009248 0 0.36848073339739068 -0.37517807712711049 0 0.3737028077843495 -0.38742295831448542 0 0.36848073339739068 -0.37517807712711049 0 0.3737028077843495 -0.38742295831448542 0 0.36599997940964812 -0.38379980358563692 0 0.36706103815962848 -0.39187921332532882 0 0.3737028077843495 -0.38742295831448542 0 0.36599997940964812 -0.38379980358563692 0 0.36706103815962848 -0.39187921332532882 0 0.37463337818860382 -0.38930414459710588 0 0.3737028077843495 -0.38742295831448542 0 0.37463337818860382 -0.38930414459710588 0 0.3737028077843495 -0.38742295831448542 0 0.36706103815962848 -0.39187921332532882 0 0.36599997940964812 -0.38379980358563692 0 0.35924801608749379 -0.38543857686598643 0 0.36599997940964812 -0.38379980358563692 0 0.36207090148421361 -0.37959838259465167 0 0.35924801608749379 -0.38543857686598643 0 0.36848073339739068 -0.37517807712711049 0 0.36599997940964812 -0.38379980358563692 0 0.36207090148421361 -0.37959838259465167 0 0.36848073339739068 -0.37517807712711049 0 0.36207090148421361 -0.37959838259465167 0 0.3554566368260581 -0.37480617727887811 0 0.36207090148421361 -0.37959838259465167 0 0.35924801608749379 -0.38543857686598643 0 0.3554566368260581 -0.37480617727887811 0 0.35924801608749379 -0.38543857686598643 0 0.34795812186604658 -0.38666189116531141 0 0.3554566368260581 -0.37480617727887811 0 0.35566250251704978 -0.3975177511027051 0 0.35924801608749379 -0.38543857686598643 0 0.34795812186604658 -0.38666189116531141 0 0.34795812186604658 -0.38666189116531141 0 0.34537995690420659 -0.3737828605913362 0 0.3554566368260581 -0.37480617727887811 0 0.34795812186604658 -0.38666189116531141 0 0.33323562740676532 -0.37769939737979058 0 0.34537995690420659 -0.3737828605913362 0 0.34795812186604658 -0.38666189116531141 0 0.33323562740676532 -0.37769939737979058 0 0.33705723519150399 -0.3961481952439429 0 0.33323562740676532 -0.37769939737979058 0 0.33705723519150399 -0.3961481952439429 0 0.319673984964159 -0.40346676889879052 0 0.33281994217864741 -0.40778505865636938 0 0.33705723519150399 -0.3961481952439429 0 0.319673984964159 -0.40346676889879052 0 0.33281994217864741 -0.40778505865636938 0 0.34601675315157321 -0.40486547886918423 0 0.33705723519150399 -0.3961481952439429 0 0.34601675315157321 -0.40486547886918423 0 0.34667365318154342 -0.39629832909528578 0 0.33705723519150399 -0.3961481952439429 0 0.33323562740676532 -0.37769939737979058 0 0.319673984964159 -0.40346676889879052 0 0.31422368515007948 -0.393427126581603 0 0.319673984964159 -0.40346676889879052 0 0.31422368515007948 -0.393427126581603 0 0.30884060304287331 -0.40229515593698711 0 0.33323562740676532 -0.37769939737979058 0 0.319673984964159 -0.40346676889879052 0 0.31422368515007948 -0.393427126581603 0 0.30591552541026101 -0.37751124227982003 0 0.32002671755222051 -0.36641101040373808 0 0.33323562740676532 -0.37769939737979058 0 0.31422368515007948 -0.393427126581603 0 0.32002671755222051 -0.36641101040373808 0 0.31422368515007948 -0.393427126581603 0 0.32002671755222051 -0.36641101040373808 0 0.30591552541026101 -0.37751124227982003 0 0.29934269892459558 -0.39453707190143028 0 0.28871394442674109 -0.38265385864092483 0 0.31422368515007948 -0.393427126581603 0 0.30591552541026101 -0.37751124227982003 0 0.29934269892459558 -0.39453707190143028 0 0.31422368515007948 -0.393427126581603 0 0.30884060304287331 -0.40229515593698711 0 0.29934269892459558 -0.39453707190143028 0 0.30884060304287331 -0.40229515593698711 0 0.29934269892459558 -0.39453707190143028 0 0.29896657827583012 -0.40866065312134409 0 0.28871394442674109 -0.38265385864092483 0 0.27786210523133942 -0.40981541802129928 0 0.29934269892459558 -0.39453707190143028 0 0.27786210523133942 -0.40981541802129928 0 0.29896657827583012 -0.40866065312134409 0 0.29934269892459558 -0.39453707190143028 0 0.28871394442674109 -0.38265385864092483 0 0.27786210523133942 -0.40981541802129928 0 0.28871394442674109 -0.38265385864092483 0 0.26416245427686541 -0.38049931320234009 0 0.26125098829365018 -0.39969694482297641 0 0.28871394442674109 -0.38265385864092483 0 0.26416245427686541 -0.38049931320234009 0 0.27571190406721402 -0.36345127203525351 0 0.26416245427686541 -0.38049931320234009 0 0.24971336314328341 -0.36520417674804972 0 0.24502858373403441 -0.39146921073642488 0 0.26416245427686541 -0.38049931320234009 0 0.26125098829365018 -0.39969694482297641 0 0.24502858373403441 -0.39146921073642488 0 0.28871394442674109 -0.38265385864092483 0 0.26125098829365018 -0.39969694482297641 0 0.27786210523133942 -0.40981541802129928 0 0.26125098829365018 -0.39969694482297641 0 0.25610826383841628 -0.42120346698794331 0 0.2333640889907381 -0.41241884790723538 0 0.26125098829365018 -0.39969694482297641 0 0.27786210523133942 -0.40981541802129928 0 0.25610826383841628 -0.42120346698794331 0 0.25610826383841628 -0.42120346698794331 0 0.26701026603593758 -0.43697697740167368 0 0.2518592606704963 -0.43815060111373921 0 0.27786210523133942 -0.40981541802129928 0 0.26701026603593758 -0.43697697740167368 0 0.28078102790119369 -0.4274552938509788 0 0.27786210523133942 -0.40981541802129928 0 0.26701026603593758 -0.43697697740167368 0 0.27786210523133942 -0.40981541802129928 0 0.25610826383841628 -0.42120346698794331 0 0.26701026603593758 -0.43697697740167368 0 0.26701026603593758 -0.43697697740167368 0 0.28078102790119369 -0.4274552938509788 0 0.27712236562531017 -0.4375193999175232 0 0.28078102790119369 -0.4274552938509788 0 0.28865243891263809 -0.43215364344327012 0 0.27712236562531017 -0.4375193999175232 0 0.28865243891263809 -0.43215364344327012 0 0.28959476197880307 -0.44168956347039928 0 0.27712236562531017 -0.4375193999175232 0 0.28865243891263809 -0.43215364344327012 0 0.29503220707493127 -0.43614369036708622 0 0.29829711678041942 -0.42866378264525379 0 0.28865243891263809 -0.43215364344327012 0 0.29503220707493127 -0.43614369036708622 0 0.28959476197880307 -0.44168956347039928 0 0.28865243891263809 -0.43215364344327012 0 0.29108715411517122 -0.42145013040837909 0 0.29829711678041942 -0.42866378264525379 0 0.28078102790119369 -0.4274552938509788 0 0.28865243891263809 -0.43215364344327012 0 0.29108715411517122 -0.42145013040837909 0 0.27786210523133942 -0.40981541802129928 0 0.28078102790119369 -0.4274552938509788 0 0.29108715411517122 -0.42145013040837909 0 0.27786210523133942 -0.40981541802129928 0 0.29108715411517122 -0.42145013040837909 0 0.29896657827583012 -0.40866065312134409 0 0.29108715411517122 -0.42145013040837909 0 0.30377653118007591 -0.4205559058691733 0 0.29896657827583012 -0.40866065312134409 0 0.30377653118007591 -0.4205559058691733 0 0.29896657827583012 -0.40866065312134409 0 0.31120060169272079 -0.4133373498197 0 0.30884060304287331 -0.40229515593698711 0 0.29896657827583012 -0.40866065312134409 0 0.31120060169272079 -0.4133373498197 0 0.30377653118007591 -0.4205559058691733 0 0.31120060169272079 -0.4133373498197 0 0.31239832226651099 -0.42629080716544471 0 0.30377653118007591 -0.4205559058691733 0 0.31239832226651099 -0.42629080716544471 0 0.29829711678041942 -0.42866378264525379 0 0.31239832226651099 -0.42629080716544471 0 0.30735360635596409 -0.43632211706289747 0 0.29829711678041942 -0.42866378264525379 0 0.29503220707493127 -0.43614369036708622 0 0.30735360635596409 -0.43632211706289747 0 0.29829711678041942 -0.42866378264525379 0 0.29108715411517122 -0.42145013040837909 0 0.30377653118007591 -0.4205559058691733 0 0.29829711678041942 -0.42866378264525379 0 0.32466779455878442 -0.44686584155561709 0 0.30904716904302271 -0.45792120175055678 0 0.29608989522947149 -0.44383809180054362 0 0.32466779455878442 -0.44686584155561709 0 0.29608989522947149 -0.44383809180054362 0 0.32466779455878442 -0.44686584155561709 0 0.30735360635596409 -0.43632211706289747 0 0.29608989522947149 -0.44383809180054362 0 0.30904716904302271 -0.45792120175055678 0 0.29860320416278402 -0.45529674645956592 0 0.29608989522947149 -0.44383809180054362 0 0.29503220707493127 -0.43614369036708622 0 0.30735360635596409 -0.43632211706289747 0 0.29608989522947149 -0.44383809180054362 0 0.30904716904302271 -0.45792120175055678 0 0.29721119201091789 -0.46522563712477349 0 0.30631021868456298 -0.48072311486568892 0 0.30904716904302271 -0.45792120175055678 0 0.29721119201091789 -0.46522563712477349 0 0.29860320416278402 -0.45529674645956592 0 0.28932919617959602 -0.45338424297023883 0 0.27756010650442758 -0.45518222858252849 0 0.28072062580449653 -0.47155582870540619 0 0.29721119201091789 -0.46522563712477349 0 0.28932919617959602 -0.45338424297023883 0 0.28072062580449653 -0.47155582870540619 0 0.29721119201091789 -0.46522563712477349 0 0.29860320416278402 -0.45529674645956592 0 0.28932919617959602 -0.45338424297023883 0 0.28932919617959602 -0.45338424297023883 0 0.28959476197880307 -0.44168956347039928 0 0.27756010650442758 -0.45518222858252849 0 0.29860320416278402 -0.45529674645956592 0 0.28932919617959602 -0.45338424297023883 0 0.29608989522947149 -0.44383809180054362 0 0.28932919617959602 -0.45338424297023883 0 0.29608989522947149 -0.44383809180054362 0 0.28959476197880307 -0.44168956347039928 0 0.29503220707493127 -0.43614369036708622 0 0.29608989522947149 -0.44383809180054362 0 0.28959476197880307 -0.44168956347039928 0 0.28959476197880307 -0.44168956347039928 0 0.26138620688844749 -0.44792543592233808 0 0.26701026603593758 -0.43697697740167368 0 0.27712236562531017 -0.4375193999175232 0 0.26138620688844749 -0.44792543592233808 0 0.28959476197880307 -0.44168956347039928 0 0.26138620688844749 -0.44792543592233808 0 0.27756010650442758 -0.45518222858252849 0 0.28959476197880307 -0.44168956347039928 0 0.27712236562531017 -0.4375193999175232 0 0.26138620688844749 -0.44792543592233808 0 0.26701026603593758 -0.43697697740167368 0 0.26138620688844749 -0.44792543592233808 0 0.2518592606704963 -0.43815060111373921 0 0.26138620688844749 -0.44792543592233808 0 0.26339579246569877 -0.46312143350125029 0 0.23317765179809191 -0.45416130837427687 0 0.26138620688844749 -0.44792543592233808 0 0.26339579246569877 -0.46312143350125029 0 0.27756010650442758 -0.45518222858252849 0 0.26339579246569877 -0.46312143350125029 0 0.27756010650442758 -0.45518222858252849 0 0.28072062580449653 -0.47155582870540619 0 0.28072062580449653 -0.47155582870540619 0 0.2532296876789632 -0.47497352743918242 0 0.27004646425256568 -0.5 0 0.26339579246569877 -0.46312143350125029 0 0.28072062580449653 -0.47155582870540619 0 0.2532296876789632 -0.47497352743918242 0 0.32546065004022617 -0.5 0 0.27004646425256568 -0.5 0 0.30631021868456298 -0.48072311486568892 0 0.28072062580449653 -0.47155582870540619 0 0.27004646425256568 -0.5 0 0.30631021868456298 -0.48072311486568892 0 0.29721119201091789 -0.46522563712477349 0 0.28072062580449653 -0.47155582870540619 0 0.30631021868456298 -0.48072311486568892 0 0.33743581475864359 -0.28536266187014298 0 0.3388307833371127 -0.27886836189579028 0 0.34706744656536048 -0.28007479224216619 0 0.33743581475864359 -0.28536266187014298 0 0.3388307833371127 -0.27886836189579028 0 0.33743581475864359 -0.28536266187014298 0 0.33163278235650262 -0.31237877804800812 0 0.33743581475864359 -0.28536266187014298 0 0.33163278235650262 -0.31237877804800812 0 0.34308905326158867 -0.30070827197480321 0 0.33743581475864359 -0.28536266187014298 0 0.33163278235650262 -0.31237877804800812 0 0.32364365619397351 -0.29600562892690968 0 0.33163278235650262 -0.31237877804800812 0 0.32364365619397351 -0.29600562892690968 0 0.30954970221622308 -0.30462347215273478 0 0.31296692944630888 -0.29314018565426941 0 0.32364365619397351 -0.29600562892690968 0 0.30954970221622308 -0.30462347215273478 0 0.31296692944630888 -0.29314018565426941 0 0.32364365619397351 -0.29600562892690968 0 0.31569414790308259 -0.28159305760617132 0 0.33743581475864359 -0.28536266187014298 0 0.32364365619397351 -0.29600562892690968 0 0.31569414790308259 -0.28159305760617132 0 0.33743581475864359 -0.28536266187014298 0 0.31569414790308259 -0.28159305760617132 0 0.33743581475864359 -0.28536266187014298 0 0.31569414790308259 -0.28159305760617132 0 0.32852563272885182 -0.27784073863383552 0 0.31569414790308259 -0.28159305760617132 0 0.31275786215232049 -0.27168837282467972 0 0.32066228436037369 -0.27402337931129878 0 0.31275786215232049 -0.27168837282467972 0 0.32001527731196461 -0.26686042829596718 0 0.31054181011664339 -0.26140137874582919 0 0.31275786215232049 -0.27168837282467972 0 0.32001527731196461 -0.26686042829596718 0 0.32066228436037369 -0.27402337931129878 0 0.32001527731196461 -0.26686042829596718 0 0.32631850170564902 -0.27213429919584042 0 0.32066228436037369 -0.27402337931129878 0 0.32001527731196461 -0.26686042829596718 0 0.32631850170564902 -0.27213429919584042 0 0.32861545200372733 -0.26431566092564712 0 0.32631850170564902 -0.27213429919584042 0 0.32066228436037369 -0.27402337931129878 0 0.32852563272885182 -0.27784073863383552 0 0.31569414790308259 -0.28159305760617132 0 0.32066228436037369 -0.27402337931129878 0 0.32852563272885182 -0.27784073863383552 0 0.30517917142926537 -0.24716040808135001 0 0.322544075342931 -0.25649048942400782 0 0.31054181011664339 -0.26140137874582919 0 0.32001527731196461 -0.26686042829596718 0 0.322544075342931 -0.25649048942400782 0 0.31054181011664339 -0.26140137874582919 0 0.32001527731196461 -0.26686042829596718 0 0.322544075342931 -0.25649048942400782 0 0.32861545200372733 -0.26431566092564712 0 0.322544075342931 -0.25649048942400782 0 0.32861545200372733 -0.26431566092564712 0 0.33700232267718733 -0.25494009872172468 0 0.32861545200372733 -0.26431566092564712 0 0.33700232267718733 -0.25494009872172468 0 0.3370936559567923 -0.26597622971595652 0 0.33700232267718733 -0.25494009872172468 0 0.3370936559567923 -0.26597622971595652 0 0.34612034525793539 -0.26165354425485998 0 0.32852563272885182 -0.27784073863383552 0 0.33374486488877292 -0.2728357791174113 0 0.3388307833371127 -0.27886836189579028 0 0.33743581475864359 -0.28536266187014298 0 0.32852563272885182 -0.27784073863383552 0 0.3388307833371127 -0.27886836189579028 0 0.32631850170564902 -0.27213429919584042 0 0.32852563272885182 -0.27784073863383552 0 0.33374486488877292 -0.2728357791174113 0 0.32631850170564902 -0.27213429919584042 0 0.32861545200372733 -0.26431566092564712 0 0.33374486488877292 -0.2728357791174113 0 0.32861545200372733 -0.26431566092564712 0 0.33374486488877292 -0.2728357791174113 0 0.3370936559567923 -0.26597622971595652 0 0.34349817463331772 -0.27223575233246988 0 0.3370936559567923 -0.26597622971595652 0 0.34612034525793539 -0.26165354425485998 0 0.33374486488877292 -0.2728357791174113 0 0.34349817463331772 -0.27223575233246988 0 0.3370936559567923 -0.26597622971595652 0 0.33374486488877292 -0.2728357791174113 0 0.34349817463331772 -0.27223575233246988 0 0.3388307833371127 -0.27886836189579028 0 0.34349817463331772 -0.27223575233246988 0 0.3388307833371127 -0.27886836189579028 0 0.34706744656536048 -0.28007479224216619 0 0.34349817463331772 -0.27223575233246988 0 0.34706744656536048 -0.28007479224216619 0 0.35711558672006172 -0.27354793744083078 0 0.34349817463331772 -0.27223575233246988 0 0.35711558672006172 -0.27354793744083078 0 0.34612034525793539 -0.26165354425485998 0 0.34706744656536048 -0.28007479224216619 0 0.35711558672006172 -0.27354793744083078 0 0.35357832102308678 -0.28816147489813743 0 0.35007299243335749 -0.24785688602667111 0 0.33700232267718733 -0.25494009872172468 0 0.34612034525793539 -0.26165354425485998 0 0.35711558672006172 -0.27354793744083078 0 0.34612034525793539 -0.26165354425485998 0 0.36124693131331159 -0.25807728632712912 0 0.35007299243335749 -0.24785688602667111 0 0.34612034525793539 -0.26165354425485998 0 0.36124693131331159 -0.25807728632712912 0 0.37764450162479901 -0.26965755496232408 0 0.37510228513818711 -0.25237727586059511 0 0.36124693131331159 -0.25807728632712912 0 0.36225179838031341 -0.2439392928582107 0 0.37510228513818711 -0.25237727586059511 0 0.36124693131331159 -0.25807728632712912 0 0.37764450162479901 -0.26965755496232408 0 0.35711558672006172 -0.27354793744083078 0 0.36124693131331159 -0.25807728632712912 0 0.37764450162479901 -0.26965755496232408 0 0.35711558672006172 -0.27354793744083078 0 0.36873774536035581 -0.28861226174546889 0 0.36873774536035581 -0.28861226174546889 0 0.35357832102308678 -0.28816147489813743 0 0.36087634202934032 -0.30211297570133377 0 0.35711558672006172 -0.27354793744083078 0 0.36873774536035581 -0.28861226174546889 0 0.35357832102308678 -0.28816147489813743 0 0.33743581475864359 -0.28536266187014298 0 0.35357832102308678 -0.28816147489813743 0 0.33743581475864359 -0.28536266187014298 0 0.34706744656536048 -0.28007479224216619 0 0.35357832102308678 -0.28816147489813743 0 0.33743581475864359 -0.28536266187014298 0 0.34308905326158867 -0.30070827197480321 0 0.35357832102308678 -0.28816147489813743 0 0.34308905326158867 -0.30070827197480321 0 0.36087634202934032 -0.30211297570133377 0 0.3603589122919777 -0.32616465434179109 0 0.34308905326158867 -0.30070827197480321 0 0.35357832102308678 -0.28816147489813743 0 0.36087634202934032 -0.30211297570133377 0 0.37861767820969228 -0.30691821554646831 0 0.36873774536035581 -0.28861226174546889 0 0.36087634202934032 -0.30211297570133377 0 0.37861767820969228 -0.30691821554646831 0 0.36087634202934032 -0.30211297570133377 0 0.3603589122919777 -0.32616465434179109 0 0.37858644206980091 -0.32769985780377792 0 0.37861767820969228 -0.30691821554646831 0 0.3603589122919777 -0.32616465434179109 0 0.37858644206980091 -0.32769985780377792 0 0.3603589122919777 -0.32616465434179109 0 0.36805061276354478 -0.3427907498460791 0 0.3603589122919777 -0.32616465434179109 0 0.34679726984937148 -0.35193202586079081 0 0.3603589122919777 -0.32616465434179109 0 0.34679726984937148 -0.35193202586079081 0 0.3423644242317993 -0.33453707324987059 0 0.3603589122919777 -0.32616465434179109 0 0.36805061276354478 -0.3427907498460791 0 0.34679726984937148 -0.35193202586079081 0 0.33163278235650262 -0.31237877804800812 0 0.34308905326158867 -0.30070827197480321 0 0.3603589122919777 -0.32616465434179109 0 0.33163278235650262 -0.31237877804800812 0 0.3603589122919777 -0.32616465434179109 0 0.3423644242317993 -0.33453707324987059 0 0.37640125955739012 -0.35149107478397351 0 0.38081427771294768 -0.36737052156009248 0 0.36600013168445039 -0.36059477107615401 0 0.36848073339739068 -0.37517807712711049 0 0.36600013168445039 -0.36059477107615401 0 0.3554566368260581 -0.37480617727887811 0 0.38081427771294768 -0.36737052156009248 0 0.36848073339739068 -0.37517807712711049 0 0.36600013168445039 -0.36059477107615401 0 0.36805061276354478 -0.3427907498460791 0 0.36600013168445039 -0.36059477107615401 0 0.34679726984937148 -0.35193202586079081 0 0.37640125955739012 -0.35149107478397351 0 0.36805061276354478 -0.3427907498460791 0 0.36600013168445039 -0.36059477107615401 0 0.36600013168445039 -0.36059477107615401 0 0.34679726984937148 -0.35193202586079081 0 0.3554566368260581 -0.37480617727887811 0 0.34679726984937148 -0.35193202586079081 0 0.34537995690420659 -0.3737828605913362 0 0.3554566368260581 -0.37480617727887811 0 0.33323562740676532 -0.37769939737979058 0 0.33171275220581908 -0.35441984147836231 0 0.32002671755222051 -0.36641101040373808 0 0.33323562740676532 -0.37769939737979058 0 0.34679726984937148 -0.35193202586079081 0 0.33323562740676532 -0.37769939737979058 0 0.34679726984937148 -0.35193202586079081 0 0.34537995690420659 -0.3737828605913362 0 0.33323562740676532 -0.37769939737979058 0 0.34679726984937148 -0.35193202586079081 0 0.33171275220581908 -0.35441984147836231 0 0.34679726984937148 -0.35193202586079081 0 0.33171275220581908 -0.35441984147836231 0 0.3423644242317993 -0.33453707324987059 0 0.33171275220581908 -0.35441984147836231 0 0.32002671755222051 -0.36641101040373808 0 0.32582974995436148 -0.33939489422587321 0 0.32002671755222051 -0.36641101040373808 0 0.32582974995436148 -0.33939489422587321 0 0.31500009593534162 -0.35119999692538878 0 0.32002671755222051 -0.36641101040373808 0 0.32582974995436148 -0.33939489422587321 0 0.33163278235650262 -0.31237877804800812 0 0.32582974995436148 -0.33939489422587321 0 0.33163278235650262 -0.31237877804800812 0 0.3423644242317993 -0.33453707324987059 0 0.32582974995436148 -0.33939489422587321 0 0.33171275220581908 -0.35441984147836231 0 0.3423644242317993 -0.33453707324987059 0 0.32582974995436148 -0.33939489422587321 0 0.31500009593534162 -0.35119999692538878 0 0.32582974995436148 -0.33939489422587321 0 0.31041762281754448 -0.32833073988017608 0 0.33163278235650262 -0.31237877804800812 0 0.32582974995436148 -0.33939489422587321 0 0.31041762281754448 -0.32833073988017608 0 0.33163278235650262 -0.31237877804800812 0 0.31041762281754448 -0.32833073988017608 0 0.30954970221622308 -0.30462347215273478 0 0.31041762281754448 -0.32833073988017608 0 0.29592063247569211 -0.31558436997640987 0 0.30954970221622308 -0.30462347215273478 0 0.31041762281754448 -0.32833073988017608 0 0.29132656616613523 -0.33188180257029998 0 0.29592063247569211 -0.31558436997640987 0 0.31041762281754448 -0.32833073988017608 0 0.29132656616613523 -0.33188180257029998 0 0.29956578362214281 -0.35549229926055048 0 0.31041762281754448 -0.32833073988017608 0 0.29956578362214281 -0.35549229926055048 0 0.29132656616613523 -0.33188180257029998 0 0.28219501787468609 -0.34702129220438421 0 0.27282035448602859 -0.33554085100614839 0 0.29132656616613523 -0.33188180257029998 0 0.29592063247569211 -0.31558436997640987 0 0.27986439667319313 -0.31630171845149863 0 0.29132656616613523 -0.33188180257029998 0 0.27986439667319313 -0.31630171845149863 0 0.27282035448602859 -0.33554085100614839 0 0.30591552541026101 -0.37751124227982003 0 0.28871394442674109 -0.38265385864092483 0 0.29956578362214281 -0.35549229926055048 0 0.30591552541026101 -0.37751124227982003 0 0.32002671755222051 -0.36641101040373808 0 0.29956578362214281 -0.35549229926055048 0 0.31500009593534162 -0.35119999692538878 0 0.32002671755222051 -0.36641101040373808 0 0.29956578362214281 -0.35549229926055048 0 0.31500009593534162 -0.35119999692538878 0 0.31041762281754448 -0.32833073988017608 0 0.29956578362214281 -0.35549229926055048 0 0.29956578362214281 -0.35549229926055048 0 0.28219501787468609 -0.34702129220438421 0 0.27571190406721402 -0.36345127203525351 0 0.29132656616613523 -0.33188180257029998 0 0.29956578362214281 -0.35549229926055048 0 0.28219501787468609 -0.34702129220438421 0 0.28871394442674109 -0.38265385864092483 0 0.29956578362214281 -0.35549229926055048 0 0.27571190406721402 -0.36345127203525351 0 0.28871394442674109 -0.38265385864092483 0 0.29956578362214281 -0.35549229926055048 0 0.28219501787468609 -0.34702129220438421 0 0.27571190406721402 -0.36345127203525351 0 0.2669677564247489 -0.35003134695070198 0 0.28219501787468609 -0.34702129220438421 0 0.2669677564247489 -0.35003134695070198 0 0.27282035448602859 -0.33554085100614839 0 0.2669677564247489 -0.35003134695070198 0 0.2543981425525324 -0.33893914275967452 0 0.24971336314328341 -0.36520417674804972 0 0.2543981425525324 -0.33893914275967452 0 0.24971336314328341 -0.36520417674804972 0 0.26416245427686541 -0.38049931320234009 0 0.27571190406721402 -0.36345127203525351 0 0.24971336314328341 -0.36520417674804972 0 0.27571190406721402 -0.36345127203525351 0 0.2669677564247489 -0.35003134695070198 0 0.24971336314328341 -0.36520417674804972 0 0.27986439667319313 -0.31630171845149863 0 0.27282035448602859 -0.33554085100614839 0 0.27986439667319313 -0.31630171845149863 0 0.27282035448602859 -0.33554085100614839 0 0.2590829219617814 -0.31267410877129931 0 0.2669677564247489 -0.35003134695070198 0 0.27282035448602859 -0.33554085100614839 0 0.2543981425525324 -0.33893914275967452 0 0.27282035448602859 -0.33554085100614839 0 0.2543981425525324 -0.33893914275967452 0 0.2590829219617814 -0.31267410877129931 0 0.2543981425525324 -0.33893914275967452 0 0.2590829219617814 -0.31267410877129931 0 0.24087195768162309 -0.32614810142562012 0 0.2543981425525324 -0.33893914275967452 0 0.2590829219617814 -0.31267410877129931 0 0.2590829219617814 -0.31267410877129931 0 0.26376770137103039 -0.2864090747829241 0 0.27385105082646688 -0.29718155094811333 0 0.2590829219617814 -0.31267410877129931 0 0.26376770137103039 -0.2864090747829241 0 0.24821325608307901 -0.29522124281265988 0 0.2590829219617814 -0.31267410877129931 0 0.26376770137103039 -0.2864090747829241 0 0.26376770137103039 -0.2864090747829241 0 0.24785603391849151 -0.27709942466880599 0 0.24821325608307901 -0.29522124281265988 0 0.26376770137103039 -0.2864090747829241 0 0.27275834958840189 -0.28372268528309152 0 0.2724225943816766 -0.27409056785933389 0 0.26376770137103039 -0.2864090747829241 0 0.27275834958840189 -0.28372268528309152 0 0.27385105082646688 -0.29718155094811333 0 0.28072449650403741 -0.28691913250301798 0 0.27385105082646688 -0.29718155094811333 0 0.2869084388603575 -0.29706258589684881 0 0.27275834958840189 -0.28372268528309152 0 0.28072449650403741 -0.28691913250301798 0 0.27385105082646688 -0.29718155094811333 0 0.27275834958840189 -0.28372268528309152 0 0.28072449650403741 -0.28691913250301798 0 0.27996448038040939 -0.28063895974691061 0 0.27986439667319313 -0.31630171845149863 0 0.2590829219617814 -0.31267410877129931 0 0.27385105082646688 -0.29718155094811333 0 0.27986439667319313 -0.31630171845149863 0 0.27385105082646688 -0.29718155094811333 0 0.2869084388603575 -0.29706258589684881 0 0.27986439667319313 -0.31630171845149863 0 0.2869084388603575 -0.29706258589684881 0 0.29592063247569211 -0.31558436997640987 0 0.27986439667319313 -0.31630171845149863 0 0.2869084388603575 -0.29706258589684881 0 0.2869084388603575 -0.29706258589684881 0 0.30298021147195658 -0.29033858393126172 0 0.29395248104752192 -0.27782345334219888 0 0.28072449650403741 -0.28691913250301798 0 0.2869084388603575 -0.29706258589684881 0 0.29395248104752192 -0.27782345334219888 0 0.2869084388603575 -0.29706258589684881 0 0.29395248104752192 -0.27782345334219888 0 0.28072449650403741 -0.28691913250301798 0 0.29395248104752192 -0.27782345334219888 0 0.27996448038040939 -0.28063895974691061 0 0.31569414790308259 -0.28159305760617132 0 0.30298021147195658 -0.29033858393126172 0 0.29395248104752192 -0.27782345334219888 0 0.31296692944630888 -0.29314018565426941 0 0.31569414790308259 -0.28159305760617132 0 0.30298021147195658 -0.29033858393126172 0 0.31296692944630888 -0.29314018565426941 0 0.30298021147195658 -0.29033858393126172 0 0.30954970221622308 -0.30462347215273478 0 0.2869084388603575 -0.29706258589684881 0 0.30298021147195658 -0.29033858393126172 0 0.30954970221622308 -0.30462347215273478 0 0.29592063247569211 -0.31558436997640987 0 0.2869084388603575 -0.29706258589684881 0 0.30954970221622308 -0.30462347215273478 0 0.30517917142926537 -0.24716040808135001 0 0.31054181011664339 -0.26140137874582919 0 0.2976408850071105 -0.26774945168120262 0 0.30517917142926537 -0.24716040808135001 0 0.2976408850071105 -0.26774945168120262 0 0.31275786215232049 -0.27168837282467972 0 0.2976408850071105 -0.26774945168120262 0 0.29395248104752192 -0.27782345334219888 0 0.31275786215232049 -0.27168837282467972 0 0.2976408850071105 -0.26774945168120262 0 0.31275786215232049 -0.27168837282467972 0 0.31054181011664339 -0.26140137874582919 0 0.2976408850071105 -0.26774945168120262 0 0.31569414790308259 -0.28159305760617132 0 0.29395248104752192 -0.27782345334219888 0 0.31569414790308259 -0.28159305760617132 0 0.31275786215232049 -0.27168837282467972 0 0.29395248104752192 -0.27782345334219888 0 0.2976408850071105 -0.26774945168120262 0 0.28600938745522969 -0.26471871668720698 0 0.2976408850071105 -0.26774945168120262 0 0.29395248104752192 -0.27782345334219888 0 0.29395248104752192 -0.27782345334219888 0 0.27996448038040939 -0.28063895974691061 0 0.2724225943816766 -0.27409056785933389 0 0.29395248104752192 -0.27782345334219888 0 0.28600938745522969 -0.26471871668720698 0 0.27658132089261911 -0.27335422882897692 0 0.2976408850071105 -0.26774945168120262 0 0.29395248104752192 -0.27782345334219888 0 0.28600938745522969 -0.26471871668720698 0 0.29395248104752192 -0.27782345334219888 0 0.2724225943816766 -0.27409056785933389 0 0.28600938745522969 -0.26471871668720698 0 0.27658132089261911 -0.27335422882897692 0 0.30517917142926537 -0.24716040808135001 0 0.28600938745522969 -0.26471871668720698 0 0.30517917142926537 -0.24716040808135001 0 0.2976408850071105 -0.26774945168120262 0 0.28600938745522969 -0.26471871668720698 0 0.30517917142926537 -0.24716040808135001 0 0.28765229627979871 -0.24304032400626949 0 0.28600938745522969 -0.26471871668720698 0 0.28600938745522969 -0.26471871668720698 0 0.26845248078028039 -0.26014404079454911 0 0.28765229627979871 -0.24304032400626949 0 0.28600938745522969 -0.26471871668720698 0 0.26845248078028039 -0.26014404079454911 0 0.26376770137103039 -0.2864090747829241 0 0.26845248078028039 -0.26014404079454911 0 0.2724225943816766 -0.27409056785933389 0 0.28600938745522969 -0.26471871668720698 0 0.26845248078028039 -0.26014404079454911 0 0.27658132089261911 -0.27335422882897692 0 0.26376770137103039 -0.2864090747829241 0 0.26845248078028039 -0.26014404079454911 0 0.29395248104752192 -0.27782345334219888 0 0.27658132089261911 -0.27335422882897692 0 0.2724225943816766 -0.27409056785933389 0 0.27275834958840189 -0.28372268528309152 0 0.27996448038040939 -0.28063895974691061 0 0.2724225943816766 -0.27409056785933389 0 0.26845248078028039 -0.26014404079454911 0 0.27658132089261911 -0.27335422882897692 0 0.2724225943816766 -0.27409056785933389 0 0.26376770137103039 -0.2864090747829241 0 0.26845248078028039 -0.26014404079454911 0 0.24785603391849151 -0.27709942466880599 0 0.26845248078028039 -0.26014404079454911 0 0.2410490216361528 -0.25300372010805161 0 0.26845248078028039 -0.26014404079454911 0 0.2410490216361528 -0.25300372010805161 0 0.24785603391849151 -0.27709942466880599 0 0.25787859859726192 -0.24372773219337371 0 0.26845248078028039 -0.26014404079454911 0 0.2410490216361528 -0.25300372010805161 0 0.2410490216361528 -0.25300372010805161 0 0.24785603391849151 -0.27709942466880599 0 0.23139485578507429 -0.27647983237136509 0 0.23139485578507429 -0.27647983237136509 0 0.2171028506536257 -0.26700629366950379 0 0.21674952071488601 -0.28686299221921707 0 0.2410490216361528 -0.25300372010805161 0 0.23139485578507429 -0.27647983237136509 0 0.2171028506536257 -0.26700629366950379 0 0.2410490216361528 -0.25300372010805161 0 0.2171028506536257 -0.26700629366950379 0 0.2136455624920251 -0.24586339942155419 0 0.2171028506536257 -0.26700629366950379 0 0.1960217485778272 -0.26205501631648559 0 0.2136455624920251 -0.24586339942155419 0 0.2171028506536257 -0.26700629366950379 0 0.2037572178097509 -0.27803645254629672 0 0.1960217485778272 -0.26205501631648559 0 0.2171028506536257 -0.26700629366950379 0 0.2037572178097509 -0.27803645254629672 0 0.21674952071488601 -0.28686299221921707 0 0.2037572178097509 -0.27803645254629672 0 0.1960217485778272 -0.26205501631648559 0 0.18672217274589489 -0.28463667424064248 0 0.1960217485778272 -0.26205501631648559 0 0.2136455624920251 -0.24586339942155419 0 0.1970165427207646 -0.2431475676051908 0 0.1960217485778272 -0.26205501631648559 0 0.1970165427207646 -0.2431475676051908 0 0.18013525364959199 -0.24590787480667409 0 0.19163287831415901 -0.30538761534618902 0 0.20219697373587131 -0.29192032270869461 0 0.2153952098199983 -0.30425933719731207 0 0.2037572178097509 -0.27803645254629672 0 0.20219697373587131 -0.29192032270869461 0 0.18672217274589489 -0.28463667424064248 0 0.19163287831415901 -0.30538761534618902 0 0.20219697373587131 -0.29192032270869461 0 0.18672217274589489 -0.28463667424064248 0 0.20219697373587131 -0.29192032270869461 0 0.21674952071488601 -0.28686299221921707 0 0.2153952098199983 -0.30425933719731207 0 0.2037572178097509 -0.27803645254629672 0 0.20219697373587131 -0.29192032270869461 0 0.21674952071488601 -0.28686299221921707 0 0.19163287831415901 -0.30538761534618902 0 0.2153952098199983 -0.30425933719731207 0 0.20381788977078771 -0.32236963909420019 0 0.2153952098199983 -0.30425933719731207 0 0.2333373149176502 -0.29099433783704243 0 0.2370223082464416 -0.30892926800322767 0 0.2153952098199983 -0.30425933719731207 0 0.2370223082464416 -0.30892926800322767 0 0.22300958304019269 -0.32335118517261402 0 0.21674952071488601 -0.28686299221921707 0 0.2153952098199983 -0.30425933719731207 0 0.2333373149176502 -0.29099433783704243 0 0.23139485578507429 -0.27647983237136509 0 0.21674952071488601 -0.28686299221921707 0 0.2333373149176502 -0.29099433783704243 0 0.24785603391849151 -0.27709942466880599 0 0.2333373149176502 -0.29099433783704243 0 0.24821325608307901 -0.29522124281265988 0 0.24785603391849151 -0.27709942466880599 0 0.23139485578507429 -0.27647983237136509 0 0.2333373149176502 -0.29099433783704243 0 0.2333373149176502 -0.29099433783704243 0 0.24821325608307901 -0.29522124281265988 0 0.2370223082464416 -0.30892926800322767 0 0.2590829219617814 -0.31267410877129931 0 0.24821325608307901 -0.29522124281265988 0 0.2370223082464416 -0.30892926800322767 0 0.2590829219617814 -0.31267410877129931 0 0.2370223082464416 -0.30892926800322767 0 0.24087195768162309 -0.32614810142562012 0 0.2543981425525324 -0.33893914275967452 0 0.24087195768162309 -0.32614810142562012 0 0.2308468326071676 -0.34684680242128502 0 0.24087195768162309 -0.32614810142562012 0 0.22300958304019269 -0.32335118517261402 0 0.2308468326071676 -0.34684680242128502 0 0.22300958304019269 -0.32335118517261402 0 0.2308468326071676 -0.34684680242128502 0 0.21275128108028149 -0.33749920242868869 0 0.2370223082464416 -0.30892926800322767 0 0.24087195768162309 -0.32614810142562012 0 0.22300958304019269 -0.32335118517261402 0 0.24971336314328341 -0.36520417674804972 0 0.2308468326071676 -0.34684680242128502 0 0.229200177642885 -0.36995291413531828 0 0.2543981425525324 -0.33893914275967452 0 0.24971336314328341 -0.36520417674804972 0 0.2308468326071676 -0.34684680242128502 0 0.229200177642885 -0.36995291413531828 0 0.20725651587090471 -0.36571099534901208 0 0.22031030243082139 -0.38906492162812378 0 0.2308468326071676 -0.34684680242128502 0 0.229200177642885 -0.36995291413531828 0 0.20725651587090471 -0.36571099534901208 0 0.2308468326071676 -0.34684680242128502 0 0.20725651587090471 -0.36571099534901208 0 0.21275128108028149 -0.33749920242868869 0 0.20725651587090471 -0.36571099534901208 0 0.21275128108028149 -0.33749920242868869 0 0.194202729310988 -0.34235706906990038 0 0.20725651587090471 -0.36571099534901208 0 0.194202729310988 -0.34235706906990038 0 0.180238718969634 -0.3612454971324468 0 0.20725651587090471 -0.36571099534901208 0 0.194202729310988 -0.34235706906990038 0 0.20725651587090471 -0.36571099534901208 0 0.19261827162763251 -0.374541644607297 0 0.180238718969634 -0.3612454971324468 0 0.22300958304019269 -0.32335118517261402 0 0.20381788977078771 -0.32236963909420019 0 0.21275128108028149 -0.33749920242868869 0 0.2153952098199983 -0.30425933719731207 0 0.22300958304019269 -0.32335118517261402 0 0.20381788977078771 -0.32236963909420019 0 0.20381788977078771 -0.32236963909420019 0 0.21275128108028149 -0.33749920242868869 0 0.194202729310988 -0.34235706906990038 0 0.20381788977078771 -0.32236963909420019 0 0.194202729310988 -0.34235706906990038 0 0.18384400034678741 -0.32250280289756078 0 0.19163287831415901 -0.30538761534618902 0 0.20381788977078771 -0.32236963909420019 0 0.18384400034678741 -0.32250280289756078 0 0.18384400034678741 -0.32250280289756078 0 0.17702055828029431 -0.33666004199980942 0 0.15719449589681389 -0.32866913917705798 0 0.194202729310988 -0.34235706906990038 0 0.18384400034678741 -0.32250280289756078 0 0.17702055828029431 -0.33666004199980942 0 0.15719449589681389 -0.32866913917705798 0 0.16581699513551909 -0.35306125248096398 0 0.17702055828029431 -0.33666004199980942 0 0.15719449589681389 -0.32866913917705798 0 0.16581699513551909 -0.35306125248096398 0 0.18384400034678741 -0.32250280289756078 0 0.15719449589681389 -0.32866913917705798 0 0.17186855286937899 -0.30453082832045192 0 0.180238718969634 -0.3612454971324468 0 0.1834568796589737 -0.38583095226508418 0 0.17443949437422429 -0.37745336578486988 0 0.180238718969634 -0.3612454971324468 0 0.16581699513551909 -0.35306125248096398 0 0.17443949437422429 -0.37745336578486988 0 0.180238718969634 -0.3612454971324468 0 0.1834568796589737 -0.38583095226508418 0 0.19261827162763251 -0.374541644607297 0 0.180238718969634 -0.3612454971324468 0 0.1834568796589737 -0.38583095226508418 0 0.17702055828029431 -0.33666004199980942 0 0.180238718969634 -0.3612454971324468 0 0.16581699513551909 -0.35306125248096398 0 0.17702055828029431 -0.33666004199980942 0 0.180238718969634 -0.3612454971324468 0 0.194202729310988 -0.34235706906990038 0 0.17702055828029431 -0.33666004199980942 0 0.180238718969634 -0.3612454971324468 0 0.16581699513551909 -0.35306125248096398 0 0.1602354860011011 -0.36875954027416918 0 0.14952990885070691 -0.36034775620209553 0 0.16581699513551909 -0.35306125248096398 0 0.17443949437422429 -0.37745336578486988 0 0.16581699513551909 -0.35306125248096398 0 0.1602354860011011 -0.36875954027416918 0 0.17443949437422429 -0.37745336578486988 0 0.1602354860011011 -0.36875954027416918 0 0.14673951295096799 -0.37363029079717242 0 0.14952990885070691 -0.36034775620209553 0 0.16581699513551909 -0.35306125248096398 0 0.14952990885070691 -0.36034775620209553 0 0.144826286403443 -0.34676284914488159 0 0.14952990885070691 -0.36034775620209553 0 0.144826286403443 -0.34676284914488159 0 0.12334710111447229 -0.36406834251145731 0 0.144826286403443 -0.34676284914488159 0 0.12334710111447229 -0.36406834251145731 0 0.144826286403443 -0.34676284914488159 0 0.12334710111447229 -0.36406834251145731 0 0.11573058637367541 -0.34380091622275832 0 0.13273239812562251 -0.3803535413873157 0 0.1208593498238435 -0.38006314209191833 0 0.12334710111447229 -0.36406834251145731 0 0.14673951295096799 -0.37363029079717242 0 0.14952990885070691 -0.36034775620209553 0 0.12334710111447229 -0.36406834251145731 0 0.14673951295096799 -0.37363029079717242 0 0.13273239812562251 -0.3803535413873157 0 0.12334710111447229 -0.36406834251145731 0 0.15719449589681389 -0.32866913917705798 0 0.13978194378111039 -0.33004063130878142 0 0.14857199665810869 -0.30427702587315197 0 0.15719449589681389 -0.32866913917705798 0 0.14857199665810869 -0.30427702587315197 0 0.15719449589681389 -0.32866913917705798 0 0.144826286403443 -0.34676284914488159 0 0.13978194378111039 -0.33004063130878142 0 0.15719449589681389 -0.32866913917705798 0 0.16581699513551909 -0.35306125248096398 0 0.144826286403443 -0.34676284914488159 0 0.13978194378111039 -0.33004063130878142 0 0.1249111379911398 -0.32186001205002218 0 0.11573058637367541 -0.34380091622275832 0 0.144826286403443 -0.34676284914488159 0 0.13978194378111039 -0.33004063130878142 0 0.11573058637367541 -0.34380091622275832 0 0.13978194378111039 -0.33004063130878142 0 0.14857199665810869 -0.30427702587315197 0 0.1249111379911398 -0.32186001205002218 0 0.14857199665810869 -0.30427702587315197 0 0.13584279120622419 -0.29064916595208462 0 0.1212075847983899 -0.30357596212866123 0 0.14857199665810869 -0.30427702587315197 0 0.1212075847983899 -0.30357596212866123 0 0.1249111379911398 -0.32186001205002218 0 0.14857199665810869 -0.30427702587315197 0 0.14941647374314521 -0.28066083506566319 0 0.1659314811884508 -0.28303851802095531 0 0.14857199665810869 -0.30427702587315197 0 0.13584279120622419 -0.29064916595208462 0 0.14941647374314521 -0.28066083506566319 0 0.13554841089854469 -0.28148943716570812 0 0.13584279120622419 -0.29064916595208462 0 0.14941647374314521 -0.28066083506566319 0 0.13554841089854469 -0.28148943716570812 0 0.13584279120622419 -0.29064916595208462 0 0.1176113560141319 -0.2851589593963586 0 0.1376178273856396 -0.2676878026278281 0 0.13932302263067731 -0.26948878824872591 0 0.1176113560141319 -0.2851589593963586 0 0.13554841089854469 -0.28148943716570812 0 0.13932302263067731 -0.26948878824872591 0 0.1176113560141319 -0.2851589593963586 0 0.13932302263067731 -0.26948878824872591 0 0.1176113560141319 -0.2851589593963586 0 0.1376178273856396 -0.2676878026278281 0 0.1200034520355143 -0.24749468667538321 0 0.1376178273856396 -0.2676878026278281 0 0.1200034520355143 -0.24749468667538321 0 0.1412434604122122 -0.24631040783256791 0 0.1376178273856396 -0.2676878026278281 0 0.16103468924722281 -0.25381861710109321 0 0.1412434604122122 -0.24631040783256791 0 0.1376178273856396 -0.2676878026278281 0 0.13932302263067731 -0.26948878824872591 0 0.16103468924722281 -0.25381861710109321 0 0.13932302263067731 -0.26948878824872591 0 0.16103468924722281 -0.25381861710109321 0 0.13932302263067731 -0.26948878824872591 0 0.14941647374314521 -0.28066083506566319 0 0.16103468924722281 -0.25381861710109321 0 0.13554841089854469 -0.28148943716570812 0 0.13932302263067731 -0.26948878824872591 0 0.14941647374314521 -0.28066083506566319 0 0.14941647374314521 -0.28066083506566319 0 0.16103468924722281 -0.25381861710109321 0 0.1659314811884508 -0.28303851802095531 0 0.16103468924722281 -0.25381861710109321 0 0.1779690690817976 -0.26589134009717008 0 0.1659314811884508 -0.28303851802095531 0 0.16103468924722281 -0.25381861710109321 0 0.1779690690817976 -0.26589134009717008 0 0.18013525364959199 -0.24590787480667409 0 0.1960217485778272 -0.26205501631648559 0 0.1779690690817976 -0.26589134009717008 0 0.18013525364959199 -0.24590787480667409 0 0.1960217485778272 -0.26205501631648559 0 0.1779690690817976 -0.26589134009717008 0 0.18672217274589489 -0.28463667424064248 0 0.1779690690817976 -0.26589134009717008 0 0.18672217274589489 -0.28463667424064248 0 0.1659314811884508 -0.28303851802095531 0 0.18672217274589489 -0.28463667424064248 0 0.17186855286937899 -0.30453082832045192 0 0.1659314811884508 -0.28303851802095531 0 0.19163287831415901 -0.30538761534618902 0 0.18384400034678741 -0.32250280289756078 0 0.17186855286937899 -0.30453082832045192 0 0.19163287831415901 -0.30538761534618902 0 0.18672217274589489 -0.28463667424064248 0 0.17186855286937899 -0.30453082832045192 0 0.14857199665810869 -0.30427702587315197 0 0.17186855286937899 -0.30453082832045192 0 0.1659314811884508 -0.28303851802095531 0 0.15719449589681389 -0.32866913917705798 0 0.14857199665810869 -0.30427702587315197 0 0.17186855286937899 -0.30453082832045192 0 0.27004646425256568 -0.5 0 0.19840125792562099 -0.499999999999995 0 0.2258071254777905 -0.47806137695806639 0 0.19840125792562099 -0.499999999999995 0 0.1955652389629654 -0.47833395417678298 0 0.19840125792562099 -0.499999999999995 0 0.1955652389629654 -0.47833395417678298 0 0.1857239970351309 -0.48926605560099218 0 0.1955652389629654 -0.47833395417678298 0 0.2258071254777905 -0.47806137695806639 0 0.20496909670773639 -0.46039718082621561 0 0.19840125792562099 -0.499999999999995 0 0.1955652389629654 -0.47833395417678298 0 0.2258071254777905 -0.47806137695806639 0 0.2532296876789632 -0.47497352743918242 0 0.27004646425256568 -0.5 0 0.2258071254777905 -0.47806137695806639 0 0.2532296876789632 -0.47497352743918242 0 0.2258071254777905 -0.47806137695806639 0 0.23317765179809191 -0.45416130837427687 0 0.2258071254777905 -0.47806137695806639 0 0.23317765179809191 -0.45416130837427687 0 0.20496909670773639 -0.46039718082621561 0 0.23317765179809191 -0.45416130837427687 0 0.20496909670773639 -0.46039718082621561 0 0.26339579246569877 -0.46312143350125029 0 0.2532296876789632 -0.47497352743918242 0 0.23317765179809191 -0.45416130837427687 0 0.26138620688844749 -0.44792543592233808 0 0.2518592606704963 -0.43815060111373921 0 0.23317765179809191 -0.45416130837427687 0 0.26138620688844749 -0.44792543592233808 0 0.23317765179809191 -0.45416130837427687 0 0.2518592606704963 -0.43815060111373921 0 0.23317765179809191 -0.45416130837427687 0 0.24161391479158839 -0.43048581688246368 0 0.23317765179809191 -0.45416130837427687 0 0.21274467024756119 -0.44537306322652892 0 0.22596778666418391 -0.43195218695593612 0 0.23317765179809191 -0.45416130837427687 0 0.22596778666418391 -0.43195218695593612 0 0.24161391479158839 -0.43048581688246368 0 0.20738663592967541 -0.43977689630152639 0 0.21274467024756119 -0.44537306322652892 0 0.21231789143938981 -0.43260924517595267 0 0.20738663592967541 -0.43977689630152639 0 0.20306963394956029 -0.44528763306514119 0 0.2014143480821905 -0.43583764373848299 0 0.20738663592967541 -0.43977689630152639 0 0.21274467024756119 -0.44537306322652892 0 0.20306963394956029 -0.44528763306514119 0 0.21274467024756119 -0.44537306322652892 0 0.20306963394956029 -0.44528763306514119 0 0.20202636709778779 -0.45196992376671852 0 0.21274467024756119 -0.44537306322652892 0 0.20496909670773639 -0.46039718082621561 0 0.20202636709778779 -0.45196992376671852 0 0.23317765179809191 -0.45416130837427687 0 0.21274467024756119 -0.44537306322652892 0 0.20496909670773639 -0.46039718082621561 0 0.1955652389629654 -0.47833395417678298 0 0.20496909670773639 -0.46039718082621561 0 0.1927292200003092 -0.45666790835357102 0 0.1955652389629654 -0.47833395417678298 0 0.1927292200003092 -0.45666790835357102 0 0.1955652389629654 -0.47833395417678298 0 0.19047701204926121 -0.46094242075341862 0 0.1927292200003092 -0.45666790835357102 0 0.20496909670773639 -0.46039718082621561 0 0.1927292200003092 -0.45666790835357102 0 0.20202636709778779 -0.45196992376671852 0 0.19047701204926121 -0.46094242075341862 0 0.1927292200003092 -0.45666790835357102 0 0.1876592352144193 -0.45673372923780892 0 0.1927292200003092 -0.45666790835357102 0 0.1876592352144193 -0.45673372923780892 0 0.18777566972406101 -0.44981142861604279 0 0.1927292200003092 -0.45666790835357102 0 0.19595067699787469 -0.4453334870477933 0 0.18989320103765239 -0.43500186253035911 0 0.1927292200003092 -0.45666790835357102 0 0.18989320103765239 -0.43500186253035911 0 0.1927292200003092 -0.45666790835357102 0 0.18777566972406101 -0.44981142861604279 0 0.18989320103765239 -0.43500186253035911 0 0.19521760998379711 -0.43854214036159178 0 0.19595067699787469 -0.4453334870477933 0 0.1916906899727929 -0.43609695451772118 0 0.19595067699787469 -0.4453334870477933 0 0.1916906899727929 -0.43609695451772118 0 0.18989320103765239 -0.43500186253035911 0 0.19521760998379711 -0.43854214036159178 0 0.19821003569121751 -0.44088076654097252 0 0.19595067699787469 -0.4453334870477933 0 0.19821003569121751 -0.44088076654097252 0 0.20306963394956029 -0.44528763306514119 0 0.19595067699787469 -0.4453334870477933 0 0.19821003569121751 -0.44088076654097252 0 0.20306963394956029 -0.44528763306514119 0 0.2014143480821905 -0.43583764373848299 0 0.19521760998379711 -0.43854214036159178 0 0.19821003569121751 -0.44088076654097252 0 0.19632921389935129 -0.43529695882979857 0 0.20306963394956029 -0.44528763306514119 0 0.20202636709778779 -0.45196992376671852 0 0.19595067699787469 -0.4453334870477933 0 0.1927292200003092 -0.45666790835357102 0 0.20202636709778779 -0.45196992376671852 0 0.19595067699787469 -0.4453334870477933 0 0.18989320103765239 -0.43500186253035911 0 0.193210065479164 -0.42351508711829272 0 0.18667504034831339 -0.41041640739772162 0 0.18989320103765239 -0.43500186253035911 0 0.18667504034831339 -0.41041640739772162 0 0.1973860855611401 -0.42692030526330021 0 0.193210065479164 -0.42351508711829272 0 0.19846083006015189 -0.42045811652912207 0 0.1973860855611401 -0.42692030526330021 0 0.19846083006015189 -0.42045811652912207 0 0.20326441538295181 -0.42746054266679712 0 0.1973860855611401 -0.42692030526330021 0 0.19826447490927249 -0.43151164360587502 0 0.20326441538295181 -0.42746054266679712 0 0.2014143480821905 -0.43583764373848299 0 0.19826447490927249 -0.43151164360587502 0 0.20326441538295181 -0.42746054266679712 0 0.19821003569121751 -0.44088076654097252 0 0.2014143480821905 -0.43583764373848299 0 0.19632921389935129 -0.43529695882979857 0 0.2014143480821905 -0.43583764373848299 0 0.19632921389935129 -0.43529695882979857 0 0.19826447490927249 -0.43151164360587502 0 0.19632921389935129 -0.43529695882979857 0 0.19826447490927249 -0.43151164360587502 0 0.1929283116207289 -0.43204276753099607 0 0.1973860855611401 -0.42692030526330021 0 0.19826447490927249 -0.43151164360587502 0 0.1929283116207289 -0.43204276753099607 0 0.1929283116207289 -0.43204276753099607 0 0.18989320103765239 -0.43500186253035911 0 0.193210065479164 -0.42351508711829272 0 0.19521760998379711 -0.43854214036159178 0 0.19632921389935129 -0.43529695882979857 0 0.19377820557052011 -0.43520734882518619 0 0.19521760998379711 -0.43854214036159178 0 0.19377820557052011 -0.43520734882518619 0 0.1916906899727929 -0.43609695451772118 0 0.19632921389935129 -0.43529695882979857 0 0.1929283116207289 -0.43204276753099607 0 0.19377820557052011 -0.43520734882518619 0 0.1929283116207289 -0.43204276753099607 0 0.19210490899723079 -0.4345610298626873 0 0.18989320103765239 -0.43500186253035911 0 0.19377820557052011 -0.43520734882518619 0 0.19210490899723079 -0.4345610298626873 0 0.1916906899727929 -0.43609695451772118 0 0.1929283116207289 -0.43204276753099607 0 0.19377820557052011 -0.43520734882518619 0 0.19210490899723079 -0.4345610298626873 0 0.1916906899727929 -0.43609695451772118 0 0.18989320103765239 -0.43500186253035911 0 0.19210490899723079 -0.4345610298626873 0 0.1916906899727929 -0.43609695451772118 0 0.18989320103765239 -0.43500186253035911 0 0.1973860855611401 -0.42692030526330021 0 0.1929283116207289 -0.43204276753099607 0 0.193210065479164 -0.42351508711829272 0 0.193210065479164 -0.42351508711829272 0 0.1939169242469973 -0.41625106345825691 0 0.18667504034831339 -0.41041640739772162 0 0.193210065479164 -0.42351508711829272 0 0.1939169242469973 -0.41625106345825691 0 0.19846083006015189 -0.42045811652912207 0 0.1968341740193896 -0.41150644481021997 0 0.19418069224578771 -0.40518464808912641 0 0.18667504034831339 -0.41041640739772162 0 0.1939169242469973 -0.41625106345825691 0 0.1968341740193896 -0.41150644481021997 0 0.18667504034831339 -0.41041640739772162 0 0.1968341740193896 -0.41150644481021997 0 0.20469814770209749 -0.41520386531910081 0 0.20485234226760879 -0.40188257102108682 0 0.19846083006015189 -0.42045811652912207 0 0.20469814770209749 -0.41520386531910081 0 0.20326441538295181 -0.42746054266679712 0 0.1939169242469973 -0.41625106345825691 0 0.1968341740193896 -0.41150644481021997 0 0.19846083006015189 -0.42045811652912207 0 0.1968341740193896 -0.41150644481021997 0 0.19846083006015189 -0.42045811652912207 0 0.20469814770209749 -0.41520386531910081 0 0.20469814770209749 -0.41520386531910081 0 0.21626227209603979 -0.41615869782113413 0 0.20326441538295181 -0.42746054266679712 0 0.20469814770209749 -0.41520386531910081 0 0.21626227209603979 -0.41615869782113413 0 0.20485234226760879 -0.40188257102108682 0 0.21626227209603979 -0.41615869782113413 0 0.20326441538295181 -0.42746054266679712 0 0.21231789143938981 -0.43260924517595267 0 0.21626227209603979 -0.41615869782113413 0 0.21231789143938981 -0.43260924517595267 0 0.22596778666418391 -0.43195218695593612 0 0.20738663592967541 -0.43977689630152639 0 0.2014143480821905 -0.43583764373848299 0 0.21231789143938981 -0.43260924517595267 0 0.2014143480821905 -0.43583764373848299 0 0.20326441538295181 -0.42746054266679712 0 0.21231789143938981 -0.43260924517595267 0 0.21274467024756119 -0.44537306322652892 0 0.21231789143938981 -0.43260924517595267 0 0.22596778666418391 -0.43195218695593612 0 0.22596778666418391 -0.43195218695593612 0 0.24161391479158839 -0.43048581688246368 0 0.2333640889907381 -0.41241884790723538 0 0.25610826383841628 -0.42120346698794331 0 0.2518592606704963 -0.43815060111373921 0 0.24161391479158839 -0.43048581688246368 0 0.25610826383841628 -0.42120346698794331 0 0.24161391479158839 -0.43048581688246368 0 0.2333640889907381 -0.41241884790723538 0 0.21626227209603979 -0.41615869782113413 0 0.22596778666418391 -0.43195218695593612 0 0.2333640889907381 -0.41241884790723538 0 0.2333640889907381 -0.41241884790723538 0 0.24502858373403441 -0.39146921073642488 0 0.22031030243082139 -0.38906492162812378 0 0.21626227209603979 -0.41615869782113413 0 0.2333640889907381 -0.41241884790723538 0 0.22031030243082139 -0.38906492162812378 0 0.2333640889907381 -0.41241884790723538 0 0.22031030243082139 -0.38906492162812378 0 0.26125098829365018 -0.39969694482297641 0 0.2333640889907381 -0.41241884790723538 0 0.24502858373403441 -0.39146921073642488 0 0.24971336314328341 -0.36520417674804972 0 0.24502858373403441 -0.39146921073642488 0 0.24971336314328341 -0.36520417674804972 0 0.229200177642885 -0.36995291413531828 0 0.24502858373403441 -0.39146921073642488 0 0.229200177642885 -0.36995291413531828 0 0.24502858373403441 -0.39146921073642488 0 0.22031030243082139 -0.38906492162812378 0 0.20725651587090471 -0.36571099534901208 0 0.22031030243082139 -0.38906492162812378 0 0.19952097201101759 -0.38537913368264481 0 0.20725651587090471 -0.36571099534901208 0 0.22031030243082139 -0.38906492162812378 0 0.21626227209603979 -0.41615869782113413 0 0.22031030243082139 -0.38906492162812378 0 0.20485234226760879 -0.40188257102108682 0 0.22031030243082139 -0.38906492162812378 0 0.20485234226760879 -0.40188257102108682 0 0.19952097201101759 -0.38537913368264481 0 0.20485234226760879 -0.40188257102108682 0 0.19159455078491761 -0.39726910731705511 0 0.19952097201101759 -0.38537913368264481 0 0.1968341740193896 -0.41150644481021997 0 0.20485234226760879 -0.40188257102108682 0 0.19418069224578771 -0.40518464808912641 0 0.20485234226760879 -0.40188257102108682 0 0.19418069224578771 -0.40518464808912641 0 0.19159455078491761 -0.39726910731705511 0 0.19418069224578771 -0.40518464808912641 0 0.19159455078491761 -0.39726910731705511 0 0.18667504034831339 -0.41041640739772162 0 0.20725651587090471 -0.36571099534901208 0 0.19261827162763251 -0.374541644607297 0 0.19952097201101759 -0.38537913368264481 0 0.19261827162763251 -0.374541644607297 0 0.19952097201101759 -0.38537913368264481 0 0.1834568796589737 -0.38583095226508418 0 0.19159455078491761 -0.39726910731705511 0 0.19952097201101759 -0.38537913368264481 0 0.1834568796589737 -0.38583095226508418 0 0.17443949437422429 -0.37745336578486988 0 0.18306199361292941 -0.40184547908877583 0 0.1834568796589737 -0.38583095226508418 0 0.17443949437422429 -0.37745336578486988 0 0.18306199361292941 -0.40184547908877583 0 0.17443949437422429 -0.37745336578486988 0 0.18306199361292941 -0.40184547908877583 0 0.1699565165384864 -0.39219147373696051 0 0.19159455078491761 -0.39726910731705511 0 0.1834568796589737 -0.38583095226508418 0 0.18667504034831339 -0.41041640739772162 0 0.1834568796589737 -0.38583095226508418 0 0.18667504034831339 -0.41041640739772162 0 0.1834568796589737 -0.38583095226508418 0 0.18306199361292941 -0.40184547908877583 0 0.18667504034831339 -0.41041640739772162 0 0.18306199361292941 -0.40184547908877583 0 0.1699565165384864 -0.39219147373696051 0 0.17103987791038719 -0.40450309618882169 0 0.18306199361292941 -0.40184547908877583 0 0.17103987791038719 -0.40450309618882169 0 0.1814131781600461 -0.40758752999736902 0 0.1699565165384864 -0.39219147373696051 0 0.17103987791038719 -0.40450309618882169 0 0.15993177942481909 -0.39557864441750712 0 0.17103987791038719 -0.40450309618882169 0 0.15993177942481909 -0.39557864441750712 0 0.14638679418839309 -0.40849626541203388 0 0.1699565165384864 -0.39219147373696051 0 0.15993177942481909 -0.39557864441750712 0 0.1595700277473481 -0.38298567724053401 0 0.17443949437422429 -0.37745336578486988 0 0.1699565165384864 -0.39219147373696051 0 0.1595700277473481 -0.38298567724053401 0 0.1602354860011011 -0.36875954027416918 0 0.17443949437422429 -0.37745336578486988 0 0.1595700277473481 -0.38298567724053401 0 0.1602354860011011 -0.36875954027416918 0 0.14673951295096799 -0.37363029079717242 0 0.1595700277473481 -0.38298567724053401 0 0.14673951295096799 -0.37363029079717242 0 0.1595700277473481 -0.38298567724053401 0 0.14586341328622179 -0.39002728499933198 0 0.14673951295096799 -0.37363029079717242 0 0.14586341328622179 -0.39002728499933198 0 0.13273239812562251 -0.3803535413873157 0 0.15993177942481909 -0.39557864441750712 0 0.1595700277473481 -0.38298567724053401 0 0.14586341328622179 -0.39002728499933198 0 0.14586341328622179 -0.39002728499933198 0 0.13273239812562251 -0.3803535413873157 0 0.12412735500694751 -0.39493505064503392 0 0.13273239812562251 -0.3803535413873157 0 0.12412735500694751 -0.39493505064503392 0 0.1208593498238435 -0.38006314209191833 0 0.14586341328622179 -0.39002728499933198 0 0.14638679418839309 -0.40849626541203388 0 0.12412735500694751 -0.39493505064503392 0 0.14638679418839309 -0.40849626541203388 0 0.1185943653130178 -0.41089393958744808 0 0.12412735500694751 -0.39493505064503392 0 0.14638679418839309 -0.40849626541203388 0 0.12412735500694751 -0.39493505064503392 0 0.15993177942481909 -0.39557864441750712 0 0.14586341328622179 -0.39002728499933198 0 0.14638679418839309 -0.40849626541203388 0 0.14638679418839309 -0.40849626541203388 0 0.12945713117598301 -0.42527718494859718 0 0.1185943653130178 -0.41089393958744808 0 0.12945713117598301 -0.42527718494859718 0 0.1521605439778134 -0.43517333823265708 0 0.13567485458578729 -0.448289196286278 0 0.14638679418839309 -0.40849626541203388 0 0.12945713117598301 -0.42527718494859718 0 0.1521605439778134 -0.43517333823265708 0 0.14638679418839309 -0.40849626541203388 0 0.1521605439778134 -0.43517333823265708 0 0.16864623336983819 -0.42205748017903449 0 0.1521605439778134 -0.43517333823265708 0 0.16864623336983819 -0.42205748017903449 0 0.1521605439778134 -0.43517333823265708 0 0.16864623336983819 -0.42205748017903449 0 0.16573483381671769 -0.43911683261624462 0 0.16864623336983819 -0.42205748017903449 0 0.17670256027174869 -0.43608133600128551 0 0.16573483381671769 -0.43911683261624462 0 0.17103987791038719 -0.40450309618882169 0 0.14638679418839309 -0.40849626541203388 0 0.16962733287145829 -0.41306172809692981 0 0.14638679418839309 -0.40849626541203388 0 0.16864623336983819 -0.42205748017903449 0 0.14638679418839309 -0.40849626541203388 0 0.16864623336983819 -0.42205748017903449 0 0.16962733287145829 -0.41306172809692981 0 0.16864623336983819 -0.42205748017903449 0 0.17965678171287719 -0.41329759239238029 0 0.18989320103765239 -0.43500186253035911 0 0.17965678171287719 -0.41329759239238029 0 0.18667504034831339 -0.41041640739772162 0 0.16864623336983819 -0.42205748017903449 0 0.16962733287145829 -0.41306172809692981 0 0.17965678171287719 -0.41329759239238029 0 0.17103987791038719 -0.40450309618882169 0 0.16962733287145829 -0.41306172809692981 0 0.17965678171287719 -0.41329759239238029 0 0.17103987791038719 -0.40450309618882169 0 0.17965678171287719 -0.41329759239238029 0 0.1814131781600461 -0.40758752999736902 0 0.18306199361292941 -0.40184547908877583 0 0.1814131781600461 -0.40758752999736902 0 0.18667504034831339 -0.41041640739772162 0 0.17965678171287719 -0.41329759239238029 0 0.1814131781600461 -0.40758752999736902 0 0.18667504034831339 -0.41041640739772162 0 0.18989320103765239 -0.43500186253035911 0 0.16864623336983819 -0.42205748017903449 0 0.18989320103765239 -0.43500186253035911 0 0.16864623336983819 -0.42205748017903449 0 0.17965678171287719 -0.41329759239238029 0 0.18989320103765239 -0.43500186253035911 0 0.16864623336983819 -0.42205748017903449 0 0.17670256027174869 -0.43608133600128551 0 0.18989320103765239 -0.43500186253035911 0 0.17670256027174869 -0.43608133600128551 0 0.18208037526260021 -0.440172852945236 0 0.17851738694434799 -0.45081987712854771 0 0.17618275988476059 -0.44374183802639611 0 0.18401323307134959 -0.44581129240036288 0 0.17851738694434799 -0.45081987712854771 0 0.1776998484129505 -0.456552179461992 0 0.17120073938054131 -0.45123220200337888 0 0.17851738694434799 -0.45081987712854771 0 0.17618275988476059 -0.44374183802639611 0 0.17120073938054131 -0.45123220200337888 0 0.17670256027174869 -0.43608133600128551 0 0.17618275988476059 -0.44374183802639611 0 0.16573483381671769 -0.43911683261624462 0 0.17670256027174869 -0.43608133600128551 0 0.17618275988476059 -0.44374183802639611 0 0.18208037526260021 -0.440172852945236 0 0.18989320103765239 -0.43500186253035911 0 0.18208037526260021 -0.440172852945236 0 0.18401323307134959 -0.44581129240036288 0 0.18777566972406101 -0.44981142861604279 0 0.18989320103765239 -0.43500186253035911 0 0.18401323307134959 -0.44581129240036288 0 0.17618275988476059 -0.44374183802639611 0 0.18208037526260021 -0.440172852945236 0 0.18401323307134959 -0.44581129240036288 0 0.18777566972406101 -0.44981142861604279 0 0.18401323307134959 -0.44581129240036288 0 0.18385690407389799 -0.45446609953290928 0 0.17851738694434799 -0.45081987712854771 0 0.18401323307134959 -0.44581129240036288 0 0.18385690407389799 -0.45446609953290928 0 0.19047701204926121 -0.46094242075341862 0 0.1876592352144193 -0.45673372923780892 0 0.1806900259799068 -0.46227126151247672 0 0.1876592352144193 -0.45673372923780892 0 0.18777566972406101 -0.44981142861604279 0 0.18385690407389799 -0.45446609953290928 0 0.19047701204926121 -0.46094242075341862 0 0.1806900259799068 -0.46227126151247672 0 0.17298031468751371 -0.48047121037671059 0 0.1876592352144193 -0.45673372923780892 0 0.18385690407389799 -0.45446609953290928 0 0.1806900259799068 -0.46227126151247672 0 0.18385690407389799 -0.45446609953290928 0 0.1806900259799068 -0.46227126151247672 0 0.1776998484129505 -0.456552179461992 0 0.17851738694434799 -0.45081987712854771 0 0.18385690407389799 -0.45446609953290928 0 0.1776998484129505 -0.456552179461992 0 0.1806900259799068 -0.46227126151247672 0 0.1776998484129505 -0.456552179461992 0 0.17146684144139809 -0.46446192971202138 0 0.1776998484129505 -0.456552179461992 0 0.17146684144139809 -0.46446192971202138 0 0.17120073938054131 -0.45123220200337888 0 0.17146684144139809 -0.46446192971202138 0 0.15759213853868431 -0.45113306297151079 0 0.14900727366634989 -0.46501884712825781 0 0.17146684144139809 -0.46446192971202138 0 0.15759213853868431 -0.45113306297151079 0 0.17120073938054131 -0.45123220200337888 0 0.1521605439778134 -0.43517333823265708 0 0.15759213853868431 -0.45113306297151079 0 0.16573483381671769 -0.43911683261624462 0 0.15759213853868431 -0.45113306297151079 0 0.17120073938054131 -0.45123220200337888 0 0.16573483381671769 -0.43911683261624462 0 0.17618275988476059 -0.44374183802639611 0 0.17120073938054131 -0.45123220200337888 0 0.16573483381671769 -0.43911683261624462 0 0.1521605439778134 -0.43517333823265708 0 0.15759213853868431 -0.45113306297151079 0 0.13567485458578729 -0.448289196286278 0 0.1521605439778134 -0.43517333823265708 0 0.13567485458578729 -0.448289196286278 0 0.13567485458578729 -0.448289196286278 0 0.1191891651937612 -0.46140505433989892 0 0.12203304576274319 -0.43975504748265359 0 0.12945713117598301 -0.42527718494859718 0 0.13567485458578729 -0.448289196286278 0 0.12203304576274319 -0.43975504748265359 0 0.13567485458578729 -0.448289196286278 0 0.1191891651937612 -0.46140505433989892 0 0.13567485458578729 -0.448289196286278 0 0.13480127744719991 -0.46410976413563299 0 0.1191891651937612 -0.46140505433989892 0 0.13567485458578729 -0.448289196286278 0 0.13480127744719991 -0.46410976413563299 0 0.14900727366634989 -0.46501884712825781 0 0.15759213853868431 -0.45113306297151079 0 0.13567485458578729 -0.448289196286278 0 0.14900727366634989 -0.46501884712825781 0 0.14900727366634989 -0.46501884712825781 0 0.15577652408963519 -0.48266000469618581 0 0.13873200589539489 -0.47945912496791759 0 0.13480127744719991 -0.46410976413563299 0 0.14900727366634989 -0.46501884712825781 0 0.13873200589539489 -0.47945912496791759 0 0.13480127744719991 -0.46410976413563299 0 0.13873200589539489 -0.47945912496791759 0 0.11801755443736479 -0.48060781756800708 0 0.13873200589539489 -0.47945912496791759 0 0.13581988522262109 -0.50000000000000244 0 0.11801755443736479 -0.48060781756800708 0 0.13581988522262109 -0.50000000000000244 0 0.11801755443736479 -0.48060781756800708 0 0.15577652408963519 -0.48266000469618581 0 0.13873200589539489 -0.47945912496791759 0 0.13581988522262109 -0.50000000000000244 0 0.15577652408963519 -0.48266000469618581 0 0.13581988522262109 -0.50000000000000244 0 0.15548361732576529 -0.50000000000000178 0 0.15577652408963519 -0.48266000469618581 0 0.15548361732576529 -0.50000000000000178 0 0.17298031468751371 -0.48047121037671059 0 0.15548361732576529 -0.50000000000000178 0 0.17298031468751371 -0.48047121037671059 0 0.1769424376256932 -0.5 0 0.15548361732576529 -0.50000000000000178 0 0.17298031468751371 -0.48047121037671059 0 0.17146684144139809 -0.46446192971202138 0 0.15577652408963519 -0.48266000469618581 0 0.17298031468751371 -0.48047121037671059 0 0.17146684144139809 -0.46446192971202138 0 0.14900727366634989 -0.46501884712825781 0 0.15577652408963519 -0.48266000469618581 0 0.19047701204926121 -0.46094242075341862 0 0.17298031468751371 -0.48047121037671059 0 0.1806900259799068 -0.46227126151247672 0 0.17146684144139809 -0.46446192971202138 0 0.17298031468751371 -0.48047121037671059 0 0.1955652389629654 -0.47833395417678298 0 0.19047701204926121 -0.46094242075341862 0 0.17298031468751371 -0.48047121037671059 0 0.1955652389629654 -0.47833395417678298 0 0.17298031468751371 -0.48047121037671059 0 0.1857239970351309 -0.48926605560099218 0 0.19840125792562099 -0.499999999999995 0 0.1857239970351309 -0.48926605560099218 0 0.1769424376256932 -0.5 0 0.17298031468751371 -0.48047121037671059 0 0.1857239970351309 -0.48926605560099218 0 0.1769424376256932 -0.5 0 0.074737975103940479 -0.48487994098964171 0 0.071046826552429457 -0.50000000000000733 0 0.059434139084113012 -0.47963991399004141 0 0.071046826552429457 -0.50000000000000733 0 0.059434139084113012 -0.47963991399004141 0 0.074737975103940479 -0.48487994098964171 0 0.05802097188470097 -0.46975988197928431 0 0.059434139084113012 -0.47963991399004141 0 0.074737975103940479 -0.48487994098964171 0 0.071955909258469009 -0.46877079283141743 0 0.05802097188470097 -0.46975988197928431 0 0.074737975103940479 -0.48487994098964171 0 0.071955909258469009 -0.46877079283141743 0 0.082737354296077953 -0.47427357099325013 0 0.074737975103940479 -0.48487994098964171 0 0.05802097188470097 -0.46975988197928431 0 0.074737975103940479 -0.48487994098964171 0 0.082737354296077953 -0.47427357099325013 0 0.094811061721812542 -0.48112121468145302 0 0.082737354296077953 -0.47427357099325013 0 0.094811061721812542 -0.48112121468145302 0 0.1002152236521098 -0.46121563513601083 0 0.074737975103940479 -0.48487994098964171 0 0.091454978323179614 -0.49999999999999939 0 0.094811061721812542 -0.48112121468145302 0 0.074737975103940479 -0.48487994098964171 0 0.091454978323179614 -0.49999999999999939 0 0.074737975103940479 -0.48487994098964171 0 0.071046826552429457 -0.50000000000000733 0 0.091454978323179614 -0.49999999999999939 0 0.1136374317729003 -0.5 0 0.11801755443736479 -0.48060781756800708 0 0.094811061721812542 -0.48112121468145302 0 0.091454978323179614 -0.49999999999999939 0 0.1136374317729003 -0.5 0 0.094811061721812542 -0.48112121468145302 0 0.13581988522262109 -0.50000000000000244 0 0.1136374317729003 -0.5 0 0.11801755443736479 -0.48060781756800708 0 0.11801755443736479 -0.48060781756800708 0 0.094811061721812542 -0.48112121468145302 0 0.1002152236521098 -0.46121563513601083 0 0.11801755443736479 -0.48060781756800708 0 0.1002152236521098 -0.46121563513601083 0 0.1002152236521098 -0.46121563513601083 0 0.1191891651937612 -0.46140505433989892 0 0.1082504500781146 -0.44478934181291102 0 0.11801755443736479 -0.48060781756800708 0 0.1002152236521098 -0.46121563513601083 0 0.1191891651937612 -0.46140505433989892 0 0.13480127744719991 -0.46410976413563299 0 0.11801755443736479 -0.48060781756800708 0 0.1191891651937612 -0.46140505433989892 0 0.1191891651937612 -0.46140505433989892 0 0.12203304576274319 -0.43975504748265359 0 0.1082504500781146 -0.44478934181291102 0 0.1002152236521098 -0.46121563513601083 0 0.1082504500781146 -0.44478934181291102 0 0.082412892866854714 -0.44182345270401441 0 0.1002152236521098 -0.46121563513601083 0 0.082412892866854714 -0.44182345270401441 0 0.082737354296077953 -0.47427357099325013 0 0.1002152236521098 -0.46121563513601083 0 0.07989865607697158 -0.46093656822545309 0 0.1002152236521098 -0.46121563513601083 0 0.082412892866854714 -0.44182345270401441 0 0.07989865607697158 -0.46093656822545309 0 0.071955909258469009 -0.46877079283141743 0 0.082737354296077953 -0.47427357099325013 0 0.07989865607697158 -0.46093656822545309 0 0.071955909258469009 -0.46877079283141743 0 0.07989865607697158 -0.46093656822545309 0 0.064942869781788204 -0.45298741250561531 0 0.071955909258469009 -0.46877079283141743 0 0.064942869781788204 -0.45298741250561531 0 0.05802097188470097 -0.46975988197928431 0 0.082412892866854714 -0.44182345270401441 0 0.07989865607697158 -0.46093656822545309 0 0.064942869781788204 -0.45298741250561531 0 0.082412892866854714 -0.44182345270401441 0 0.064942869781788204 -0.45298741250561531 0 0.064610562081599654 -0.42243127027201799 0 0.082412892866854714 -0.44182345270401441 0 0.064610562081599654 -0.42243127027201799 0 0.085410796704641828 -0.41553833344022301 0 0.082412892866854714 -0.44182345270401441 0 0.064610562081599654 -0.42243127027201799 0 0.064610562081599654 -0.42243127027201799 0 0.085410796704641828 -0.41553833344022301 0 0.071260751408415451 -0.40583032332525898 0 0.082412892866854714 -0.44182345270401441 0 0.085410796704641828 -0.41553833344022301 0 0.10565257718969159 -0.42402980380391259 0 0.1082504500781146 -0.44478934181291102 0 0.10565257718969159 -0.42402980380391259 0 0.1082504500781146 -0.44478934181291102 0 0.082412892866854714 -0.44182345270401441 0 0.10565257718969159 -0.42402980380391259 0 0.12203304576274319 -0.43975504748265359 0 0.1082504500781146 -0.44478934181291102 0 0.10565257718969159 -0.42402980380391259 0 0.12945713117598301 -0.42527718494859718 0 0.12203304576274319 -0.43975504748265359 0 0.10565257718969159 -0.42402980380391259 0 0.12945713117598301 -0.42527718494859718 0 0.10565257718969159 -0.42402980380391259 0 0.1185943653130178 -0.41089393958744808 0 0.10565257718969159 -0.42402980380391259 0 0.10305470430126849 -0.40327026579491432 0 0.10565257718969159 -0.42402980380391259 0 0.1185943653130178 -0.41089393958744808 0 0.10305470430126849 -0.40327026579491432 0 0.085410796704641828 -0.41553833344022301 0 0.10565257718969159 -0.42402980380391259 0 0.10305470430126849 -0.40327026579491432 0 0.10305470430126849 -0.40327026579491432 0 0.1092296532162271 -0.39195520602732847 0 0.1018679158255022 -0.38137383587803358 0 0.10305470430126849 -0.40327026579491432 0 0.1018679158255022 -0.38137383587803358 0 0.084827885114816814 -0.39510276155480978 0 0.10305470430126849 -0.40327026579491432 0 0.1018679158255022 -0.38137383587803358 0 0.1185943653130178 -0.41089393958744808 0 0.10305470430126849 -0.40327026579491432 0 0.1092296532162271 -0.39195520602732847 0 0.1185943653130178 -0.41089393958744808 0 0.1092296532162271 -0.39195520602732847 0 0.12412735500694751 -0.39493505064503392 0 0.12412735500694751 -0.39493505064503392 0 0.1208593498238435 -0.38006314209191833 0 0.1018679158255022 -0.38137383587803358 0 0.1092296532162271 -0.39195520602732847 0 0.12412735500694751 -0.39493505064503392 0 0.1018679158255022 -0.38137383587803358 0 0.12412735500694751 -0.39493505064503392 0 0.1018679158255022 -0.38137383587803358 0 0.1208593498238435 -0.38006314209191833 0 0.1018679158255022 -0.38137383587803358 0 0.12334710111447229 -0.36406834251145731 0 0.1018679158255022 -0.38137383587803358 0 0.1001863568717406 -0.38034937241650962 0 0.10879209213087419 -0.36797725762153549 0 0.1018679158255022 -0.38137383587803358 0 0.1001863568717406 -0.38034937241650962 0 0.092680417082859706 -0.38189565836938699 0 0.1018679158255022 -0.38137383587803358 0 0.1001863568717406 -0.38034937241650962 0 0.1001863568717406 -0.38034937241650962 0 0.092680417082859706 -0.38189565836938699 0 0.078941289569781151 -0.36740614783332631 0 0.1018679158255022 -0.38137383587803358 0 0.084827885114816814 -0.39510276155480978 0 0.1018679158255022 -0.38137383587803358 0 0.092680417082859706 -0.38189565836938699 0 0.084827885114816814 -0.39510276155480978 0 0.083667078469080447 -0.3817485906143725 0 0.076461538166658155 -0.38231907318138902 0 0.078941289569781151 -0.36740614783332631 0 0.092680417082859706 -0.38189565836938699 0 0.083667078469080447 -0.3817485906143725 0 0.078941289569781151 -0.36740614783332631 0 0.084827885114816814 -0.39510276155480978 0 0.073546264855348126 -0.39398280964304111 0 0.076461538166658155 -0.38231907318138902 0 0.083667078469080447 -0.3817485906143725 0 0.084827885114816814 -0.39510276155480978 0 0.076461538166658155 -0.38231907318138902 0 0.092680417082859706 -0.38189565836938699 0 0.083667078469080447 -0.3817485906143725 0 0.084827885114816814 -0.39510276155480978 0 0.085410796704641828 -0.41553833344022301 0 0.10305470430126849 -0.40327026579491432 0 0.084827885114816814 -0.39510276155480978 0 0.085410796704641828 -0.41553833344022301 0 0.084827885114816814 -0.39510276155480978 0 0.071260751408415451 -0.40583032332525898 0 0.084827885114816814 -0.39510276155480978 0 0.073546264855348126 -0.39398280964304111 0 0.071260751408415451 -0.40583032332525898 0 0.073546264855348126 -0.39398280964304111 0 0.071260751408415451 -0.40583032332525898 0 0.061634884731502082 -0.39267908051070671 0 0.076461538166658155 -0.38231907318138902 0 0.061634884731502082 -0.39267908051070671 0 0.076461538166658155 -0.38231907318138902 0 0.061634884731502082 -0.39267908051070671 0 0.061904282875925747 -0.37237526148823941 0 0.073546264855348126 -0.39398280964304111 0 0.076461538166658155 -0.38231907318138902 0 0.061634884731502082 -0.39267908051070671 0 0.051370350477500881 -0.3764161884637201 0 0.045801185216693012 -0.38580832539780119 0 0.043663507306638913 -0.36868104746756258 0 0.051370350477500881 -0.3764161884637201 0 0.061634884731502082 -0.39267908051070671 0 0.045801185216693012 -0.38580832539780119 0 0.051370350477500881 -0.3764161884637201 0 0.061634884731502082 -0.39267908051070671 0 0.061904282875925747 -0.37237526148823941 0 0.071260751408415451 -0.40583032332525898 0 0.061634884731502082 -0.39267908051070671 0 0.04680823129634433 -0.40303908784002201 0 0.061634884731502082 -0.39267908051070671 0 0.04680823129634433 -0.40303908784002201 0 0.045801185216693012 -0.38580832539780119 0 0.061634884731502082 -0.39267908051070671 0 0.04680823129634433 -0.40303908784002201 0 0.04680823129634433 -0.40303908784002201 0 0.02837172461734 -0.38295609391969199 0 0.04680823129634433 -0.40303908784002201 0 0.02837172461734 -0.38295609391969199 0 0.028215565298714249 -0.40094151263492078 0 0.045801185216693012 -0.38580832539780119 0 0.02837172461734 -0.38295609391969199 0 0.043663507306638913 -0.36868104746756258 0 0.04680823129634433 -0.40303908784002201 0 0.045801185216693012 -0.38580832539780119 0 0.02837172461734 -0.38295609391969199 0 0.02837172461734 -0.38295609391969199 0 0.0122991559467155 -0.37891225603134221 0 0.011208636448502229 -0.39508796301279092 0 -0.002178803782163227 -0.37161627006544062 0 0.0122991559467155 -0.37891225603134221 0 0.011208636448502229 -0.39508796301279092 0 -0.002178803782163227 -0.37161627006544062 0 0.011208636448502229 -0.39508796301279092 0 -0.002178803782163227 -0.37161627006544062 0 -0.0066930742226519926 -0.39143820132839208 0 0.011208636448502229 -0.39508796301279092 0 -0.001728596279610697 -0.40597762003102339 0 0.011208636448502229 -0.39508796301279092 0 0.0082246319185010179 -0.41465428951275207 0 -0.0066930742226519926 -0.39143820132839208 0 -0.001728596279610697 -0.40597762003102339 0 0.011208636448502229 -0.39508796301279092 0 0.011208636448502229 -0.39508796301279092 0 0.028215565298714249 -0.40094151263492078 0 0.024596076679173799 -0.41855965596013778 0 0.02837172461734 -0.38295609391969199 0 0.011208636448502229 -0.39508796301279092 0 0.028215565298714249 -0.40094151263492078 0 0.011208636448502229 -0.39508796301279092 0 0.024596076679173799 -0.41855965596013778 0 0.011208636448502229 -0.39508796301279092 0 0.024596076679173799 -0.41855965596013778 0 0.0082246319185010179 -0.41465428951275207 0 0.024596076679173799 -0.41855965596013778 0 0.0082246319185010179 -0.41465428951275207 0 0.01039378864355619 -0.42848339288335913 0 -0.009537301248459449 -0.42510302968362512 0 0.0082246319185010179 -0.41465428951275207 0 0.01039378864355619 -0.42848339288335913 0 0.024596076679173799 -0.41855965596013778 0 0.036208764147486278 -0.43891974197010591 0 0.024596076679173799 -0.41855965596013778 0 0.036208764147486278 -0.43891974197010591 0 0.020713539006084219 -0.44010250100644183 0 0.024596076679173799 -0.41855965596013778 0 0.01039378864355619 -0.42848339288335913 0 0.020713539006084219 -0.44010250100644183 0 0.024596076679173799 -0.41855965596013778 0 0.01039378864355619 -0.42848339288335913 0 0.024596076679173799 -0.41855965596013778 0 0.043950702345966319 -0.42295947833088071 0 0.036208764147486278 -0.43891974197010591 0 0.043950702345966319 -0.42295947833088071 0 0.051347790295756007 -0.43901682978775403 0 0.036208764147486278 -0.43891974197010591 0 0.04680823129634433 -0.40303908784002201 0 0.024596076679173799 -0.41855965596013778 0 0.04680823129634433 -0.40303908784002201 0 0.028215565298714249 -0.40094151263492078 0 0.024596076679173799 -0.41855965596013778 0 0.04680823129634433 -0.40303908784002201 0 0.024596076679173799 -0.41855965596013778 0 0.043950702345966319 -0.42295947833088071 0 0.064610562081599654 -0.42243127027201799 0 0.071260751408415451 -0.40583032332525898 0 0.04680823129634433 -0.40303908784002201 0 0.064610562081599654 -0.42243127027201799 0 0.04680823129634433 -0.40303908784002201 0 0.064610562081599654 -0.42243127027201799 0 0.04680823129634433 -0.40303908784002201 0 0.043950702345966319 -0.42295947833088071 0 0.064610562081599654 -0.42243127027201799 0 0.043950702345966319 -0.42295947833088071 0 0.051347790295756007 -0.43901682978775403 0 0.064942869781788204 -0.45298741250561531 0 0.064610562081599654 -0.42243127027201799 0 0.051347790295756007 -0.43901682978775403 0 0.064942869781788204 -0.45298741250561531 0 0.051347790295756007 -0.43901682978775403 0 0.047821451615799627 -0.45927982798007361 0 0.064942869781788204 -0.45298741250561531 0 0.047821451615799627 -0.45927982798007361 0 0.05802097188470097 -0.46975988197928431 0 0.047821451615799627 -0.45927982798007361 0 0.023714967739582489 -0.4565662814222432 0 0.032020960621095843 -0.47777188036233098 0 0.047821451615799627 -0.45927982798007361 0 0.036208764147486278 -0.43891974197010591 0 0.051347790295756007 -0.43901682978775403 0 0.047821451615799627 -0.45927982798007361 0 0.036208764147486278 -0.43891974197010591 0 0.047821451615799627 -0.45927982798007361 0 0.036208764147486278 -0.43891974197010591 0 0.023714967739582489 -0.4565662814222432 0 0.036208764147486278 -0.43891974197010591 0 0.020713539006084219 -0.44010250100644183 0 0.023714967739582489 -0.4565662814222432 0 -0.0013374034004768371 -0.44947558896604423 0 0.01039378864355619 -0.42848339288335913 0 0.020713539006084219 -0.44010250100644183 0 -0.0013374034004768371 -0.44947558896604423 0 0.020713539006084219 -0.44010250100644183 0 0.023714967739582489 -0.4565662814222432 0 -0.0013374034004768371 -0.44947558896604423 0 0.0068624944475057766 -0.47384814824846327 0 -0.0013374034004768371 -0.44947558896604423 0 0.023714967739582489 -0.4565662814222432 0 0.0068624944475057766 -0.47384814824846327 0 0.023714967739582489 -0.4565662814222432 0 0.0068624944475057766 -0.47384814824846327 0 0.032020960621095843 -0.47777188036233098 0 0.0068624944475057766 -0.47384814824846327 0 0.0150623922954884 -0.49822070753088238 0 0.032020960621095843 -0.47777188036233098 0 -0.015217900669161011 -0.5 0 0.0024053695883212941 -0.48891336768777249 0 0.013537008404702511 -0.5 0 0.0068624944475057766 -0.47384814824846327 0 0.0024053695883212941 -0.48891336768777249 0 0.0150623922954884 -0.49822070753088238 0 0.0068624944475057766 -0.47384814824846327 0 0.0150623922954884 -0.49822070753088238 0 0.0024053695883212941 -0.48891336768777249 0 0.0150623922954884 -0.49822070753088238 0 0.013537008404702511 -0.5 0 0.0150623922954884 -0.49822070753088238 0 0.013537008404702511 -0.5 0 0.042291917478565873 -0.5 0 0.0150623922954884 -0.49822070753088238 0 0.042291917478565873 -0.5 0 0.032020960621095843 -0.47777188036233098 0 0.042291917478565873 -0.5 0 0.032020960621095843 -0.47777188036233098 0 0.059434139084113012 -0.47963991399004141 0 0.047821451615799627 -0.45927982798007361 0 0.032020960621095843 -0.47777188036233098 0 0.059434139084113012 -0.47963991399004141 0 0.047821451615799627 -0.45927982798007361 0 0.05802097188470097 -0.46975988197928431 0 0.059434139084113012 -0.47963991399004141 0 0.047821451615799627 -0.45927982798007361 0 0.059434139084113012 -0.47963991399004141 0 0.071046826552429457 -0.50000000000000733 0 0.042291917478565873 -0.5 0 0.059434139084113012 -0.47963991399004141 0 0.078456545354339768 -0.28525100698693651 0 0.075192778843485145 -0.3004755496101415 0 0.095899689397586599 -0.3008291305439913 0 0.078456545354339768 -0.28525100698693651 0 0.095711127176573443 -0.2751242682777974 0 0.095899689397586599 -0.3008291305439913 0 0.075192778843485145 -0.3004755496101415 0 0.095899689397586599 -0.3008291305439913 0 0.074188022781041252 -0.31649930169162399 0 0.095899689397586599 -0.3008291305439913 0 0.074188022781041252 -0.31649930169162399 0 0.075192778843485145 -0.3004755496101415 0 0.074188022781041252 -0.31649930169162399 0 0.058270312985904418 -0.30816514798469019 0 0.075192778843485145 -0.3004755496101415 0 0.068995976747761104 -0.2945131319279734 0 0.058270312985904418 -0.30816514798469019 0 0.068995976747761104 -0.2945131319279734 0 0.064064269807315097 -0.28416082313012542 0 0.058270312985904418 -0.30816514798469019 0 0.078456545354339768 -0.28525100698693651 0 0.075192778843485145 -0.3004755496101415 0 0.068995976747761104 -0.2945131319279734 0 0.078456545354339768 -0.28525100698693651 0 0.068995976747761104 -0.2945131319279734 0 0.064064269807315097 -0.28416082313012542 0 0.064064269807315097 -0.28416082313012542 0 0.069858226628725775 -0.26015649827556059 0 0.078456545354339768 -0.28525100698693651 0 0.064064269807315097 -0.28416082313012542 0 0.069858226628725775 -0.26015649827556059 0 0.069858226628725775 -0.26015649827556059 0 0.095711127176573443 -0.2751242682777974 0 0.096521476943682558 -0.25181800011133371 0 0.078456545354339768 -0.28525100698693651 0 0.069858226628725775 -0.26015649827556059 0 0.095711127176573443 -0.2751242682777974 0 0.095711127176573443 -0.2751242682777974 0 0.114720785939063 -0.26575264298982931 0 0.1176113560141319 -0.2851589593963586 0 0.095711127176573443 -0.2751242682777974 0 0.096521476943682558 -0.25181800011133371 0 0.114720785939063 -0.26575264298982931 0 0.1376178273856396 -0.2676878026278281 0 0.114720785939063 -0.26575264298982931 0 0.1200034520355143 -0.24749468667538321 0 0.096521476943682558 -0.25181800011133371 0 0.114720785939063 -0.26575264298982931 0 0.1200034520355143 -0.24749468667538321 0 0.1376178273856396 -0.2676878026278281 0 0.114720785939063 -0.26575264298982931 0 0.1176113560141319 -0.2851589593963586 0 0.13584279120622419 -0.29064916595208462 0 0.1176113560141319 -0.2851589593963586 0 0.1212075847983899 -0.30357596212866123 0 0.1176113560141319 -0.2851589593963586 0 0.095899689397586599 -0.3008291305439913 0 0.1212075847983899 -0.30357596212866123 0 0.1176113560141319 -0.2851589593963586 0 0.095899689397586599 -0.3008291305439913 0 0.095711127176573443 -0.2751242682777974 0 0.1176113560141319 -0.2851589593963586 0 0.095899689397586599 -0.3008291305439913 0 0.095899689397586599 -0.3008291305439913 0 0.1212075847983899 -0.30357596212866123 0 0.1047724191350739 -0.31963875894108951 0 0.1212075847983899 -0.30357596212866123 0 0.1249111379911398 -0.32186001205002218 0 0.1047724191350739 -0.31963875894108951 0 0.1249111379911398 -0.32186001205002218 0 0.1047724191350739 -0.31963875894108951 0 0.11573058637367541 -0.34380091622275832 0 0.094619564876377599 -0.33586527524184762 0 0.1047724191350739 -0.31963875894108951 0 0.11573058637367541 -0.34380091622275832 0 0.094619564876377599 -0.33586527524184762 0 0.1047724191350739 -0.31963875894108951 0 0.086339338786571823 -0.32698567366184278 0 0.095899689397586599 -0.3008291305439913 0 0.1047724191350739 -0.31963875894108951 0 0.086339338786571823 -0.32698567366184278 0 0.1018679158255022 -0.38137383587803358 0 0.12334710111447229 -0.36406834251145731 0 0.1018679158255022 -0.38137383587803358 0 0.12334710111447229 -0.36406834251145731 0 0.10879209213087419 -0.36797725762153549 0 0.12334710111447229 -0.36406834251145731 0 0.11573058637367541 -0.34380091622275832 0 0.10879209213087419 -0.36797725762153549 0 0.11573058637367541 -0.34380091622275832 0 0.097402960874061584 -0.35810732382917831 0 0.10879209213087419 -0.36797725762153549 0 0.094619564876377599 -0.33586527524184762 0 0.11573058637367541 -0.34380091622275832 0 0.097402960874061584 -0.35810732382917831 0 0.094619564876377599 -0.33586527524184762 0 0.097402960874061584 -0.35810732382917831 0 0.1001863568717406 -0.38034937241650962 0 0.097402960874061584 -0.35810732382917831 0 0.1001863568717406 -0.38034937241650962 0 0.097402960874061584 -0.35810732382917831 0 0.10879209213087419 -0.36797725762153549 0 0.1001863568717406 -0.38034937241650962 0 0.097402960874061584 -0.35810732382917831 0 0.078941289569781151 -0.36740614783332631 0 0.1001863568717406 -0.38034937241650962 0 0.078941289569781151 -0.36740614783332631 0 0.094619564876377599 -0.33586527524184762 0 0.097402960874061584 -0.35810732382917831 0 0.084740357312199394 -0.34701535865000288 0 0.078941289569781151 -0.36740614783332631 0 0.084740357312199394 -0.34701535865000288 0 0.072564810466095128 -0.35396504242622201 0 0.097402960874061584 -0.35810732382917831 0 0.078941289569781151 -0.36740614783332631 0 0.084740357312199394 -0.34701535865000288 0 0.078941289569781151 -0.36740614783332631 0 0.072564810466095128 -0.35396504242622201 0 0.057696222267823373 -0.35446292325014028 0 0.084740357312199394 -0.34701535865000288 0 0.072564810466095128 -0.35396504242622201 0 0.073102422775426085 -0.33909783780230318 0 0.064643683218506637 -0.34920539315333932 0 0.072564810466095128 -0.35396504242622201 0 0.073102422775426085 -0.33909783780230318 0 0.064643683218506637 -0.34920539315333932 0 0.072564810466095128 -0.35396504242622201 0 0.057696222267823373 -0.35446292325014028 0 0.078941289569781151 -0.36740614783332631 0 0.057696222267823373 -0.35446292325014028 0 0.076461538166658155 -0.38231907318138902 0 0.078941289569781151 -0.36740614783332631 0 0.061904282875925747 -0.37237526148823941 0 0.078941289569781151 -0.36740614783332631 0 0.061904282875925747 -0.37237526148823941 0 0.057696222267823373 -0.35446292325014028 0 0.095899689397586599 -0.3008291305439913 0 0.086339338786571823 -0.32698567366184278 0 0.074188022781041252 -0.31649930169162399 0 0.094619564876377599 -0.33586527524184762 0 0.084740357312199394 -0.34701535865000288 0 0.086339338786571823 -0.32698567366184278 0 0.084740357312199394 -0.34701535865000288 0 0.086339338786571823 -0.32698567366184278 0 0.073102422775426085 -0.33909783780230318 0 0.073102422775426085 -0.33909783780230318 0 0.074188022781041252 -0.31649930169162399 0 0.052476356164494947 -0.33216947283925541 0 0.064643683218506637 -0.34920539315333932 0 0.073102422775426085 -0.33909783780230318 0 0.060945063747813971 -0.34285112352430303 0 0.074188022781041252 -0.31649930169162399 0 0.052476356164494947 -0.33216947283925541 0 0.086339338786571823 -0.32698567366184278 0 0.073102422775426085 -0.33909783780230318 0 0.074188022781041252 -0.31649930169162399 0 0.052476356164494947 -0.33216947283925541 0 0.058270312985904418 -0.30816514798469019 0 0.052476356164494947 -0.33216947283925541 0 0.044648526871603783 -0.31770081170742831 0 0.058270312985904418 -0.30816514798469019 0 0.074188022781041252 -0.31649930169162399 0 0.052476356164494947 -0.33216947283925541 0 0.058270312985904418 -0.30816514798469019 0 0.052476356164494947 -0.33216947283925541 0 0.047583047975914103 -0.35244241635483559 0 0.073102422775426085 -0.33909783780230318 0 0.060945063747813971 -0.34285112352430303 0 0.052476356164494947 -0.33216947283925541 0 0.060945063747813971 -0.34285112352430303 0 0.052476356164494947 -0.33216947283925541 0 0.054181307711507642 -0.34983992205818981 0 0.052476356164494947 -0.33216947283925541 0 0.04071506683574927 -0.34065806194451792 0 0.047583047975914103 -0.35244241635483559 0 0.052476356164494947 -0.33216947283925541 0 0.04071506683574927 -0.34065806194451792 0 0.044648526871603783 -0.31770081170742831 0 0.04071506683574927 -0.34065806194451792 0 0.03015636661650286 -0.3225410253719756 0 0.04071506683574927 -0.34065806194451792 0 0.03015636661650286 -0.3225410253719756 0 0.02636863849756152 -0.33688388254537838 0 0.052476356164494947 -0.33216947283925541 0 0.04071506683574927 -0.34065806194451792 0 0.04071506683574927 -0.34065806194451792 0 0.044648526871603783 -0.31770081170742831 0 0.03015636661650286 -0.3225410253719756 0 0.044648526871603783 -0.31770081170742831 0 0.03015636661650286 -0.3225410253719756 0 0.034491627806478041 -0.30853974567073322 0 0.061904282875925747 -0.37237526148823941 0 0.053259535722039633 -0.3641180164926533 0 0.057696222267823373 -0.35446292325014028 0 0.051370350477500881 -0.3764161884637201 0 0.053259535722039633 -0.3641180164926533 0 0.043663507306638913 -0.36868104746756258 0 0.051370350477500881 -0.3764161884637201 0 0.061904282875925747 -0.37237526148823941 0 0.053259535722039633 -0.3641180164926533 0 0.053259535722039633 -0.3641180164926533 0 0.048773826387857627 -0.3544856011778737 0 0.043663507306638913 -0.36868104746756258 0 0.052476356164494947 -0.33216947283925541 0 0.047583047975914103 -0.35244241635483559 0 0.054181307711507642 -0.34983992205818981 0 0.053259535722039633 -0.3641180164926533 0 0.053244657324237762 -0.3582642649149802 0 0.048773826387857627 -0.3544856011778737 0 0.053244657324237762 -0.3582642649149802 0 0.048773826387857627 -0.3544856011778737 0 0.054181307711507642 -0.34983992205818981 0 0.048773826387857627 -0.3544856011778737 0 0.047583047975914103 -0.35244241635483559 0 0.054181307711507642 -0.34983992205818981 0 0.048773826387857627 -0.3544856011778737 0 0.047583047975914103 -0.35244241635483559 0 0.053259535722039633 -0.3641180164926533 0 0.053244657324237762 -0.3582642649149802 0 0.057696222267823373 -0.35446292325014028 0 0.053244657324237762 -0.3582642649149802 0 0.057696222267823373 -0.35446292325014028 0 0.054181307711507642 -0.34983992205818981 0 0.064643683218506637 -0.34920539315333932 0 0.057696222267823373 -0.35446292325014028 0 0.054181307711507642 -0.34983992205818981 0 0.064643683218506637 -0.34920539315333932 0 0.060945063747813971 -0.34285112352430303 0 0.054181307711507642 -0.34983992205818981 0 0.048773826387857627 -0.3544856011778737 0 0.047583047975914103 -0.35244241635483559 0 0.043663507306638913 -0.36868104746756258 0 0.04071506683574927 -0.34065806194451792 0 0.047583047975914103 -0.35244241635483559 0 0.04071506683574927 -0.34065806194451792 0 0.047583047975914103 -0.35244241635483559 0 0.03985573710467899 -0.35136837444597901 0 0.04071506683574927 -0.34065806194451792 0 0.03985573710467899 -0.35136837444597901 0 0.03205896378917665 -0.35434441690964041 0 0.04071506683574927 -0.34065806194451792 0 0.03205896378917665 -0.35434441690964041 0 0.025431496553892478 -0.35168882095041942 0 0.04071506683574927 -0.34065806194451792 0 0.025431496553892478 -0.35168882095041942 0 0.03985573710467899 -0.35136837444597901 0 0.03205896378917665 -0.35434441690964041 0 0.039065869817875902 -0.35802860257492208 0 0.047583047975914103 -0.35244241635483559 0 0.03985573710467899 -0.35136837444597901 0 0.039065869817875902 -0.35802860257492208 0 0.02837172461734 -0.38295609391969199 0 0.033371525452051833 -0.36592480980272157 0 0.043663507306638913 -0.36868104746756258 0 0.047583047975914103 -0.35244241635483559 0 0.039065869817875902 -0.35802860257492208 0 0.043663507306638913 -0.36868104746756258 0 0.047583047975914103 -0.35244241635483559 0 0.043663507306638913 -0.36868104746756258 0 0.039065869817875902 -0.35802860257492208 0 0.033371525452051833 -0.36592480980272157 0 0.043663507306638913 -0.36868104746756258 0 0.03205896378917665 -0.35434441690964041 0 0.039065869817875902 -0.35802860257492208 0 0.033371525452051833 -0.36592480980272157 0 0.02837172461734 -0.38295609391969199 0 0.0099352179383349771 -0.36287309999936251 0 0.02837172461734 -0.38295609391969199 0 0.023697561729227701 -0.3656138881417908 0 0.0099352179383349771 -0.36287309999936251 0 0.02837172461734 -0.38295609391969199 0 0.033371525452051833 -0.36592480980272157 0 0.023697561729227701 -0.3656138881417908 0 0.02837172461734 -0.38295609391969199 0 0.0122991559467155 -0.37891225603134221 0 0.0099352179383349771 -0.36287309999936251 0 0.03205896378917665 -0.35434441690964041 0 0.033371525452051833 -0.36592480980272157 0 0.023697561729227701 -0.3656138881417908 0 0.023697561729227701 -0.3656138881417908 0 0.025431496553892478 -0.35168882095041942 0 0.0099352179383349771 -0.36287309999936251 0 0.025431496553892478 -0.35168882095041942 0 0.0075807645751098419 -0.34453611388615663 0 0.025431496553892478 -0.35168882095041942 0 0.0075807645751098419 -0.34453611388615663 0 0.02636863849756152 -0.33688388254537838 0 0.025431496553892478 -0.35168882095041942 0 0.0099352179383349771 -0.36287309999936251 0 0.03205896378917665 -0.35434441690964041 0 0.023697561729227701 -0.3656138881417908 0 0.025431496553892478 -0.35168882095041942 0 0.03205896378917665 -0.35434441690964041 0 0.025431496553892478 -0.35168882095041942 0 -0.0096343958099064687 -0.34155580596031437 0 0.0099352179383349771 -0.36287309999936251 0 -0.0096343958099064687 -0.34155580596031437 0 0.0075807645751098419 -0.34453611388615663 0 0.0099352179383349771 -0.36287309999936251 0 0.025431496553892478 -0.35168882095041942 0 0.0075807645751098419 -0.34453611388615663 0 0.0099352179383349771 -0.36287309999936251 0 -0.002178803782163227 -0.37161627006544062 0 0.0122991559467155 -0.37891225603134221 0 0.0099352179383349771 -0.36287309999936251 0 -0.0070150904897389628 -0.35875101633193152 0 -0.002178803782163227 -0.37161627006544062 0 0.0099352179383349771 -0.36287309999936251 0 -0.002178803782163227 -0.37161627006544062 0 0.0099352179383349771 -0.36287309999936251 0 0.03015636661650286 -0.3225410253719756 0 0.019597666397256509 -0.30442398879943339 0 0.03015636661650286 -0.3225410253719756 0 0.014793392922354411 -0.31628120652474823 0 0.019597666397256509 -0.30442398879943339 0 0.03015636661650286 -0.3225410253719756 0 0.01453256369494863 -0.32953892791496292 0 0.014793392922354411 -0.31628120652474823 0 0.03015636661650286 -0.3225410253719756 0 0.02636863849756152 -0.33688388254537838 0 0.01453256369494863 -0.32953892791496292 0 0.0075807645751098419 -0.34453611388615663 0 0.02636863849756152 -0.33688388254537838 0 0.01453256369494863 -0.32953892791496292 0 0.04071506683574927 -0.34065806194451792 0 0.025431496553892478 -0.35168882095041942 0 0.02636863849756152 -0.33688388254537838 0 0.0075807645751098419 -0.34453611388615663 0 0.01453256369494863 -0.32953892791496292 0 0.0034794820758208261 -0.33361449123698089 0 -0.010269967403673339 -0.33738340682189533 0 0.0075807645751098419 -0.34453611388615663 0 0.0034794820758208261 -0.33361449123698089 0 0.01453256369494863 -0.32953892791496292 0 0.0034794820758208261 -0.33361449123698089 0 0.001904989571353899 -0.32214434476741449 0 0.001904989571353899 -0.32214434476741449 0 0.014793392922354411 -0.31628120652474823 0 0.0019518825097332619 -0.30029273945570772 0 0.01453256369494863 -0.32953892791496292 0 0.001904989571353899 -0.32214434476741449 0 0.014793392922354411 -0.31628120652474823 0 0.0019518825097332619 -0.30029273945570772 0 0.0090389661780101715 -0.28630695222689118 0 0.019597666397256509 -0.30442398879943339 0 0.014793392922354411 -0.31628120652474823 0 0.0019518825097332619 -0.30029273945570772 0 0.019597666397256509 -0.30442398879943339 0 -0.0020851015340006161 -0.28052611142458661 0 0.0019518825097332619 -0.30029273945570772 0 0.0090389661780101715 -0.28630695222689118 0 0.0090389661780101715 -0.28630695222689118 0 0.019597666397256509 -0.30442398879943339 0 0.0090389661780101715 -0.28630695222689118 0 0.019597666397256509 -0.30442398879943339 0 0.033821918158706138 -0.27707393290215671 0 0.03015636661650286 -0.3225410253719756 0 0.019597666397256509 -0.30442398879943339 0 0.034491627806478041 -0.30853974567073322 0 0.019597666397256509 -0.30442398879943339 0 0.034491627806478041 -0.30853974567073322 0 0.043330632548044458 -0.29475484461045087 0 0.044648526871603783 -0.31770081170742831 0 0.034491627806478041 -0.30853974567073322 0 0.043330632548044458 -0.29475484461045087 0 0.019597666397256509 -0.30442398879943339 0 0.043330632548044458 -0.29475484461045087 0 0.033821918158706138 -0.27707393290215671 0 0.043330632548044458 -0.29475484461045087 0 0.062049371387241412 -0.28749956346879602 0 0.033821918158706138 -0.27707393290215671 0 0.064064269807315097 -0.28416082313012542 0 0.058270312985904418 -0.30816514798469019 0 0.062049371387241412 -0.28749956346879602 0 0.033821918158706138 -0.27707393290215671 0 0.064064269807315097 -0.28416082313012542 0 0.062049371387241412 -0.28749956346879602 0 0.058270312985904418 -0.30816514798469019 0 0.043330632548044458 -0.29475484461045087 0 0.062049371387241412 -0.28749956346879602 0 0.058270312985904418 -0.30816514798469019 0 0.044648526871603783 -0.31770081170742831 0 0.043330632548044458 -0.29475484461045087 0 0.058270312985904418 -0.30816514798469019 0 0.069858226628725775 -0.26015649827556059 0 0.051624075113339378 -0.26919050519125598 0 0.046498349670861652 -0.24826912251879649 0 0.064064269807315097 -0.28416082313012542 0 0.069858226628725775 -0.26015649827556059 0 0.051624075113339378 -0.26919050519125598 0 0.062049371387241412 -0.28749956346879602 0 0.051624075113339378 -0.26919050519125598 0 0.033821918158706138 -0.27707393290215671 0 0.064064269807315097 -0.28416082313012542 0 0.062049371387241412 -0.28749956346879602 0 0.051624075113339378 -0.26919050519125598 0 0.051624075113339378 -0.26919050519125598 0 0.033821918158706138 -0.27707393290215671 0 0.034240698289148337 -0.25967273023798509 0 0.051624075113339378 -0.26919050519125598 0 0.034240698289148337 -0.25967273023798509 0 0.046498349670861652 -0.24826912251879649 0 0.034240698289148337 -0.25967273023798509 0 0.02296875629887114 -0.2464092256209898 0 0.046498349670861652 -0.24826912251879649 0 0.034240698289148337 -0.25967273023798509 0 0.0055944649301708496 -0.26664830233551728 0 0.02296875629887114 -0.2464092256209898 0 0.0090389661780101715 -0.28630695222689118 0 0.033821918158706138 -0.27707393290215671 0 0.0055944649301708496 -0.26664830233551728 0 0.033821918158706138 -0.27707393290215671 0 0.034240698289148337 -0.25967273023798509 0 0.0055944649301708496 -0.26664830233551728 0 0.033821918158706138 -0.27707393290215671 0 0.0055944649301708496 -0.26664830233551728 0 -0.0020851015340006161 -0.28052611142458661 0 0.0090389661780101715 -0.28630695222689118 0 0.0055944649301708496 -0.26664830233551728 0 0.0055944649301708496 -0.26664830233551728 0 0.0055632338660241776 -0.24332209518663511 0 0.02296875629887114 -0.2464092256209898 0 -0.0080727856436109482 -0.2481099565327444 0 0.0055944649301708496 -0.26664830233551728 0 0.0055632338660241776 -0.24332209518663511 0 0.0055632338660241776 -0.24332209518663511 0 0.0032521440618358652 -0.23009641691855939 0 0.019268989126464159 -0.2308348024940351 0 -0.0084819670471955304 -0.2367225590632196 0 0.0055632338660241776 -0.24332209518663511 0 0.0032521440618358652 -0.23009641691855939 0 -0.0075276580997289226 -0.21896018305478171 0 0.0032521440618358652 -0.23009641691855939 0 0.012041166441398349 -0.21677938876306921 0 0.0032521440618358652 -0.23009641691855939 0 0.019268989126464159 -0.2308348024940351 0 0.012041166441398349 -0.21677938876306921 0 0.019268989126464159 -0.2308348024940351 0 0.028464877365028059 -0.21915571909051779 0 0.012041166441398349 -0.21677938876306921 0 0.019268989126464159 -0.2308348024940351 0 0.028464877365028059 -0.21915571909051779 0 0.041174919052571327 -0.22964645066930789 0 0.0055632338660241776 -0.24332209518663511 0 0.019268989126464159 -0.2308348024940351 0 0.02296875629887114 -0.2464092256209898 0 0.019268989126464159 -0.2308348024940351 0 0.02296875629887114 -0.2464092256209898 0 0.041174919052571327 -0.22964645066930789 0 -0.0075276580997289226 -0.21896018305478171 0 0.003555539334036632 -0.19934620758084881 0 0.012041166441398349 -0.21677938876306921 0 0.003555539334036632 -0.19934620758084881 0 0.012041166441398349 -0.21677938876306921 0 0.02523310686075431 -0.20228300343967229 0 0.028464877365028059 -0.21915571909051779 0 0.012041166441398349 -0.21677938876306921 0 0.02523310686075431 -0.20228300343967229 0 0.02523310686075431 -0.20228300343967229 0 0.033125333554059701 -0.1865598477748947 0 0.018588522793563201 -0.18166153924030251 0 0.003555539334036632 -0.19934620758084881 0 0.02523310686075431 -0.20228300343967229 0 0.018588522793563201 -0.18166153924030251 0 0.048648578511840943 -0.20623258170594561 0 0.049880579816306267 -0.17970719815632741 0 0.033125333554059701 -0.1865598477748947 0 0.02523310686075431 -0.20228300343967229 0 0.048648578511840943 -0.20623258170594561 0 0.033125333554059701 -0.1865598477748947 0 0.028464877365028059 -0.21915571909051779 0 0.02523310686075431 -0.20228300343967229 0 0.048648578511840943 -0.20623258170594561 0 0.028464877365028059 -0.21915571909051779 0 0.048648578511840943 -0.20623258170594561 0 0.041174919052571327 -0.22964645066930789 0 0.048648578511840943 -0.20623258170594561 0 0.059757914812518881 -0.22869522271940709 0 0.066598585428591164 -0.21133354617687591 0 0.048648578511840943 -0.20623258170594561 0 0.067160325985138131 -0.18691533881804831 0 0.049880579816306267 -0.17970719815632741 0 0.048648578511840943 -0.20623258170594561 0 0.066598585428591164 -0.21133354617687591 0 0.067160325985138131 -0.18691533881804831 0 0.069858226628725775 -0.26015649827556059 0 0.046498349670861652 -0.24826912251879649 0 0.059757914812518881 -0.22869522271940709 0 0.02296875629887114 -0.2464092256209898 0 0.046498349670861652 -0.24826912251879649 0 0.041174919052571327 -0.22964645066930789 0 0.048648578511840943 -0.20623258170594561 0 0.041174919052571327 -0.22964645066930789 0 0.059757914812518881 -0.22869522271940709 0 0.046498349670861652 -0.24826912251879649 0 0.041174919052571327 -0.22964645066930789 0 0.059757914812518881 -0.22869522271940709 0 0.069858226628725775 -0.26015649827556059 0 0.059757914812518881 -0.22869522271940709 0 0.080941623453078815 -0.2334444244951252 0 0.069858226628725775 -0.26015649827556059 0 0.096521476943682558 -0.25181800011133371 0 0.080941623453078815 -0.2334444244951252 0 0.096521476943682558 -0.25181800011133371 0 0.080941623453078815 -0.2334444244951252 0 0.102389076685389 -0.22730157072293841 0 0.080941623453078815 -0.2334444244951252 0 0.084774701335263575 -0.20710845477049339 0 0.102389076685389 -0.22730157072293841 0 0.059757914812518881 -0.22869522271940709 0 0.080941623453078815 -0.2334444244951252 0 0.066598585428591164 -0.21133354617687591 0 0.080941623453078815 -0.2334444244951252 0 0.066598585428591164 -0.21133354617687591 0 0.084774701335263575 -0.20710845477049339 0 0.084774701335263575 -0.20710845477049339 0 0.067160325985138131 -0.18691533881804831 0 0.066598585428591164 -0.21133354617687591 0 0.084774701335263575 -0.20710845477049339 0 0.067160325985138131 -0.18691533881804831 0 0.092537347032927528 -0.18889969997864839 0 0.084774701335263575 -0.20710845477049339 0 0.067160325985138131 -0.18691533881804831 0 0.084774701335263575 -0.20710845477049339 0 0.102389076685389 -0.22730157072293841 0 0.084774701335263575 -0.20710845477049339 0 0.10575093398731179 -0.20517541990618701 0 0.102389076685389 -0.22730157072293841 0 0.092537347032927528 -0.18889969997864839 0 0.10575093398731179 -0.20517541990618701 0 0.11404320040195411 -0.17785048998131209 0 0.092537347032927528 -0.18889969997864839 0 0.084774701335263575 -0.20710845477049339 0 0.10575093398731179 -0.20517541990618701 0 0.10575093398731179 -0.20517541990618701 0 0.11404320040195411 -0.17785048998131209 0 0.12592289232087811 -0.19910656028939411 0 0.10575093398731179 -0.20517541990618701 0 0.1284413173888232 -0.22347585252773641 0 0.12592289232087811 -0.19910656028939411 0 0.10575093398731179 -0.20517541990618701 0 0.102389076685389 -0.22730157072293841 0 0.1284413173888232 -0.22347585252773641 0 0.1200034520355143 -0.24749468667538321 0 0.102389076685389 -0.22730157072293841 0 0.1284413173888232 -0.22347585252773641 0 0.1200034520355143 -0.24749468667538321 0 0.102389076685389 -0.22730157072293841 0 0.096521476943682558 -0.25181800011133371 0 0.1200034520355143 -0.24749468667538321 0 0.102389076685389 -0.22730157072293841 0 0.099885875260422058 -0.15149088269105351 0 0.1161887790728692 -0.1476769396888597 0 0.1105045846919957 -0.16013033574144619 0 0.099885875260422058 -0.15149088269105351 0 0.099597293261818404 -0.1347502866929414 0 0.1161887790728692 -0.1476769396888597 0 0.099597293261818404 -0.1347502866929414 0 0.1161887790728692 -0.1476769396888597 0 0.099597293261818404 -0.1347502866929414 0 0.1047785765018954 -0.13712350701568179 0 0.1161887790728692 -0.1476769396888597 0 0.099597293261818404 -0.1347502866929414 0 0.093527805260815264 -0.13002146576964491 0 0.104312872852085 -0.12243825994362539 0 0.099597293261818404 -0.1347502866929414 0 0.093527805260815264 -0.13002146576964491 0 0.099597293261818404 -0.1347502866929414 0 0.093527805260815264 -0.13002146576964491 0 0.092996203934319052 -0.1329056080468716 0 0.099597293261818404 -0.1347502866929414 0 0.1088944047617572 -0.13480079442927331 0 0.104312872852085 -0.12243825994362539 0 0.099597293261818404 -0.1347502866929414 0 0.1047785765018954 -0.13712350701568179 0 0.1088944047617572 -0.13480079442927331 0 0.099597293261818404 -0.1347502866929414 0 0.1088944047617572 -0.13480079442927331 0 0.1047785765018954 -0.13712350701568179 0 0.1088944047617572 -0.13480079442927331 0 0.1088944047617572 -0.13480079442927331 0 0.1161887790728692 -0.1476769396888597 0 0.13638976604354719 -0.13495016646355951 0 0.1088944047617572 -0.13480079442927331 0 0.12800820934211829 -0.12401417466047961 0 0.13638976604354719 -0.13495016646355951 0 0.1047785765018954 -0.13712350701568179 0 0.1088944047617572 -0.13480079442927331 0 0.1161887790728692 -0.1476769396888597 0 0.1088944047617572 -0.13480079442927331 0 0.104312872852085 -0.12243825994362539 0 0.12800820934211829 -0.12401417466047961 0 0.1088944047617572 -0.13480079442927331 0 0.12800820934211829 -0.12401417466047961 0 0.1088944047617572 -0.13480079442927331 0 0.13638976604354719 -0.13495016646355951 0 0.1161887790728692 -0.1476769396888597 0 0.1105045846919957 -0.16013033574144619 0 0.1305387904294309 -0.15561497697083931 0 0.1105045846919957 -0.16013033574144619 0 0.11404320040195411 -0.17785048998131209 0 0.1305387904294309 -0.15561497697083931 0 0.092537347032927528 -0.18889969997864839 0 0.11404320040195411 -0.17785048998131209 0 0.090957573454969964 -0.1674487964172009 0 0.1105045846919957 -0.16013033574144619 0 0.11404320040195411 -0.17785048998131209 0 0.090957573454969964 -0.1674487964172009 0 0.099885875260422058 -0.15149088269105351 0 0.1105045846919957 -0.16013033574144619 0 0.090957573454969964 -0.1674487964172009 0 0.099885875260422058 -0.15149088269105351 0 0.090957573454969964 -0.1674487964172009 0 0.080257725164813276 -0.1505404030764457 0 0.090957573454969964 -0.1674487964172009 0 0.065342325237630991 -0.1650228072456788 0 0.080257725164813276 -0.1505404030764457 0 0.092537347032927528 -0.18889969997864839 0 0.090957573454969964 -0.1674487964172009 0 0.067160325985138131 -0.18691533881804831 0 0.090957573454969964 -0.1674487964172009 0 0.067160325985138131 -0.18691533881804831 0 0.065342325237630991 -0.1650228072456788 0 0.065342325237630991 -0.1650228072456788 0 0.080257725164813276 -0.1505404030764457 0 0.056224073158944461 -0.14994265306170279 0 0.080257725164813276 -0.1505404030764457 0 0.069539210615093855 -0.1345869923500955 0 0.056224073158944461 -0.14994265306170279 0 0.099885875260422058 -0.15149088269105351 0 0.099597293261818404 -0.1347502866929414 0 0.080257725164813276 -0.1505404030764457 0 0.099597293261818404 -0.1347502866929414 0 0.080257725164813276 -0.1505404030764457 0 0.069539210615093855 -0.1345869923500955 0 0.099597293261818404 -0.1347502866929414 0 0.092996203934319052 -0.1329056080468716 0 0.069539210615093855 -0.1345869923500955 0 0.099597293261818404 -0.1347502866929414 0 0.069539210615093855 -0.1345869923500955 0 0.092996203934319052 -0.1329056080468716 0 0.069539210615093855 -0.1345869923500955 0 0.079322302472514483 -0.11895376470488229 0 0.093527805260815264 -0.13002146576964491 0 0.092996203934319052 -0.1329056080468716 0 0.079322302472514483 -0.11895376470488229 0 0.093527805260815264 -0.13002146576964491 0 0.092996203934319052 -0.1329056080468716 0 0.069539210615093855 -0.1345869923500955 0 0.052298963826290519 -0.1211548808236817 0 0.066569319149528045 -0.1206454253796948 0 0.069539210615093855 -0.1345869923500955 0 0.039481127968369292 -0.1344236980072451 0 0.052298963826290519 -0.1211548808236817 0 0.069539210615093855 -0.1345869923500955 0 0.056224073158944461 -0.14994265306170279 0 0.039481127968369292 -0.1344236980072451 0 0.069539210615093855 -0.1345869923500955 0 0.039481127968369292 -0.1344236980072451 0 0.056224073158944461 -0.14994265306170279 0 0.038811693183881758 -0.15444647348478721 0 0.047368807546727579 -0.16279517251764489 0 0.056224073158944461 -0.14994265306170279 0 0.038811693183881758 -0.15444647348478721 0 0.039481127968369292 -0.1344236980072451 0 0.038811693183881758 -0.15444647348478721 0 0.039481127968369292 -0.1344236980072451 0 0.019056913867763529 -0.155566515408149 0 0.034777770017858589 -0.1343981464191871 0 0.039481127968369292 -0.1344236980072451 0 0.022320289212787989 -0.1422177528203018 0 0.034777770017858589 -0.1343981464191871 0 0.039481127968369292 -0.1344236980072451 0 0.034777770017858589 -0.1343981464191871 0 0.029299678594365521 -0.12697140115214181 0 0.037800108132664212 -0.12348471533883321 0 0.034777770017858589 -0.1343981464191871 0 0.039481127968369292 -0.1344236980072451 0 0.037800108132664212 -0.12348471533883321 0 0.039481127968369292 -0.1344236980072451 0 0.052298963826290519 -0.1211548808236817 0 0.039481127968369292 -0.1344236980072451 0 0.052298963826290519 -0.1211548808236817 0 0.037800108132664212 -0.12348471533883321 0 0.067160325985138131 -0.18691533881804831 0 0.065342325237630991 -0.1650228072456788 0 0.049880579816306267 -0.17970719815632741 0 0.065342325237630991 -0.1650228072456788 0 0.049880579816306267 -0.17970719815632741 0 0.047368807546727579 -0.16279517251764489 0 0.065342325237630991 -0.1650228072456788 0 0.056224073158944461 -0.14994265306170279 0 0.047368807546727579 -0.16279517251764489 0 0.049880579816306267 -0.17970719815632741 0 0.047368807546727579 -0.16279517251764489 0 0.031927543377605602 -0.16950432842919569 0 0.038811693183881758 -0.15444647348478721 0 0.047368807546727579 -0.16279517251764489 0 0.031927543377605602 -0.16950432842919569 0 0.049880579816306267 -0.17970719815632741 0 0.031927543377605602 -0.16950432842919569 0 0.033125333554059701 -0.1865598477748947 0 0.031927543377605602 -0.16950432842919569 0 0.033125333554059701 -0.1865598477748947 0 0.018588522793563201 -0.18166153924030251 0 0.031927543377605602 -0.16950432842919569 0 0.018588522793563201 -0.18166153924030251 0 0.019056913867763529 -0.155566515408149 0 0.038811693183881758 -0.15444647348478721 0 0.031927543377605602 -0.16950432842919569 0 0.019056913867763529 -0.155566515408149 0 -0.0013673002328405961 -0.1767093328090546 0 0.018588522793563201 -0.18166153924030251 0 0.019056913867763529 -0.155566515408149 0 -0.0013673002328405961 -0.1767093328090546 0 0.019056913867763529 -0.155566515408149 0 -0.0013673002328405961 -0.1767093328090546 0 0.019056913867763529 -0.155566515408149 0 0.0027310736070901482 -0.15493719994590471 0 -0.0013673002328405961 -0.1767093328090546 0 0.003555539334036632 -0.19934620758084881 0 0.018588522793563201 -0.18166153924030251 0 0.020222670022858619 -0.12863691797839069 0 0.022320289212787989 -0.1422177528203018 0 0.0088678229424013627 -0.13941235935176011 0 0.020222670022858619 -0.12863691797839069 0 0.02665510196196769 -0.1330560545925053 0 0.022320289212787989 -0.1422177528203018 0 0.034777770017858589 -0.1343981464191871 0 0.029299678594365521 -0.12697140115214181 0 0.02665510196196769 -0.1330560545925053 0 0.020222670022858619 -0.12863691797839069 0 0.029299678594365521 -0.12697140115214181 0 0.02665510196196769 -0.1330560545925053 0 0.034777770017858589 -0.1343981464191871 0 0.02665510196196769 -0.1330560545925053 0 0.022320289212787989 -0.1422177528203018 0 0.039481127968369292 -0.1344236980072451 0 0.019056913867763529 -0.155566515408149 0 0.019056913867763529 -0.155566515408149 0 0.022320289212787989 -0.1422177528203018 0 0.0088678229424013627 -0.13941235935176011 0 0.039481127968369292 -0.1344236980072451 0 0.019056913867763529 -0.155566515408149 0 0.022320289212787989 -0.1422177528203018 0 0.019056913867763529 -0.155566515408149 0 0.0027310736070901482 -0.15493719994590471 0 0.0088678229424013627 -0.13941235935176011 0 0.020222670022858619 -0.12863691797839069 0 0.0088678229424013627 -0.13941235935176011 0 0.0015243557028834459 -0.11711868301268021 0 0.020222670022858619 -0.12863691797839069 0 0.0015243557028834459 -0.11711868301268021 0 0.0144479962461943 -0.1082343501681014 0 0.020222670022858619 -0.12863691797839069 0 0.02728947708542654 -0.1146689930447462 0 0.0144479962461943 -0.1082343501681014 0 0.020222670022858619 -0.12863691797839069 0 0.029299678594365521 -0.12697140115214181 0 0.02728947708542654 -0.1146689930447462 0 0.0144479962461943 -0.1082343501681014 0 0.01674231050701382 -0.093658367309864349 0 0.03170108987002046 -0.10050694789866579 0 0.02728947708542654 -0.1146689930447462 0 0.0144479962461943 -0.1082343501681014 0 0.03170108987002046 -0.10050694789866579 0 0.01674231050701382 -0.093658367309864349 0 0.02745527456064175 -0.089089442263575569 0 0.03170108987002046 -0.10050694789866579 0 0.0144479962461943 -0.1082343501681014 0 0.001856719827670471 -0.098182337095309047 0 0.01674231050701382 -0.093658367309864349 0 0.0015243557028834459 -0.11711868301268021 0 0.0144479962461943 -0.1082343501681014 0 0.001856719827670471 -0.098182337095309047 0 0.001856719827670471 -0.098182337095309047 0 0.0065051428120863272 -0.082127796022149757 0 0.01674231050701382 -0.093658367309864349 0 0.0065051428120863272 -0.082127796022149757 0 0.018539693253586439 -0.071597204448153262 0 0.01731060528333208 -0.084118202510935727 0 0.0065051428120863272 -0.082127796022149757 0 0.01674231050701382 -0.093658367309864349 0 0.01731060528333208 -0.084118202510935727 0 0.0065051428120863272 -0.082127796022149757 0 0.018539693253586439 -0.071597204448153262 0 0.00035237720396625368 -0.061086817302918282 0 0.018539693253586439 -0.071597204448153262 0 0.00035237720396625368 -0.061086817302918282 0 0.029337839486141829 -0.062098975348790997 0 0.018539693253586439 -0.071597204448153262 0 0.036998616429076953 -0.080413518666692163 0 0.029337839486141829 -0.062098975348790997 0 0.018539693253586439 -0.071597204448153262 0 0.039278739387756327 -0.087755278287702396 0 0.018539693253586439 -0.071597204448153262 0 0.02745527456064175 -0.089089442263575569 0 0.039278739387756327 -0.087755278287702396 0 0.018539693253586439 -0.071597204448153262 0 0.01731060528333208 -0.084118202510935727 0 0.02745527456064175 -0.089089442263575569 0 0.01674231050701382 -0.093658367309864349 0 0.01731060528333208 -0.084118202510935727 0 0.02745527456064175 -0.089089442263575569 0 0.018539693253586439 -0.071597204448153262 0 0.036998616429076953 -0.080413518666692163 0 0.039278739387756327 -0.087755278287702396 0 0.02745527456064175 -0.089089442263575569 0 0.039278739387756327 -0.087755278287702396 0 0.036114206476440321 -0.094502097047588079 0 0.036998616429076953 -0.080413518666692163 0 0.039278739387756327 -0.087755278287702396 0 0.050747139898636717 -0.081209848062237813 0 0.058323301768317432 -0.063111133394663815 0 0.029337839486141829 -0.062098975348790997 0 0.036998616429076953 -0.080413518666692163 0 0.058323301768317432 -0.063111133394663815 0 0.029337839486141829 -0.062098975348790997 0 0.036998616429076953 -0.080413518666692163 0 0.058323301768317432 -0.063111133394663815 0 0.058323301768317432 -0.063111133394663815 0 0.050747139898636717 -0.081209848062237813 0 0.060228637404373828 -0.081759239016750626 0 0.036998616429076953 -0.080413518666692163 0 0.058323301768317432 -0.063111133394663815 0 0.050747139898636717 -0.081209848062237813 0 0.039278739387756327 -0.087755278287702396 0 0.050747139898636717 -0.081209848062237813 0 0.060818353003097771 -0.090653503469919336 0 0.050747139898636717 -0.081209848062237813 0 0.060228637404373828 -0.081759239016750626 0 0.060818353003097771 -0.090653503469919336 0 0.060017785521926562 -0.10391335212725129 0 0.042153090511964017 -0.099193769589441219 0 0.043653631303676513 -0.1092911725859987 0 0.060017785521926562 -0.10391335212725129 0 0.043653631303676513 -0.1092911725859987 0 0.039278739387756327 -0.087755278287702396 0 0.060818353003097771 -0.090653503469919336 0 0.060017785521926562 -0.10391335212725129 0 0.060017785521926562 -0.10391335212725129 0 0.053375718786791107 -0.1112883554404277 0 0.043653631303676513 -0.1092911725859987 0 0.039278739387756327 -0.087755278287702396 0 0.060017785521926562 -0.10391335212725129 0 0.039278739387756327 -0.087755278287702396 0 0.060017785521926562 -0.10391335212725129 0 0.042153090511964017 -0.099193769589441219 0 0.060017785521926562 -0.10391335212725129 0 0.053375718786791107 -0.1112883554404277 0 0.065116799684213397 -0.10788606364011991 0 0.052298963826290519 -0.1211548808236817 0 0.066569319149528045 -0.1206454253796948 0 0.065116799684213397 -0.10788606364011991 0 0.052298963826290519 -0.1211548808236817 0 0.065116799684213397 -0.10788606364011991 0 0.052298963826290519 -0.1211548808236817 0 0.053375718786791107 -0.1112883554404277 0 0.065116799684213397 -0.10788606364011991 0 0.052298963826290519 -0.1211548808236817 0 0.053375718786791107 -0.1112883554404277 0 0.043653631303676513 -0.1092911725859987 0 0.02728947708542654 -0.1146689930447462 0 0.037800108132664212 -0.12348471533883321 0 0.043653631303676513 -0.1092911725859987 0 0.02728947708542654 -0.1146689930447462 0 0.043653631303676513 -0.1092911725859987 0 0.052298963826290519 -0.1211548808236817 0 0.037800108132664212 -0.12348471533883321 0 0.043653631303676513 -0.1092911725859987 0 0.029299678594365521 -0.12697140115214181 0 0.02728947708542654 -0.1146689930447462 0 0.037800108132664212 -0.12348471533883321 0 0.02728947708542654 -0.1146689930447462 0 0.03170108987002046 -0.10050694789866579 0 0.043653631303676513 -0.1092911725859987 0 0.036114206476440321 -0.094502097047588079 0 0.03170108987002046 -0.10050694789866579 0 0.042153090511964017 -0.099193769589441219 0 0.02745527456064175 -0.089089442263575569 0 0.036114206476440321 -0.094502097047588079 0 0.03170108987002046 -0.10050694789866579 0 0.039278739387756327 -0.087755278287702396 0 0.036114206476440321 -0.094502097047588079 0 0.042153090511964017 -0.099193769589441219 0 0.03170108987002046 -0.10050694789866579 0 0.042153090511964017 -0.099193769589441219 0 0.043653631303676513 -0.1092911725859987 0 0.025695344612614111 0.0095801541182225364 0 0.02812452509478746 -0.0099579005571815878 0 0.006935528729737548 -0.0054826371559186567 0 0.02812452509478746 -0.0099579005571815878 0 0.006935528729737548 -0.0054826371559186567 0 0.01889941714368459 -0.025130787452367569 0 0.006935528729737548 -0.0054826371559186567 0 0.0027408304473846411 -0.028176541972939319 0 0.01889941714368459 -0.025130787452367569 0 0.02812452509478746 -0.0099579005571815878 0 0.01889941714368459 -0.025130787452367569 0 0.035567370731091272 -0.02454493013615917 0 0.01889941714368459 -0.025130787452367569 0 0.02846567832778216 -0.042756626880165419 0 0.035567370731091272 -0.02454493013615917 0 0.01889941714368459 -0.025130787452367569 0 0.02846567832778216 -0.042756626880165419 0 0.0096258971738255473 -0.043108802377643002 0 0.02846567832778216 -0.042756626880165419 0 0.0096258971738255473 -0.043108802377643002 0 0.016945448047928951 -0.052262805477379423 0 0.01889941714368459 -0.025130787452367569 0 0.0096258971738255473 -0.043108802377643002 0 -0.01026660782967455 -0.041229232136501717 0 0.0027408304473846411 -0.028176541972939319 0 0.0096258971738255473 -0.043108802377643002 0 0.0027408304473846411 -0.028176541972939319 0 0.01889941714368459 -0.025130787452367569 0 0.0096258971738255473 -0.043108802377643002 0 0.0096258971738255473 -0.043108802377643002 0 0.00035237720396625368 -0.061086817302918282 0 0.016945448047928951 -0.052262805477379423 0 0.00035237720396625368 -0.061086817302918282 0 0.016945448047928951 -0.052262805477379423 0 0.029337839486141829 -0.062098975348790997 0 0.0096258971738255473 -0.043108802377643002 0 0.00035237720396625368 -0.061086817302918282 0 0.00035237720396625368 -0.061086817302918282 0 0.029337839486141829 -0.062098975348790997 0 0.02846567832778216 -0.042756626880165419 0 0.016945448047928951 -0.052262805477379423 0 0.029337839486141829 -0.062098975348790997 0 0.02846567832778216 -0.042756626880165419 0 0.029337839486141829 -0.062098975348790997 0 0.044041605111135473 -0.049431168693685697 0 0.058323301768317432 -0.063111133394663815 0 0.029337839486141829 -0.062098975348790997 0 0.044041605111135473 -0.049431168693685697 0 0.058323301768317432 -0.063111133394663815 0 0.044041605111135473 -0.049431168693685697 0 0.059903341899081253 -0.040049795258846832 0 0.059903341899081253 -0.040049795258846832 0 0.045154502468205723 -0.035444412579530127 0 0.052999286202529479 -0.022291816621987929 0 0.044041605111135473 -0.049431168693685697 0 0.059903341899081253 -0.040049795258846832 0 0.045154502468205723 -0.035444412579530127 0 0.02846567832778216 -0.042756626880165419 0 0.044041605111135473 -0.049431168693685697 0 0.045154502468205723 -0.035444412579530127 0 0.02846567832778216 -0.042756626880165419 0 0.045154502468205723 -0.035444412579530127 0 0.035567370731091272 -0.02454493013615917 0 0.045154502468205723 -0.035444412579530127 0 0.035567370731091272 -0.02454493013615917 0 0.052999286202529479 -0.022291816621987929 0 0.035567370731091272 -0.02454493013615917 0 0.052999286202529479 -0.022291816621987929 0 0.04138045704507981 -0.013293391242584921 0 0.02812452509478746 -0.0099579005571815878 0 0.035567370731091272 -0.02454493013615917 0 0.04138045704507981 -0.013293391242584921 0 0.059903341899081253 -0.040049795258846832 0 0.052999286202529479 -0.022291816621987929 0 0.073093181043766914 -0.026775388104941698 0 0.052999286202529479 -0.022291816621987929 0 0.049896637954744763 -0.0073960790217490677 0 0.04138045704507981 -0.013293391242584921 0 0.052999286202529479 -0.022291816621987929 0 0.049896637954744763 -0.0073960790217490677 0 0.066530330394949447 -0.012320269852860621 0 0.049896637954744763 -0.0073960790217490677 0 0.040314465242246092 -0.002276229875846851 0 0.04138045704507981 -0.013293391242584921 0 0.025695344612614111 0.0095801541182225364 0 0.02812452509478746 -0.0099579005571815878 0 0.040314465242246092 -0.002276229875846851 0 0.046640351189982193 0.001482106492276504 0 0.049896637954744763 -0.0073960790217490677 0 0.040314465242246092 -0.002276229875846851 0 0.02812452509478746 -0.0099579005571815878 0 0.040314465242246092 -0.002276229875846851 0 0.04138045704507981 -0.013293391242584921 0 0.075461568133428525 0.0044331687040122013 0 0.081703970602104437 -0.011974759962048749 0 0.098011391193308373 -0.0056982583262641584 0 0.075461568133428525 0.0044331687040122013 0 0.049896637954744763 -0.0073960790217490677 0 0.075461568133428525 0.0044331687040122013 0 0.049896637954744763 -0.0073960790217490677 0 0.066530330394949447 -0.012320269852860621 0 0.075461568133428525 0.0044331687040122013 0 0.081703970602104437 -0.011974759962048749 0 0.066530330394949447 -0.012320269852860621 0 0.081703970602104437 -0.011974759962048749 0 0.066530330394949447 -0.012320269852860621 0 0.073093181043766914 -0.026775388104941698 0 0.052999286202529479 -0.022291816621987929 0 0.066530330394949447 -0.012320269852860621 0 0.073093181043766914 -0.026775388104941698 0 0.081703970602104437 -0.011974759962048749 0 0.097837743661838034 -0.031049975793767819 0 0.098011391193308373 -0.0056982583262641584 0 0.081703970602104437 -0.011974759962048749 0 0.073093181043766914 -0.026775388104941698 0 0.097837743661838034 -0.031049975793767819 0 0.078080522715077566 -0.047080554594215653 0 0.097861902682226248 -0.045151270938537998 0 0.097837743661838034 -0.031049975793767819 0 0.073093181043766914 -0.026775388104941698 0 0.078080522715077566 -0.047080554594215653 0 0.097837743661838034 -0.031049975793767819 0 0.078080522715077566 -0.047080554594215653 0 0.097837743661838034 -0.031049975793767819 0 0.059903341899081253 -0.040049795258846832 0 0.073093181043766914 -0.026775388104941698 0 0.078080522715077566 -0.047080554594215653 0 0.058323301768317432 -0.063111133394663815 0 0.078080522715077566 -0.047080554594215653 0 0.058323301768317432 -0.063111133394663815 0 0.059903341899081253 -0.040049795258846832 0 0.078080522715077566 -0.047080554594215653 0 0.058323301768317432 -0.063111133394663815 0 0.078080522715077566 -0.047080554594215653 0 0.081939961595450139 -0.063935815506958552 0 0.078080522715077566 -0.047080554594215653 0 0.094142039140793971 -0.055881476276546937 0 0.081939961595450139 -0.063935815506958552 0 0.078080522715077566 -0.047080554594215653 0 0.094142039140793971 -0.055881476276546937 0 0.097861902682226248 -0.045151270938537998 0 0.094142039140793971 -0.055881476276546937 0 0.081939961595450139 -0.063935815506958552 0 0.1067368008806147 -0.064801708903802782 0 0.094142039140793971 -0.055881476276546937 0 0.1075629424949773 -0.053875431803618333 0 0.097861902682226248 -0.045151270938537998 0 0.094142039140793971 -0.055881476276546937 0 0.1075629424949773 -0.053875431803618333 0 0.1067368008806147 -0.064801708903802782 0 0.1075629424949773 -0.053875431803618333 0 0.1067368008806147 -0.064801708903802782 0 0.1075629424949773 -0.053875431803618333 0 0.1232921759667842 -0.047663851323270827 0 0.1067368008806147 -0.064801708903802782 0 0.1232921759667842 -0.047663851323270827 0 0.1067368008806147 -0.064801708903802782 0 0.1075629424949773 -0.053875431803618333 0 0.1232921759667842 -0.047663851323270827 0 0.1109518143893137 -0.039435966374661548 0 0.1232921759667842 -0.047663851323270827 0 0.1067368008806147 -0.064801708903802782 0 0.13548767730717889 -0.06580567532731052 0 0.1232921759667842 -0.047663851323270827 0 0.1109518143893137 -0.039435966374661548 0 0.124582941869709 -0.030507807285028901 0 0.1109518143893137 -0.039435966374661548 0 0.097861902682226248 -0.045151270938537998 0 0.097837743661838034 -0.031049975793767819 0 0.1075629424949773 -0.053875431803618333 0 0.1109518143893137 -0.039435966374661548 0 0.097861902682226248 -0.045151270938537998 0 0.097837743661838034 -0.031049975793767819 0 0.1175949646085984 -0.015019396993320021 0 0.097837743661838034 -0.031049975793767819 0 0.1175949646085984 -0.015019396993320021 0 0.098011391193308373 -0.0056982583262641584 0 0.1109518143893137 -0.039435966374661548 0 0.097837743661838034 -0.031049975793767819 0 0.1175949646085984 -0.015019396993320021 0 0.1109518143893137 -0.039435966374661548 0 0.124582941869709 -0.030507807285028901 0 0.1175949646085984 -0.015019396993320021 0 0.124582941869709 -0.030507807285028901 0 0.1175949646085984 -0.015019396993320021 0 0.13165260102391191 -0.019660205177744808 0 0.11882011836095251 0.0065886106746579649 0 0.1175949646085984 -0.015019396993320021 0 0.098011391193308373 -0.0056982583262641584 0 0.11882011836095251 0.0065886106746579649 0 0.13735218555535891 0.001011181807127467 0 0.1175949646085984 -0.015019396993320021 0 0.073111172643960082 -0.099610417542301155 0 0.10058413041743761 -0.090581864498492995 0 0.088608598291174498 -0.101420796185217 0 0.073111172643960082 -0.099610417542301155 0 0.10058413041743761 -0.090581864498492995 0 0.083297568291202648 -0.10670285905343881 0 0.088608598291174498 -0.101420796185217 0 0.073111172643960082 -0.099610417542301155 0 0.083297568291202648 -0.10670285905343881 0 0.088608598291174498 -0.101420796185217 0 0.097441521812097198 -0.10878804364663471 0 0.093527805260815264 -0.13002146576964491 0 0.079322302472514483 -0.11895376470488229 0 0.097441521812097198 -0.10878804364663471 0 0.083297568291202648 -0.10670285905343881 0 0.079322302472514483 -0.11895376470488229 0 0.097441521812097198 -0.10878804364663471 0 0.093527805260815264 -0.13002146576964491 0 0.079322302472514483 -0.11895376470488229 0 0.079322302472514483 -0.11895376470488229 0 0.065116799684213397 -0.10788606364011991 0 0.083297568291202648 -0.10670285905343881 0 0.079322302472514483 -0.11895376470488229 0 0.065116799684213397 -0.10788606364011991 0 0.079322302472514483 -0.11895376470488229 0 0.066569319149528045 -0.1206454253796948 0 0.065116799684213397 -0.10788606364011991 0 0.069539210615093855 -0.1345869923500955 0 0.079322302472514483 -0.11895376470488229 0 0.066569319149528045 -0.1206454253796948 0 0.060017785521926562 -0.10391335212725129 0 0.065116799684213397 -0.10788606364011991 0 0.060017785521926562 -0.10391335212725129 0 0.073111172643960082 -0.099610417542301155 0 0.065116799684213397 -0.10788606364011991 0 0.073111172643960082 -0.099610417542301155 0 0.083297568291202648 -0.10670285905343881 0 0.065116799684213397 -0.10788606364011991 0 0.073111172643960082 -0.099610417542301155 0 0.060017785521926562 -0.10391335212725129 0 0.065116799684213397 -0.10788606364011991 0 0.073111172643960082 -0.099610417542301155 0 0.060818353003097771 -0.090653503469919336 0 0.060017785521926562 -0.10391335212725129 0 0.073111172643960082 -0.099610417542301155 0 0.060818353003097771 -0.090653503469919336 0 0.073111172643960082 -0.099610417542301155 0 0.074211161232423301 -0.082716200610011378 0 0.060228637404373828 -0.081759239016750626 0 0.060818353003097771 -0.090653503469919336 0 0.074211161232423301 -0.082716200610011378 0 0.058323301768317432 -0.063111133394663815 0 0.081939961595450139 -0.063935815506958552 0 0.058323301768317432 -0.063111133394663815 0 0.074211161232423301 -0.082716200610011378 0 0.081939961595450139 -0.063935815506958552 0 0.058323301768317432 -0.063111133394663815 0 0.060228637404373828 -0.081759239016750626 0 0.074211161232423301 -0.082716200610011378 0 0.074211161232423301 -0.082716200610011378 0 0.081939961595450139 -0.063935815506958552 0 0.089190063779311518 -0.082965808471458069 0 0.081939961595450139 -0.063935815506958552 0 0.089190063779311518 -0.082965808471458069 0 0.1052689549146623 -0.0663211994006144 0 0.073111172643960082 -0.099610417542301155 0 0.074211161232423301 -0.082716200610011378 0 0.089190063779311518 -0.082965808471458069 0 0.073111172643960082 -0.099610417542301155 0 0.089190063779311518 -0.082965808471458069 0 0.073111172643960082 -0.099610417542301155 0 0.089190063779311518 -0.082965808471458069 0 0.10058413041743761 -0.090581864498492995 0 0.089190063779311518 -0.082965808471458069 0 0.1017080788123951 -0.087804556385465471 0 0.1052689549146623 -0.0663211994006144 0 0.089190063779311518 -0.082965808471458069 0 0.10058413041743761 -0.090581864498492995 0 0.1017080788123951 -0.087804556385465471 0 0.1017080788123951 -0.087804556385465471 0 0.1084674426683357 -0.077888137089068013 0 0.1052689549146623 -0.0663211994006144 0 0.089190063779311518 -0.082965808471458069 0 0.1052689549146623 -0.0663211994006144 0 0.081939961595450139 -0.063935815506958552 0 0.1067368008806147 -0.064801708903802782 0 0.1052689549146623 -0.0663211994006144 0 0.081939961595450139 -0.063935815506958552 0 0.1067368008806147 -0.064801708903802782 0 0.1017080788123951 -0.087804556385465471 0 0.1052689549146623 -0.0663211994006144 0 0.1084674426683357 -0.077888137089068013 0 0.1067368008806147 -0.064801708903802782 0 0.1052689549146623 -0.0663211994006144 0 0.1067368008806147 -0.064801708903802782 0 0.1052689549146623 -0.0663211994006144 0 0.1067368008806147 -0.064801708903802782 0 0.13548767730717889 -0.06580567532731052 0 0.1084674426683357 -0.077888137089068013 0 0.1067368008806147 -0.064801708903802782 0 0.1232061248222129 -0.075206297362028066 0 0.1067368008806147 -0.064801708903802782 0 0.1232061248222129 -0.075206297362028066 0 0.13548767730717889 -0.06580567532731052 0 0.1017080788123951 -0.087804556385465471 0 0.1084674426683357 -0.077888137089068013 0 0.1272797878356694 -0.088593758706814907 0 0.1017080788123951 -0.087804556385465471 0 0.1272797878356694 -0.088593758706814907 0 0.1084674426683357 -0.077888137089068013 0 0.1232061248222129 -0.075206297362028066 0 0.1272797878356694 -0.088593758706814907 0 0.1017080788123951 -0.087804556385465471 0 0.11567178204704499 -0.10568275569041199 0 0.1272797878356694 -0.088593758706814907 0 0.1017080788123951 -0.087804556385465471 0 0.11567178204704499 -0.10568275569041199 0 0.097441521812097198 -0.10878804364663471 0 0.1017080788123951 -0.087804556385465471 0 0.097441521812097198 -0.10878804364663471 0 0.088608598291174498 -0.101420796185217 0 0.10058413041743761 -0.090581864498492995 0 0.097441521812097198 -0.10878804364663471 0 0.10058413041743761 -0.090581864498492995 0 0.1017080788123951 -0.087804556385465471 0 0.097441521812097198 -0.10878804364663471 0 0.093527805260815264 -0.13002146576964491 0 0.097441521812097198 -0.10878804364663471 0 0.104312872852085 -0.12243825994362539 0 0.093527805260815264 -0.13002146576964491 0 0.097441521812097198 -0.10878804364663471 0 0.11567178204704499 -0.10568275569041199 0 0.097441521812097198 -0.10878804364663471 0 0.104312872852085 -0.12243825994362539 0 0.11567178204704499 -0.10568275569041199 0 0.104312872852085 -0.12243825994362539 0 0.12800820934211829 -0.12401417466047961 0 0.12800820934211829 -0.12401417466047961 0 0.14712201392247631 -0.1132275548916801 0 0.13655559816636781 -0.1031347463460832 0 0.12800820934211829 -0.12401417466047961 0 0.14712201392247631 -0.1132275548916801 0 0.11567178204704499 -0.10568275569041199 0 0.12800820934211829 -0.12401417466047961 0 0.13655559816636781 -0.1031347463460832 0 0.12800820934211829 -0.12401417466047961 0 0.14712201392247631 -0.1132275548916801 0 0.1486045981545247 -0.12747252536747111 0 0.14712201392247631 -0.1132275548916801 0 0.16095359288685571 -0.1184472051676727 0 0.1486045981545247 -0.12747252536747111 0 0.15146120268426411 -0.099532086410862586 0 0.13655559816636781 -0.1031347463460832 0 0.1528514968589437 -0.089382961028164357 0 0.14712201392247631 -0.1132275548916801 0 0.15146120268426411 -0.099532086410862586 0 0.16623581850283431 -0.10244093512288061 0 0.14712201392247631 -0.1132275548916801 0 0.15146120268426411 -0.099532086410862586 0 0.13655559816636781 -0.1031347463460832 0 0.11567178204704499 -0.10568275569041199 0 0.13655559816636781 -0.1031347463460832 0 0.1272797878356694 -0.088593758706814907 0 0.1272797878356694 -0.088593758706814907 0 0.13805891541926751 -0.078942206783145619 0 0.1528514968589437 -0.089382961028164357 0 0.1272797878356694 -0.088593758706814907 0 0.1528514968589437 -0.089382961028164357 0 0.13655559816636781 -0.1031347463460832 0 0.1272797878356694 -0.088593758706814907 0 0.1528514968589437 -0.089382961028164357 0 0.1232061248222129 -0.075206297362028066 0 0.1272797878356694 -0.088593758706814907 0 0.13805891541926751 -0.078942206783145619 0 0.1232061248222129 -0.075206297362028066 0 0.13805891541926751 -0.078942206783145619 0 0.13548767730717889 -0.06580567532731052 0 0.13548767730717889 -0.06580567532731052 0 0.16423855373374319 -0.066809641750814969 0 0.13548767730717889 -0.06580567532731052 0 0.1516507619880918 -0.076739651506421189 0 0.16423855373374319 -0.066809641750814969 0 0.13548767730717889 -0.06580567532731052 0 0.16423855373374319 -0.066809641750814969 0 0.16004124225532049 -0.061841453839887157 0 0.13805891541926751 -0.078942206783145619 0 0.13548767730717889 -0.06580567532731052 0 0.1516507619880918 -0.076739651506421189 0 0.13805891541926751 -0.078942206783145619 0 0.1516507619880918 -0.076739651506421189 0 0.1528514968589437 -0.089382961028164357 0 0.15146120268426411 -0.099532086410862586 0 0.1528514968589437 -0.089382961028164357 0 0.15581646250916109 -0.090151240212135456 0 0.1528514968589437 -0.089382961028164357 0 0.15581646250916109 -0.090151240212135456 0 0.17842320588221819 -0.090172163349513806 0 0.1528514968589437 -0.089382961028164357 0 0.17842320588221819 -0.090172163349513806 0 0.15581646250916109 -0.090151240212135456 0 0.16859491992305889 -0.093070393687126218 0 0.17842320588221819 -0.090172163349513806 0 0.1528514968589437 -0.089382961028164357 0 0.1653897445003264 -0.079862578323319361 0 0.17842320588221819 -0.090172163349513806 0 0.1516507619880918 -0.076739651506421189 0 0.1528514968589437 -0.089382961028164357 0 0.1653897445003264 -0.079862578323319361 0 0.1516507619880918 -0.076739651506421189 0 0.1653897445003264 -0.079862578323319361 0 0.16423855373374319 -0.066809641750814969 0 0.1653897445003264 -0.079862578323319361 0 0.16423855373374319 -0.066809641750814969 0 0.17833356117891219 -0.077628002067558224 0 0.16423855373374319 -0.066809641750814969 0 0.1727598808088672 -0.056322389892066158 0 0.1929894301603077 -0.067813608174319001 0 0.16423855373374319 -0.066809641750814969 0 0.1929894301603077 -0.067813608174319001 0 0.16423855373374319 -0.066809641750814969 0 0.17833356117891219 -0.077628002067558224 0 0.1929894301603077 -0.067813608174319001 0 0.17833356117891219 -0.077628002067558224 0 0.19040307974074269 -0.080139672987034255 0 0.1929894301603077 -0.067813608174319001 0 0.16859491992305889 -0.093070393687126218 0 0.17842320588221819 -0.090172163349513806 0 0.17335524666804841 -0.094081054567607611 0 0.17842320588221819 -0.090172163349513806 0 0.17824607109877541 -0.095663109832525739 0 0.17335524666804841 -0.094081054567607611 0 0.1653897445003264 -0.079862578323319361 0 0.17833356117891219 -0.077628002067558224 0 0.17842320588221819 -0.090172163349513806 0 0.17833356117891219 -0.077628002067558224 0 0.1854866420256687 -0.084161575248007242 0 0.19040307974074269 -0.080139672987034255 0 0.17833356117891219 -0.077628002067558224 0 0.17842320588221819 -0.090172163349513806 0 0.1854866420256687 -0.084161575248007242 0 0.18404025852736719 -0.096743595743047278 0 0.18504385230606449 -0.10434071571553651 0 0.19243594079672521 -0.096163448387799222 0 0.17824607109877541 -0.095663109832525739 0 0.18504385230606449 -0.10434071571553651 0 0.16623581850283431 -0.10244093512288061 0 0.18504385230606449 -0.10434071571553651 0 0.18014950107347269 -0.1188522098678762 0 0.16623581850283431 -0.10244093512288061 0 0.18404025852736719 -0.096743595743047278 0 0.17824607109877541 -0.095663109832525739 0 0.18504385230606449 -0.10434071571553651 0 0.17842320588221819 -0.090172163349513806 0 0.18404025852736719 -0.096743595743047278 0 0.19243594079672521 -0.096163448387799222 0 0.17842320588221819 -0.090172163349513806 0 0.18404025852736719 -0.096743595743047278 0 0.17824607109877541 -0.095663109832525739 0 0.17824607109877541 -0.095663109832525739 0 0.17335524666804841 -0.094081054567607611 0 0.16623581850283431 -0.10244093512288061 0 0.17824607109877541 -0.095663109832525739 0 0.16623581850283431 -0.10244093512288061 0 0.18504385230606449 -0.10434071571553651 0 0.18014950107347269 -0.1188522098678762 0 0.1922879604253335 -0.1099500278873989 0 0.18014950107347269 -0.1188522098678762 0 0.16623581850283431 -0.10244093512288061 0 0.18014950107347269 -0.1188522098678762 0 0.16095359288685571 -0.1184472051676727 0 0.16623581850283431 -0.10244093512288061 0 0.14712201392247631 -0.1132275548916801 0 0.16095359288685571 -0.1184472051676727 0 0.16623581850283431 -0.10244093512288061 0 0.18014950107347269 -0.1188522098678762 0 0.16095359288685571 -0.1184472051676727 0 0.16265603278097029 -0.1302428005884553 0 0.14712201392247631 -0.1132275548916801 0 0.16623581850283431 -0.10244093512288061 0 0.15581646250916109 -0.090151240212135456 0 0.16859491992305889 -0.093070393687126218 0 0.16623581850283431 -0.10244093512288061 0 0.15146120268426411 -0.099532086410862586 0 0.15581646250916109 -0.090151240212135456 0 0.16623581850283431 -0.10244093512288061 0 0.15581646250916109 -0.090151240212135456 0 0.16623581850283431 -0.10244093512288061 0 0.16859491992305889 -0.093070393687126218 0 0.17335524666804841 -0.094081054567607611 0 0.16623581850283431 -0.10244093512288061 0 0.13735218555535891 0.001011181807127467 0 0.1449152044553462 -0.019939696741877431 0 0.14216046477152491 0.0049125148476896544 0 0.15727218843160701 -0.01758578836774349 0 0.15849764294065671 -0.0060544572746906826 0 0.14216046477152491 0.0049125148476896544 0 0.15727218843160701 -0.01758578836774349 0 0.14216046477152491 0.0049125148476896544 0 0.1449152044553462 -0.019939696741877431 0 0.15727218843160701 -0.01758578836774349 0 0.14216046477152491 0.0049125148476896544 0 0.13735218555535891 0.001011181807127467 0 0.1449152044553462 -0.019939696741877431 0 0.13735218555535891 0.001011181807127467 0 0.1175949646085984 -0.015019396993320021 0 0.13735218555535891 0.001011181807127467 0 0.1175949646085984 -0.015019396993320021 0 0.13165260102391191 -0.019660205177744808 0 0.13735218555535891 0.001011181807127467 0 0.13165260102391191 -0.019660205177744808 0 0.1449152044553462 -0.019939696741877431 0 0.13165260102391191 -0.019660205177744808 0 0.13984755105295521 -0.030525993742740402 0 0.1449152044553462 -0.019939696741877431 0 0.124582941869709 -0.030507807285028901 0 0.13165260102391191 -0.019660205177744808 0 0.13984755105295521 -0.030525993742740402 0 0.1449152044553462 -0.019939696741877431 0 0.15247822335533329 -0.040890575290882317 0 0.15727218843160701 -0.01758578836774349 0 0.13984755105295521 -0.030525993742740402 0 0.1449152044553462 -0.019939696741877431 0 0.15247822335533329 -0.040890575290882317 0 0.1449152044553462 -0.019939696741877431 0 0.15247822335533329 -0.040890575290882317 0 0.15247822335533329 -0.040890575290882317 0 0.1379109625223634 -0.045605004272587249 0 0.14629243763992239 -0.054068479542427092 0 0.13984755105295521 -0.030525993742740402 0 0.15247822335533329 -0.040890575290882317 0 0.1379109625223634 -0.045605004272587249 0 0.1232921759667842 -0.047663851323270827 0 0.13984755105295521 -0.030525993742740402 0 0.1379109625223634 -0.045605004272587249 0 0.1232921759667842 -0.047663851323270827 0 0.124582941869709 -0.030507807285028901 0 0.13984755105295521 -0.030525993742740402 0 0.1232921759667842 -0.047663851323270827 0 0.13984755105295521 -0.030525993742740402 0 0.1232921759667842 -0.047663851323270827 0 0.13548767730717889 -0.06580567532731052 0 0.1379109625223634 -0.045605004272587249 0 0.13548767730717889 -0.06580567532731052 0 0.1379109625223634 -0.045605004272587249 0 0.14629243763992239 -0.054068479542427092 0 0.13548767730717889 -0.06580567532731052 0 0.14629243763992239 -0.054068479542427092 0 0.16004124225532049 -0.061841453839887157 0 0.15247822335533329 -0.040890575290882317 0 0.14629243763992239 -0.054068479542427092 0 0.16004124225532049 -0.061841453839887157 0 0.15247822335533329 -0.040890575290882317 0 0.16004124225532049 -0.061841453839887157 0 0.1644158146278025 -0.049784627651503079 0 0.1644158146278025 -0.049784627651503079 0 0.1727598808088672 -0.056322389892066158 0 0.1723839120916891 -0.040084091583176683 0 0.15247822335533329 -0.040890575290882317 0 0.16004124225532049 -0.061841453839887157 0 0.16423855373374319 -0.066809641750814969 0 0.16004124225532049 -0.061841453839887157 0 0.1727598808088672 -0.056322389892066158 0 0.16004124225532049 -0.061841453839887157 0 0.1644158146278025 -0.049784627651503079 0 0.1727598808088672 -0.056322389892066158 0 0.1727598808088672 -0.056322389892066158 0 0.18434240851125541 -0.050289724698312777 0 0.1723839120916891 -0.040084091583176683 0 0.1727598808088672 -0.056322389892066158 0 0.18434240851125541 -0.050289724698312777 0 0.1929894301603077 -0.067813608174319001 0 0.1723839120916891 -0.040084091583176683 0 0.18077822909658589 -0.032018797610549231 0 0.17598651952492231 -0.0227560541305885 0 0.18434240851125541 -0.050289724698312777 0 0.1723839120916891 -0.040084091583176683 0 0.18674227588606429 -0.037749552466939278 0 0.1723839120916891 -0.040084091583176683 0 0.18674227588606429 -0.037749552466939278 0 0.18077822909658589 -0.032018797610549231 0 0.18674227588606429 -0.037749552466939278 0 0.18077822909658589 -0.032018797610549231 0 0.18610830639217099 -0.030062433202775862 0 0.15247822335533329 -0.040890575290882317 0 0.1723839120916891 -0.040084091583176683 0 0.15727218843160701 -0.01758578836774349 0 0.15247822335533329 -0.040890575290882317 0 0.1644158146278025 -0.049784627651503079 0 0.1723839120916891 -0.040084091583176683 0 0.1723839120916891 -0.040084091583176683 0 0.15727218843160701 -0.01758578836774349 0 0.1723839120916891 -0.040084091583176683 0 0.1668946229318731 -0.019675061199070819 0 0.17598651952492231 -0.0227560541305885 0 0.1723839120916891 -0.040084091583176683 0 0.15727218843160701 -0.01758578836774349 0 0.1668946229318731 -0.019675061199070819 0 0.1668946229318731 -0.019675061199070819 0 0.17598651952492231 -0.0227560541305885 0 0.16985348277487761 -0.0099868764823510571 0 0.18077822909658589 -0.032018797610549231 0 0.18438258456793261 -0.021379302004443181 0 0.17598651952492231 -0.0227560541305885 0 0.18077822909658589 -0.032018797610549231 0 0.18610830639217099 -0.030062433202775862 0 0.18438258456793261 -0.021379302004443181 0 0.18438258456793261 -0.021379302004443181 0 0.17598651952492231 -0.0227560541305885 0 0.17878486519392331 -0.011645355321630489 0 0.17598651952492231 -0.0227560541305885 0 0.17878486519392331 -0.011645355321630489 0 0.16985348277487761 -0.0099868764823510571 0 0.17878486519392331 -0.011645355321630489 0 0.17506184651935949 -0.0021247232161890161 0 0.16985348277487761 -0.0099868764823510571 0 0.18438258456793261 -0.021379302004443181 0 0.17878486519392331 -0.011645355321630489 0 0.18863989258252481 -0.001979820774580698 0 0.17878486519392331 -0.011645355321630489 0 0.17506184651935949 -0.0021247232161890161 0 0.18863989258252481 -0.001979820774580698 0 0.1628037813635097 0.0015330777282007481 0 0.17506184651935949 -0.0021247232161890161 0 0.16985348277487761 -0.0099868764823510571 0 0.1668946229318731 -0.019675061199070819 0 0.16985348277487761 -0.0099868764823510571 0 0.15849764294065671 -0.0060544572746906826 0 0.15727218843160701 -0.01758578836774349 0 0.1668946229318731 -0.019675061199070819 0 0.15849764294065671 -0.0060544572746906826 0 0.1628037813635097 0.0015330777282007481 0 0.16985348277487761 -0.0099868764823510571 0 0.15849764294065671 -0.0060544572746906826 0 0.1628037813635097 0.0015330777282007481 0 0.15453230216132671 0.0032055715019124438 0 0.15849764294065671 -0.0060544572746906826 0 0.21174544862736719 0.0096628206364345465 0 0.20589386385567829 -0.0063134785331596111 0 0.2185782736923042 -0.0038367730406402641 0 0.20589386385567829 -0.0063134785331596111 0 0.2185782736923042 -0.0038367730406402641 0 0.2199828155312514 -0.0225516893132638 0 0.20589386385567829 -0.0063134785331596111 0 0.18863989258252481 -0.001979820774580698 0 0.1936475112771239 -0.030998707124919651 0 0.20589386385567829 -0.0063134785331596111 0 0.1936475112771239 -0.030998707124919651 0 0.20001428446098229 -0.034334459813343092 0 0.18863989258252481 -0.001979820774580698 0 0.1936475112771239 -0.030998707124919651 0 0.20589386385567829 -0.0063134785331596111 0 0.20001428446098229 -0.034334459813343092 0 0.18438258456793261 -0.021379302004443181 0 0.18863989258252481 -0.001979820774580698 0 0.1936475112771239 -0.030998707124919651 0 0.18610830639217099 -0.030062433202775862 0 0.18438258456793261 -0.021379302004443181 0 0.1936475112771239 -0.030998707124919651 0 0.20589386385567829 -0.0063134785331596111 0 0.20001428446098229 -0.034334459813343092 0 0.2199828155312514 -0.0225516893132638 0 0.20001428446098229 -0.034334459813343092 0 0.22061008072662569 -0.045125245157715169 0 0.20001428446098229 -0.034334459813343092 0 0.22061008072662569 -0.045125245157715169 0 0.2199828155312514 -0.0225516893132638 0 0.20001428446098229 -0.034334459813343092 0 0.19683654360934791 -0.049478981375062181 0 0.22061008072662569 -0.045125245157715169 0 0.1936475112771239 -0.030998707124919651 0 0.19683654360934791 -0.049478981375062181 0 0.18674227588606429 -0.037749552466939278 0 0.1936475112771239 -0.030998707124919651 0 0.19683654360934791 -0.049478981375062181 0 0.1936475112771239 -0.030998707124919651 0 0.20001428446098229 -0.034334459813343092 0 0.19683654360934791 -0.049478981375062181 0 0.1936475112771239 -0.030998707124919651 0 0.20001428446098229 -0.034334459813343092 0 0.18674227588606429 -0.037749552466939278 0 0.18610830639217099 -0.030062433202775862 0 0.1936475112771239 -0.030998707124919651 0 0.18434240851125541 -0.050289724698312777 0 0.18674227588606429 -0.037749552466939278 0 0.19683654360934791 -0.049478981375062181 0 0.20001428446098229 -0.034334459813343092 0 0.19683654360934791 -0.049478981375062181 0 0.19683654360934791 -0.049478981375062181 0 0.1929894301603077 -0.067813608174319001 0 0.2000429458732931 -0.068059913463883598 0 0.19683654360934791 -0.049478981375062181 0 0.21158346953455981 -0.057932445704329483 0 0.2000429458732931 -0.068059913463883598 0 0.19683654360934791 -0.049478981375062181 0 0.2000429458732931 -0.068059913463883598 0 0.19683654360934791 -0.049478981375062181 0 0.1929894301603077 -0.067813608174319001 0 0.18434240851125541 -0.050289724698312777 0 0.19683654360934791 -0.049478981375062181 0 0.1929894301603077 -0.067813608174319001 0 0.19683654360934791 -0.049478981375062181 0 0.21158346953455981 -0.057932445704329483 0 0.22061008072662569 -0.045125245157715169 0 0.24120587699226881 -0.055916030502087773 0 0.22061008072662569 -0.045125245157715169 0 0.2288443079289719 -0.069065642820655804 0 0.21158346953455981 -0.057932445704329483 0 0.22061008072662569 -0.045125245157715169 0 0.2288443079289719 -0.069065642820655804 0 0.24120587699226881 -0.055916030502087773 0 0.22061008072662569 -0.045125245157715169 0 0.25030159180115191 -0.034143426788088307 0 0.24120587699226881 -0.055916030502087773 0 0.23430517811137791 -0.037629801295311363 0 0.25030159180115191 -0.034143426788088307 0 0.23430517811137791 -0.037629801295311363 0 0.23651070060392609 -0.023431292744830981 0 0.22061008072662569 -0.045125245157715169 0 0.23430517811137791 -0.037629801295311363 0 0.2199828155312514 -0.0225516893132638 0 0.24120587699226881 -0.055916030502087773 0 0.22061008072662569 -0.045125245157715169 0 0.23430517811137791 -0.037629801295311363 0 0.2199828155312514 -0.0225516893132638 0 0.23651070060392609 -0.023431292744830981 0 0.2300866381754704 -0.0072438550720441714 0 0.23430517811137791 -0.037629801295311363 0 0.2199828155312514 -0.0225516893132638 0 0.23651070060392609 -0.023431292744830981 0 0.25030159180115191 -0.034143426788088307 0 0.23651070060392609 -0.023431292744830981 0 0.2464198669495459 -0.012097030270161889 0 0.23790413247208811 0.0091049515404343275 0 0.2464198669495459 -0.012097030270161889 0 0.2300866381754704 -0.0072438550720441714 0 0.23651070060392609 -0.023431292744830981 0 0.2464198669495459 -0.012097030270161889 0 0.2300866381754704 -0.0072438550720441714 0 0.2185782736923042 -0.0038367730406402641 0 0.2199828155312514 -0.0225516893132638 0 0.2300866381754704 -0.0072438550720441714 0 0.22518260227175371 0.0072623370788317187 0 0.2185782736923042 -0.0038367730406402641 0 0.2300866381754704 -0.0072438550720441714 0 0.20666963866093291 -0.1113398018781358 0 0.20399491490549271 -0.090961365670864353 0 0.20666963866093291 -0.1113398018781358 0 0.23081911420975029 -0.091789222750733895 0 0.20666963866093291 -0.1113398018781358 0 0.20399491490549271 -0.090961365670864353 0 0.23081911420975029 -0.091789222750733895 0 0.2184940671700534 -0.12394732724419751 0 0.20666963866093291 -0.1113398018781358 0 0.22056261316880149 -0.1108234873110058 0 0.2184940671700534 -0.12394732724419751 0 0.20975191972323501 -0.12432290509972491 0 0.20666963866093291 -0.1113398018781358 0 0.2184940671700534 -0.12394732724419751 0 0.20666963866093291 -0.1113398018781358 0 0.20975191972323501 -0.12432290509972491 0 0.20666963866093291 -0.1113398018781358 0 0.1971408692894723 -0.1190539635876471 0 0.20975191972323501 -0.12432290509972491 0 0.20666963866093291 -0.1113398018781358 0 0.18014950107347269 -0.1188522098678762 0 0.1971408692894723 -0.1190539635876471 0 0.19406318364410949 -0.13526348461287321 0 0.20666963866093291 -0.1113398018781358 0 0.1971408692894723 -0.1190539635876471 0 0.18014950107347269 -0.1188522098678762 0 0.1971408692894723 -0.1190539635876471 0 0.1922879604253335 -0.1099500278873989 0 0.20666963866093291 -0.1113398018781358 0 0.1971408692894723 -0.1190539635876471 0 0.1922879604253335 -0.1099500278873989 0 0.20666963866093291 -0.1113398018781358 0 0.19243594079672521 -0.096163448387799222 0 0.20399491490549271 -0.090961365670864353 0 0.18504385230606449 -0.10434071571553651 0 0.1922879604253335 -0.1099500278873989 0 0.19243594079672521 -0.096163448387799222 0 0.20666963866093291 -0.1113398018781358 0 0.1922879604253335 -0.1099500278873989 0 0.19243594079672521 -0.096163448387799222 0 0.20666963866093291 -0.1113398018781358 0 0.19243594079672521 -0.096163448387799222 0 0.1854866420256687 -0.084161575248007242 0 0.19040307974074269 -0.080139672987034255 0 0.20399491490549271 -0.090961365670864353 0 0.17842320588221819 -0.090172163349513806 0 0.19243594079672521 -0.096163448387799222 0 0.20399491490549271 -0.090961365670864353 0 0.17842320588221819 -0.090172163349513806 0 0.20399491490549271 -0.090961365670864353 0 0.17842320588221819 -0.090172163349513806 0 0.1854866420256687 -0.084161575248007242 0 0.20399491490549271 -0.090961365670864353 0 0.2000429458732931 -0.068059913463883598 0 0.20399491490549271 -0.090961365670864353 0 0.19040307974074269 -0.080139672987034255 0 0.2000429458732931 -0.068059913463883598 0 0.20399491490549271 -0.090961365670864353 0 0.19040307974074269 -0.080139672987034255 0 0.1929894301603077 -0.067813608174319001 0 0.2000429458732931 -0.068059913463883598 0 0.19040307974074269 -0.080139672987034255 0 0.1929894301603077 -0.067813608174319001 0 0.1929894301603077 -0.067813608174319001 0 0.2000429458732931 -0.068059913463883598 0 0.2000429458732931 -0.068059913463883598 0 0.2288443079289719 -0.069065642820655804 0 0.2000429458732931 -0.068059913463883598 0 0.21771238563745279 -0.081480669998114597 0 0.2288443079289719 -0.069065642820655804 0 0.21158346953455981 -0.057932445704329483 0 0.2000429458732931 -0.068059913463883598 0 0.2288443079289719 -0.069065642820655804 0 0.2000429458732931 -0.068059913463883598 0 0.20399491490549271 -0.090961365670864353 0 0.21771238563745279 -0.081480669998114597 0 0.20399491490549271 -0.090961365670864353 0 0.21771238563745279 -0.081480669998114597 0 0.23081911420975029 -0.091789222750733895 0 0.20399491490549271 -0.090961365670864353 0 0.23081911420975029 -0.091789222750733895 0 0.21771238563745279 -0.081480669998114597 0 0.23081911420975029 -0.091789222750733895 0 0.2288443079289719 -0.069065642820655804 0 0.25764566998465072 -0.070071372177431313 0 0.24120587699226881 -0.055916030502087773 0 0.2288443079289719 -0.069065642820655804 0 0.25764566998465072 -0.070071372177431313 0 0.2288443079289719 -0.069065642820655804 0 0.25764566998465072 -0.070071372177431313 0 0.2288443079289719 -0.069065642820655804 0 0.24423239209720191 -0.080930297464084477 0 0.25666672159796139 -0.092586939936295867 0 0.23081911420975029 -0.091789222750733895 0 0.23081911420975029 -0.091789222750733895 0 0.2288443079289719 -0.069065642820655804 0 0.24423239209720191 -0.080930297464084477 0 0.25666672159796139 -0.092586939936295867 0 0.23081911420975029 -0.091789222750733895 0 0.24423239209720191 -0.080930297464084477 0 0.23081911420975029 -0.091789222750733895 0 0.24423239209720191 -0.080930297464084477 0 0.25666672159796139 -0.092586939936295867 0 0.23081911420975029 -0.091789222750733895 0 0.23839025179526999 -0.1151992729885977 0 0.20666963866093291 -0.1113398018781358 0 0.23081911420975029 -0.091789222750733895 0 0.22056261316880149 -0.1108234873110058 0 0.23081911420975029 -0.091789222750733895 0 0.22056261316880149 -0.1108234873110058 0 0.23839025179526999 -0.1151992729885977 0 0.2184940671700534 -0.12394732724419751 0 0.22056261316880149 -0.1108234873110058 0 0.23839025179526999 -0.1151992729885977 0 0.2184940671700534 -0.12394732724419751 0 0.23839025179526999 -0.1151992729885977 0 0.22928680998153819 -0.13545484142638689 0 0.25915390151091949 -0.11811210275817149 0 0.25133622254172122 -0.13557462765415079 0 0.23839025179526999 -0.1151992729885977 0 0.25133622254172122 -0.13557462765415079 0 0.25208407187516418 -0.1419613505697605 0 0.23274332603383319 -0.13914027229300069 0 0.25133622254172122 -0.13557462765415079 0 0.23839025179526999 -0.1151992729885977 0 0.22928680998153819 -0.13545484142638689 0 0.25133622254172122 -0.13557462765415079 0 0.22928680998153819 -0.13545484142638689 0 0.25133622254172122 -0.13557462765415079 0 0.23274332603383319 -0.13914027229300069 0 0.22928680998153819 -0.13545484142638689 0 0.25208407187516418 -0.1419613505697605 0 0.23274332603383319 -0.13914027229300069 0 0.2530488896403309 -0.16079061319898569 0 0.23274332603383319 -0.13914027229300069 0 0.2530488896403309 -0.16079061319898569 0 0.23274332603383319 -0.13914027229300069 0 0.2334622085995452 -0.15779257262933219 0 0.2530488896403309 -0.16079061319898569 0 0.25208407187516418 -0.1419613505697605 0 0.23274332603383319 -0.13914027229300069 0 0.22694604844669111 -0.15137512496012309 0 0.2202725953444182 -0.1456731206256075 0 0.22100128495381829 -0.16152072110389429 0 0.22694604844669111 -0.15137512496012309 0 0.23274332603383319 -0.13914027229300069 0 0.2334622085995452 -0.15779257262933219 0 0.22694604844669111 -0.15137512496012309 0 0.2202725953444182 -0.1456731206256075 0 0.23274332603383319 -0.13914027229300069 0 0.23274332603383319 -0.13914027229300069 0 0.20959101376118139 -0.13576323162740581 0 0.22928680998153819 -0.13545484142638689 0 0.2116749968128239 -0.1353591630196288 0 0.23274332603383319 -0.13914027229300069 0 0.22928680998153819 -0.13545484142638689 0 0.2116749968128239 -0.1353591630196288 0 0.2184940671700534 -0.12394732724419751 0 0.22928680998153819 -0.13545484142638689 0 0.2116749968128239 -0.1353591630196288 0 0.2202725953444182 -0.1456731206256075 0 0.23274332603383319 -0.13914027229300069 0 0.20959101376118139 -0.13576323162740581 0 0.23274332603383319 -0.13914027229300069 0 0.22928680998153819 -0.13545484142638689 0 0.2184940671700534 -0.12394732724419751 0 0.22928680998153819 -0.13545484142638689 0 0.23274332603383319 -0.13914027229300069 0 0.20959101376118139 -0.13576323162740581 0 0.2116749968128239 -0.1353591630196288 0 0.20975191972323501 -0.12432290509972491 0 0.2116749968128239 -0.1353591630196288 0 0.19406318364410949 -0.13526348461287321 0 0.2184940671700534 -0.12394732724419751 0 0.20975191972323501 -0.12432290509972491 0 0.2116749968128239 -0.1353591630196288 0 0.20959101376118139 -0.13576323162740581 0 0.2116749968128239 -0.1353591630196288 0 0.19406318364410949 -0.13526348461287321 0 0.2202725953444182 -0.1456731206256075 0 0.21077041390333781 -0.15496976615408631 0 0.22100128495381829 -0.16152072110389429 0 0.2202725953444182 -0.1456731206256075 0 0.20959101376118139 -0.13576323162740581 0 0.21077041390333781 -0.15496976615408631 0 0.20959101376118139 -0.13576323162740581 0 0.21077041390333781 -0.15496976615408631 0 0.19406318364410949 -0.13526348461287321 0 0.21077041390333781 -0.15496976615408631 0 0.19019323353294471 -0.15547991582157239 0 0.19406318364410949 -0.13526348461287321 0 0.21077041390333781 -0.15496976615408631 0 0.19406318364410949 -0.13526348461287321 0 0.20975191972323501 -0.12432290509972491 0 0.1971408692894723 -0.1190539635876471 0 0.19406318364410949 -0.13526348461287321 0 0.2116749968128239 -0.1353591630196288 0 0.19406318364410949 -0.13526348461287321 0 0.2064216300685435 -0.1763378775815001 0 0.19333004299069351 -0.19482382871724169 0 0.185888281266576 -0.1738959907954824 0 0.21077041390333781 -0.15496976615408631 0 0.19019323353294471 -0.15547991582157239 0 0.2064216300685435 -0.1763378775815001 0 0.19019323353294471 -0.15547991582157239 0 0.2064216300685435 -0.1763378775815001 0 0.185888281266576 -0.1738959907954824 0 0.21077041390333781 -0.15496976615408631 0 0.2064216300685435 -0.1763378775815001 0 0.22100128495381829 -0.16152072110389429 0 0.2064216300685435 -0.1763378775815001 0 0.22637928715471201 -0.1750627007060517 0 0.22100128495381829 -0.16152072110389429 0 0.2064216300685435 -0.1763378775815001 0 0.22637928715471201 -0.1750627007060517 0 0.2213864998634191 -0.19074186604973761 0 0.22637928715471201 -0.1750627007060517 0 0.2363010186387848 -0.18586727398715949 0 0.2213864998634191 -0.19074186604973761 0 0.22637928715471201 -0.1750627007060517 0 0.22100128495381829 -0.16152072110389429 0 0.2334622085995452 -0.15779257262933219 0 0.22637928715471201 -0.1750627007060517 0 0.2334622085995452 -0.15779257262933219 0 0.24133419147104179 -0.17110858194103351 0 0.22694604844669111 -0.15137512496012309 0 0.22100128495381829 -0.16152072110389429 0 0.2334622085995452 -0.15779257262933219 0 0.2530488896403309 -0.16079061319898569 0 0.2334622085995452 -0.15779257262933219 0 0.24133419147104179 -0.17110858194103351 0 0.2550208565069661 -0.17514012483034949 0 0.2530488896403309 -0.16079061319898569 0 0.24133419147104179 -0.17110858194103351 0 0.22637928715471201 -0.1750627007060517 0 0.24133419147104179 -0.17110858194103351 0 0.2363010186387848 -0.18586727398715949 0 0.25030889548151403 -0.1837077448593728 0 0.2550208565069661 -0.17514012483034949 0 0.24133419147104179 -0.17110858194103351 0 0.25030889548151403 -0.1837077448593728 0 0.24133419147104179 -0.17110858194103351 0 0.2363010186387848 -0.18586727398715949 0 0.25030889548151403 -0.1837077448593728 0 0.2363010186387848 -0.18586727398715949 0 0.24624710011957149 -0.19756578472926509 0 0.2363010186387848 -0.18586727398715949 0 0.24624710011957149 -0.19756578472926509 0 0.23232272155890341 -0.19906227567560569 0 0.24624710011957149 -0.19756578472926509 0 0.2390873575194972 -0.2119906927462733 0 0.23232272155890341 -0.19906227567560569 0 0.25806059678156651 -0.21160485628964759 0 0.24624710011957149 -0.19756578472926509 0 0.2390873575194972 -0.2119906927462733 0 0.25806059678156651 -0.21160485628964759 0 0.2390873575194972 -0.2119906927462733 0 0.2485278721491469 -0.22983386195931649 0 0.22156570902884701 -0.2081716276760221 0 0.2275965143199381 -0.22680811778712909 0 0.21130945108473639 -0.22000441216527869 0 0.2390873575194972 -0.2119906927462733 0 0.22156570902884701 -0.2081716276760221 0 0.23232272155890341 -0.19906227567560569 0 0.2390873575194972 -0.2119906927462733 0 0.22156570902884701 -0.2081716276760221 0 0.2275965143199381 -0.22680811778712909 0 0.22156570902884701 -0.2081716276760221 0 0.2213864998634191 -0.19074186604973761 0 0.23232272155890341 -0.19906227567560569 0 0.2363010186387848 -0.18586727398715949 0 0.2213864998634191 -0.19074186604973761 0 0.23232272155890341 -0.19906227567560569 0 0.2410490216361528 -0.25300372010805161 0 0.2485278721491469 -0.22983386195931649 0 0.2275965143199381 -0.22680811778712909 0 0.25787859859726192 -0.24372773219337371 0 0.2410490216361528 -0.25300372010805161 0 0.2485278721491469 -0.22983386195931649 0 0.2390873575194972 -0.2119906927462733 0 0.2485278721491469 -0.22983386195931649 0 0.2275965143199381 -0.22680811778712909 0 0.2410490216361528 -0.25300372010805161 0 0.2275965143199381 -0.22680811778712909 0 0.2136455624920251 -0.24586339942155419 0 0.2410490216361528 -0.25300372010805161 0 0.2136455624920251 -0.24586339942155419 0 0.2136455624920251 -0.24586339942155419 0 0.1995187067769538 -0.22648505830905971 0 0.1970165427207646 -0.2431475676051908 0 0.2275965143199381 -0.22680811778712909 0 0.2136455624920251 -0.24586339942155419 0 0.21130945108473639 -0.22000441216527869 0 0.2136455624920251 -0.24586339942155419 0 0.21130945108473639 -0.22000441216527869 0 0.1995187067769538 -0.22648505830905971 0 0.1995187067769538 -0.22648505830905971 0 0.1970165427207646 -0.2431475676051908 0 0.1843931124890181 -0.23269732176232691 0 0.21130945108473639 -0.22000441216527869 0 0.1995187067769538 -0.22648505830905971 0 0.19847161958806309 -0.21206345826637629 0 0.2064216300685435 -0.1763378775815001 0 0.2213864998634191 -0.19074186604973761 0 0.20705859430259141 -0.20063481153153051 0 0.22156570902884701 -0.2081716276760221 0 0.2213864998634191 -0.19074186604973761 0 0.20705859430259141 -0.20063481153153051 0 0.22156570902884701 -0.2081716276760221 0 0.21130945108473639 -0.22000441216527869 0 0.20705859430259141 -0.20063481153153051 0 0.21130945108473639 -0.22000441216527869 0 0.20705859430259141 -0.20063481153153051 0 0.19847161958806309 -0.21206345826637629 0 0.19847161958806309 -0.21206345826637629 0 0.19333004299069351 -0.19482382871724169 0 0.184507054165965 -0.21658659277756609 0 0.1995187067769538 -0.22648505830905971 0 0.19847161958806309 -0.21206345826637629 0 0.184507054165965 -0.21658659277756609 0 0.20705859430259141 -0.20063481153153051 0 0.19847161958806309 -0.21206345826637629 0 0.19333004299069351 -0.19482382871724169 0 0.2064216300685435 -0.1763378775815001 0 0.20705859430259141 -0.20063481153153051 0 0.19333004299069351 -0.19482382871724169 0 0.1776330785524223 -0.18942424135099509 0 0.184507054165965 -0.21658659277756609 0 0.16837846483810831 -0.20319749351435479 0 0.19333004299069351 -0.19482382871724169 0 0.1776330785524223 -0.18942424135099509 0 0.184507054165965 -0.21658659277756609 0 0.1776330785524223 -0.18942424135099509 0 0.184507054165965 -0.21658659277756609 0 0.184507054165965 -0.21658659277756609 0 0.1749867686249286 -0.21735889230250449 0 0.16837846483810831 -0.20319749351435479 0 0.1749867686249286 -0.21735889230250449 0 0.16837846483810831 -0.20319749351435479 0 0.15045483047290331 -0.2082327262959493 0 0.1749867686249286 -0.21735889230250449 0 0.15045483047290331 -0.2082327262959493 0 0.1749867686249286 -0.21735889230250449 0 0.16226861639455931 -0.22172210758959859 0 0.15045483047290331 -0.2082327262959493 0 0.16837846483810831 -0.20319749351435479 0 0.15045483047290331 -0.2082327262959493 0 0.15431059237432221 -0.18438501484475869 0 0.1776330785524223 -0.18942424135099509 0 0.16837846483810831 -0.20319749351435479 0 0.15431059237432221 -0.18438501484475869 0 0.1970165427207646 -0.2431475676051908 0 0.18013525364959199 -0.24590787480667409 0 0.1843931124890181 -0.23269732176232691 0 0.18013525364959199 -0.24590787480667409 0 0.1843931124890181 -0.23269732176232691 0 0.17030829067285161 -0.2305872157882054 0 0.1995187067769538 -0.22648505830905971 0 0.1749867686249286 -0.21735889230250449 0 0.1995187067769538 -0.22648505830905971 0 0.1749867686249286 -0.21735889230250449 0 0.1843931124890181 -0.23269732176232691 0 0.1995187067769538 -0.22648505830905971 0 0.184507054165965 -0.21658659277756609 0 0.1749867686249286 -0.21735889230250449 0 0.1749867686249286 -0.21735889230250449 0 0.1843931124890181 -0.23269732176232691 0 0.17030829067285161 -0.2305872157882054 0 0.16226861639455931 -0.22172210758959859 0 0.17030829067285161 -0.2305872157882054 0 0.15332457580755371 -0.23070959597173549 0 0.1749867686249286 -0.21735889230250449 0 0.16226861639455931 -0.22172210758959859 0 0.17030829067285161 -0.2305872157882054 0 0.16103468924722281 -0.25381861710109321 0 0.18013525364959199 -0.24590787480667409 0 0.17030829067285161 -0.2305872157882054 0 0.16103468924722281 -0.25381861710109321 0 0.17030829067285161 -0.2305872157882054 0 0.15332457580755371 -0.23070959597173549 0 0.16103468924722281 -0.25381861710109321 0 0.1412434604122122 -0.24631040783256791 0 0.15332457580755371 -0.23070959597173549 0 0.1412434604122122 -0.24631040783256791 0 0.15332457580755371 -0.23070959597173549 0 0.1284413173888232 -0.22347585252773641 0 0.15332457580755371 -0.23070959597173549 0 0.1284413173888232 -0.22347585252773641 0 0.15045483047290331 -0.2082327262959493 0 0.16226861639455931 -0.22172210758959859 0 0.15332457580755371 -0.23070959597173549 0 0.15045483047290331 -0.2082327262959493 0 0.1200034520355143 -0.24749468667538321 0 0.1412434604122122 -0.24631040783256791 0 0.1284413173888232 -0.22347585252773641 0 0.15045483047290331 -0.2082327262959493 0 0.12592289232087811 -0.19910656028939411 0 0.15431059237432221 -0.18438501484475869 0 0.15045483047290331 -0.2082327262959493 0 0.12592289232087811 -0.19910656028939411 0 0.1284413173888232 -0.22347585252773641 0 0.15045483047290331 -0.2082327262959493 0 0.12592289232087811 -0.19910656028939411 0 0.11404320040195411 -0.17785048998131209 0 0.12592289232087811 -0.19910656028939411 0 0.1362427207560932 -0.1734399905344442 0 0.12592289232087811 -0.19910656028939411 0 0.1362427207560932 -0.1734399905344442 0 0.15431059237432221 -0.18438501484475869 0 0.1362427207560932 -0.1734399905344442 0 0.15431059237432221 -0.18438501484475869 0 0.1498051255961938 -0.157092757972084 0 0.11404320040195411 -0.17785048998131209 0 0.1362427207560932 -0.1734399905344442 0 0.1305387904294309 -0.15561497697083931 0 0.1362427207560932 -0.1734399905344442 0 0.1498051255961938 -0.157092757972084 0 0.1305387904294309 -0.15561497697083931 0 0.1498051255961938 -0.157092757972084 0 0.1305387904294309 -0.15561497697083931 0 0.13638976604354719 -0.13495016646355951 0 0.1161887790728692 -0.1476769396888597 0 0.1305387904294309 -0.15561497697083931 0 0.13638976604354719 -0.13495016646355951 0 0.12800820934211829 -0.12401417466047961 0 0.13638976604354719 -0.13495016646355951 0 0.1486045981545247 -0.12747252536747111 0 0.13638976604354719 -0.13495016646355951 0 0.16388512732533739 -0.13509953849785281 0 0.13638976604354719 -0.13495016646355951 0 0.1486045981545247 -0.12747252536747111 0 0.16388512732533739 -0.13509953849785281 0 0.1498051255961938 -0.157092757972084 0 0.13638976604354719 -0.13495016646355951 0 0.16388512732533739 -0.13509953849785281 0 0.16388512732533739 -0.13509953849785281 0 0.17075910293887969 -0.16226188992442411 0 0.1498051255961938 -0.157092757972084 0 0.16388512732533739 -0.13509953849785281 0 0.17075910293887969 -0.16226188992442411 0 0.18014950107347269 -0.1188522098678762 0 0.16265603278097029 -0.1302428005884553 0 0.16388512732533739 -0.13509953849785281 0 0.16095359288685571 -0.1184472051676727 0 0.1486045981545247 -0.12747252536747111 0 0.16265603278097029 -0.1302428005884553 0 0.1486045981545247 -0.12747252536747111 0 0.16265603278097029 -0.1302428005884553 0 0.16388512732533739 -0.13509953849785281 0 0.16265603278097029 -0.1302428005884553 0 0.16388512732533739 -0.13509953849785281 0 0.19406318364410949 -0.13526348461287321 0 0.16388512732533739 -0.13509953849785281 0 0.18014950107347269 -0.1188522098678762 0 0.19406318364410949 -0.13526348461287321 0 0.18014950107347269 -0.1188522098678762 0 0.19406318364410949 -0.13526348461287321 0 0.16388512732533739 -0.13509953849785281 0 0.19019323353294471 -0.15547991582157239 0 0.16388512732533739 -0.13509953849785281 0 0.17075910293887969 -0.16226188992442411 0 0.19019323353294471 -0.15547991582157239 0 0.19406318364410949 -0.13526348461287321 0 0.16388512732533739 -0.13509953849785281 0 0.19019323353294471 -0.15547991582157239 0 0.185888281266576 -0.1738959907954824 0 0.17075910293887969 -0.16226188992442411 0 0.1776330785524223 -0.18942424135099509 0 0.185888281266576 -0.1738959907954824 0 0.17075910293887969 -0.16226188992442411 0 0.1776330785524223 -0.18942424135099509 0 0.17075910293887969 -0.16226188992442411 0 0.19333004299069351 -0.19482382871724169 0 0.1776330785524223 -0.18942424135099509 0 0.185888281266576 -0.1738959907954824 0 0.1776330785524223 -0.18942424135099509 0 0.15431059237432221 -0.18438501484475869 0 0.17075910293887969 -0.16226188992442411 0 0.15431059237432221 -0.18438501484475869 0 0.1498051255961938 -0.157092757972084 0 0.17075910293887969 -0.16226188992442411 0 
</DataArray>
</Points>
<Cells>
<DataArray type="UInt32" Name="connectivity" format="ascii">
0 1 2 3 4 5 6 7 8 9 10 11 12 13 14 15 16 17 18 19 20 21 22 23 24 25 26 27 28 29 30 31 32 33 34 35 36 37 38 39 40 41 42 43 44 45 46 47 48 49 50 51 52 53 54 55 56 57 58 59 60 61 62 63 64 65 66 67 68 69 70 71 72 73 74 75 76 77 78 79 80 81 82 83 84 85 86 87 88 89 90 91 92 93 94 95 96 97 98 99 100 101 102 103 104 105 106 107 108 109 110 111 112 113 114 115 116 117 118 119 120 121 122 123 124 125 126 127 128 129 130 131 132 133 134 135 136 137 138 139 140 141 142 143 144 145 146 147 148 149 150 151 152 153 154 155 156 157 158 159 160 161 162 163 164 165 166 167 168 169 170 171 172 173 174 175 176 177 178 179 180 181 182 183 184 185 186 187 188 189 190 191 192 193 194 195 196 197 198 199 200 201 202 203 204 205 206 207 208 209 210 211 212 213 214 215 216 217 218 219 220 221 222 223 224 225 226 227 228 229 230 231 232 233 234 235 236 237 238 239 240 241 242 243 244 245 246 247 248 249 250 251 252 253 254 255 256 257 258 259 260 261 262 263 264 265 266 267 268 269 270 271 272 273 274 275 276 277 278 279 280 281 282 283 284 285 286 287 288 289 290 291 292 293 294 295 296 297 298 299 300 301 302 303 304 305 306 307 308 309 310 311 312 313 314 315 316 317 318 319 320 321 322 323 324 325 326 327 328 329 330 331 332 333 334 335 336 337 338 339 340 341 342 343 344 345 346 347 348 349 350 351 352 353 354 355 356 357 358 359 360 361 362 363 364 365 366 367 368 369 370 371 372 373 374 375 376 377 378 379 380 381 382 383 384 385 386 387 388 389 390 391 392 393 394 395 396 397 398 399 400 401 402 403 404 405 406 407 408 409 410 411 412 413 414 415 416 417 418 419 420 421 422 423 424 425 426 427 428 429 430 431 432 433 434 435 436 437 438 439 440 441 442 443 444 445 446 447 448 449 450 451 452 453 454 455 456 457 458 459 460 461 462 463 464 465 466 467 468 469 470 471 472 473 474 475 476 477 478 479 480 481 482 483 484 485 486 487 488 489 490 491 492 493 494 495 496 497 498 499 500 501 502 503 504 505 506 507 508 509 510 511 512 513 514 515 516 517 518 519 520 521 522 523 524 525 526 527 528 529 530 531 532 533 534 535 536 537 538 539 540 541 542 543 544 545 546 547 548 549 550 551 552 553 554 555 556 557 558 559 560 561 562 563 564 565 566 567 568 569 570 571 572 573 574 575 576 577 578 579 580 581 582 583 584 585 586 587 588 589 590 591 592 593 594 595 596 597 598 599 600 601 602 603 604 605 606 607 608 609 610 611 612 613 614 615 616 617 618 619 620 621 622 623 624 625 626 627 628 629 630 631 632 633 634 635 636 637 638 639 640 641 642 643 644 645 646 647 648 649 650 651 652 653 654 655 656 657 658 659 660 661 662 663 664 665 666 667 668 669 670 671 672 673 674 675 676 677 678 679 680 681 682 683 684 685 686 687 688 689 690 691 692 693 694 695 696 697 698 699 700 701 702 703 704 705 706 707 708 709 710 711 712 713 714 715 716 717 718 719 720 721 722 723 724 725 726 727 728 729 730 731 732 733 734 735 736 737 738 739 740 741 742 743 744 745 746 747 748 749 750 751 752 753 754 755 756 757 758 759 760 761 762 763 764 765 766 767 768 769 770 771 772 773 774 775 776 777 778 779 780 781 782 783 784 785 786 787 788 789 790 791 792 793 794 795 796 797 798 799 800 801 802 803 804 805 806 807 808 809 810 811 812 813 814 815 816 817 818 819 820 821 822 823 824 825 826 827 828 829 830 831 832 833 834 835 836 837 838 839 840 841 842 843 844 845 846 847 848 849 850 851 852 853 854 855 856 857 858 859 860 861 862 863 864 865 866 867 868 869 870 871 872 873 874 875 876 877 878 879 880 881 882 883 884 885 886 887 888 889 890 891 892 893 894 895 896 897 898 899 900 901 902 903 904 905 906 907 908 909 910 911 912 913 914 915 916 917 918 919 920 921 922 923 924 925 926 927 928 929 930 931 932 933 934 935 936 937 938 939 940 941 942 943 944 945 946 947 948 949 950 951 952 953 954 955 956 957 958 959 960 961 962 963 964 965 966 967 968 969 970 971 972 973 974 975 976 977 978 979 980 981 982 983 984 985 986 987 988 989 990 991 992 993 994 995 996 997 998 999 1000 1001 1002 1003 1004 1005 1006 1007 1008 1009 1010 1011 1012 1013 1014 1015 1016 1017 1018 1019 1020 1021 1022 1023 1024 1025 1026 1027 1028 1029 1030 1031 1032 1033 1034 1035 1036 1037 1038 1039 1040 1041 1042 1043 1044 1045 1046 1047 1048 1049 1050 1051 1052 1053 1054 1055 1056 1057 1058 1059 1060 1061 1062 1063 1064 1065 1066 1067 1068 1069 1070 1071 1072 1073 1074 1075 1076 1077 1078 1079 1080 1081 1082 1083 1084 1085 1086 1087 1088 1089 1090 1091 1092 1093 1094 1095 1096 1097 1098 1099 1100 1101 1102 1103 1104 1105 1106 1107 1108 1109 1110 1111 1112 1113 1114 1115 1116 1117 1118 1119 1120 1121 1122 1123 1124 1125 1126 1127 1128 1129 1130 1131 1132 1133 1134 1135 1136 1137 1138 1139 1140 1141 1142 1143 1144 1145 1146 1147 1148 1149 1150 1151 1152 1153 1154 1155 1156 1157 1158 1159 1160 1161 1162 1163 1164 1165 1166 1167 1168 1169 1170 1171 1172 1173 1174 1175 1176 1177 1178 1179 1180 1181 1182 1183 1184 1185 1186 1187 1188 1189 1190 1191 1192 1193 1194 1195 1196 1197 1198 1199 1200 1201 1202 1203 1204 1205 1206 1207 1208 1209 1210 1211 1212 1213 1214 1215 1216 1217 1218 1219 1220 1221 1222 1223 1224 1225 1226 1227 1228 1229 1230 1231 1232 1233 1234 1235 1236 1237 1238 1239 1240 1241 1242 1243 1244 1245 1246 1247 1248 1249 1250 1251 1252 1253 1254 1255 1256 1257 1258 1259 1260 1261 1262 1263 1264 1265 1266 1267 1268 1269 1270 1271 1272 1273 1274 1275 1276 1277 1278 1279 1280 1281 1282 1283 1284 1285 1286 1287 1288 1289 1290 1291 1292 1293 1294 1295 1296 1297 1298 1299 1300 1301 1302 1303 1304 1305 1306 1307 1308 1309 1310 1311 1312 1313 1314 1315 1316 1317 1318 1319 1320 1321 1322 1323 1324 1325 1326 1327 1328 1329 1330 1331 1332 1333 1334 1335 1336 1337 1338 1339 1340 1341 1342 1343 1344 1345 1346 1347 1348 1349 1350 1351 1352 1353 1354 1355 1356 1357 1358 1359 1360 1361 1362 1363 1364 1365 1366 1367 1368 1369 1370 1371 1372 1373 1374 1375 1376 1377 1378 1379 1380 1381 1382 1383 1384 1385 1386 1387 1388 1389 1390 1391 1392 1393 1394 1395 1396 1397 1398 1399 1400 1401 1402 1403 1404 1405 1406 1407 1408 1409 1410 1411 1412 1413 1414 1415 1416 1417 1418 1419 1420 1421 1422 1423 1424 1425 1426 1427 1428 1429 1430 1431 1432 1433 1434 1435 1436 1437 1438 1439 1440 1441 1442 1443 1444 1445 1446 1447 1448 1449 1450 1451 1452 1453 1454 1455 1456 1457 1458 1459 1460 1461 1462 1463 1464 1465 1466 1467 1468 1469 1470 1471 1472 1473 1474 1475 1476 1477 1478 1479 1480 1481 1482 1483 1484 1485 1486 1487 1488 1489 1490 1491 1492 1493 1494 1495 1496 1497 1498 1499 1500 1501 1502 1503 1504 1505 1506 1507 1508 1509 1510 1511 1512 1513 1514 1515 1516 1517 1518 1519 1520 1521 1522 1523 1524 1525 1526 1527 1528 1529 1530 1531 1532 1533 1534 1535 1536 1537 1538 1539 1540 1541 1542 1543 1544 1545 1546 1547 1548 1549 1550 1551 1552 1553 1554 1555 1556 1557 1558 1559 1560 1561 1562 1563 1564 1565 1566 1567 1568 1569 1570 1571 1572 1573 1574 1575 1576 1577 1578 1579 1580 1581 1582 1583 1584 1585 1586 1587 1588 1589 1590 1591 1592 1593 1594 1595 1596 1597 1598 1599 1600 1601 1602 1603 1604 1605 1606 1607 1608 1609 1610 1611 1612 1613 1614 1615 1616 1617 1618 1619 1620 1621 1622 1623 1624 1625 1626 1627 1628 1629 1630 1631 1632 1633 1634 1635 1636 1637 1638 1639 1640 1641 1642 1643 1644 1645 1646 1647 1648 1649 1650 1651 1652 1653 1654 1655 1656 1657 1658 1659 1660 1661 1662 1663 1664 1665 1666 1667 1668 1669 1670 1671 1672 1673 1674 1675 1676 1677 1678 1679 1680 1681 1682 1683 1684 1685 1686 1687 1688 1689 1690 1691 1692 1693 1694 1695 1696 1697 1698 1699 1700 1701 1702 1703 1704 1705 1706 1707 1708 1709 1710 1711 1712 1713 1714 1715 1716 1717 1718 1719 1720 1721 1722 1723 1724 1725 1726 1727 1728 1729 1730 1731 1732 1733 1734 1735 1736 1737 1738 1739 1740 1741 1742 1743 1744 1745 1746 1747 1748 1749 1750 1751 1752 1753 1754 1755 1756 1757 1758 1759 1760 1761 1762 1763 1764 1765 1766 1767 1768 1769 1770 1771 1772 1773 1774 1775 1776 1777 1778 1779 1780 1781 1782 1783 1784 1785 1786 1787 1788 1789 1790 1791 1792 1793 1794 1795 1796 1797 1798 1799 1800 1801 1802 1803 1804 1805 1806 1807 1808 1809 1810 1811 1812 1813 1814 1815 1816 1817 1818 1819 1820 1821 1822 1823 1824 1825 1826 1827 1828 1829 1830 1831 1832 1833 1834 1835 1836 1837 1838 1839 1840 1841 1842 1843 1844 1845 1846 1847 1848 1849 1850 1851 1852 1853 1854 1855 1856 1857 1858 1859 1860 1861 1862 1863 1864 1865 1866 1867 1868 1869 1870 1871 1872 1873 1874 1875 1876 1877 1878 1879 1880 1881 1882 1883 1884 1885 1886 1887 1888 1889 1890 1891 1892 1893 1894 1895 1896 1897 1898 1899 1900 1901 1902 1903 1904 1905 1906 1907 1908 1909 1910 1911 1912 1913 1914 1915 1916 1917 1918 1919 1920 1921 1922 1923 1924 1925 1926 1927 1928 1929 1930 1931 1932 1933 1934 1935 1936 1937 1938 1939 1940 1941 1942 1943 1944 1945 1946 1947 1948 1949 1950 1951 1952 1953 1954 1955 1956 1957 1958 1959 1960 1961 1962 1963 1964 1965 1966 1967 1968 1969 1970 1971 1972 1973 1974 1975 1976 1977 1978 1979 1980 1981 1982 1983 1984 1985 1986 1987 1988 1989 1990 1991 1992 1993 1994 1995 1996 1997 1998 1999 2000 2001 2002 2003 2004 2005 2006 2007 2008 2009 2010 2011 2012 2013 2014 2015 2016 2017 2018 2019 2020 2021 2022 2023 2024 2025 2026 2027 2028 2029 2030 2031 2032 2033 2034 2035 2036 2037 2038 2039 2040 2041 2042 2043 2044 2045 2046 2047 2048 2049 2050 2051 2052 2053 2054 2055 2056 2057 2058 2059 2060 2061 2062 2063 2064 2065 2066 2067 2068 2069 2070 2071 2072 2073 2074 2075 2076 2077 2078 2079 2080 2081 2082 2083 2084 2085 2086 2087 2088 2089 2090 2091 2092 2093 2094 2095 2096 2097 2098 2099 2100 2101 2102 2103 2104 2105 2106 2107 2108 2109 2110 2111 2112 2113 2114 2115 2116 2117 2118 2119 2120 2121 2122 2123 2124 2125 2126 2127 2128 2129 2130 2131 2132 2133 2134 2135 2136 2137 2138 2139 2140 2141 2142 2143 2144 2145 2146 2147 2148 2149 2150 2151 2152 2153 2154 2155 2156 2157 2158 2159 2160 2161 2162 2163 2164 2165 2166 2167 2168 2169 2170 2171 2172 2173 2174 2175 2176 2177 2178 2179 2180 2181 2182 2183 2184 2185 2186 2187 2188 2189 2190 2191 2192 2193 2194 2195 2196 2197 2198 2199 2200 2201 2202 2203 2204 2205 2206 2207 2208 2209 2210 2211 2212 2213 2214 2215 2216 2217 2218 2219 2220 2221 2222 2223 2224 2225 2226 2227 2228 2229 2230 2231 2232 2233 2234 2235 2236 2237 2238 2239 2240 2241 2242 2243 2244 2245 2246 2247 2248 2249 2250 2251 2252 2253 2254 2255 2256 2257 2258 2259 2260 2261 2262 2263 2264 2265 2266 2267 2268 2269 2270 2271 2272 2273 2274 2275 2276 2277 2278 2279 2280 2281 2282 2283 2284 2285 2286 2287 2288 2289 2290 2291 2292 2293 2294 2295 2296 2297 2298 2299 2300 2301 2302 2303 2304 2305 2306 2307 2308 2309 2310 2311 2312 2313 2314 2315 2316 2317 2318 2319 2320 2321 2322 2323 2324 2325 2326 2327 2328 2329 2330 2331 2332 2333 2334 2335 2336 2337 2338 2339 2340 2341 2342 2343 2344 2345 2346 2347 2348 2349 2350 2351 2352 2353 2354 2355 2356 2357 2358 2359 2360 2361 2362 2363 2364 2365 2366 2367 2368 2369 2370 2371 2372 2373 2374 2375 2376 2377 2378 2379 2380 2381 2382 2383 2384 2385 2386 2387 2388 2389 2390 2391 2392 2393 2394 2395 2396 2397 2398 2399 2400 2401 2402 2403 2404 2405 2406 2407 2408 2409 2410 2411 2412 2413 2414 2415 2416 2417 2418 2419 2420 2421 2422 2423 2424 2425 2426 2427 2428 2429 2430 2431 2432 2433 2434 2435 2436 2437 2438 2439 2440 2441 2442 2443 2444 2445 2446 2447 2448 2449 2450 2451 2452 2453 2454 2455 2456 2457 2458 2459 2460 2461 2462 2463 2464 2465 2466 2467 2468 2469 2470 2471 2472 2473 2474 2475 2476 2477 2478 2479 2480 2481 2482 2483 2484 2485 2486 2487 2488 2489 2490 2491 2492 2493 2494 2495 2496 2497 2498 2499 2500 2501 2502 2503 2504 2505 2506 2507 2508 2509 2510 2511 2512 2513 2514 2515 2516 2517 2518 2519 2520 2521 2522 2523 2524 2525 2526 2527 2528 2529 2530 2531 2532 2533 2534 2535 2536 2537 2538 2539 2540 2541 2542 2543 2544 2545 2546 2547 2548 2549 2550 2551 2552 2553 2554 2555 2556 2557 2558 2559 2560 2561 2562 2563 2564 2565 2566 2567 2568 2569 2570 2571 2572 2573 2574 2575 2576 2577 2578 2579 2580 2581 2582 2583 2584 2585 2586 2587 2588 2589 2590 2591 2592 2593 2594 2595 2596 2597 2598 2599 2600 2601 2602 2603 2604 2605 2606 2607 2608 2609 2610 2611 2612 2613 2614 2615 2616 2617 2618 2619 2620 2621 2622 2623 2624 2625 2626 2627 2628 2629 2630 2631 2632 2633 2634 2635 2636 2637 2638 2639 2640 2641 2642 2643 2644 2645 2646 2647 2648 2649 2650 2651 2652 2653 2654 2655 2656 2657 2658 2659 2660 2661 2662 2663 2664 2665 2666 2667 2668 2669 2670 2671 2672 2673 2674 2675 2676 2677 2678 2679 2680 2681 2682 2683 2684 2685 2686 2687 2688 2689 2690 2691 2692 2693 2694 2695 2696 2697 2698 2699 2700 2701 2702 2703 2704 2705 2706 2707 2708 2709 2710 2711 2712 2713 2714 2715 2716 2717 2718 2719 2720 2721 2722 2723 2724 2725 2726 2727 2728 2729 2730 2731 2732 2733 2734 2735 2736 2737 2738 2739 2740 2741 2742 2743 2744 2745 2746 2747 2748 2749 2750 2751 2752 2753 2754 2755 2756 2757 2758 2759 2760 2761 2762 2763 2764 2765 2766 2767 2768 2769 2770 2771 2772 2773 2774 2775 2776 2777 2778 2779 2780 2781 2782 2783 2784 2785 2786 2787 2788 2789 2790 2791 2792 2793 2794 2795 2796 2797 2798 2799 2800 2801 2802 2803 2804 2805 2806 2807 2808 2809 2810 2811 2812 2813 2814 2815 2816 2817 2818 2819 2820 2821 2822 2823 2824 2825 2826 2827 2828 2829 2830 2831 2832 2833 2834 2835 2836 2837 2838 2839 2840 2841 2842 2843 2844 2845 2846 2847 2848 2849 2850 2851 2852 2853 2854 2855 2856 2857 2858 2859 2860 2861 2862 2863 2864 2865 2866 2867 2868 2869 2870 2871 2872 2873 2874 2875 2876 2877 2878 2879 2880 2881 2882 2883 2884 2885 2886 2887 2888 2889 2890 2891 2892 2893 2894 2895 2896 2897 2898 2899 2900 2901 2902 2903 2904 2905 2906 2907 2908 2909 2910 2911 2912 2913 2914 2915 2916 2917 2918 2919 2920 2921 2922 2923 2924 2925 2926 2927 2928 2929 2930 2931 2932 2933 2934 2935 2936 2937 2938 2939 2940 2941 2942 2943 2944 2945 2946 2947 2948 2949 2950 2951 2952 2953 2954 2955 2956 2957 2958 2959 2960 2961 2962 2963 2964 2965 2966 2967 2968 2969 2970 2971 2972 2973 2974 2975 2976 2977 2978 2979 2980 2981 2982 2983 2984 2985 2986 2987 2988 2989 2990 2991 2992 2993 2994 2995 2996 2997 2998 2999 3000 3001 3002 3003 3004 3005 3006 3007 3008 3009 3010 3011 3012 3013 3014 3015 3016 3017 3018 3019 3020 3021 3022 3023 3024 3025 3026 3027 3028 3029 3030 3031 3032 3033 3034 3035 3036 3037 3038 3039 3040 3041 3042 3043 3044 3045 3046 3047 3048 3049 3050 3051 3052 3053 3054 3055 3056 3057 3058 3059 3060 3061 3062 3063 3064 3065 3066 3067 3068 3069 3070 3071 3072 3073 3074 3075 3076 3077 3078 3079 3080 3081 3082 3083 3084 3085 3086 3087 3088 3089 3090 3091 3092 3093 3094 3095 3096 3097 3098 3099 3100 3101 3102 3103 3104 3105 3106 3107 3108 3109 3110 3111 3112 3113 3114 3115 3116 3117 3118 3119 3120 3121 3122 3123 3124 3125 3126 3127 3128 3129 3130 3131 3132 3133 3134 3135 3136 3137 3138 3139 3140 3141 3142 3143 3144 3145 3146 3147 3148 3149 3150 3151 3152 3153 3154 3155 3156 3157 3158 3159 3160 3161 3162 3163 3164 3165 3166 3167 3168 3169 3170 3171 3172 3173 3174 3175 3176 3177 3178 3179 3180 3181 3182 3183 3184 3185 3186 3187 3188 3189 3190 3191 3192 3193 3194 3195 3196 3197 3198 3199 3200 3201 3202 3203 3204 3205 3206 3207 3208 3209 3210 3211 3212 3213 3214 3215 3216 3217 3218 3219 3220 3221 3222 3223 3224 3225 3226 3227 3228 3229 3230 3231 3232 3233 3234 3235 3236 3237 3238 3239 3240 3241 3242 3243 3244 3245 3246 3247 3248 3249 3250 3251 3252 3253 3254 3255 3256 3257 3258 3259 3260 3261 3262 3263 3264 3265 3266 3267 3268 3269 3270 3271 3272 3273 3274 3275 3276 3277 3278 3279 3280 3281 3282 3283 3284 3285 3286 3287 3288 3289 3290 3291 3292 3293 3294 3295 3296 3297 3298 3299 3300 3301 3302 3303 3304 3305 3306 3307 3308 3309 3310 3311 3312 3313 3314 3315 3316 3317 3318 3319 3320 3321 3322 3323 3324 3325 3326 3327 3328 3329 3330 3331 3332 3333 3334 3335 3336 3337 3338 3339 3340 3341 3342 3343 3344 3345 3346 3347 3348 3349 3350 3351 3352 3353 3354 3355 3356 3357 3358 3359 3360 3361 3362 3363 3364 3365 3366 3367 3368 3369 3370 3371 3372 3373 3374 3375 3376 3377 3378 3379 3380 3381 3382 3383 3384 3385 3386 3387 3388 3389 3390 3391 3392 3393 3394 3395 3396 3397 3398 3399 3400 3401 3402 3403 3404 3405 3406 3407 3408 3409 3410 3411 3412 3413 3414 3415 3416 3417 3418 3419 3420 3421 3422 3423 3424 3425 3426 3427 3428 3429 3430 3431 3432 3433 3434 3435 3436 3437 3438 3439 3440 3441 3442 3443 3444 3445 3446 3447 3448 3449 3450 3451 3452 3453 3454 3455 3456 3457 3458 3459 3460 3461 3462 3463 3464 3465 3466 3467 3468 3469 3470 3471 3472 3473 3474 3475 3476 3477 3478 3479 3480 3481 3482 3483 3484 3485 3486 3487 3488 3489 3490 3491 3492 3493 3494 3495 3496 3497 3498 3499 3500 3501 3502 3503 3504 3505 3506 3507 3508 3509 3510 3511 3512 3513 3514 3515 3516 3517 3518 3519 3520 3521 3522 3523 3524 3525 3526 3527 3528 3529 3530 3531 3532 3533 3534 3535 3536 3537 3538 3539 3540 3541 3542 3543 3544 3545 3546 3547 3548 3549 3550 3551 3552 3553 3554 3555 3556 3557 3558 3559 3560 3561 3562 3563 3564 3565 3566 3567 3568 3569 3570 3571 3572 3573 3574 3575 3576 3577 3578 3579 3580 3581 3582 3583 3584 3585 3586 3587 3588 3589 3590 3591 3592 3593 3594 3595 3596 3597 3598 3599 3600 3601 3602 3603 3604 3605 3606 3607 3608 3609 3610 3611 3612 3613 3614 3615 3616 3617 3618 3619 3620 3621 3622 3623 3624 3625 3626 3627 3628 3629 3630 3631 3632 3633 3634 3635 3636 3637 3638 3639 3640 3641 3642 3643 3644 3645 3646 3647 3648 3649 3650 3651 3652 3653 3654 3655 3656 3657 3658 3659 3660 3661 3662 3663 3664 3665 3666 3667 3668 3669 3670 3671 3672 3673 3674 3675 3676 3677 3678 3679 3680 3681 3682 3683 3684 3685 3686 3687 3688 3689 3690 3691 3692 3693 3694 3695 3696 3697 3698 3699 3700 3701 3702 3703 3704 3705 3706 3707 3708 3709 3710 3711 3712 3713 3714 3715 3716 3717 3718 3719 3720 3721 3722 3723 3724 3725 3726 3727 3728 3729 3730 3731 3732 3733 3734 3735 3736 3737 3738 3739 3740 3741 3742 3743 3744 3745 3746 3747 3748 3749 3750 3751 3752 3753 3754 3755 3756 3757 3758 3759 3760 3761 3762 3763 3764 3765 3766 3767 3768 3769 3770 3771 3772 3773 3774 3775 3776 3777 3778 3779 3780 3781 3782 3783 3784 3785 3786 3787 3788 3789 3790 3791 3792 3793 3794 3795 3796 3797 3798 3799 3800 3801 3802 3803 3804 3805 3806 3807 3808 3809 3810 3811 3812 3813 3814 3815 3816 3817 3818 3819 3820 3821 3822 3823 3824 3825 3826 3827 3828 3829 3830 3831 3832 3833 3834 3835 3836 3837 3838 3839 3840 3841 3842 3843 3844 3845 3846 3847 3848 3849 3850 3851 3852 3853 3854 3855 3856 3857 3858 3859 3860 3861 3862 3863 3864 3865 3866 3867 3868 3869 3870 3871 3872 3873 3874 3875 3876 3877 3878 3879 3880 3881 3882 3883 3884 3885 3886 3887 3888 3889 3890 3891 3892 3893 3894 3895 3896 3897 3898 3899 3900 3901 3902 3903 3904 3905 3906 3907 3908 3909 3910 3911 3912 3913 3914 3915 3916 3917 3918 3919 3920 3921 3922 3923 3924 3925 3926 3927 3928 3929 3930 3931 3932 3933 3934 3935 3936 3937 3938 3939 3940 3941 3942 3943 3944 3945 3946 3947 3948 3949 3950 3951 3952 3953 3954 3955 3956 3957 3958 3959 3960 3961 3962 3963 3964 3965 3966 3967 3968 3969 3970 3971 3972 3973 3974 3975 3976 3977 3978 3979 3980 3981 3982 3983 3984 3985 3986 3987 3988 3989 3990 3991 3992 3993 3994 3995 3996 3997 3998 3999 4000 4001 4002 4003 4004 4005 4006 4007 4008 4009 4010 4011 4012 4013 4014 4015 4016 4017 4018 4019 4020 4021 4022 4023 4024 4025 4026 4027 4028 4029 4030 4031 4032 4033 4034 4035 4036 4037 4038 4039 4040 4041 4042 4043 4044 4045 4046 4047 4048 4049 4050 4051 4052 4053 4054 4055 4056 4057 4058 4059 4060 4061 4062 4063 4064 4065 4066 4067 4068 4069 4070 4071 4072 4073 4074 4075 4076 4077 4078 4079 4080 4081 4082 4083 4084 4085 4086 4087 4088 4089 4090 4091 4092 4093 4094 4095 4096 4097 4098 4099 4100 4101 4102 4103 4104 4105 4106 4107 4108 4109 4110 4111 4112 4113 4114 4115 4116 4117 4118 4119 4120 4121 4122 4123 4124 4125 4126 4127 4128 4129 4130 4131 4132 4133 4134 4135 4136 4137 4138 4139 4140 4141 4142 4143 4144 4145 4146 4147 4148 4149 4150 4151 4152 4153 4154 4155 4156 4157 4158 4159 4160 4161 4162 4163 4164 4165 4166 4167 4168 4169 4170 4171 4172 4173 4174 4175 4176 4177 4178 4179 4180 4181 4182 4183 4184 4185 4186 4187 4188 4189 4190 4191 4192 4193 4194 4195 4196 4197 4198 4199 4200 4201 4202 4203 4204 4205 4206 4207 4208 4209 4210 4211 4212 4213 4214 4215 4216 4217 4218 4219 4220 4221 4222 4223 4224 4225 4226 4227 4228 4229 4230 4231 4232 4233 4234 4235 4236 4237 4238 4239 4240 4241 4242 4243 4244 4245 4246 4247 4248 4249 4250 4251 4252 4253 4254 4255 4256 4257 4258 4259 4260 4261 4262 4263 4264 4265 4266 4267 4268 4269 4270 4271 4272 4273 4274 4275 4276 4277 4278 4279 4280 4281 4282 4283 4284 4285 4286 4287 4288 4289 4290 4291 4292 4293 4294 4295 4296 4297 4298 4299 4300 4301 4302 4303 4304 4305 4306 4307 4308 4309 4310 4311 4312 4313 4314 4315 4316 4317 4318 4319 4320 4321 4322 4323 4324 4325 4326 4327 4328 4329 4330 4331 4332 4333 4334 4335 4336 4337 4338 4339 4340 4341 4342 4343 4344 4345 4346 4347 4348 4349 4350 4351 4352 4353 4354 4355 4356 4357 4358 4359 4360 4361 4362 4363 4364 4365 4366 4367 4368 4369 4370 4371 4372 4373 4374 4375 4376 4377 4378 4379 4380 4381 4382 4383 4384 4385 4386 4387 4388 4389 4390 4391 4392 4393 4394 4395 4396 4397 4398 4399 4400 4401 4402 4403 4404 4405 4406 4407 4408 4409 4410 4411 4412 4413 4414 4415 4416 4417 4418 4419 4420 4421 4422 4423 4424 4425 4426 4427 4428 4429 4430 4431 4432 4433 4434 4435 4436 4437 4438 4439 4440 4441 4442 4443 4444 4445 4446 4447 4448 4449 4450 4451 4452 4453 4454 4455 4456 4457 4458 4459 4460 4461 4462 4463 4464 4465 4466 4467 4468 4469 4470 4471 4472 4473 4474 4475 4476 4477 4478 4479 4480 4481 4482 4483 4484 4485 4486 4487 4488 4489 4490 4491 4492 4493 4494 4495 4496 4497 4498 4499 4500 4501 4502 4503 4504 4505 4506 4507 4508 4509 4510 4511 4512 4513 4514 4515 4516 4517 4518 4519 4520 4521 4522 4523 4524 4525 4526 4527 4528 4529 4530 4531 4532 4533 4534 4535 4536 4537 4538 4539 4540 4541 4542 4543 4544 4545 4546 4547 4548 4549 4550 4551 4552 4553 4554 4555 4556 4557 4558 4559 4560 4561 4562 4563 4564 4565 4566 4567 4568 4569 4570 4571 4572 4573 4574 4575 4576 4577 4578 4579 4580 4581 4582 4583 4584 4585 4586 4587 4588 4589 4590 4591 4592 4593 4594 4595 4596 4597 4598 4599 4600 4601 4602 4603 4604 4605 4606 4607 4608 4609 4610 4611 4612 4613 4614 4615 4616 4617 4618 4619 4620 4621 4622 4623 4624 4625 4626 4627 4628 4629 4630 4631 4632 4633 4634 4635 4636 4637 4638 4639 4640 4641 4642 4643 4644 4645 4646 4647 4648 4649 4650 4651 4652 4653 4654 4655 4656 4657 4658 4659 4660 4661 4662 4663 4664 4665 4666 4667 4668 4669 4670 4671 4672 4673 4674 4675 4676 4677 4678 4679 4680 4681 4682 4683 4684 4685 4686 4687 4688 4689 4690 4691 4692 4693 4694 4695 4696 4697 4698 4699 4700 4701 4702 4703 4704 4705 4706 4707 4708 4709 4710 4711 4712 4713 4714 4715 4716 4717 4718 4719 4720 4721 4722 4723 4724 4725 4726 4727 4728 4729 4730 4731 4732 4733 4734 4735 4736 4737 4738 4739 4740 4741 4742 4743 4744 4745 4746 4747 4748 4749 4750 4751 4752 4753 4754 4755 4756 4757 4758 4759 4760 4761 4762 4763 4764 4765 4766 4767 4768 4769 4770 4771 4772 4773 4774 4775 4776 4777 4778 4779 4780 4781 4782 4783 4784 4785 4786 4787 4788 4789 4790 4791 4792 4793 4794 4795 4796 4797 4798 4799 4800 4801 4802 4803 4804 4805 4806 4807 4808 4809 4810 4811 4812 4813 4814 4815 4816 4817 4818 4819 4820 4821 4822 4823 4824 4825 4826 4827 4828 4829 4830 4831 4832 4833 4834 4835 4836 4837 4838 4839 4840 4841 4842 4843 4844 4845 4846 4847 4848 4849 4850 4851 4852 4853 4854 4855 4856 4857 4858 4859 4860 4861 4862 4863 4864 4865 4866 4867 4868 4869 4870 4871 4872 4873 4874 4875 4876 4877 4878 4879 4880 4881 4882 4883 4884 4885 4886 4887 4888 4889 4890 4891 4892 4893 4894 4895 4896 4897 4898 4899 4900 4901 4902 4903 4904 4905 4906 4907 4908 4909 4910 4911 4912 4913 4914 4915 4916 4917 4918 4919 4920 4921 4922 4923 4924 4925 4926 4927 4928 4929 4930 4931 4932 4933 4934 4935 4936 4937 4938 4939 4940 4941 4942 4943 4944 4945 4946 4947 4948 4949 4950 4951 4952 4953 4954 4955 4956 4957 4958 4959 4960 4961 4962 4963 4964 4965 4966 4967 4968 4969 4970 4971 4972 4973 4974 4975 4976 4977 4978 4979 4980 4981 4982 4983 4984 4985 4986 4987 4988 4989 4990 4991 4992 4993 4994 4995 4996 4997 4998 4999 5000 5001 5002 5003 5004 5005 5006 5007 5008 5009 5010 5011 5012 5013 5014 5015 5016 5017 5018 5019 5020 5021 5022 5023 5024 5025 5026 5027 5028 5029 5030 5031 5032 5033 5034 5035 5036 5037 5038 5039 5040 5041 5042 5043 5044 5045 5046 5047 5048 5049 5050 5051 5052 5053 5054 5055 5056 5057 5058 5059 5060 5061 5062 5063 5064 5065 5066 5067 5068 5069 5070 5071 5072 5073 5074 5075 5076 5077 5078 5079 5080 5081 5082 5083 5084 5085 5086 5087 5088 5089 5090 5091 5092 5093 5094 5095 5096 5097 5098 5099 5100 5101 5102 5103 5104 5105 5106 5107 5108 5109 5110 5111 5112 5113 5114 5115 5116 5117 5118 5119 5120 5121 5122 5123 5124 5125 5126 5127 5128 5129 5130 5131 5132 5133 5134 5135 5136 5137 5138 5139 5140 5141 5142 5143 5144 5145 5146 5147 5148 5149 5150 5151 5152 5153 5154 5155 5156 5157 5158 5159 5160 5161 5162 5163 5164 5165 5166 5167 5168 5169 5170 5171 5172 5173 5174 5175 5176 5177 5178 5179 5180 5181 5182 5183 5184 5185 5186 5187 5188 5189 5190 5191 5192 5193 5194 5195 5196 5197 5198 5199 5200 5201 5202 5203 5204 5205 5206 5207 5208 5209 5210 5211 5212 5213 5214 5215 5216 5217 5218 5219 5220 5221 5222 5223 5224 5225 5226 5227 5228 5229 5230 5231 5232 5233 5234 5235 5236 5237 5238 5239 5240 5241 5242 5243 5244 5245 5246 5247 5248 5249 5250 5251 5252 5253 5254 5255 5256 5257 5258 5259 5260 5261 5262 5263 5264 5265 5266 5267 5268 5269 5270 5271 5272 5273 5274 5275 5276 5277 5278 5279 5280 5281 5282 5283 5284 5285 5286 5287 5288 5289 5290 5291 5292 5293 5294 5295 5296 5297 5298 5299 5300 5301 5302 5303 5304 5305 5306 5307 5308 5309 5310 5311 5312 5313 5314 5315 5316 5317 5318 5319 5320 5321 5322 5323 5324 5325 5326 5327 5328 5329 5330 5331 5332 5333 5334 5335 5336 5337 5338 5339 5340 5341 5342 5343 5344 5345 5346 5347 5348 5349 5350 5351 5352 5353 5354 5355 5356 5357 5358 5359 5360 5361 5362 5363 5364 5365 5366 5367 5368 5369 5370 5371 5372 5373 5374 5375 5376 5377 5378 5379 5380 5381 5382 5383 5384 5385 5386 5387 5388 5389 5390 5391 5392 5393 5394 5395 5396 5397 5398 5399 5400 5401 5402 5403 5404 5405 5406 5407 5408 5409 5410 5411 5412 5413 5414 5415 5416 5417 5418 5419 5420 5421 5422 5423 5424 5425 5426 5427 5428 5429 5430 5431 5432 5433 5434 5435 5436 5437 5438 5439 5440 5441 5442 5443 5444 5445 5446 5447 5448 5449 5450 5451 5452 5453 5454 5455 5456 5457 5458 5459 5460 5461 5462 5463 5464 5465 5466 5467 5468 5469 5470 5471 5472 5473 5474 5475 5476 5477 5478 5479 5480 5481 5482 5483 5484 5485 5486 5487 5488 5489 5490 5491 5492 5493 5494 5495 5496 5497 5498 5499 5500 5501 5502 5503 5504 5505 5506 5507 5508 5509 5510 5511 5512 5513 5514 5515 5516 5517 5518 5519 5520 5521 5522 5523 5524 5525 5526 5527 5528 5529 5530 5531 5532 5533 5534 5535 5536 5537 5538 5539 5540 5541 5542 5543 5544 5545 5546 5547 5548 5549 5550 5551 5552 5553 5554 5555 5556 5557 5558 5559 5560 5561 5562 5563 5564 5565 5566 5567 5568 5569 5570 5571 5572 5573 5574 5575 5576 5577 5578 5579 5580 5581 5582 5583 5584 5585 5586 5587 5588 5589 5590 5591 5592 5593 5594 5595 5596 5597 5598 5599 5600 5601 5602 5603 5604 5605 5606 5607 5608 5609 5610 5611 5612 5613 5614 5615 5616 5617 5618 5619 5620 5621 5622 5623 5624 5625 5626 5627 5628 5629 5630 5631 5632 5633 5634 5635 5636 5637 5638 5639 5640 5641 5642 5643 5644 5645 5646 5647 5648 5649 5650 5651 5652 5653 5654 5655 5656 5657 5658 5659 5660 5661 5662 5663 5664 5665 5666 5667 5668 5669 5670 5671 5672 5673 5674 5675 5676 5677 5678 5679 5680 5681 5682 5683 5684 5685 5686 5687 5688 5689 5690 5691 5692 5693 5694 5695 5696 5697 5698 5699 5700 5701 5702 5703 5704 5705 5706 5707 5708 5709 5710 5711 5712 5713 5714 5715 5716 5717 5718 5719 5720 5721 5722 5723 5724 5725 5726 5727 5728 5729 5730 5731 5732 5733 5734 5735 5736 5737 5738 5739 5740 5741 5742 5743 5744 5745 5746 5747 5748 5749 5750 5751 5752 5753 5754 5755 5756 5757 5758 5759 5760 5761 5762 5763 5764 5765 5766 5767 5768 5769 5770 5771 5772 5773 5774 5775 5776 5777 5778 5779 5780 5781 5782 5783 5784 5785 5786 5787 5788 5789 5790 5791 5792 5793 5794 5795 5796 5797 5798 5799 5800 5801 5802 5803 5804 5805 5806 5807 5808 5809 5810 5811 5812 5813 5814 5815 5816 5817 5818 5819 5820 5821 5822 5823 5824 5825 5826 5827 5828 5829 5830 5831 5832 5833 5834 5835 5836 5837 5838 5839 5840 5841 5842 5843 5844 5845 5846 5847 5848 5849 5850 5851 5852 5853 5854 5855 5856 5857 5858 5859 5860 5861 5862 5863 5864 5865 5866 5867 5868 5869 5870 5871 5872 5873 5874 5875 5876 5877 5878 5879 5880 5881 5882 5883 5884 5885 5886 5887 5888 5889 5890 5891 5892 5893 5894 5895 5896 5897 5898 5899 5900 5901 5902 5903 5904 5905 5906 5907 5908 5909 5910 5911 5912 5913 5914 5915 5916 5917 5918 5919 5920 5921 5922 5923 5924 5925 5926 5927 5928 5929 5930 5931 5932 5933 5934 5935 5936 5937 5938 5939 5940 5941 5942 5943 5944 5945 5946 5947 5948 5949 5950 5951 5952 5953 5954 5955 5956 5957 5958 5959 5960 5961 5962 5963 5964 5965 5966 5967 5968 5969 5970 5971 5972 5973 5974 5975 5976 5977 5978 5979 5980 5981 5982 5983 5984 5985 5986 5987 5988 5989 5990 5991 5992 5993 5994 5995 5996 5997 5998 5999 6000 6001 6002 6003 6004 6005 6006 6007 6008 6009 6010 6011 6012 6013 6014 6015 6016 6017 6018 6019 6020 6021 6022 6023 6024 6025 6026 6027 6028 6029 6030 6031 6032 6033 6034 6035 6036 6037 6038 6039 6040 6041 6042 6043 6044 6045 6046 6047 6048 6049 6050 6051 6052 6053 6054 6055 6056 6057 6058 6059 6060 6061 6062 6063 6064 6065 6066 6067 6068 6069 6070 6071 6072 6073 6074 6075 6076 6077 6078 6079 6080 6081 6082 6083 6084 6085 6086 6087 6088 6089 6090 6091 6092 6093 6094 6095 6096 6097 6098 6099 6100 6101 6102 6103 6104 6105 6106 6107 6108 6109 6110 6111 6112 6113 6114 6115 6116 6117 6118 6119 6120 6121 6122 6123 6124 6125 6126 6127 6128 6129 6130 6131 6132 6133 6134 6135 6136 6137 6138 6139 6140 6141 6142 6143 6144 6145 6146 6147 6148 6149 6150 6151 6152 6153 6154 6155 6156 6157 6158 6159 6160 6161 6162 6163 6164 6165 6166 6167 6168 6169 6170 6171 6172 6173 6174 6175 6176 6177 6178 6179 6180 6181 6182 6183 6184 6185 6186 6187 6188 6189 6190 6191 6192 6193 6194 6195 6196 6197 6198 6199 6200 6201 6202 6203 6204 6205 6206 6207 6208 6209 6210 6211 6212 6213 6214 6215 6216 6217 6218 6219 6220 6221 6222 6223 6224 6225 6226 6227 6228 6229 6230 6231 6232 6233 6234 6235 6236 6237 6238 6239 6240 6241 6242 6243 6244 6245 6246 6247 6248 6249 6250 6251 6252 6253 6254 6255 6256 6257 6258 6259 6260 6261 6262 6263 6264 6265 6266 6267 6268 6269 6270 6271 6272 6273 6274 6275 6276 6277 6278 6279 6280 6281 6282 6283 6284 6285 6286 6287 6288 6289 6290 6291 6292 6293 6294 6295 6296 6297 6298 6299 6300 6301 6302 6303 6304 6305 6306 6307 6308 6309 6310 6311 6312 6313 6314 6315 6316 6317 6318 6319 6320 6321 6322 6323 6324 6325 6326 6327 6328 6329 6330 6331 6332 6333 6334 6335 6336 6337 6338 6339 6340 6341 6342 6343 6344 6345 6346 6347 6348 6349 6350 6351 6352 6353 6354 6355 6356 6357 6358 6359 6360 6361 6362 6363 6364 6365 6366 6367 6368 6369 6370 6371 6372 6373 6374 6375 6376 6377 6378 6379 6380 6381 6382 6383 6384 6385 6386 6387 6388 6389 6390 6391 6392 6393 6394 6395 6396 6397 6398 6399 6400 6401 6402 6403 6404 6405 6406 6407 6408 6409 6410 6411 6412 6413 6414 6415 6416 6417 6418 6419 6420 6421 6422 6423 6424 6425 6426 6427 6428 6429 6430 6431 6432 6433 6434 6435 6436 6437 6438 6439 6440 6441 6442 6443 6444 6445 6446 6447 6448 6449 6450 6451 6452 6453 6454 6455 6456 6457 6458 6459 6460 6461 6462 6463 6464 6465 6466 6467 6468 6469 6470 6471 6472 6473 6474 6475 6476 6477 6478 6479 6480 6481 6482 6483 6484 6485 6486 6487 6488 6489 6490 6491 6492 6493 6494 6495 6496 6497 6498 6499 6500 6501 6502 6503 6504 6505 6506 6507 6508 6509 6510 6511 6512 6513 6514 6515 6516 6517 6518 6519 6520 6521 6522 6523 6524 6525 6526 6527 6528 6529 6530 6531 6532 6533 6534 6535 6536 6537 6538 6539 6540 6541 6542 6543 6544 6545 6546 6547 6548 6549 6550 6551 6552 6553 6554 6555 6556 6557 6558 6559 6560 6561 6562 6563 6564 6565 6566 6567 6568 6569 6570 6571 6572 6573 6574 6575 6576 6577 6578 6579 6580 6581 6582 6583 6584 6585 6586 6587 6588 6589 6590 6591 6592 6593 6594 6595 6596 6597 6598 6599 6600 6601 6602 6603 6604 6605 6606 6607 6608 6609 6610 6611 6612 6613 6614 6615 6616 6617 6618 6619 6620 6621 6622 6623 6624 6625 6626 6627 6628 6629 6630 6631 6632 6633 6634 6635 6636 6637 6638 6639 6640 6641 6642 6643 6644 6645 6646 6647 6648 6649 6650 6651 6652 6653 6654 6655 6656 6657 6658 6659 6660 6661 6662 6663 6664 6665 6666 6667 6668 6669 6670 6671 6672 6673 6674 6675 6676 6677 6678 6679 6680 6681 6682 6683 6684 6685 6686 6687 6688 6689 6690 6691 6692 6693 6694 6695 6696 6697 6698 6699 6700 6701 6702 6703 6704 6705 6706 6707 6708 6709 6710 6711 6712 6713 6714 6715 6716 6717 6718 6719 6720 6721 6722 6723 6724 6725 6726 6727 6728 6729 6730 6731 6732 6733 6734 6735 6736 6737 6738 6739 6740 6741 6742 6743 6744 6745 6746 6747 6748 6749 6750 6751 6752 6753 6754 6755 6756 6757 6758 6759 6760 6761 6762 6763 6764 6765 6766 6767 6768 6769 6770 6771 6772 6773 6774 6775 6776 6777 6778 6779 6780 6781 6782 6783 6784 6785 6786 6787 6788 6789 6790 6791 6792 6793 6794 6795 6796 6797 6798 6799 6800 6801 6802 6803 6804 6805 6806 6807 6808 6809 6810 6811 6812 6813 6814 6815 6816 6817 6818 6819 6820 6821 6822 6823 6824 6825 6826 6827 6828 6829 6830 6831 6832 6833 6834 6835 6836 6837 6838 6839 6840 6841 6842 6843 6844 6845 6846 6847 6848 6849 6850 6851 6852 6853 6854 6855 6856 6857 6858 6859 6860 6861 6862 6863 6864 6865 6866 6867 6868 6869 6870 6871 6872 6873 6874 6875 6876 6877 6878 6879 6880 6881 6882 6883 6884 6885 6886 6887 6888 6889 6890 6891 6892 6893 6894 6895 6896 6897 6898 6899 6900 6901 6902 6903 6904 6905 6906 6907 6908 6909 6910 6911 6912 6913 6914 6915 6916 6917 6918 6919 6920 6921 6922 6923 6924 6925 6926 6927 6928 6929 6930 6931 6932 6933 6934 6935 6936 6937 6938 6939 6940 6941 6942 6943 6944 6945 6946 6947 6948 6949 6950 6951 6952 6953 6954 6955 6956 6957 6958 6959 6960 6961 6962 6963 6964 6965 6966 6967 6968 6969 6970 6971 6972 6973 6974 6975 6976 6977 6978 6979 6980 6981 6982 6983 6984 6985 6986 6987 6988 6989 6990 6991 6992 6993 6994 6995 6996 6997 6998 6999 7000 7001 7002 7003 7004 7005 7006 7007 7008 7009 7010 7011 7012 7013 7014 7015 7016 7017 7018 7019 7020 7021 7022 7023 7024 7025 7026 7027 7028 7029 7030 7031 7032 7033 7034 7035 7036 7037 7038 7039 7040 7041 7042 7043 7044 7045 7046 7047 7048 7049 7050 7051 7052 7053 7054 7055 7056 7057 7058 7059 7060 7061 7062 7063 7064 7065 7066 7067 7068 7069 7070 7071 7072 7073 7074 7075 7076 7077 7078 7079 7080 7081 7082 7083 7084 7085 7086 7087 7088 7089 7090 7091 7092 7093 7094 7095 7096 7097 7098 7099 7100 7101 7102 7103 7104 7105 7106 7107 7108 7109 7110 7111 7112 7113 7114 7115 7116 7117 7118 7119 7120 7121 7122 7123 7124 7125 7126 7127 7128 7129 7130 7131 7132 7133 7134 7135 7136 7137 7138 7139 7140 7141 7142 7143 7144 7145 7146 7147 7148 7149 7150 7151 7152 7153 7154 7155 7156 7157 7158 7159 7160 7161 7162 7163 7164 7165 7166 7167 7168 7169 7170 7171 7172 7173 7174 7175 7176 7177 7178 7179 7180 7181 7182 7183 7184 7185 7186 7187 7188 7189 7190 7191 7192 7193 7194 7195 7196 7197 7198 7199 7200 7201 7202 7203 7204 7205 7206 7207 7208 7209 7210 7211 7212 7213 7214 7215 7216 7217 7218 7219 7220 7221 7222 7223 7224 7225 7226 7227 7228 7229 7230 7231 7232 7233 7234 7235 7236 7237 7238 7239 7240 7241 7242 7243 7244 7245 7246 7247 7248 7249 7250 7251 7252 7253 7254 7255 7256 7257 7258 7259 7260 7261 7262 7263 7264 7265 7266 7267 7268 7269 7270 7271 7272 7273 7274 7275 7276 7277 7278 7279 7280 7281 7282 7283 7284 7285 7286 7287 7288 7289 7290 7291 7292 7293 7294 7295 7296 7297 7298 7299 7300 7301 7302 7303 7304 7305 7306 7307 7308 7309 7310 7311 7312 7313 7314 7315 7316 7317 7318 7319 7320 7321 7322 7323 7324 7325 7326 7327 7328 7329 7330 7331 7332 7333 7334 7335 7336 7337 7338 7339 7340 7341 7342 7343 7344 7345 7346 7347 7348 7349 7350 7351 7352 7353 7354 7355 7356 7357 7358 7359 7360 7361 7362 7363 7364 7365 7366 7367 7368 7369 7370 7371 7372 7373 7374 7375 7376 7377 7378 7379 7380 7381 7382 7383 7384 7385 7386 7387 7388 7389 7390 7391 7392 7393 7394 7395 7396 7397 7398 7399 7400 7401 7402 7403 7404 7405 7406 7407 7408 7409 7410 7411 7412 7413 7414 7415 7416 7417 7418 7419 7420 7421 7422 7423 7424 7425 7426 7427 7428 7429 7430 7431 7432 7433 7434 7435 7436 7437 7438 7439 7440 7441 7442 7443 7444 7445 7446 7447 7448 7449 7450 7451 7452 7453 7454 7455 7456 7457 7458 7459 7460 7461 7462 7463 7464 7465 7466 7467 7468 7469 7470 7471 7472 7473 7474 7475 7476 7477 7478 7479 7480 7481 7482 7483 7484 7485 7486 7487 7488 7489 7490 7491 7492 7493 7494 7495 7496 7497 7498 7499 7500 7501 7502 7503 7504 7505 7506 7507 7508 7509 7510 7511 7512 7513 7514 7515 7516 7517 7518 7519 7520 7521 7522 7523 7524 7525 7526 7527 7528 7529 7530 7531 7532 7533 7534 7535 7536 7537 7538 7539 7540 7541 7542 7543 7544 7545 7546 7547 7548 7549 7550 7551 7552 7553 7554 7555 7556 7557 7558 7559 7560 7561 7562 7563 7564 7565 7566 7567 7568 7569 7570 7571 7572 7573 7574 7575 7576 7577 7578 7579 7580 7581 7582 7583 7584 7585 7586 7587 7588 7589 7590 7591 7592 7593 7594 7595 7596 7597 7598 7599 7600 7601 7602 7603 7604 7605 7606 7607 7608 7609 7610 7611 7612 7613 7614 7615 7616 7617 7618 7619 7620 7621 7622 7623 7624 7625 7626 7627 7628 7629 7630 7631 7632 7633 7634 7635 7636 7637 7638 7639 7640 7641 7642 7643 7644 7645 7646 7647 7648 7649 7650 7651 7652 7653 7654 7655 7656 7657 7658 7659 7660 7661 7662 7663 7664 7665 7666 7667 7668 7669 7670 7671 7672 7673 7674 7675 7676 7677 7678 7679 7680 7681 7682 7683 7684 7685 7686 7687 7688 7689 7690 7691 7692 7693 7694 7695 7696 7697 7698 7699 7700 7701 7702 7703 7704 7705 7706 7707 7708 7709 7710 7711 7712 7713 7714 7715 7716 7717 7718 7719 7720 7721 7722 7723 7724 7725 7726 7727 7728 7729 7730 7731 7732 7733 7734 7735 7736 7737 7738 7739 7740 7741 7742 7743 7744 7745 7746 7747 7748 7749 7750 7751 7752 7753 7754 7755 7756 7757 7758 7759 7760 7761 7762 7763 7764 7765 7766 7767 7768 7769 7770 7771 7772 7773 7774 7775 7776 7777 7778 7779 7780 7781 7782 7783 7784 7785 7786 7787 7788 7789 7790 7791 7792 7793 7794 7795 7796 7797 7798 7799 7800 7801 7802 7803 7804 7805 7806 7807 7808 7809 7810 7811 7812 7813 7814 7815 7816 7817 7818 7819 7820 7821 7822 7823 7824 7825 7826 7827 7828 7829 7830 7831 7832 7833 7834 7835 7836 7837 7838 7839 7840 7841 7842 7843 7844 7845 7846 7847 7848 7849 7850 7851 7852 7853 7854 7855 7856 7857 7858 7859 7860 7861 7862 7863 7864 7865 7866 7867 7868 7869 7870 7871 7872 7873 7874 7875 7876 7877 7878 7879 7880 7881 7882 7883 7884 7885 7886 7887 7888 7889 7890 7891 7892 7893 7894 7895 7896 7897 7898 7899 7900 7901 7902 7903 7904 7905 7906 7907 7908 7909 7910 7911 7912 7913 7914 7915 7916 7917 7918 7919 7920 7921 7922 7923 7924 7925 7926 7927 7928 7929 7930 7931 7932 7933 7934 7935 7936 7937 7938 7939 7940 7941 7942 7943 7944 7945 7946 7947 7948 7949 7950 7951 7952 7953 7954 7955 7956 7957 7958 7959 7960 7961 7962 7963 7964 7965 7966 7967 7968 7969 7970 7971 7972 7973 7974 7975 7976 7977 7978 7979 7980 7981 7982 7983 7984 7985 7986 7987 7988 7989 7990 7991 7992 7993 7994 7995 7996 7997 7998 7999 8000 8001 8002 8003 8004 8005 8006 8007 8008 8009 8010 8011 8012 8013 8014 8015 8016 8017 8018 8019 8020 8021 8022 8023 8024 8025 8026 8027 8028 8029 8030 8031 8032 8033 8034 8035 8036 8037 8038 8039 8040 8041 8042 8043 8044 8045 8046 8047 8048 8049 8050 8051 8052 8053 8054 8055 8056 8057 8058 8059 8060 8061 8062 8063 8064 8065 8066 8067 8068 8069 8070 8071 8072 8073 8074 8075 8076 8077 8078 8079 8080 8081 8082 8083 8084 8085 8086 8087 8088 8089 8090 8091 8092 8093 8094 8095 8096 8097 8098 8099 8100 8101 8102 8103 8104 8105 8106 8107 8108 8109 8110 8111 8112 8113 8114 8115 8116 8117 8118 8119 8120 8121 8122 8123 8124 8125 8126 8127 8128 8129 8130 8131 8132 8133 8134 8135 8136 8137 8138 8139 8140 8141 8142 8143 8144 8145 8146 8147 8148 8149 8150 8151 8152 8153 8154 8155 8156 8157 8158 8159 8160 8161 8162 8163 8164 8165 8166 8167 8168 8169 8170 8171 8172 8173 8174 8175 8176 8177 8178 8179 8180 8181 8182 8183 8184 8185 8186 8187 8188 8189 8190 8191 8192 8193 8194 8195 8196 8197 8198 8199 8200 8201 8202 8203 8204 8205 8206 8207 8208 8209 8210 8211 8212 8213 8214 8215 8216 8217 8218 8219 8220 8221 8222 8223 8224 8225 8226 8227 8228 8229 8230 8231 8232 8233 8234 8235 8236 8237 8238 8239 8240 8241 8242 8243 8244 8245 8246 8247 8248 8249 8250 8251 8252 8253 8254 8255 8256 8257 8258 8259 8260 8261 8262 8263 8264 8265 8266 8267 8268 8269 8270 8271 8272 8273 8274 8275 8276 8277 8278 8279 8280 8281 8282 8283 8284 8285 8286 8287 8288 8289 8290 8291 8292 8293 8294 8295 8296 8297 8298 8299 8300 8301 8302 8303 8304 8305 8306 8307 8308 8309 8310 8311 8312 8313 8314 8315 8316 8317 8318 8319 8320 8321 8322 8323 8324 8325 8326 8327 8328 8329 8330 8331 8332 8333 8334 8335 8336 8337 8338 8339 8340 8341 8342 8343 8344 8345 8346 8347 8348 8349 8350 8351 8352 8353 8354 8355 8356 8357 8358 8359 8360 8361 8362 8363 8364 8365 8366 8367 8368 8369 8370 8371 8372 8373 8374 8375 8376 8377 8378 8379 8380 8381 8382 8383 8384 8385 8386 8387 8388 8389 8390 8391 8392 8393 8394 8395 8396 8397 8398 8399 8400 8401 8402 8403 8404 8405 8406 8407 8408 8409 8410 8411 8412 8413 8414 8415 8416 8417 8418 8419 8420 8421 8422 8423 8424 8425 8426 8427 8428 8429 8430 8431 8432 8433 8434 8435 8436 8437 8438 8439 8440 8441 8442 8443 8444 8445 8446 8447 8448 8449 8450 8451 8452 8453 8454 8455 8456 8457 8458 8459 8460 8461 8462 8463 8464 8465 8466 8467 8468 8469 8470 8471 8472 8473 8474 8475 8476 8477 8478 8479 8480 8481 8482 8483 8484 8485 8486 8487 8488 8489 8490 8491 8492 8493 8494 8495 8496 8497 8498 8499 8500 8501 8502 8503 8504 8505 8506 8507 8508 8509 8510 8511 8512 8513 8514 8515 8516 8517 8518 8519 8520 8521 8522 8523 8524 8525 8526 8527 8528 8529 8530 8531 8532 8533 8534 8535 8536 8537 8538 8539 8540 8541 8542 8543 8544 8545 8546 8547 8548 8549 8550 8551 8552 8553 8554 8555 8556 8557 8558 8559 8560 8561 8562 8563 8564 8565 8566 8567 8568 8569 8570 8571 8572 8573 8574 8575 8576 8577 8578 8579 8580 8581 8582 8583 8584 8585 8586 8587 8588 8589 8590 8591 8592 8593 8594 8595 8596 8597 8598 8599 8600 8601 8602 8603 8604 8605 8606 8607 8608 8609 8610 8611 8612 8613 8614 8615 8616 8617 8618 8619 8620 8621 8622 8623 8624 8625 8626 8627 8628 8629 8630 8631 8632 8633 8634 8635 8636 8637 8638 8639 8640 8641 8642 8643 8644 8645 8646 8647 8648 8649 8650 8651 8652 8653 8654 8655 8656 8657 8658 8659 8660 8661 8662 8663 8664 8665 8666 8667 8668 8669 8670 8671 8672 8673 8674 8675 8676 8677 8678 8679 8680 8681 8682 8683 8684 8685 8686 8687 8688 8689 8690 8691 8692 8693 8694 8695 8696 8697 8698 8699 8700 8701 8702 8703 8704 8705 8706 8707 8708 8709 8710 8711 8712 8713 8714 8715 8716 8717 8718 8719 8720 8721 8722 8723 8724 8725 8726 8727 8728 8729 8730 8731 8732 8733 8734 8735 8736 8737 8738 8739 8740 8741 8742 8743 8744 8745 8746 8747 8748 8749 8750 8751 8752 8753 8754 8755 8756 8757 8758 8759 8760 8761 8762 8763 8764 8765 8766 8767 8768 8769 8770 8771 8772 8773 8774 8775 8776 8777 8778 8779 8780 8781 8782 8783 8784 8785 8786 8787 8788 8789 8790 8791 8792 8793 8794 8795 8796 8797 8798 8799 8800 8801 8802 8803 8804 8805 8806 8807 8808 8809 8810 8811 8812 8813 8814 8815 8816 8817 8818 8819 8820 8821 8822 8823 8824 8825 8826 8827 8828 8829 8830 8831 8832 8833 8834 8835 8836 8837 8838 8839 8840 8841 8842 8843 8844 8845 8846 8847 8848 8849 8850 8851 8852 8853 8854 8855 8856 8857 8858 8859 8860 8861 8862 8863 8864 8865 8866 8867 8868 8869 8870 8871 8872 8873 8874 8875 8876 8877 8878 8879 8880 8881 8882 8883 8884 8885 8886 8887 8888 8889 8890 8891 8892 8893 8894 8895 8896 8897 8898 8899 8900 8901 8902 8903 8904 8905 8906 8907 8908 8909 8910 8911 8912 8913 8914 8915 8916 8917 8918 8919 8920 8921 8922 8923 8924 8925 8926 8927 8928 8929 8930 8931 8932 8933 8934 8935 8936 8937 8938 8939 8940 8941 8942 8943 8944 8945 8946 8947 8948 8949 8950 8951 8952 8953 8954 8955 8956 8957 8958 8959 8960 8961 8962 8963 8964 8965 8966 8967 8968 8969 8970 8971 8972 8973 8974 8975 8976 8977 8978 8979 8980 8981 8982 8983 8984 8985 8986 8987 8988 8989 8990 8991 8992 8993 8994 8995 8996 8997 8998 8999 9000 9001 9002 9003 9004 9005 9006 9007 9008 9009 9010 9011 9012 9013 9014 9015 9016 9017 9018 9019 9020 9021 9022 9023 9024 9025 9026 9027 9028 9029 9030 9031 9032 9033 9034 9035 9036 9037 9038 9039 9040 9041 9042 9043 9044 9045 9046 9047 9048 9049 9050 9051 9052 9053 9054 9055 9056 9057 9058 9059 9060 9061 9062 9063 9064 9065 9066 9067 9068 9069 9070 9071 9072 9073 9074 9075 9076 9077 9078 9079 9080 9081 9082 9083 9084 9085 9086 9087 9088 9089 9090 9091 9092 9093 9094 9095 9096 9097 9098 9099 9100 9101 9102 9103 9104 9105 9106 9107 9108 9109 9110 9111 9112 9113 9114 9115 9116 9117 9118 9119 9120 9121 9122 9123 9124 9125 9126 9127 9128 9129 9130 9131 9132 9133 9134 9135 9136 9137 9138 9139 9140 9141 9142 9143 9144 9145 9146 9147 9148 9149 9150 9151 9152 9153 9154 9155 9156 9157 9158 9159 9160 9161 9162 9163 9164 9165 9166 9167 9168 9169 9170 9171 9172 9173 9174 9175 9176 9177 9178 9179 9180 9181 9182 9183 9184 9185 9186 9187 9188 9189 9190 9191 9192 9193 9194 9195 9196 9197 9198 9199 9200 9201 9202 9203 9204 9205 9206 9207 9208 9209 9210 9211 9212 9213 9214 9215 9216 9217 9218 9219 9220 9221 9222 9223 9224 9225 9226 9227 9228 9229 9230 9231 9232 9233 9234 9235 9236 9237 9238 9239 9240 9241 9242 9243 9244 9245 9246 9247 9248 9249 9250 9251 9252 9253 9254 9255 9256 9257 9258 9259 9260 9261 9262 9263 9264 9265 9266 9267 9268 9269 9270 9271 9272 9273 9274 9275 9276 9277 9278 9279 9280 9281 9282 9283 9284 9285 9286 9287 9288 9289 9290 9291 9292 9293 9294 9295 9296 9297 9298 9299 9300 9301 9302 9303 9304 9305 9306 9307 9308 9309 9310 9311 9312 9313 9314 9315 9316 9317 9318 9319 9320 9321 9322 9323 9324 9325 9326 9327 9328 9329 9330 9331 9332 9333 9334 9335 9336 9337 9338 9339 9340 9341 9342 9343 9344 9345 9346 9347 9348 9349 9350 9351 9352 9353 9354 9355 9356 9357 9358 9359 9360 9361 9362 9363 9364 9365 9366 9367 9368 9369 9370 9371 9372 9373 9374 9375 9376 9377 9378 9379 9380 9381 9382 9383 9384 9385 9386 9387 9388 9389 9390 9391 9392 9393 9394 9395 9396 9397 9398 9399 9400 9401 9402 9403 9404 9405 9406 9407 9408 9409 9410 9411 9412 9413 9414 9415 9416 9417 9418 9419 9420 9421 9422 9423 9424 9425 9426 9427 9428 9429 9430 9431 9432 9433 9434 9435 9436 9437 9438 9439 9440 9441 9442 9443 9444 9445 9446 9447 9448 9449 9450 9451 9452 9453 9454 9455 9456 9457 9458 9459 9460 9461 9462 9463 9464 9465 9466 9467 9468 9469 9470 9471 9472 9473 9474 9475 9476 9477 9478 9479 9480 9481 9482 9483 9484 9485 9486 9487 9488 9489 9490 9491 9492 9493 9494 9495 9496 9497 9498 9499 9500 9501 9502 9503 9504 9505 9506 9507 9508 9509 9510 9511 9512 9513 9514 9515 9516 9517 9518 9519 9520 9521 9522 9523 9524 9525 9526 9527 9528 9529 9530 9531 9532 9533 9534 9535 9536 9537 9538 9539 9540 9541 9542 9543 9544 9545 9546 9547 9548 9549 9550 9551 9552 9553 9554 9555 9556 9557 9558 9559 9560 9561 9562 9563 9564 9565 9566 9567 9568 9569 9570 9571 9572 9573 9574 9575 9576 9577 9578 9579 9580 9581 9582 9583 9584 9585 9586 9587 9588 9589 9590 9591 9592 9593 9594 9595 9596 9597 9598 9599 9600 9601 9602 9603 9604 9605 9606 9607 9608 9609 9610 9611 9612 9613 9614 9615 9616 9617 9618 9619 9620 9621 9622 9623 9624 9625 9626 9627 9628 9629 9630 9631 9632 9633 9634 9635 9636 9637 9638 9639 9640 9641 9642 9643 9644 9645 9646 9647 9648 9649 9650 9651 9652 9653 9654 9655 9656 9657 9658 9659 9660 9661 9662 9663 9664 9665 9666 9667 9668 9669 9670 9671 9672 9673 9674 9675 9676 9677 9678 9679 9680 9681 9682 9683 9684 9685 9686 9687 9688 9689 9690 9691 9692 9693 9694 9695 9696 9697 9698 9699 9700 9701 9702 9703 9704 9705 9706 9707 9708 9709 9710 9711 9712 9713 9714 9715 9716 9717 9718 9719 9720 9721 9722 9723 9724 9725 9726 9727 9728 9729 9730 9731 9732 9733 9734 9735 9736 9737 9738 9739 9740 9741 9742 9743 9744 9745 9746 9747 9748 9749 9750 9751 9752 9753 9754 9755 9756 9757 9758 9759 9760 9761 9762 9763 9764 9765 9766 9767 9768 9769 9770 9771 9772 9773 9774 9775 9776 9777 9778 9779 9780 9781 9782 9783 9784 9785 9786 9787 9788 9789 9790 9791 9792 9793 9794 9795 9796 9797 9798 9799 9800 9801 9802 9803 9804 9805 9806 9807 9808 9809 9810 9811 9812 9813 9814 9815 9816 9817 9818 9819 9820 9821 9822 9823 9824 9825 9826 9827 9828 9829 9830 9831 9832 9833 9834 9835 9836 9837 9838 9839 9840 9841 9842 9843 9844 9845 9846 9847 9848 9849 9850 9851 9852 9853 9854 9855 9856 9857 9858 9859 9860 9861 9862 9863 9864 9865 9866 9867 9868 9869 9870 9871 9872 9873 9874 9875 9876 9877 9878 9879 9880 9881 9882 9883 9884 9885 9886 9887 9888 9889 9890 9891 9892 9893 9894 9895 9896 9897 9898 9899 9900 9901 9902 9903 9904 9905 9906 9907 9908 9909 9910 9911 9912 9913 9914 9915 9916 9917 9918 9919 9920 9921 9922 9923 9924 9925 9926 9927 9928 9929 9930 9931 9932 9933 9934 9935 9936 9937 9938 9939 9940 9941 9942 9943 9944 9945 9946 9947 9948 9949 9950 9951 9952 9953 9954 9955 9956 9957 9958 9959 9960 9961 9962 9963 9964 9965 9966 9967 9968 9969 9970 9971 9972 9973 9974 9975 9976 9977 9978 9979 9980 9981 9982 9983 9984 9985 9986 9987 9988 9989 9990 9991 9992 9993 9994 9995 9996 9997 9998 9999 10000 10001 10002 10003 10004 10005 10006 10007 10008 10009 10010 10011 10012 10013 10014 10015 10016 10017 10018 10019 10020 10021 10022 10023 10024 10025 10026 10027 10028 10029 10030 10031 10032 10033 10034 10035 10036 10037 10038 10039 10040 10041 10042 10043 10044 10045 10046 10047 10048 10049 10050 10051 10052 10053 10054 10055 10056 10057 10058 10059 10060 10061 10062 10063 10064 10065 10066 10067 10068 10069 10070 10071 10072 10073 10074 10075 10076 10077 10078 10079 10080 10081 10082 10083 10084 10085 10086 10087 10088 10089 10090 10091 10092 10093 10094 10095 10096 10097 10098 10099 10100 10101 10102 10103 10104 10105 10106 10107 10108 10109 10110 10111 10112 10113 10114 10115 10116 10117 10118 10119 10120 10121 10122 10123 10124 10125 10126 10127 10128 10129 10130 10131 10132 10133 10134 10135 10136 10137 10138 10139 10140 10141 10142 10143 10144 10145 10146 10147 10148 10149 10150 10151 10152 10153 10154 10155 10156 10157 10158 10159 10160 10161 10162 10163 10164 10165 10166 10167 10168 10169 10170 10171 10172 10173 10174 10175 10176 10177 10178 10179 10180 10181 10182 10183 10184 10185 10186 10187 10188 10189 10190 10191 10192 10193 10194 10195 10196 10197 10198 10199 10200 10201 10202 10203 10204 10205 10206 10207 10208 10209 10210 10211 10212 10213 10214 10215 10216 10217 10218 10219 10220 10221 10222 10223 10224 10225 10226 10227 10228 10229 10230 10231 10232 10233 10234 10235 10236 10237 10238 10239 10240 10241 10242 10243 10244 10245 10246 10247 10248 10249 10250 10251 10252 10253 10254 10255 10256 10257 10258 10259 10260 10261 10262 10263 10264 10265 10266 10267 10268 10269 10270 10271 10272 10273 10274 10275 10276 10277 10278 10279 10280 10281 10282 10283 10284 10285 10286 10287 10288 10289 10290 10291 10292 10293 10294 10295 10296 10297 10298 10299 10300 10301 10302 10303 10304 10305 10306 10307 10308 10309 10310 10311 10312 10313 10314 10315 10316 10317 10318 10319 10320 10321 10322 10323 10324 10325 10326 10327 10328 10329 10330 10331 10332 10333 10334 10335 10336 10337 10338 10339 10340 10341 10342 10343 10344 10345 10346 10347 10348 10349 10350 10351 10352 10353 10354 10355 10356 10357 10358 10359 10360 10361 10362 10363 10364 10365 10366 10367 10368 10369 10370 10371 10372 10373 10374 10375 10376 10377 10378 10379 10380 10381 10382 10383 10384 10385 10386 10387 10388 10389 10390 10391 10392 10393 10394 10395 10396 10397 10398 10399 10400 10401 10402 10403 10404 10405 10406 10407 10408 10409 10410 10411 10412 10413 10414 10415 10416 10417 10418 10419 10420 10421 10422 10423 10424 10425 10426 10427 10428 10429 10430 10431 10432 10433 10434 10435 10436 10437 10438 10439 10440 10441 10442 10443 10444 10445 10446 10447 10448 10449 10450 10451 10452 10453 10454 10455 10456 10457 10458 10459 10460 10461 10462 10463 10464 10465 10466 10467 10468 10469 10470 10471 10472 10473 10474 10475 10476 10477 10478 10479 10480 10481 10482 10483 10484 10485 10486 10487 10488 10489 10490 10491 10492 10493 10494 10495 10496 10497 10498 10499 10500 10501 10502 10503 10504 10505 10506 10507 10508 10509 10510 10511 10512 10513 10514 10515 10516 10517 10518 10519 10520 10521 10522 10523 10524 10525 10526 10527 10528 10529 10530 10531 10532 10533 10534 10535 10536 10537 10538 10539 10540 10541 10542 10543 10544 10545 10546 10547 10548 10549 10550 10551 10552 10553 10554 10555 10556 10557 10558 10559 10560 10561 10562 10563 10564 10565 10566 10567 10568 10569 10570 10571 10572 10573 10574 10575 10576 10577 10578 10579 10580 10581 10582 10583 10584 10585 10586 10587 10588 10589 10590 10591 10592 10593 10594 10595 10596 10597 10598 10599 10600 10601 10602 10603 10604 10605 10606 10607 10608 10609 10610 10611 10612 10613 10614 10615 10616 10617 10618 10619 10620 10621 10622 10623 10624 10625 10626 10627 10628 10629 10630 10631 10632 10633 10634 10635 10636 10637 10638 10639 10640 10641 10642 10643 10644 10645 10646 10647 10648 10649 10650 10651 10652 10653 10654 10655 10656 10657 10658 10659 10660 10661 10662 10663 10664 10665 10666 10667 10668 10669 10670 10671 10672 10673 10674 10675 10676 10677 10678 10679 10680 10681 10682 10683 10684 10685 10686 10687 10688 10689 10690 10691 10692 10693 10694 10695 10696 10697 10698 10699 10700 10701 10702 10703 10704 10705 10706 10707 10708 10709 10710 10711 10712 10713 10714 10715 10716 10717 10718 10719 10720 10721 10722 10723 10724 10725 10726 10727 10728 10729 10730 10731 10732 10733 10734 10735 10736 10737 10738 10739 10740 10741 10742 10743 10744 10745 10746 10747 10748 10749 10750 10751 10752 10753 10754 10755 10756 10757 10758 10759 10760 10761 10762 10763 10764 10765 10766 10767 10768 10769 10770 10771 10772 10773 10774 10775 10776 10777 10778 10779 10780 10781 10782 10783 10784 10785 10786 10787 10788 10789 10790 10791 10792 10793 10794 10795 10796 10797 10798 10799 10800 10801 10802 10803 10804 10805 10806 10807 10808 10809 10810 10811 10812 10813 10814 10815 10816 10817 10818 10819 10820 10821 10822 10823 10824 10825 10826 10827 10828 10829 10830 10831 10832 10833 10834 10835 10836 10837 10838 10839 10840 10841 10842 10843 10844 10845 10846 10847 10848 10849 10850 10851 10852 10853 10854 10855 10856 10857 10858 10859 10860 10861 10862 10863 10864 10865 10866 10867 10868 10869 10870 10871 10872 10873 10874 10875 10876 10877 10878 10879 10880 10881 10882 10883 10884 10885 10886 10887 10888 10889 10890 10891 10892 10893 10894 10895 10896 10897 10898 10899 10900 10901 10902 10903 10904 10905 10906 10907 10908 10909 10910 10911 10912 10913 10914 10915 10916 10917 10918 10919 10920 10921 10922 10923 10924 10925 10926 10927 10928 10929 10930 10931 10932 10933 10934 10935 10936 10937 10938 10939 10940 10941 10942 10943 10944 10945 10946 10947 10948 10949 10950 10951 10952 10953 10954 10955 10956 10957 10958 10959 10960 10961 10962 10963 10964 10965 10966 10967 10968 10969 10970 10971 10972 10973 10974 10975 10976 10977 10978 10979 10980 10981 10982 10983 10984 10985 10986 10987 10988 10989 10990 10991 10992 10993 10994 10995 10996 10997 10998 10999 11000 11001 11002 11003 11004 11005 11006 11007 11008 11009 11010 11011 11012 11013 11014 11015 11016 11017 11018 11019 11020 11021 11022 11023 11024 11025 11026 11027 11028 11029 11030 11031 11032 11033 11034 11035 11036 11037 11038 11039 11040 11041 11042 11043 11044 11045 11046 11047 11048 11049 11050 11051 11052 11053 11054 11055 11056 11057 11058 11059 11060 11061 11062 11063 11064 11065 11066 11067 11068 11069 11070 11071 11072 11073 11074 11075 11076 11077 11078 11079 11080 11081 11082 11083 11084 11085 11086 11087 11088 11089 11090 11091 11092 11093 11094 11095 11096 11097 11098 11099 11100 11101 11102 11103 11104 11105 11106 11107 11108 11109 11110 11111 11112 11113 11114 11115 11116 11117 11118 11119 11120 11121 11122 11123 11124 11125 11126 11127 11128 11129 11130 11131 11132 11133 11134 11135 11136 11137 11138 11139 11140 11141 11142 11143 11144 11145 11146 11147 11148 11149 11150 11151 11152 11153 11154 11155 11156 11157 11158 11159 11160 11161 11162 11163 11164 11165 11166 11167 11168 11169 11170 11171 11172 11173 11174 11175 11176 11177 11178 11179 11180 11181 11182 11183 11184 11185 11186 11187 11188 11189 11190 11191 11192 11193 11194 11195 11196 11197 11198 11199 11200 11201 11202 11203 11204 11205 11206 11207 11208 11209 11210 11211 11212 11213 11214 11215 11216 11217 11218 11219 11220 11221 11222 11223 11224 11225 11226 11227 11228 11229 11230 11231 11232 11233 11234 11235 11236 11237 11238 11239 11240 11241 11242 11243 11244 11245 11246 11247 11248 11249 11250 11251 11252 11253 11254 11255 11256 11257 11258 11259 11260 11261 11262 11263 11264 11265 11266 11267 11268 11269 11270 11271 11272 11273 11274 11275 11276 11277 11278 11279 11280 11281 11282 11283 11284 11285 11286 11287 11288 11289 11290 11291 11292 11293 11294 11295 11296 11297 11298 11299 11300 11301 11302 11303 11304 11305 11306 11307 11308 11309 11310 11311 11312 11313 11314 11315 11316 11317 11318 11319 11320 11321 11322 11323 11324 11325 11326 11327 11328 11329 11330 11331 11332 11333 11334 11335 11336 11337 11338 11339 11340 11341 11342 11343 11344 11345 11346 11347 11348 11349 11350 11351 11352 11353 11354 11355 11356 11357 11358 11359 11360 11361 11362 11363 11364 11365 11366 11367 11368 11369 11370 11371 11372 11373 11374 11375 11376 11377 11378 11379 11380 11381 11382 11383 11384 11385 11386 11387 11388 11389 11390 11391 11392 11393 11394 11395 11396 11397 11398 11399 11400 11401 11402 11403 11404 11405 11406 11407 11408 11409 11410 11411 11412 11413 11414 11415 11416 11417 11418 11419 11420 11421 11422 11423 11424 11425 11426 11427 11428 11429 11430 11431 11432 11433 11434 11435 11436 11437 11438 11439 11440 11441 11442 11443 11444 11445 11446 11447 11448 11449 11450 11451 11452 11453 11454 11455 11456 11457 11458 11459 11460 11461 11462 11463 11464 11465 11466 11467 11468 11469 11470 11471 11472 11473 11474 11475 11476 11477 11478 11479 11480 11481 11482 11483 11484 11485 11486 11487 11488 11489 11490 11491 11492 11493 11494 11495 11496 11497 11498 11499 11500 11501 11502 11503 11504 11505 11506 11507 11508 11509 11510 11511 11512 11513 11514 11515 11516 11517 11518 11519 11520 11521 11522 11523 11524 11525 11526 11527 11528 11529 11530 11531 11532 11533 11534 11535 11536 11537 11538 11539 11540 11541 11542 11543 11544 11545 11546 11547 11548 11549 11550 11551 11552 11553 11554 11555 11556 11557 11558 11559 11560 11561 11562 11563 11564 11565 11566 11567 11568 11569 11570 11571 11572 11573 11574 11575 11576 11577 11578 11579 11580 11581 11582 11583 11584 11585 11586 11587 11588 11589 11590 11591 11592 11593 11594 11595 11596 11597 11598 11599 11600 11601 11602 11603 11604 11605 11606 11607 11608 11609 11610 11611 11612 11613 11614 11615 11616 11617 11618 11619 11620 11621 11622 11623 11624 11625 11626 11627 11628 11629 11630 11631 11632 11633 11634 11635 11636 11637 11638 11639 11640 11641 11642 11643 11644 11645 11646 11647 11648 11649 11650 11651 11652 11653 11654 11655 11656 11657 11658 11659 11660 11661 11662 11663 11664 11665 11666 11667 11668 11669 11670 11671 11672 11673 11674 11675 11676 11677 11678 11679 11680 11681 11682 11683 11684 11685 11686 11687 11688 11689 11690 11691 11692 11693 11694 11695 11696 11697 11698 11699 11700 11701 11702 11703 11704 11705 11706 11707 11708 11709 11710 11711 11712 11713 11714 11715 11716 11717 11718 11719 11720 11721 11722 11723 11724 11725 11726 11727 11728 11729 11730 11731 11732 11733 11734 11735 11736 11737 11738 11739 11740 11741 11742 11743 11744 11745 11746 11747 11748 11749 11750 11751 11752 11753 11754 11755 11756 11757 11758 11759 11760 11761 11762 11763 11764 11765 11766 11767 11768 11769 11770 11771 11772 11773 11774 11775 11776 11777 11778 11779 11780 11781 11782 11783 11784 11785 11786 11787 11788 11789 11790 11791 11792 11793 11794 11795 11796 11797 11798 11799 11800 11801 11802 11803 11804 11805 11806 11807 11808 11809 11810 11811 11812 11813 11814 11815 11816 11817 11818 11819 11820 11821 11822 11823 11824 11825 11826 11827 11828 11829 11830 11831 11832 11833 11834 11835 11836 11837 11838 11839 11840 11841 11842 11843 11844 11845 11846 11847 11848 11849 11850 11851 11852 11853 11854 11855 11856 11857 11858 11859 11860 11861 11862 11863 11864 11865 11866 11867 11868 11869 11870 11871 11872 11873 11874 11875 11876 11877 11878 11879 11880 11881 11882 11883 11884 11885 11886 11887 11888 11889 11890 11891 11892 11893 11894 11895 11896 11897 11898 11899 11900 11901 11902 11903 11904 11905 11906 11907 11908 11909 11910 11911 11912 11913 11914 11915 11916 11917 11918 11919 11920 11921 11922 11923 11924 11925 11926 11927 11928 11929 11930 11931 11932 11933 11934 11935 11936 11937 11938 11939 11940 11941 11942 11943 11944 11945 11946 11947 11948 11949 11950 11951 11952 11953 11954 11955 11956 11957 11958 11959 11960 11961 11962 11963 11964 11965 11966 11967 11968 11969 11970 11971 11972 11973 11974 11975 11976 11977 11978 11979 11980 11981 11982 11983 11984 11985 11986 11987 11988 11989 11990 11991 11992 11993 11994 11995 11996 11997 11998 11999 12000 12001 12002 12003 12004 12005 12006 12007 12008 12009 12010 12011 12012 12013 12014 12015 12016 12017 12018 12019 12020 12021 12022 12023 12024 12025 12026 12027 12028 12029 12030 12031 12032 12033 12034 12035 12036 12037 12038 12039 12040 12041 12042 12043 12044 12045 12046 12047 12048 12049 12050 12051 12052 12053 12054 12055 12056 12057 12058 12059 12060 12061 12062 12063 12064 12065 12066 12067 12068 12069 12070 12071 12072 12073 12074 12075 12076 12077 12078 12079 12080 12081 12082 12083 12084 12085 12086 12087 12088 12089 12090 12091 12092 12093 12094 12095 12096 12097 12098 12099 12100 12101 12102 12103 12104 12105 12106 12107 12108 12109 12110 12111 12112 12113 12114 12115 12116 12117 12118 12119 12120 12121 12122 12123 12124 12125 12126 12127 12128 12129 12130 12131 12132 12133 12134 12135 12136 12137 12138 12139 12140 12141 12142 12143 12144 12145 12146 12147 12148 12149 12150 12151 12152 12153 12154 12155 12156 12157 12158 12159 12160 12161 12162 12163 12164 12165 12166 12167 12168 12169 12170 12171 12172 12173 12174 12175 12176 12177 12178 12179 12180 12181 12182 12183 12184 12185 12186 12187 12188 12189 12190 12191 12192 12193 12194 12195 12196 12197 12198 12199 12200 12201 12202 12203 12204 12205 12206 12207 12208 12209 12210 12211 12212 12213 12214 12215 12216 12217 12218 12219 12220 12221 12222 12223 12224 12225 12226 12227 12228 12229 12230 12231 12232 12233 12234 12235 12236 12237 12238 12239 12240 12241 12242 12243 12244 12245 12246 12247 12248 12249 12250 12251 12252 12253 12254 12255 12256 12257 12258 12259 12260 12261 12262 12263 12264 12265 12266 12267 12268 12269 12270 12271 12272 12273 12274 12275 12276 12277 12278 12279 12280 12281 12282 12283 12284 12285 12286 12287 12288 12289 12290 12291 12292 12293 12294 12295 12296 12297 12298 12299 12300 12301 12302 12303 12304 12305 12306 12307 12308 12309 12310 12311 12312 12313 12314 12315 12316 12317 12318 12319 12320 12321 12322 12323 12324 12325 12326 12327 12328 12329 12330 12331 12332 12333 12334 12335 12336 12337 12338 12339 12340 12341 12342 12343 12344 12345 12346 12347 12348 12349 12350 12351 12352 12353 12354 12355 12356 12357 12358 12359 12360 12361 12362 12363 12364 12365 12366 12367 12368 12369 12370 12371 12372 12373 12374 12375 12376 12377 12378 12379 12380 12381 12382 12383 12384 12385 12386 12387 12388 12389 12390 12391 12392 12393 12394 12395 12396 12397 12398 12399 12400 12401 12402 12403 12404 12405 12406 12407 12408 12409 12410 12411 12412 12413 12414 12415 12416 12417 12418 12419 12420 12421 12422 12423 12424 12425 12426 12427 12428 12429 12430 12431 12432 12433 12434 12435 12436 12437 12438 12439 12440 12441 12442 12443 12444 12445 12446 12447 12448 12449 12450 12451 12452 12453 12454 12455 12456 12457 12458 12459 12460 12461 12462 12463 12464 12465 12466 12467 12468 12469 12470 12471 12472 12473 12474 12475 12476 12477 12478 12479 12480 12481 12482 12483 12484 12485 12486 12487 12488 12489 12490 12491 12492 12493 12494 12495 12496 12497 12498 12499 12500 12501 12502 12503 12504 12505 12506 12507 12508 12509 12510 12511 12512 12513 12514 12515 12516 12517 12518 12519 12520 12521 12522 12523 12524 12525 12526 12527 12528 12529 12530 12531 12532 12533 12534 12535 12536 12537 12538 12539 12540 12541 12542 12543 12544 12545 12546 12547 12548 12549 12550 12551 12552 12553 12554 12555 12556 12557 12558 12559 12560 12561 12562 12563 12564 12565 12566 12567 12568 12569 12570 12571 12572 12573 12574 12575 12576 12577 12578 12579 12580 12581 12582 12583 12584 12585 12586 12587 12588 12589 12590 12591 12592 12593 12594 12595 12596 12597 12598 12599 12600 12601 12602 12603 12604 12605 12606 12607 12608 12609 12610 12611 12612 12613 12614 12615 12616 12617 12618 12619 12620 12621 12622 12623 12624 12625 12626 12627 12628 12629 12630 12631 12632 12633 12634 12635 12636 12637 12638 12639 12640 12641 12642 12643 12644 12645 12646 12647 12648 12649 12650 12651 12652 12653 12654 12655 12656 12657 12658 12659 12660 12661 12662 12663 12664 12665 12666 12667 12668 12669 12670 12671 12672 12673 12674 12675 12676 12677 12678 12679 12680 12681 12682 12683 12684 12685 12686 12687 12688 12689 12690 12691 12692 12693 12694 12695 12696 12697 12698 12699 12700 12701 12702 12703 12704 12705 12706 12707 12708 12709 12710 12711 12712 12713 12714 12715 12716 12717 12718 12719 12720 12721 12722 12723 12724 12725 12726 12727 12728 12729 12730 12731 12732 12733 12734 12735 12736 12737 12738 12739 12740 12741 12742 12743 12744 12745 12746 12747 12748 12749 12750 12751 12752 12753 12754 12755 12756 12757 12758 12759 12760 12761 12762 12763 12764 12765 12766 12767 12768 12769 12770 12771 12772 12773 12774 12775 12776 12777 12778 12779 12780 12781 12782 12783 12784 12785 12786 12787 12788 12789 12790 12791 12792 12793 12794 12795 12796 12797 12798 12799 12800 12801 12802 12803 12804 12805 12806 12807 12808 12809 12810 12811 12812 12813 12814 12815 12816 12817 12818 12819 12820 12821 12822 12823 12824 12825 12826 12827 12828 12829 12830 12831 12832 12833 12834 12835 12836 12837 12838 12839 12840 12841 12842 12843 12844 12845 12846 12847 12848 12849 12850 12851 12852 12853 12854 12855 12856 12857 12858 12859 12860 12861 12862 12863 12864 12865 12866 12867 12868 12869 12870 12871 12872 12873 12874 12875 12876 12877 12878 12879 12880 12881 12882 12883 12884 12885 12886 12887 12888 12889 12890 12891 12892 12893 12894 12895 12896 12897 12898 12899 12900 12901 12902 12903 12904 12905 12906 12907 12908 12909 12910 12911 12912 12913 12914 12915 12916 12917 12918 12919 12920 12921 12922 12923 12924 12925 12926 12927 12928 12929 12930 12931 12932 12933 12934 12935 12936 12937 12938 12939 12940 12941 12942 12943 12944 12945 12946 12947 12948 12949 12950 12951 12952 12953 12954 12955 12956 12957 12958 12959 12960 12961 12962 12963 12964 12965 12966 12967 12968 12969 12970 12971 12972 12973 12974 12975 12976 12977 12978 12979 12980 12981 12982 12983 12984 12985 12986 12987 12988 12989 12990 12991 12992 12993 12994 12995 12996 12997 12998 12999 13000 13001 13002 13003 13004 13005 13006 13007 13008 13009 13010 13011 13012 13013 13014 13015 13016 13017 13018 13019 13020 13021 13022 13023 13024 13025 13026 13027 13028 13029 13030 13031 13032 13033 13034 13035 13036 13037 13038 13039 13040 13041 13042 13043 13044 13045 13046 13047 13048 13049 13050 13051 13052 13053 13054 13055 13056 13057 13058 13059 13060 13061 13062 13063 13064 13065 13066 13067 13068 13069 13070 13071 13072 13073 13074 13075 13076 13077 13078 13079 13080 13081 13082 13083 13084 13085 13086 13087 13088 13089 13090 13091 13092 13093 13094 13095 13096 13097 13098 13099 13100 13101 13102 13103 13104 13105 13106 13107 13108 13109 13110 13111 13112 13113 13114 13115 13116 13117 13118 13119 13120 13121 13122 13123 13124 13125 13126 13127 13128 13129 13130 13131 13132 13133 13134 13135 13136 13137 13138 13139 13140 13141 13142 13143 13144 13145 13146 13147 13148 13149 13150 13151 13152 13153 13154 13155 13156 13157 13158 13159 13160 13161 13162 13163 13164 13165 13166 13167 13168 13169 13170 13171 13172 13173 13174 13175 13176 13177 13178 13179 13180 13181 13182 13183 13184 13185 13186 13187 13188 13189 13190 13191 13192 13193 13194 13195 13196 13197 13198 13199 13200 13201 13202 13203 13204 13205 13206 13207 13208 13209 13210 13211 13212 13213 13214 13215 13216 13217 13218 13219 13220 13221 13222 13223 13224 13225 13226 13227 13228 13229 13230 13231 13232 13233 13234 13235 13236 13237 13238 13239 13240 13241 13242 13243 13244 13245 13246 13247 13248 13249 13250 13251 13252 13253 13254 13255 13256 13257 13258 13259 13260 13261 13262 13263 13264 13265 13266 13267 13268 13269 13270 13271 13272 13273 13274 13275 13276 13277 13278 13279 13280 13281 13282 13283 13284 13285 13286 13287 13288 13289 13290 13291 13292 13293 13294 13295 13296 13297 13298 13299 13300 13301 13302 13303 13304 13305 13306 13307 13308 13309 13310 13311 13312 13313 13314 13315 13316 13317 13318 13319 13320 13321 13322 13323 13324 13325 13326 13327 13328 13329 13330 13331 13332 13333 13334 13335 13336 13337 13338 13339 13340 13341 13342 13343 13344 13345 13346 13347 13348 13349 13350 13351 13352 13353 13354 13355 13356 13357 13358 13359 13360 13361 13362 13363 13364 13365 13366 13367 13368 13369 13370 13371 13372 13373 13374 13375 13376 13377 13378 13379 13380 13381 13382 13383 13384 13385 13386 13387 13388 13389 13390 13391 13392 13393 13394 13395 13396 13397 13398 13399 13400 13401 13402 13403 13404 13405 13406 13407 13408 13409 13410 13411 13412 13413 13414 13415 13416 13417 13418 13419 13420 13421 13422 13423 13424 13425 13426 13427 13428 13429 13430 13431 13432 13433 13434 13435 13436 13437 13438 13439 13440 13441 13442 13443 13444 13445 13446 13447 13448 13449 13450 13451 13452 13453 13454 13455 13456 13457 13458 13459 13460 13461 13462 13463 13464 13465 13466 13467 13468 13469 13470 13471 13472 13473 13474 13475 13476 13477 13478 13479 13480 13481 13482 13483 13484 13485 13486 13487 13488 13489 13490 13491 13492 13493 13494 13495 13496 13497 13498 13499 13500 13501 13502 13503 13504 13505 13506 13507 13508 13509 13510 13511 13512 13513 13514 13515 13516 13517 13518 13519 13520 13521 13522 13523 13524 13525 13526 13527 13528 13529 13530 13531 13532 13533 13534 13535 13536 13537 13538 13539 13540 13541 13542 13543 13544 13545 13546 13547 13548 13549 13550 13551 13552 13553 13554 13555 13556 13557 13558 13559 13560 13561 13562 13563 13564 13565 13566 13567 13568 13569 13570 13571 13572 13573 13574 13575 13576 13577 13578 13579 13580 13581 13582 13583 13584 13585 13586 13587 13588 13589 13590 13591 13592 13593 13594 13595 13596 13597 13598 13599 13600 13601 13602 13603 13604 13605 13606 13607 13608 13609 13610 13611 13612 13613 13614 13615 13616 13617 13618 13619 13620 13621 13622 13623 13624 13625 13626 13627 13628 13629 13630 13631 13632 13633 13634 13635 13636 13637 13638 13639 13640 13641 13642 13643 13644 13645 13646 13647 13648 13649 13650 13651 13652 13653 13654 13655 13656 13657 13658 13659 13660 13661 13662 13663 13664 13665 13666 13667 13668 13669 13670 13671 13672 13673 13674 13675 13676 13677 13678 13679 13680 13681 13682 13683 13684 13685 13686 13687 13688 13689 13690 13691 13692 13693 13694 13695 13696 13697 13698 13699 13700 13701 13702 13703 13704 13705 13706 13707 13708 13709 13710 13711 13712 13713 13714 13715 13716 13717 13718 13719 13720 13721 13722 13723 13724 13725 13726 13727 13728 13729 13730 13731 13732 13733 13734 13735 13736 13737 13738 13739 13740 13741 13742 13743 13744 13745 13746 13747 13748 13749 13750 13751 13752 13753 13754 13755 13756 13757 13758 13759 13760 13761 13762 13763 13764 13765 13766 13767 13768 13769 13770 13771 13772 13773 13774 13775 13776 13777 13778 13779 13780 13781 13782 13783 13784 13785 13786 13787 13788 13789 13790 13791 13792 13793 13794 13795 13796 13797 13798 13799 13800 13801 13802 13803 13804 13805 13806 13807 13808 13809 13810 13811 13812 13813 13814 13815 13816 13817 13818 13819 13820 13821 13822 13823 13824 13825 13826 13827 13828 13829 13830 13831 13832 13833 13834 13835 13836 13837 13838 13839 13840 13841 13842 13843 13844 13845 13846 13847 13848 13849 13850 13851 13852 13853 13854 13855 13856 13857 13858 13859 13860 13861 13862 13863 13864 13865 13866 13867 13868 13869 13870 13871 13872 13873 13874 13875 13876 13877 13878 13879 13880 13881 13882 13883 13884 13885 13886 13887 13888 13889 13890 13891 13892 13893 13894 13895 13896 13897 13898 13899 13900 13901 13902 13903 13904 13905 13906 13907 13908 13909 13910 13911 13912 13913 13914 13915 13916 13917 13918 13919 13920 13921 13922 13923 13924 13925 13926 13927 13928 13929 13930 13931 13932 13933 13934 13935 13936 13937 13938 13939 13940 13941 13942 13943 13944 13945 13946 13947 13948 13949 13950 13951 13952 13953 13954 13955 13956 13957 13958 13959 13960 13961 13962 13963 13964 13965 13966 13967 13968 13969 13970 13971 13972 13973 13974 13975 13976 13977 13978 13979 13980 13981 13982 13983 13984 13985 13986 13987 13988 13989 13990 13991 13992 13993 13994 13995 13996 13997 13998 13999 14000 14001 14002 14003 14004 14005 14006 14007 14008 14009 14010 14011 14012 14013 14014 14015 14016 14017 14018 14019 14020 14021 14022 14023 14024 14025 14026 14027 14028 14029 14030 14031 14032 14033 14034 14035 14036 14037 14038 14039 14040 14041 14042 14043 14044 14045 14046 14047 14048 14049 14050 14051 14052 14053 14054 14055 14056 14057 14058 14059 14060 14061 14062 14063 14064 14065 14066 14067 14068 14069 14070 14071 14072 14073 14074 14075 14076 14077 14078 14079 14080 14081 14082 14083 14084 14085 14086 14087 14088 14089 14090 14091 14092 14093 14094 14095 14096 14097 14098 14099 14100 14101 14102 14103 14104 14105 14106 14107 14108 14109 14110 14111 14112 14113 14114 14115 14116 14117 14118 14119 14120 14121 14122 14123 14124 14125 14126 14127 14128 14129 14130 14131 14132 14133 14134 14135 14136 14137 14138 14139 14140 14141 14142 14143 14144 14145 14146 14147 14148 14149 14150 14151 14152 14153 14154 14155 14156 14157 14158 14159 14160 14161 14162 14163 14164 14165 14166 14167 14168 14169 14170 14171 14172 14173 14174 14175 14176 14177 14178 14179 14180 14181 14182 14183 14184 14185 14186 14187 14188 14189 14190 14191 14192 14193 14194 14195 14196 14197 14198 14199 14200 14201 14202 14203 14204 14205 14206 14207 14208 14209 14210 14211 14212 14213 14214 14215 14216 14217 14218 14219 14220 14221 14222 14223 14224 14225 14226 14227 14228 14229 14230 14231 14232 14233 14234 14235 14236 14237 14238 14239 14240 14241 14242 14243 14244 14245 14246 14247 14248 14249 14250 14251 14252 14253 14254 14255 14256 14257 14258 14259 14260 14261 14262 14263 14264 14265 14266 14267 14268 14269 14270 14271 14272 14273 14274 14275 14276 14277 14278 14279 14280 14281 14282 14283 14284 14285 14286 14287 14288 14289 14290 14291 14292 14293 14294 14295 14296 14297 14298 14299 14300 14301 14302 14303 14304 14305 14306 14307 14308 14309 14310 14311 14312 14313 14314 14315 14316 14317 14318 14319 14320 14321 14322 14323 14324 14325 14326 14327 14328 14329 14330 14331 14332 14333 14334 14335 14336 14337 14338 14339 14340 14341 14342 14343 14344 14345 14346 14347 14348 14349 14350 14351 14352 14353 14354 14355 14356 14357 14358 14359 14360 14361 14362 14363 14364 14365 14366 14367 14368 14369 14370 14371 14372 14373 14374 14375 14376 14377 14378 14379 14380 14381 14382 14383 14384 14385 14386 14387 14388 14389 14390 14391 14392 14393 14394 14395 14396 14397 14398 14399 14400 14401 14402 14403 14404 14405 14406 14407 14408 14409 14410 14411 14412 14413 14414 14415 14416 14417 14418 14419 14420 14421 14422 14423 14424 14425 14426 14427 14428 14429 14430 14431 14432 14433 14434 14435 14436 14437 14438 14439 14440 14441 14442 14443 14444 14445 14446 14447 14448 14449 14450 14451 14452 14453 14454 14455 14456 14457 14458 14459 14460 14461 14462 14463 14464 14465 14466 14467 14468 14469 14470 14471 14472 14473 14474 14475 14476 14477 14478 14479 14480 14481 14482 14483 14484 14485 14486 14487 14488 14489 14490 14491 14492 14493 14494 14495 14496 14497 14498 14499 14500 14501 14502 14503 14504 14505 14506 14507 14508 14509 14510 14511 14512 14513 14514 14515 14516 14517 14518 14519 14520 14521 14522 14523 14524 14525 14526 14527 14528 14529 14530 14531 14532 14533 14534 14535 14536 14537 14538 14539 14540 14541 14542 14543 14544 14545 14546 14547 14548 14549 14550 14551 14552 14553 14554 14555 14556 14557 14558 14559 14560 14561 14562 14563 14564 14565 14566 14567 14568 14569 14570 14571 14572 14573 14574 14575 14576 14577 14578 14579 14580 14581 14582 14583 14584 14585 14586 14587 14588 14589 14590 14591 14592 14593 14594 14595 14596 14597 14598 14599 14600 14601 14602 14603 14604 14605 14606 14607 14608 14609 14610 14611 14612 14613 14614 14615 14616 14617 14618 14619 14620 14621 14622 14623 14624 14625 14626 14627 14628 14629 14630 14631 14632 14633 14634 14635 14636 14637 14638 14639 14640 14641 14642 14643 14644 14645 14646 14647 14648 14649 14650 14651 14652 14653 14654 14655 14656 14657 14658 14659 14660 14661 14662 14663 14664 14665 14666 14667 14668 14669 14670 14671 14672 14673 14674 14675 14676 14677 14678 14679 14680 14681 14682 14683 14684 14685 14686 14687 14688 14689 14690 14691 14692 14693 14694 14695 14696 14697 14698 14699 14700 14701 14702 14703 14704 14705 14706 14707 14708 14709 14710 14711 14712 14713 14714 14715 14716 14717 14718 14719 14720 14721 14722 14723 14724 14725 14726 14727 14728 14729 14730 14731 14732 14733 14734 14735 14736 14737 14738 14739 14740 14741 14742 14743 14744 14745 14746 14747 14748 14749 14750 14751 14752 14753 14754 14755 14756 14757 14758 14759 14760 14761 14762 14763 14764 14765 14766 14767 14768 14769 14770 14771 14772 14773 14774 14775 14776 14777 14778 14779 14780 14781 14782 14783 14784 14785 14786 14787 14788 14789 14790 14791 14792 14793 14794 14795 14796 14797 14798 14799 14800 14801 14802 14803 14804 14805 14806 14807 14808 14809 14810 14811 14812 14813 14814 14815 14816 14817 14818 14819 14820 14821 14822 14823 14824 14825 14826 14827 14828 14829 14830 14831 14832 14833 14834 14835 14836 14837 14838 14839 14840 14841 14842 14843 14844 14845 14846 14847 14848 14849 14850 14851 14852 14853 14854 14855 14856 14857 14858 14859 14860 14861 14862 14863 14864 14865 14866 14867 14868 14869 14870 14871 14872 14873 14874 14875 14876 14877 14878 14879 14880 14881 14882 14883 14884 14885 14886 14887 14888 14889 14890 14891 14892 14893 14894 14895 14896 14897 14898 14899 14900 14901 14902 14903 14904 14905 14906 14907 14908 14909 14910 14911 14912 14913 14914 14915 14916 14917 14918 14919 14920 14921 14922 14923 14924 14925 14926 14927 14928 14929 14930 14931 14932 14933 14934 14935 14936 14937 14938 14939 14940 14941 14942 14943 14944 14945 14946 14947 14948 14949 14950 14951 14952 14953 14954 14955 14956 14957 14958 14959 14960 14961 14962 14963 14964 14965 14966 14967 14968 14969 14970 14971 14972 14973 14974 14975 14976 14977 14978 14979 14980 14981 14982 14983 14984 14985 14986 14987 14988 14989 14990 14991 14992 14993 14994 14995 14996 14997 14998 14999 15000 15001 15002 15003 15004 15005 15006 15007 15008 15009 15010 15011 15012 15013 15014 15015 15016 15017 15018 15019 15020 15021 15022 15023 15024 15025 15026 15027 15028 15029 15030 15031 15032 15033 15034 15035 15036 15037 15038 15039 15040 15041 15042 15043 15044 15045 15046 15047 15048 15049 15050 15051 15052 15053 15054 15055 15056 15057 15058 15059 15060 15061 15062 15063 15064 15065 15066 15067 15068 15069 15070 15071 15072 15073 15074 15075 15076 15077 15078 15079 15080 15081 15082 15083 15084 15085 15086 15087 15088 15089 15090 15091 15092 15093 15094 15095 15096 15097 15098 15099 15100 15101 15102 15103 15104 15105 15106 15107 15108 15109 15110 15111 15112 15113 15114 15115 15116 15117 15118 15119 15120 15121 15122 15123 15124 15125 15126 15127 15128 15129 15130 15131 15132 15133 15134 15135 15136 15137 15138 15139 15140 15141 15142 15143 15144 15145 15146 15147 15148 15149 15150 15151 15152 15153 15154 15155 15156 15157 15158 15159 15160 15161 15162 15163 15164 15165 15166 15167 15168 15169 15170 15171 15172 15173 15174 15175 15176 15177 15178 15179 15180 15181 15182 15183 15184 15185 15186 15187 15188 15189 15190 15191 15192 15193 15194 15195 15196 15197 15198 15199 15200 15201 15202 15203 15204 15205 15206 15207 15208 15209 15210 15211 15212 15213 15214 15215 15216 15217 15218 15219 15220 15221 15222 15223 15224 15225 15226 15227 15228 15229 15230 15231 15232 15233 15234 15235 15236 15237 15238 15239 15240 15241 15242 15243 15244 15245 15246 15247 15248 15249 15250 15251 15252 15253 15254 15255 15256 15257 15258 15259 15260 15261 15262 15263 15264 15265 15266 15267 15268 15269 15270 15271 15272 15273 15274 15275 15276 15277 15278 15279 15280 15281 15282 15283 15284 15285 15286 15287 15288 15289 15290 15291 15292 15293 15294 15295 15296 15297 15298 15299 15300 15301 15302 15303 15304 15305 15306 15307 15308 15309 15310 15311 15312 15313 15314 15315 15316 15317 15318 15319 15320 15321 15322 15323 15324 15325 15326 15327 15328 15329 15330 15331 15332 15333 15334 15335 15336 15337 15338 15339 15340 15341 15342 15343 15344 15345 15346 15347 15348 15349 15350 15351 15352 15353 15354 15355 15356 15357 15358 15359 15360 15361 15362 15363 15364 15365 15366 15367 15368 15369 15370 15371 15372 15373 15374 15375 15376 15377 15378 15379 15380 15381 15382 15383 15384 15385 15386 15387 15388 15389 15390 15391 15392 15393 15394 15395 15396 15397 15398 15399 15400 15401 15402 15403 15404 15405 15406 15407 15408 15409 15410 15411 15412 15413 15414 15415 15416 15417 15418 15419 15420 15421 15422 15423 15424 15425 15426 15427 15428 15429 15430 15431 15432 15433 15434 15435 15436 15437 15438 15439 15440 15441 15442 15443 15444 15445 15446 15447 15448 15449 15450 15451 15452 15453 15454 15455 15456 15457 15458 15459 15460 15461 15462 15463 15464 15465 15466 15467 15468 15469 15470 15471 15472 15473 15474 15475 15476 15477 15478 15479 15480 15481 15482 15483 15484 15485 15486 15487 15488 15489 15490 15491 15492 15493 15494 15495 15496 15497 15498 15499 15500 15501 15502 15503 15504 15505 15506 15507 15508 15509 15510 15511 15512 15513 15514 15515 15516 15517 15518 15519 15520 15521 15522 15523 15524 15525 15526 15527 15528 15529 15530 15531 15532 15533 15534 15535 15536 15537 15538 15539 15540 15541 15542 15543 15544 15545 15546 15547 15548 15549 15550 15551 15552 15553 15554 15555 15556 15557 15558 15559 15560 15561 15562 15563 15564 15565 15566 15567 15568 15569 15570 15571 15572 15573 15574 15575 15576 15577 15578 15579 15580 15581 15582 15583 15584 15585 15586 15587 15588 15589 15590 15591 15592 15593 15594 15595 15596 15597 15598 15599 15600 15601 15602 15603 15604 15605 15606 15607 15608 15609 15610 15611 15612 15613 15614 15615 15616 15617 15618 15619 15620 15621 15622 15623 15624 15625 15626 15627 15628 15629 15630 15631 15632 15633 15634 15635 15636 15637 15638 15639 15640 15641 15642 15643 15644 15645 15646 15647 15648 15649 15650 15651 15652 15653 15654 15655 15656 15657 15658 15659 15660 15661 15662 15663 15664 15665 15666 15667 15668 15669 15670 15671 15672 15673 15674 15675 15676 15677 15678 15679 15680 15681 15682 15683 15684 15685 15686 15687 15688 15689 15690 15691 15692 15693 15694 15695 15696 15697 15698 15699 15700 15701 15702 15703 15704 15705 15706 15707 15708 15709 15710 15711 15712 15713 15714 15715 15716 15717 15718 15719 15720 15721 15722 15723 15724 15725 15726 15727 15728 15729 15730 15731 15732 15733 15734 15735 15736 15737 15738 15739 15740 15741 15742 15743 15744 15745 15746 15747 15748 15749 15750 15751 15752 15753 15754 15755 15756 15757 15758 15759 15760 15761 15762 15763 15764 15765 15766 15767 15768 15769 15770 15771 15772 15773 15774 15775 15776 15777 15778 15779 15780 15781 15782 15783 15784 15785 15786 15787 15788 15789 15790 15791 15792 15793 15794 15795 15796 15797 15798 15799 15800 15801 15802 15803 15804 15805 15806 15807 15808 15809 15810 15811 15812 15813 15814 15815 15816 15817 15818 15819 15820 15821 15822 15823 15824 15825 15826 15827 15828 15829 15830 15831 15832 15833 15834 15835 15836 15837 15838 15839 15840 15841 15842 15843 15844 15845 15846 15847 15848 15849 15850 15851 15852 15853 15854 15855 15856 15857 15858 15859 15860 15861 15862 15863 15864 15865 15866 15867 15868 15869 15870 15871 15872 15873 15874 15875 15876 15877 15878 15879 15880 15881 15882 15883 15884 15885 15886 15887 15888 15889 15890 15891 15892 15893 15894 15895 15896 15897 15898 15899 15900 15901 15902 15903 15904 15905 15906 15907 15908 15909 15910 15911 15912 15913 15914 15915 15916 15917 15918 15919 15920 15921 15922 15923 15924 15925 15926 15927 15928 15929 15930 15931 15932 15933 15934 15935 15936 15937 15938 15939 15940 15941 15942 15943 15944 15945 15946 15947 15948 15949 15950 15951 15952 15953 15954 15955 15956 15957 15958 15959 15960 15961 15962 15963 15964 15965 15966 15967 15968 15969 15970 15971 15972 15973 15974 15975 15976 15977 15978 15979 15980 15981 15982 15983 15984 15985 15986 15987 15988 15989 15990 15991 15992 15993 15994 15995 15996 15997 15998 15999 16000 16001 16002 16003 16004 16005 16006 16007 16008 16009 16010 16011 16012 16013 16014 16015 16016 16017 16018 16019 16020 16021 16022 16023 16024 16025 16026 16027 16028 16029 16030 16031 16032 16033 16034 16035 16036 16037 16038 16039 16040 16041 16042 16043 16044 16045 16046 16047 16048 16049 16050 16051 16052 16053 16054 16055 16056 16057 16058 16059 16060 16061 16062 16063 16064 16065 16066 16067 16068 16069 16070 16071 16072 16073 16074 16075 16076 16077 16078 16079 16080 16081 16082 16083 16084 16085 16086 16087 16088 16089 16090 16091 16092 16093 16094 16095 16096 16097 16098 16099 16100 16101 16102 16103 16104 16105 16106 16107 16108 16109 16110 16111 16112 16113 16114 16115 16116 16117 16118 16119 16120 16121 16122 16123 16124 16125 16126 16127 16128 16129 16130 16131 16132 16133 16134 16135 16136 16137 16138 16139 16140 16141 16142 16143 16144 16145 16146 16147 16148 16149 16150 16151 16152 16153 16154 16155 16156 16157 16158 16159 16160 16161 16162 16163 16164 16165 16166 16167 16168 16169 16170 16171 16172 16173 16174 16175 16176 16177 16178 16179 16180 16181 16182 16183 16184 16185 16186 16187 16188 16189 16190 16191 16192 16193 16194 16195 16196 16197 16198 16199 16200 16201 16202 16203 16204 16205 16206 16207 16208 16209 16210 16211 16212 16213 16214 16215 16216 16217 16218 16219 16220 16221 16222 16223 16224 16225 16226 16227 16228 16229 16230 16231 16232 16233 16234 16235 16236 16237 16238 16239 16240 16241 16242 16243 16244 16245 16246 16247 16248 16249 16250 16251 16252 16253 16254 16255 16256 16257 16258 16259 16260 16261 16262 16263 16264 16265 16266 16267 16268 16269 16270 16271 16272 16273 16274 16275 16276 16277 16278 16279 16280 16281 16282 16283 16284 16285 16286 16287 16288 16289 16290 16291 16292 16293 16294 16295 16296 16297 16298 16299 16300 16301 16302 16303 16304 16305 16306 16307 16308 16309 16310 16311 16312 16313 16314 16315 16316 16317 16318 16319 16320 16321 16322 16323 16324 16325 16326 16327 16328 16329 16330 16331 16332 16333 16334 16335 16336 16337 16338 16339 16340 16341 16342 16343 16344 16345 16346 16347 16348 16349 16350 16351 16352 16353 16354 16355 16356 16357 16358 16359 16360 16361 16362 16363 16364 16365 16366 16367 16368 16369 16370 16371 16372 16373 16374 16375 16376 16377 16378 16379 16380 16381 16382 16383 16384 16385 16386 16387 16388 16389 16390 16391 16392 16393 16394 16395 16396 16397 16398 16399 16400 16401 16402 16403 16404 16405 16406 16407 16408 16409 16410 16411 16412 16413 16414 16415 16416 16417 16418 16419 16420 16421 16422 16423 16424 16425 16426 16427 16428 16429 16430 16431 16432 16433 16434 16435 16436 16437 16438 16439 16440 16441 16442 16443 16444 16445 16446 16447 16448 16449 16450 16451 16452 16453 16454 16455 16456 16457 16458 16459 16460 16461 16462 16463 16464 16465 16466 16467 16468 16469 16470 16471 16472 16473 16474 16475 16476 16477 16478 16479 16480 16481 16482 16483 16484 16485 16486 16487 16488 16489 16490 16491 16492 16493 16494 16495 16496 16497 16498 16499 16500 16501 16502 16503 16504 16505 16506 16507 16508 16509 16510 16511 16512 16513 16514 16515 16516 16517 16518 16519 16520 16521 16522 16523 16524 16525 16526 16527 16528 16529 16530 16531 16532 16533 16534 16535 16536 16537 16538 16539 16540 16541 16542 16543 16544 16545 16546 16547 16548 16549 16550 16551 16552 16553 16554 16555 16556 16557 16558 16559 16560 16561 16562 16563 16564 16565 16566 16567 16568 16569 16570 16571 16572 16573 16574 16575 16576 16577 16578 16579 16580 16581 16582 16583 16584 16585 16586 16587 16588 16589 16590 16591 16592 16593 16594 16595 16596 16597 16598 16599 16600 16601 16602 16603 16604 16605 16606 16607 16608 16609 16610 16611 16612 16613 16614 16615 16616 16617 16618 16619 16620 16621 16622 16623 16624 16625 16626 16627 16628 16629 16630 16631 16632 16633 16634 16635 16636 16637 16638 16639 16640 16641 16642 16643 16644 16645 16646 16647 16648 16649 16650 16651 16652 16653 16654 16655 16656 16657 16658 16659 16660 16661 16662 16663 16664 16665 16666 16667 16668 16669 16670 16671 16672 16673 16674 16675 16676 16677 16678 16679 16680 16681 16682 16683 16684 16685 16686 16687 16688 16689 16690 16691 16692 16693 16694 16695 16696 16697 16698 16699 16700 16701 16702 16703 16704 16705 16706 16707 16708 16709 16710 16711 16712 16713 16714 16715 16716 16717 16718 16719 16720 16721 16722 16723 16724 16725 16726 16727 16728 16729 16730 16731 16732 16733 16734 16735 16736 16737 16738 16739 16740 16741 16742 16743 16744 16745 16746 16747 16748 16749 16750 16751 16752 16753 16754 16755 16756 16757 16758 16759 16760 16761 16762 16763 16764 16765 16766 16767 16768 16769 16770 16771 16772 16773 16774 16775 16776 16777 16778 16779 16780 16781 16782 16783 16784 16785 16786 16787 16788 16789 16790 16791 16792 16793 16794 16795 16796 16797 16798 16799 16800 16801 16802 16803 16804 16805 16806 16807 16808 16809 16810 16811 16812 16813 16814 16815 16816 16817 16818 16819 16820 16821 16822 16823 16824 16825 16826 16827 16828 16829 16830 16831 16832 16833 16834 16835 16836 16837 16838 16839 16840 16841 16842 16843 16844 16845 16846 16847 16848 16849 16850 16851 16852 16853 16854 16855 16856 16857 16858 16859 16860 16861 16862 16863 16864 16865 16866 16867 16868 16869 16870 16871 16872 16873 16874 16875 16876 16877 16878 16879 16880 16881 16882 16883 16884 16885 16886 16887 16888 16889 16890 16891 16892 16893 16894 16895 16896 16897 16898 16899 16900 16901 16902 16903 16904 16905 16906 16907 16908 16909 16910 16911 16912 16913 16914 16915 16916 16917 16918 16919 16920 16921 16922 16923 16924 16925 16926 16927 16928 16929 16930 16931 16932 16933 16934 16935 16936 16937 16938 16939 16940 16941 16942 16943 16944 16945 16946 16947 16948 16949 16950 16951 16952 16953 16954 16955 16956 16957 16958 16959 16960 16961 16962 16963 16964 16965 16966 16967 16968 16969 16970 16971 16972 16973 16974 16975 16976 16977 16978 16979 16980 16981 16982 16983 16984 16985 16986 16987 16988 16989 16990 16991 16992 16993 16994 16995 16996 16997 16998 16999 17000 17001 17002 17003 17004 17005 17006 17007 17008 17009 17010 17011 17012 17013 17014 17015 17016 17017 17018 17019 17020 17021 17022 17023 17024 17025 17026 17027 17028 17029 17030 17031 17032 17033 17034 17035 17036 17037 17038 17039 17040 17041 17042 17043 17044 17045 17046 17047 17048 17049 17050 17051 17052 17053 17054 17055 17056 17057 17058 17059 17060 17061 17062 17063 17064 17065 17066 17067 17068 17069 17070 17071 17072 17073 17074 17075 17076 17077 17078 17079 17080 17081 17082 17083 17084 17085 17086 17087 17088 17089 17090 17091 17092 17093 17094 17095 17096 17097 17098 17099 17100 17101 17102 17103 17104 17105 17106 17107 17108 17109 17110 17111 17112 17113 17114 17115 17116 17117 17118 17119 17120 17121 17122 17123 17124 17125 17126 17127 17128 17129 17130 17131 17132 17133 17134 17135 17136 17137 17138 17139 17140 17141 17142 17143 17144 17145 17146 17147 17148 17149 17150 17151 17152 17153 17154 17155 17156 17157 17158 17159 17160 17161 17162 17163 17164 17165 17166 17167 17168 17169 17170 17171 17172 17173 17174 17175 17176 17177 17178 17179 17180 17181 17182 17183 17184 17185 17186 17187 17188 17189 17190 17191 17192 17193 17194 17195 17196 17197 17198 17199 17200 17201 17202 17203 17204 17205 17206 17207 17208 17209 17210 17211 17212 17213 17214 17215 17216 17217 17218 17219 17220 17221 17222 17223 17224 17225 17226 17227 17228 17229 17230 17231 17232 17233 17234 17235 17236 17237 17238 17239 17240 17241 17242 17243 17244 17245 17246 17247 17248 17249 17250 17251 17252 17253 17254 17255 17256 17257 17258 17259 17260 17261 17262 17263 17264 17265 17266 17267 17268 17269 17270 17271 17272 17273 17274 17275 17276 17277 17278 17279 17280 17281 17282 17283 17284 17285 17286 17287 17288 17289 17290 17291 17292 17293 17294 17295 17296 17297 17298 17299 17300 17301 17302 17303 17304 17305 17306 17307 17308 17309 17310 17311 17312 17313 17314 17315 17316 17317 17318 17319 17320 17321 17322 17323 17324 17325 17326 17327 17328 17329 17330 17331 17332 17333 17334 17335 17336 17337 17338 17339 17340 17341 17342 17343 17344 17345 17346 17347 17348 17349 17350 17351 17352 17353 17354 17355 17356 17357 17358 17359 17360 17361 17362 17363 17364 17365 17366 17367 17368 17369 17370 17371 17372 17373 17374 17375 17376 17377 17378 17379 17380 17381 17382 17383 17384 17385 17386 17387 17388 17389 17390 17391 17392 17393 17394 17395 17396 17397 17398 17399 17400 17401 17402 17403 17404 17405 17406 17407 17408 17409 17410 17411 17412 17413 17414 17415 17416 17417 17418 17419 17420 17421 17422 17423 17424 17425 17426 17427 17428 17429 17430 17431 17432 17433 17434 17435 17436 17437 17438 17439 17440 17441 17442 17443 17444 17445 17446 17447 17448 17449 17450 17451 17452 17453 17454 17455 17456 17457 17458 17459 17460 17461 17462 17463 17464 17465 17466 17467 17468 17469 17470 17471 17472 17473 17474 17475 17476 17477 17478 17479 17480 17481 17482 17483 17484 17485 17486 17487 17488 17489 17490 17491 17492 17493 17494 17495 17496 17497 17498 17499 17500 17501 17502 17503 17504 17505 17506 17507 17508 17509 17510 17511 17512 17513 17514 17515 17516 17517 17518 17519 17520 17521 17522 17523 17524 17525 17526 17527 17528 17529 17530 17531 17532 17533 17534 17535 17536 17537 17538 17539 17540 17541 17542 17543 17544 17545 17546 17547 17548 17549 17550 17551 17552 17553 17554 17555 17556 17557 17558 17559 17560 17561 17562 17563 17564 17565 17566 17567 17568 17569 17570 17571 17572 17573 17574 17575 17576 17577 17578 17579 17580 17581 17582 17583 17584 17585 17586 17587 17588 17589 17590 17591 17592 17593 17594 17595 17596 17597 17598 17599 17600 17601 17602 17603 17604 17605 17606 17607 17608 17609 17610 17611 17612 17613 17614 17615 17616 17617 17618 17619 17620 17621 17622 17623 17624 17625 17626 17627 17628 17629 17630 17631 17632 17633 17634 17635 17636 17637 17638 17639 17640 17641 17642 17643 17644 17645 17646 17647 17648 17649 17650 17651 17652 17653 17654 17655 17656 17657 17658 17659 17660 17661 17662 17663 17664 17665 17666 17667 17668 17669 17670 17671 17672 17673 17674 17675 17676 17677 17678 17679 17680 17681 17682 17683 17684 17685 17686 17687 17688 17689 17690 17691 17692 17693 17694 17695 17696 17697 17698 17699 17700 17701 17702 17703 17704 17705 17706 17707 17708 17709 17710 17711 17712 17713 17714 17715 17716 17717 17718 17719 17720 17721 17722 17723 17724 17725 17726 17727 17728 17729 17730 17731 17732 17733 17734 17735 17736 17737 17738 17739 17740 17741 17742 17743 17744 17745 17746 17747 17748 17749 17750 17751 17752 17753 17754 17755 17756 17757 17758 17759 17760 17761 17762 17763 17764 17765 17766 17767 17768 17769 17770 17771 17772 17773 17774 17775 17776 17777 17778 17779 17780 17781 17782 17783 17784 17785 17786 17787 17788 17789 17790 17791 17792 17793 17794 17795 17796 17797 17798 17799 17800 17801 17802 17803 17804 17805 17806 17807 17808 17809 17810 17811 17812 17813 17814 17815 17816 17817 17818 17819 17820 17821 17822 17823 17824 17825 17826 17827 17828 17829 17830 17831 17832 17833 17834 17835 17836 17837 17838 17839 17840 17841 17842 17843 17844 17845 17846 17847 17848 17849 17850 17851 17852 17853 17854 17855 17856 17857 17858 17859 17860 17861 17862 17863 17864 17865 17866 17867 17868 17869 17870 17871 17872 17873 17874 17875 17876 17877 17878 17879 17880 17881 17882 17883 17884 17885 17886 17887 17888 17889 17890 17891 17892 17893 17894 17895 17896 17897 17898 17899 17900 17901 17902 17903 17904 17905 17906 17907 17908 17909 17910 17911 17912 17913 17914 17915 17916 17917 17918 17919 17920 17921 17922 17923 17924 17925 17926 17927 17928 17929 17930 17931 17932 17933 17934 17935 17936 17937 17938 17939 17940 17941 17942 17943 17944 17945 17946 17947 17948 17949 17950 17951 17952 17953 17954 17955 17956 17957 17958 17959 17960 17961 17962 17963 17964 17965 17966 17967 17968 17969 17970 17971 17972 17973 17974 17975 17976 17977 17978 17979 17980 17981 17982 17983 17984 17985 17986 17987 17988 17989 17990 17991 17992 17993 17994 17995 17996 17997 17998 17999 18000 18001 18002 18003 18004 18005 18006 18007 18008 18009 18010 18011 18012 18013 18014 18015 18016 18017 18018 18019 18020 18021 18022 18023 18024 18025 18026 18027 18028 18029 18030 18031 18032 18033 18034 18035 18036 18037 18038 18039 18040 18041 18042 18043 18044 18045 18046 18047 18048 18049 18050 18051 18052 18053 18054 18055 18056 18057 18058 18059 18060 18061 18062 18063 18064 18065 18066 18067 18068 18069 18070 18071 18072 18073 18074 18075 18076 18077 18078 18079 18080 18081 18082 18083 18084 18085 18086 18087 18088 18089 18090 18091 18092 18093 18094 18095 18096 18097 18098 18099 18100 18101 18102 18103 18104 18105 18106 18107 18108 18109 18110 18111 18112 18113 18114 18115 18116 18117 18118 18119 18120 18121 18122 18123 18124 18125 18126 18127 18128 18129 18130 18131 18132 18133 18134 18135 18136 18137 18138 18139 18140 18141 18142 18143 18144 18145 18146 18147 18148 18149 18150 18151 18152 18153 18154 18155 18156 18157 18158 18159 18160 18161 18162 18163 18164 18165 18166 18167 18168 18169 18170 18171 18172 18173 18174 18175 18176 18177 18178 18179 18180 18181 18182 18183 18184 18185 18186 18187 18188 18189 18190 18191 18192 18193 18194 18195 18196 18197 18198 18199 18200 18201 18202 18203 18204 18205 18206 18207 18208 18209 18210 18211 18212 18213 18214 18215 18216 18217 18218 18219 18220 18221 18222 18223 18224 18225 18226 18227 18228 18229 18230 18231 18232 18233 18234 18235 18236 18237 18238 18239 18240 18241 18242 18243 18244 18245 18246 18247 18248 18249 18250 18251 18252 18253 18254 18255 18256 18257 18258 18259 18260 18261 18262 18263 18264 18265 18266 18267 18268 18269 18270 18271 18272 18273 18274 18275 18276 18277 18278 18279 18280 18281 18282 18283 18284 18285 18286 18287 18288 18289 18290 18291 18292 18293 18294 18295 18296 18297 18298 18299 18300 18301 18302 18303 18304 18305 18306 18307 18308 18309 18310 18311 18312 18313 18314 18315 18316 18317 18318 18319 18320 18321 18322 18323 18324 18325 18326 18327 18328 18329 18330 18331 18332 18333 18334 18335 18336 18337 18338 18339 18340 18341 18342 18343 18344 18345 18346 18347 18348 18349 18350 18351 18352 18353 18354 18355 18356 18357 18358 18359 18360 18361 18362 18363 18364 18365 18366 18367 18368 18369 18370 18371 18372 18373 18374 18375 18376 18377 18378 18379 18380 18381 18382 18383 18384 18385 18386 18387 18388 18389 18390 18391 18392 18393 18394 18395 18396 18397 18398 18399 18400 18401 18402 18403 18404 18405 18406 18407 18408 18409 18410 18411 18412 18413 18414 18415 18416 18417 18418 18419 18420 18421 18422 18423 18424 18425 18426 18427 18428 18429 18430 18431 18432 18433 18434 18435 18436 18437 18438 18439 18440 18441 18442 18443 18444 18445 18446 18447 18448 18449 18450 18451 18452 18453 18454 18455 18456 18457 18458 18459 18460 18461 18462 18463 18464 18465 18466 18467 18468 18469 18470 18471 18472 18473 18474 18475 18476 18477 18478 18479 18480 18481 18482 18483 18484 18485 18486 18487 18488 18489 18490 18491 18492 18493 18494 18495 18496 18497 18498 18499 18500 18501 18502 18503 18504 18505 18506 18507 18508 18509 18510 18511 18512 18513 18514 18515 18516 18517 18518 18519 18520 18521 18522 18523 18524 18525 18526 18527 18528 18529 18530 18531 18532 18533 18534 18535 18536 18537 18538 18539 18540 18541 18542 18543 18544 18545 18546 18547 18548 18549 18550 18551 18552 18553 18554 18555 18556 18557 18558 18559 18560 18561 18562 18563 18564 18565 18566 18567 18568 18569 18570 18571 18572 18573 18574 18575 18576 18577 18578 18579 18580 18581 18582 18583 18584 18585 18586 18587 18588 18589 18590 18591 18592 18593 18594 18595 18596 18597 18598 18599 18600 18601 18602 18603 18604 18605 18606 18607 18608 18609 18610 18611 18612 18613 18614 18615 18616 18617 18618 18619 18620 18621 18622 18623 18624 18625 18626 18627 18628 18629 18630 18631 18632 18633 18634 18635 18636 18637 18638 18639 18640 18641 18642 18643 18644 18645 18646 18647 18648 18649 18650 18651 18652 18653 18654 18655 18656 18657 18658 18659 18660 18661 18662 18663 18664 18665 18666 18667 18668 18669 18670 18671 18672 18673 18674 18675 18676 18677 18678 18679 18680 18681 18682 18683 18684 18685 18686 18687 18688 18689 18690 18691 18692 18693 18694 18695 18696 18697 18698 18699 18700 18701 18702 18703 18704 18705 18706 18707 18708 18709 18710 18711 18712 18713 18714 18715 18716 18717 18718 18719 18720 18721 18722 18723 18724 18725 18726 18727 18728 18729 18730 18731 18732 18733 18734 18735 18736 18737 18738 18739 18740 18741 18742 18743 18744 18745 18746 18747 18748 18749 18750 18751 18752 18753 18754 18755 18756 18757 18758 18759 18760 18761 18762 18763 18764 18765 18766 18767 18768 18769 18770 18771 18772 18773 18774 18775 18776 18777 18778 18779 18780 18781 18782 18783 18784 18785 18786 18787 18788 18789 18790 18791 18792 18793 18794 18795 18796 18797 18798 18799 18800 18801 18802 18803 18804 18805 18806 18807 18808 18809 18810 18811 18812 18813 18814 18815 18816 18817 18818 18819 18820 18821 18822 18823 18824 18825 18826 18827 18828 18829 18830 18831 18832 18833 18834 18835 18836 18837 18838 18839 18840 18841 18842 18843 18844 18845 18846 18847 18848 18849 18850 18851 18852 18853 18854 18855 18856 18857 18858 18859 18860 18861 18862 18863 18864 18865 18866 18867 18868 18869 18870 18871 18872 18873 18874 18875 18876 18877 18878 18879 18880 18881 18882 18883 18884 18885 18886 18887 18888 18889 18890 18891 18892 18893 18894 18895 18896 18897 18898 18899 18900 18901 18902 18903 18904 18905 18906 18907 18908 18909 18910 18911 18912 18913 18914 18915 18916 18917 18918 18919 18920 18921 18922 18923 18924 18925 18926 18927 18928 18929 18930 18931 18932 18933 18934 18935 18936 18937 18938 18939 18940 18941 18942 18943 18944 18945 18946 18947 18948 18949 18950 18951 18952 18953 18954 18955 18956 18957 18958 18959 18960 18961 18962 18963 18964 18965 18966 18967 18968 18969 18970 18971 18972 18973 18974 18975 18976 18977 18978 18979 18980 18981 18982 18983 18984 18985 18986 18987 18988 18989 18990 18991 18992 18993 18994 18995 18996 18997 18998 18999 19000 19001 19002 19003 19004 19005 19006 19007 19008 19009 19010 19011 19012 19013 19014 19015 19016 19017 19018 19019 19020 19021 19022 19023 19024 19025 19026 19027 19028 19029 19030 19031 19032 19033 19034 19035 19036 19037 19038 19039 19040 19041 19042 19043 19044 19045 19046 19047 19048 19049 19050 19051 19052 19053 19054 19055 19056 19057 19058 19059 19060 19061 19062 19063 19064 19065 19066 19067 19068 19069 19070 19071 19072 19073 19074 19075 19076 19077 19078 19079 19080 19081 19082 19083 19084 19085 19086 19087 19088 19089 19090 19091 19092 19093 19094 19095 19096 19097 19098 19099 19100 19101 19102 19103 19104 19105 19106 19107 19108 19109 19110 19111 19112 19113 19114 19115 19116 19117 19118 19119 19120 19121 19122 19123 19124 19125 19126 19127 19128 19129 19130 19131 19132 19133 19134 19135 19136 19137 19138 19139 19140 19141 19142 19143 19144 19145 19146 19147 19148 19149 19150 19151 19152 19153 19154 19155 19156 19157 19158 19159 19160 19161 19162 19163 19164 19165 19166 19167 19168 19169 19170 19171 19172 19173 19174 19175 19176 19177 19178 19179 19180 19181 19182 19183 19184 19185 19186 19187 19188 19189 19190 19191 19192 19193 19194 19195 19196 19197 19198 19199 19200 19201 19202 19203 19204 19205 19206 19207 19208 19209 19210 19211 19212 19213 19214 19215 19216 19217 19218 19219 19220 19221 19222 19223 19224 19225 19226 19227 19228 19229 19230 19231 19232 19233 19234 19235 19236 19237 19238 19239 19240 19241 19242 19243 19244 19245 19246 19247 19248 19249 19250 19251 19252 19253 19254 19255 19256 19257 19258 19259 19260 19261 19262 19263 19264 19265 19266 19267 19268 19269 19270 19271 19272 19273 19274 19275 19276 19277 19278 19279 19280 19281 19282 19283 19284 19285 19286 19287 19288 19289 19290 19291 19292 19293 19294 19295 19296 19297 19298 19299 19300 19301 19302 19303 19304 19305 19306 19307 19308 19309 19310 19311 19312 19313 19314 19315 19316 19317 19318 19319 19320 19321 19322 19323 19324 19325 19326 19327 19328 19329 19330 19331 19332 19333 19334 19335 19336 19337 19338 19339 19340 19341 19342 19343 19344 19345 19346 19347 19348 19349 19350 19351 19352 19353 19354 19355 19356 19357 19358 19359 19360 19361 19362 19363 19364 19365 19366 19367 19368 19369 19370 19371 19372 19373 19374 19375 19376 19377 19378 19379 19380 19381 19382 19383 19384 19385 19386 19387 19388 19389 19390 19391 19392 19393 19394 19395 19396 19397 19398 19399 19400 19401 19402 19403 19404 19405 19406 19407 19408 19409 19410 19411 19412 19413 19414 19415 19416 19417 19418 19419 19420 19421 19422 19423 19424 19425 19426 19427 19428 19429 19430 19431 19432 19433 19434 19435 19436 19437 19438 19439 19440 19441 19442 19443 19444 19445 19446 19447 19448 19449 19450 19451 19452 19453 19454 19455 19456 19457 19458 19459 19460 19461 19462 19463 19464 19465 19466 19467 19468 19469 19470 19471 19472 19473 19474 19475 19476 19477 19478 19479 19480 19481 19482 19483 19484 19485 19486 19487 19488 19489 19490 19491 19492 19493 19494 19495 19496 19497 19498 19499 19500 19501 19502 19503 19504 19505 19506 19507 19508 19509 19510 19511 19512 19513 19514 19515 19516 19517 19518 19519 19520 19521 19522 19523 19524 19525 19526 19527 19528 19529 19530 19531 19532 19533 19534 19535 19536 19537 19538 19539 19540 19541 19542 19543 19544 19545 19546 19547 19548 19549 19550 19551 19552 19553 19554 19555 19556 19557 19558 19559 19560 19561 19562 19563 19564 19565 19566 19567 19568 19569 19570 19571 19572 19573 19574 19575 19576 19577 19578 19579 19580 19581 19582 19583 19584 19585 19586 19587 19588 19589 19590 19591 19592 19593 19594 19595 19596 19597 19598 19599 19600 19601 19602 19603 19604 19605 19606 19607 19608 19609 19610 19611 19612 19613 19614 19615 19616 19617 19618 19619 19620 19621 19622 19623 19624 19625 19626 19627 19628 19629 19630 19631 19632 19633 19634 19635 19636 19637 19638 19639 19640 19641 19642 19643 19644 19645 19646 19647 19648 19649 19650 19651 19652 19653 19654 19655 19656 19657 19658 19659 19660 19661 19662 19663 19664 19665 19666 19667 19668 19669 19670 19671 19672 19673 19674 19675 19676 19677 19678 19679 19680 19681 19682 19683 19684 19685 19686 19687 19688 19689 19690 19691 19692 19693 19694 19695 19696 19697 19698 19699 19700 19701 19702 19703 19704 19705 19706 19707 19708 19709 19710 19711 19712 19713 19714 19715 19716 19717 19718 19719 19720 19721 19722 19723 19724 19725 19726 19727 19728 19729 19730 19731 19732 19733 19734 19735 19736 19737 19738 19739 19740 19741 19742 19743 19744 19745 19746 19747 19748 19749 19750 19751 19752 19753 19754 19755 19756 19757 19758 19759 19760 19761 19762 19763 19764 19765 19766 19767 19768 19769 19770 19771 19772 19773 19774 19775 19776 19777 19778 19779 19780 19781 19782 19783 19784 19785 19786 19787 19788 19789 19790 19791 19792 19793 19794 19795 19796 19797 19798 19799 19800 19801 19802 19803 19804 19805 19806 19807 19808 19809 19810 19811 19812 19813 19814 19815 19816 19817 19818 19819 19820 19821 19822 19823 19824 19825 19826 19827 19828 19829 19830 19831 19832 19833 19834 19835 19836 19837 19838 19839 19840 19841 19842 19843 19844 19845 19846 19847 19848 19849 19850 19851 19852 19853 19854 19855 19856 19857 19858 19859 19860 19861 19862 19863 19864 19865 19866 19867 19868 19869 19870 19871 19872 19873 19874 19875 19876 19877 19878 19879 19880 19881 19882 19883 19884 19885 19886 19887 19888 19889 19890 19891 19892 19893 19894 19895 19896 19897 19898 19899 19900 19901 19902 19903 19904 19905 19906 19907 19908 19909 19910 19911 19912 19913 19914 19915 19916 19917 19918 19919 19920 19921 19922 19923 19924 19925 19926 19927 19928 19929 19930 19931 19932 19933 19934 19935 19936 19937 19938 19939 19940 19941 19942 19943 19944 19945 19946 19947 19948 19949 19950 19951 19952 19953 19954 19955 19956 19957 19958 19959 19960 19961 19962 19963 19964 19965 19966 19967 19968 19969 19970 19971 19972 19973 19974 19975 19976 19977 19978 19979 19980 19981 19982 19983 19984 19985 19986 19987 19988 19989 19990 19991 19992 19993 19994 19995 19996 19997 19998 19999 20000 20001 20002 20003 20004 20005 20006 20007 20008 20009 20010 20011 20012 20013 20014 20015 20016 20017 20018 20019 20020 20021 20022 20023 20024 20025 20026 20027 20028 20029 20030 20031 20032 20033 20034 20035 20036 20037 20038 20039 20040 20041 20042 20043 20044 20045 20046 20047 20048 20049 20050 20051 20052 20053 20054 20055 20056 20057 20058 20059 20060 20061 20062 20063 20064 20065 20066 20067 20068 20069 20070 20071 20072 20073 20074 20075 20076 20077 20078 20079 20080 20081 20082 20083 20084 20085 20086 20087 20088 20089 20090 20091 20092 20093 20094 20095 20096 20097 20098 20099 20100 20101 20102 20103 20104 20105 20106 20107 20108 20109 20110 20111 20112 20113 20114 20115 20116 20117 20118 20119 20120 20121 20122 20123 20124 20125 20126 20127 20128 20129 20130 20131 20132 20133 20134 20135 20136 20137 20138 20139 20140 20141 20142 20143 20144 20145 20146 20147 20148 20149 20150 20151 20152 20153 20154 20155 20156 20157 20158 20159 20160 20161 20162 20163 20164 20165 20166 20167 20168 20169 20170 20171 20172 20173 20174 20175 20176 20177 20178 20179 20180 20181 20182 20183 20184 20185 20186 20187 20188 20189 20190 20191 20192 20193 20194 20195 20196 20197 20198 20199 20200 20201 20202 20203 20204 20205 20206 20207 20208 20209 20210 20211 20212 20213 20214 20215 20216 20217 20218 20219 20220 20221 20222 20223 20224 20225 20226 20227 20228 20229 20230 20231 20232 20233 20234 20235 20236 20237 20238 20239 20240 20241 20242 20243 20244 20245 20246 20247 20248 20249 20250 20251 20252 20253 20254 20255 20256 20257 20258 20259 20260 20261 20262 20263 20264 20265 20266 20267 20268 20269 20270 20271 20272 20273 20274 20275 20276 20277 20278 20279 20280 20281 20282 20283 20284 20285 20286 20287 20288 20289 20290 20291 20292 20293 20294 20295 20296 20297 20298 20299 20300 20301 20302 20303 20304 20305 20306 20307 20308 20309 20310 20311 20312 20313 20314 20315 20316 20317 20318 20319 20320 20321 20322 20323 20324 20325 20326 20327 20328 20329 20330 20331 20332 20333 20334 20335 20336 20337 20338 20339 20340 20341 20342 20343 20344 20345 20346 20347 20348 20349 20350 20351 20352 20353 20354 20355 20356 20357 20358 20359 20360 20361 20362 20363 20364 20365 20366 20367 20368 20369 20370 20371 20372 20373 20374 20375 20376 20377 20378 20379 20380 20381 20382 20383 20384 20385 20386 20387 20388 20389 20390 20391 20392 20393 20394 20395 20396 20397 20398 20399 20400 20401 20402 20403 20404 20405 20406 20407 20408 20409 20410 20411 20412 20413 20414 20415 20416 20417 20418 20419 20420 20421 20422 20423 20424 20425 20426 20427 20428 20429 20430 20431 20432 20433 20434 20435 20436 20437 20438 20439 20440 20441 20442 20443 20444 20445 20446 20447 20448 20449 20450 20451 20452 20453 20454 20455 20456 20457 20458 20459 20460 20461 20462 20463 20464 20465 20466 20467 20468 20469 20470 20471 20472 20473 20474 20475 20476 20477 20478 20479 20480 20481 20482 20483 20484 20485 20486 20487 20488 20489 20490 20491 20492 20493 20494 20495 20496 20497 20498 20499 20500 20501 20502 20503 20504 20505 20506 20507 20508 20509 20510 20511 20512 20513 20514 20515 20516 20517 20518 20519 20520 20521 20522 20523 20524 20525 20526 20527 20528 20529 20530 20531 20532 20533 20534 20535 20536 20537 20538 20539 20540 20541 20542 20543 20544 20545 20546 20547 20548 20549 20550 20551 20552 20553 20554 20555 20556 20557 20558 20559 20560 20561 20562 20563 20564 20565 20566 20567 20568 20569 20570 20571 20572 20573 20574 20575 20576 20577 20578 20579 20580 20581 20582 20583 20584 20585 20586 20587 20588 20589 20590 20591 20592 20593 20594 20595 20596 20597 20598 20599 20600 20601 20602 20603 20604 20605 20606 20607 20608 20609 20610 20611 20612 20613 20614 20615 20616 20617 20618 20619 20620 20621 20622 20623 20624 20625 20626 20627 20628 20629 20630 20631 20632 20633 20634 20635 20636 20637 20638 20639 20640 20641 20642 20643 20644 20645 20646 20647 20648 20649 20650 20651 20652 20653 20654 20655 20656 20657 20658 20659 20660 20661 20662 20663 20664 20665 20666 20667 20668 20669 20670 20671 20672 20673 20674 20675 20676 20677 20678 20679 20680 20681 20682 20683 20684 20685 20686 20687 20688 20689 20690 20691 20692 20693 20694 20695 20696 20697 20698 20699 20700 20701 20702 20703 20704 20705 20706 20707 20708 20709 20710 20711 20712 20713 20714 20715 20716 20717 20718 20719 20720 20721 20722 20723 20724 20725 20726 20727 20728 20729 20730 20731 20732 20733 20734 20735 20736 20737 20738 20739 20740 20741 20742 20743 20744 20745 20746 20747 20748 20749 20750 20751 20752 20753 20754 20755 20756 20757 20758 20759 20760 20761 20762 20763 20764 20765 20766 20767 20768 20769 20770 20771 20772 20773 20774 20775 20776 20777 20778 20779 20780 20781 20782 20783 20784 20785 20786 20787 20788 20789 20790 20791 20792 20793 20794 20795 20796 20797 20798 20799 20800 20801 20802 20803 20804 20805 20806 20807 20808 20809 20810 20811 20812 20813 20814 20815 20816 20817 20818 20819 20820 20821 20822 20823 20824 20825 20826 20827 20828 20829 20830 20831 20832 20833 20834 20835 20836 20837 20838 20839 20840 20841 20842 20843 20844 20845 20846 20847 20848 20849 20850 20851 20852 20853 20854 20855 20856 20857 20858 20859 20860 20861 20862 20863 20864 20865 20866 20867 20868 20869 20870 20871 20872 20873 20874 20875 20876 20877 20878 20879 20880 20881 20882 20883 20884 20885 20886 20887 20888 20889 20890 20891 20892 20893 20894 20895 20896 20897 20898 20899 20900 20901 20902 20903 20904 20905 20906 20907 20908 20909 20910 20911 20912 20913 20914 20915 20916 20917 20918 20919 20920 20921 20922 20923 20924 20925 20926 20927 20928 20929 20930 20931 20932 20933 20934 20935 20936 20937 20938 20939 20940 20941 20942 20943 20944 20945 20946 20947 20948 20949 20950 20951 20952 20953 20954 20955 20956 20957 20958 20959 20960 20961 20962 20963 20964 20965 20966 20967 20968 20969 20970 20971 20972 20973 20974 20975 20976 20977 20978 20979 20980 20981 20982 20983 20984 20985 20986 20987 20988 20989 20990 20991 20992 20993 20994 20995 20996 20997 20998 20999 21000 21001 21002 21003 21004 21005 21006 21007 21008 21009 21010 21011 21012 21013 21014 21015 21016 21017 21018 21019 21020 21021 21022 21023 21024 21025 21026 21027 21028 21029 21030 21031 21032 21033 21034 21035 21036 21037 21038 21039 21040 21041 21042 21043 21044 21045 21046 21047 21048 21049 21050 21051 21052 21053 21054 21055 21056 21057 21058 21059 21060 21061 21062 21063 21064 21065 21066 21067 21068 21069 21070 21071 21072 21073 21074 21075 21076 21077 21078 21079 21080 21081 21082 21083 21084 21085 21086 21087 21088 21089 21090 21091 21092 21093 21094 21095 21096 21097 21098 21099 21100 21101 21102 21103 21104 21105 21106 21107 21108 21109 21110 21111 21112 21113 21114 21115 21116 21117 21118 21119 21120 21121 21122 21123 21124 21125 21126 21127 21128 21129 21130 21131 21132 21133 21134 21135 21136 21137 21138 21139 21140 21141 21142 21143 21144 21145 21146 21147 21148 21149 21150 21151 21152 21153 21154 21155 21156 21157 21158 21159 21160 21161 21162 21163 21164 21165 21166 21167 21168 21169 21170 21171 21172 21173 21174 21175 21176 21177 21178 21179 21180 21181 21182 21183 21184 21185 21186 21187 21188 21189 21190 21191 21192 21193 21194 21195 21196 21197 21198 21199 21200 21201 21202 21203 21204 21205 21206 21207 21208 21209 21210 21211 21212 21213 21214 21215 21216 21217 21218 21219 21220 21221 21222 21223 21224 21225 21226 21227 21228 21229 21230 21231 21232 21233 21234 21235 21236 21237 21238 21239 21240 21241 21242 21243 21244 21245 21246 21247 21248 21249 21250 21251 21252 21253 21254 21255 21256 21257 21258 21259 21260 21261 21262 21263 21264 21265 21266 21267 21268 21269 21270 21271 21272 21273 21274 21275 21276 21277 21278 21279 21280 21281 21282 21283 21284 21285 21286 21287 21288 21289 21290 21291 21292 21293 21294 21295 21296 21297 21298 21299 21300 21301 21302 21303 21304 21305 21306 21307 21308 21309 21310 21311 21312 21313 21314 21315 21316 21317 21318 21319 21320 21321 21322 21323 21324 21325 21326 21327 21328 21329 21330 21331 21332 21333 21334 21335 21336 21337 21338 21339 21340 21341 21342 21343 21344 21345 21346 21347 21348 21349 21350 21351 21352 21353 21354 21355 21356 21357 21358 21359 21360 21361 21362 21363 21364 21365 21366 21367 21368 21369 21370 21371 21372 21373 21374 21375 21376 21377 21378 21379 21380 21381 21382 21383 21384 21385 21386 21387 21388 21389 21390 21391 21392 21393 21394 21395 21396 21397 21398 21399 21400 21401 21402 21403 21404 21405 21406 21407 21408 21409 21410 21411 21412 21413 21414 21415 21416 21417 21418 21419 21420 21421 21422 21423 21424 21425 21426 21427 21428 21429 21430 21431 21432 21433 21434 21435 21436 21437 21438 21439 21440 21441 21442 21443 21444 21445 21446 21447 21448 21449 21450 21451 21452 21453 21454 21455 21456 21457 21458 21459 21460 21461 21462 21463 21464 21465 21466 21467 21468 21469 21470 21471 21472 21473 21474 21475 21476 21477 21478 21479 21480 21481 21482 21483 21484 21485 21486 21487 21488 21489 21490 21491 21492 21493 21494 21495 21496 21497 21498 21499 21500 21501 21502 21503 21504 21505 21506 21507 21508 21509 21510 21511 21512 21513 21514 21515 21516 21517 21518 21519 21520 21521 21522 21523 21524 21525 21526 21527 21528 21529 21530 21531 21532 21533 21534 21535 21536 21537 21538 21539 21540 21541 21542 21543 21544 21545 21546 21547 21548 21549 21550 21551 21552 21553 21554 21555 21556 21557 21558 21559 21560 21561 21562 21563 21564 21565 21566 21567 21568 21569 21570 21571 21572 21573 21574 21575 21576 21577 21578 21579 21580 21581 21582 21583 21584 21585 21586 21587 21588 21589 21590 21591 21592 21593 21594 21595 21596 21597 21598 21599 21600 21601 21602 21603 21604 21605 21606 21607 21608 21609 21610 21611 21612 21613 21614 21615 21616 21617 21618 21619 21620 21621 21622 21623 21624 21625 21626 21627 21628 21629 21630 21631 21632 21633 21634 21635 21636 21637 21638 21639 21640 21641 21642 21643 21644 21645 21646 21647 21648 21649 21650 21651 21652 21653 21654 21655 21656 21657 21658 21659 21660 21661 21662 21663 21664 21665 21666 21667 21668 21669 21670 21671 21672 21673 21674 21675 21676 21677 21678 21679 21680 21681 21682 21683 21684 21685 21686 21687 21688 21689 21690 21691 21692 21693 21694 21695 21696 21697 21698 21699 21700 21701 21702 21703 21704 21705 21706 21707 21708 21709 21710 21711 21712 21713 21714 21715 21716 21717 21718 21719 21720 21721 21722 21723 21724 21725 21726 21727 21728 21729 21730 21731 21732 21733 21734 21735 21736 21737 21738 21739 21740 21741 21742 21743 21744 21745 21746 21747 21748 21749 21750 21751 21752 21753 21754 21755 21756 21757 21758 21759 21760 21761 21762 21763 21764 21765 21766 21767 21768 21769 21770 21771 21772 21773 21774 21775 21776 21777 21778 21779 21780 21781 21782 21783 21784 21785 21786 21787 21788 21789 21790 21791 21792 21793 21794 21795 21796 21797 21798 21799 21800 21801 21802 21803 21804 21805 21806 21807 21808 21809 21810 21811 21812 21813 21814 21815 21816 21817 21818 21819 21820 21821 21822 21823 21824 21825 21826 21827 21828 21829 21830 21831 21832 21833 21834 21835 21836 21837 21838 21839 21840 21841 21842 21843 21844 21845 21846 21847 21848 21849 21850 21851 21852 21853 21854 21855 21856 21857 21858 21859 21860 21861 21862 21863 21864 21865 21866 21867 21868 21869 21870 21871 21872 21873 21874 21875 21876 21877 21878 21879 21880 21881 21882 21883 21884 21885 21886 21887 21888 21889 21890 21891 21892 21893 21894 21895 21896 21897 21898 21899 21900 21901 21902 21903 21904 21905 21906 21907 21908 21909 21910 21911 21912 21913 21914 21915 21916 21917 21918 21919 21920 21921 21922 21923 21924 21925 21926 21927 21928 21929 21930 21931 21932 21933 21934 21935 21936 21937 21938 21939 21940 21941 21942 21943 21944 21945 21946 21947 21948 21949 21950 21951 21952 21953 21954 21955 21956 21957 21958 21959 21960 21961 21962 21963 21964 21965 21966 21967 21968 21969 21970 21971 21972 21973 21974 21975 21976 21977 21978 21979 21980 21981 21982 21983 21984 21985 21986 21987 21988 21989 21990 21991 21992 21993 21994 21995 21996 21997 21998 21999 22000 22001 22002 22003 22004 22005 22006 22007 22008 22009 22010 22011 22012 22013 22014 22015 22016 22017 22018 22019 22020 22021 22022 22023 22024 22025 22026 22027 22028 22029 22030 22031 22032 22033 22034 22035 22036 22037 22038 22039 22040 22041 22042 22043 22044 22045 22046 22047 22048 22049 22050 22051 22052 22053 22054 22055 22056 22057 22058 22059 22060 22061 22062 22063 22064 22065 22066 22067 22068 22069 22070 22071 22072 22073 22074 22075 22076 22077 22078 22079 22080 22081 22082 22083 22084 22085 22086 22087 22088 22089 22090 22091 22092 22093 22094 22095 22096 22097 22098 22099 22100 22101 22102 22103 22104 22105 22106 22107 22108 22109 22110 22111 22112 22113 22114 22115 22116 22117 22118 22119 22120 22121 22122 22123 22124 22125 22126 22127 22128 22129 22130 22131 22132 22133 22134 22135 22136 22137 22138 22139 22140 22141 22142 22143 22144 22145 22146 22147 22148 22149 22150 22151 22152 22153 22154 22155 22156 22157 22158 22159 22160 22161 22162 22163 22164 22165 22166 22167 22168 22169 22170 22171 22172 22173 22174 22175 22176 22177 22178 22179 22180 22181 22182 22183 22184 22185 22186 22187 22188 22189 22190 22191 22192 22193 22194 22195 22196 22197 22198 22199 22200 22201 22202 22203 22204 22205 22206 22207 22208 22209 22210 22211 22212 22213 22214 22215 22216 22217 22218 22219 22220 22221 22222 22223 22224 22225 22226 22227 22228 22229 22230 22231 22232 22233 22234 22235 22236 22237 22238 22239 22240 22241 22242 22243 22244 22245 22246 22247 22248 22249 22250 22251 22252 22253 22254 22255 22256 22257 22258 22259 22260 22261 22262 22263 22264 22265 22266 22267 22268 22269 22270 22271 22272 22273 22274 22275 22276 22277 22278 22279 22280 22281 22282 22283 22284 22285 22286 22287 22288 22289 22290 22291 22292 22293 22294 22295 22296 22297 22298 22299 22300 22301 22302 22303 22304 22305 22306 22307 22308 22309 22310 22311 22312 22313 22314 22315 22316 22317 22318 22319 22320 22321 22322 22323 22324 22325 22326 22327 22328 22329 22330 22331 22332 22333 22334 22335 22336 22337 22338 22339 22340 22341 22342 22343 22344 22345 22346 22347 22348 22349 22350 22351 22352 22353 22354 22355 22356 22357 22358 22359 22360 22361 22362 22363 22364 22365 22366 22367 22368 22369 22370 22371 22372 22373 22374 22375 22376 22377 22378 22379 22380 22381 22382 22383 22384 22385 22386 22387 22388 22389 22390 22391 22392 22393 22394 22395 22396 22397 22398 22399 22400 22401 22402 22403 22404 22405 22406 22407 22408 22409 22410 22411 22412 22413 22414 22415 22416 22417 22418 22419 22420 22421 22422 22423 22424 22425 22426 22427 22428 22429 22430 22431 22432 22433 22434 22435 22436 22437 22438 22439 22440 22441 22442 22443 22444 22445 22446 22447 22448 22449 22450 22451 22452 22453 22454 22455 22456 22457 22458 22459 22460 22461 22462 22463 22464 22465 22466 22467 22468 22469 22470 22471 22472 22473 22474 22475 22476 22477 22478 22479 22480 22481 22482 22483 22484 22485 22486 22487 22488 22489 22490 22491 22492 22493 22494 22495 22496 22497 22498 22499 22500 22501 22502 22503 22504 22505 22506 22507 22508 22509 22510 22511 22512 22513 22514 22515 22516 22517 22518 22519 22520 22521 22522 22523 22524 22525 22526 22527 22528 22529 22530 22531 22532 22533 22534 22535 22536 22537 22538 22539 22540 22541 22542 22543 22544 22545 22546 22547 22548 22549 22550 22551 22552 22553 22554 22555 22556 22557 22558 22559 22560 22561 22562 22563 22564 22565 22566 22567 22568 22569 22570 22571 22572 22573 22574 22575 22576 22577 22578 22579 22580 22581 22582 22583 22584 22585 22586 22587 22588 22589 22590 22591 22592 22593 22594 22595 22596 22597 22598 22599 22600 22601 22602 22603 22604 22605 22606 22607 22608 22609 22610 22611 22612 22613 22614 22615 22616 22617 22618 22619 22620 22621 22622 22623 22624 22625 22626 22627 22628 22629 22630 22631 22632 22633 22634 22635 22636 22637 22638 22639 22640 22641 22642 22643 22644 22645 22646 22647 22648 22649 22650 22651 22652 22653 22654 22655 22656 22657 22658 22659 22660 22661 22662 22663 22664 22665 22666 22667 22668 22669 22670 22671 22672 22673 22674 22675 22676 22677 22678 22679 22680 22681 22682 22683 22684 22685 22686 22687 22688 22689 22690 22691 22692 22693 22694 22695 22696 22697 22698 22699 22700 22701 22702 22703 22704 22705 22706 22707 22708 22709 22710 22711 22712 22713 22714 22715 22716 22717 22718 22719 22720 22721 22722 22723 22724 22725 22726 22727 22728 22729 22730 22731 22732 22733 22734 22735 22736 22737 22738 22739 22740 22741 22742 22743 22744 22745 22746 22747 22748 22749 22750 22751 22752 22753 22754 22755 22756 22757 22758 22759 22760 22761 22762 22763 22764 22765 22766 22767 22768 22769 22770 22771 22772 22773 22774 22775 22776 22777 22778 22779 22780 22781 22782 22783 22784 22785 22786 22787 22788 22789 22790 22791 22792 22793 22794 22795 22796 22797 22798 22799 22800 22801 22802 22803 22804 22805 22806 22807 22808 22809 22810 22811 22812 22813 22814 22815 22816 22817 22818 22819 22820 22821 22822 22823 22824 22825 22826 22827 22828 22829 22830 22831 22832 22833 22834 22835 22836 22837 22838 22839 22840 22841 22842 22843 22844 22845 22846 22847 22848 22849 22850 22851 22852 22853 22854 22855 22856 22857 22858 22859 22860 22861 22862 22863 22864 22865 22866 22867 22868 22869 22870 22871 22872 22873 22874 22875 22876 22877 22878 22879 22880 22881 22882 22883 22884 22885 22886 22887 22888 22889 22890 22891 22892 22893 22894 22895 22896 22897 22898 22899 22900 22901 22902 22903 22904 22905 22906 22907 22908 22909 22910 22911 22912 22913 22914 22915 22916 22917 22918 22919 22920 22921 22922 22923 22924 22925 22926 22927 22928 22929 22930 22931 22932 22933 22934 22935 22936 22937 22938 22939 22940 22941 22942 22943 22944 22945 22946 22947 22948 22949 22950 22951 22952 22953 22954 22955 22956 22957 22958 22959 22960 22961 22962 22963 22964 22965 22966 22967 22968 22969 22970 22971 22972 22973 22974 22975 22976 22977 22978 22979 22980 22981 22982 22983 22984 22985 22986 22987 22988 22989 22990 22991 22992 22993 22994 22995 22996 22997 22998 22999 23000 23001 23002 23003 23004 23005 23006 23007 23008 23009 23010 23011 23012 23013 23014 23015 23016 23017 23018 23019 23020 23021 23022 23023 23024 23025 23026 23027 23028 23029 23030 23031 23032 23033 23034 23035 23036 23037 23038 23039 23040 23041 23042 23043 23044 23045 23046 23047 23048 23049 23050 23051 23052 23053 23054 23055 23056 23057 23058 23059 23060 23061 23062 23063 23064 23065 23066 23067 23068 23069 23070 23071 23072 23073 23074 23075 23076 23077 23078 23079 23080 23081 23082 23083 23084 23085 23086 23087 23088 23089 23090 23091 23092 23093 23094 23095 23096 23097 23098 23099 23100 23101 23102 23103 23104 23105 23106 23107 23108 23109 23110 23111 23112 23113 23114 23115 23116 23117 23118 23119 23120 23121 23122 23123 23124 23125 23126 23127 23128 23129 23130 23131 23132 23133 23134 23135 23136 23137 23138 23139 23140 23141 23142 23143 23144 23145 23146 23147 23148 23149 23150 23151 23152 23153 23154 23155 23156 23157 23158 23159 23160 23161 23162 23163 23164 23165 23166 23167 23168 23169 23170 23171 23172 23173 23174 23175 23176 23177 23178 23179 23180 23181 23182 23183 23184 23185 23186 23187 23188 23189 23190 23191 23192 23193 23194 23195 23196 23197 23198 23199 23200 23201 23202 23203 23204 23205 23206 23207 23208 23209 23210 23211 23212 23213 23214 23215 23216 23217 23218 23219 23220 23221 23222 23223 23224 23225 23226 23227 23228 23229 23230 23231 23232 23233 23234 23235 23236 23237 23238 23239 23240 23241 23242 23243 23244 23245 23246 23247 23248 23249 23250 23251 23252 23253 23254 23255 23256 23257 23258 23259 23260 23261 23262 23263 23264 23265 23266 23267 23268 23269 23270 23271 23272 23273 23274 23275 23276 23277 23278 23279 23280 23281 23282 23283 23284 23285 23286 23287 23288 23289 23290 23291 23292 23293 23294 23295 23296 23297 23298 23299 23300 23301 23302 23303 23304 23305 23306 23307 23308 23309 23310 23311 23312 23313 23314 23315 23316 23317 23318 23319 23320 23321 23322 23323 23324 23325 23326 23327 23328 23329 23330 23331 23332 23333 23334 23335 23336 23337 23338 23339 23340 23341 23342 23343 23344 23345 23346 23347 23348 23349 23350 23351 23352 23353 23354 23355 23356 23357 23358 23359 23360 23361 23362 23363 23364 23365 23366 23367 23368 23369 23370 23371 23372 23373 23374 23375 23376 23377 23378 23379 23380 23381 23382 23383 23384 23385 23386 23387 23388 23389 23390 23391 23392 23393 23394 23395 23396 23397 23398 23399 23400 23401 23402 23403 23404 23405 23406 23407 23408 23409 23410 23411 23412 23413 23414 23415 23416 23417 23418 23419 23420 23421 23422 23423 23424 23425 23426 23427 23428 23429 23430 23431 23432 23433 23434 23435 23436 23437 23438 23439 23440 23441 23442 23443 23444 23445 23446 23447 23448 23449 23450 23451 23452 23453 23454 23455 23456 23457 23458 23459 23460 23461 23462 23463 23464 23465 23466 23467 23468 23469 23470 23471 23472 23473 23474 23475 23476 23477 23478 23479 23480 23481 23482 23483 23484 23485 23486 23487 23488 23489 23490 23491 23492 23493 23494 23495 23496 23497 23498 23499 23500 23501 23502 23503 23504 23505 23506 23507 23508 23509 23510 23511 23512 23513 23514 23515 23516 23517 23518 23519 23520 23521 23522 23523 23524 23525 23526 23527 23528 23529 23530 23531 23532 23533 23534 23535 23536 23537 23538 23539 23540 23541 23542 23543 23544 23545 23546 23547 23548 23549 23550 23551 23552 23553 23554 23555 23556 23557 23558 23559 23560 23561 23562 23563 23564 23565 23566 23567 23568 23569 23570 23571 23572 23573 23574 23575 23576 23577 23578 23579 23580 23581 23582 23583 23584 23585 23586 23587 23588 23589 23590 23591 23592 23593 23594 23595 23596 23597 23598 23599 23600 23601 23602 23603 23604 23605 23606 23607 23608 23609 23610 23611 23612 23613 23614 23615 23616 23617 23618 23619 23620 23621 23622 23623 23624 23625 23626 23627 23628 23629 23630 23631 23632 23633 23634 23635 23636 23637 23638 23639 23640 23641 23642 23643 23644 23645 23646 23647 23648 23649 23650 23651 23652 23653 23654 23655 23656 23657 23658 23659 23660 23661 23662 23663 23664 23665 23666 23667 23668 23669 23670 23671 23672 23673 23674 23675 23676 23677 23678 23679 23680 23681 23682 23683 23684 23685 23686 23687 23688 23689 23690 23691 23692 23693 23694 23695 23696 23697 23698 23699 23700 23701 23702 23703 23704 23705 23706 23707 23708 23709 23710 23711 23712 23713 23714 23715 23716 23717 23718 23719 23720 23721 23722 23723 23724 23725 23726 23727 23728 23729 23730 23731 23732 23733 23734 23735 23736 23737 23738 23739 23740 23741 23742 23743 23744 23745 23746 23747 23748 23749 23750 23751 23752 23753 23754 23755 23756 23757 23758 23759 23760 23761 23762 23763 23764 23765 23766 23767 23768 23769 23770 23771 23772 23773 23774 23775 23776 23777 23778 23779 23780 23781 23782 23783 23784 23785 23786 23787 23788 23789 23790 23791 23792 23793 23794 23795 23796 23797 23798 23799 23800 23801 23802 23803 23804 23805 23806 23807 23808 23809 23810 23811 23812 23813 23814 23815 23816 23817 23818 23819 23820 23821 23822 23823 23824 23825 23826 23827 23828 23829 23830 23831 23832 23833 23834 23835 23836 23837 23838 23839 23840 23841 23842 23843 23844 23845 23846 23847 23848 23849 23850 23851 23852 23853 23854 23855 23856 23857 23858 23859 23860 23861 23862 23863 23864 23865 23866 23867 23868 23869 23870 23871 23872 23873 23874 23875 23876 23877 23878 23879 23880 23881 23882 23883 23884 23885 23886 23887 23888 23889 23890 23891 23892 23893 23894 23895 23896 23897 23898 23899 23900 23901 23902 23903 23904 23905 23906 23907 23908 23909 23910 23911 23912 23913 23914 23915 23916 23917 23918 23919 23920 23921 23922 23923 23924 23925 23926 23927 23928 23929 23930 23931 23932 23933 23934 23935 23936 23937 23938 23939 23940 23941 23942 23943 23944 23945 23946 23947 23948 23949 23950 23951 23952 23953 23954 23955 23956 23957 23958 23959 23960 23961 23962 23963 23964 23965 23966 23967 23968 23969 23970 23971 23972 23973 23974 23975 23976 23977 23978 23979 23980 23981 23982 23983 23984 23985 23986 23987 23988 23989 23990 23991 23992 23993 23994 23995 23996 23997 23998 23999 24000 24001 24002 24003 24004 24005 24006 24007 24008 24009 24010 24011 24012 24013 24014 24015 24016 24017 24018 24019 24020 24021 24022 24023 24024 24025 24026 24027 24028 24029 24030 24031 24032 24033 24034 24035 24036 24037 24038 24039 24040 24041 24042 24043 24044 24045 24046 24047 24048 24049 24050 24051 24052 24053 24054 24055 24056 24057 24058 24059 24060 24061 24062 24063 24064 24065 24066 24067 24068 24069 24070 24071 24072 24073 24074 24075 24076 24077 24078 24079 24080 24081 24082 24083 24084 24085 24086 24087 24088 24089 24090 24091 24092 24093 24094 24095 24096 24097 24098 24099 24100 24101 24102 24103 24104 24105 24106 24107 24108 24109 24110 24111 24112 24113 24114 24115 24116 24117 24118 24119 24120 24121 24122 24123 24124 24125 24126 24127 24128 24129 24130 24131 24132 24133 24134 24135 24136 24137 24138 24139 24140 24141 24142 24143 24144 24145 24146 24147 24148 24149 24150 24151 24152 24153 24154 24155 24156 24157 24158 24159 24160 24161 24162 24163 24164 24165 24166 24167 24168 24169 24170 24171 24172 24173 24174 24175 24176 24177 24178 24179 24180 24181 24182 24183 24184 24185 24186 24187 24188 24189 24190 24191 24192 24193 24194 24195 24196 24197 24198 24199 24200 24201 24202 24203 24204 24205 24206 24207 24208 24209 24210 24211 24212 24213 24214 24215 24216 24217 24218 24219 24220 24221 24222 24223 24224 24225 24226 24227 24228 24229 24230 24231 24232 24233 24234 24235 24236 24237 24238 24239 24240 24241 24242 24243 24244 24245 24246 24247 24248 24249 24250 24251 24252 24253 24254 24255 24256 24257 24258 24259 24260 24261 24262 24263 24264 24265 24266 24267 24268 24269 24270 24271 24272 24273 24274 24275 24276 24277 24278 24279 24280 24281 24282 24283 24284 24285 24286 24287 24288 24289 24290 24291 24292 24293 24294 24295 24296 24297 24298 24299 24300 24301 24302 24303 24304 24305 24306 24307 24308 24309 24310 24311 24312 24313 24314 24315 24316 24317 24318 24319 24320 24321 24322 24323 24324 24325 24326 24327 24328 24329 24330 24331 24332 24333 24334 24335 24336 24337 24338 24339 24340 24341 24342 24343 24344 24345 24346 24347 24348 24349 24350 24351 24352 24353 24354 24355 24356 24357 24358 24359 24360 24361 24362 24363 24364 24365 24366 24367 24368 24369 24370 24371 24372 24373 24374 24375 24376 24377 24378 24379 24380 24381 24382 24383 24384 24385 24386 24387 24388 24389 24390 24391 24392 24393 24394 24395 24396 24397 24398 24399 24400 24401 24402 24403 24404 24405 24406 24407 24408 24409 24410 24411 24412 24413 24414 24415 24416 24417 24418 24419 24420 24421 24422 24423 24424 24425 24426 24427 24428 24429 24430 24431 24432 24433 24434 24435 24436 24437 24438 24439 24440 24441 24442 24443 24444 24445 24446 24447 24448 24449 24450 24451 24452 24453 24454 24455 24456 24457 24458 24459 24460 24461 24462 24463 24464 24465 24466 24467 24468 24469 24470 24471 24472 24473 24474 24475 24476 24477 24478 24479 24480 24481 24482 24483 24484 24485 24486 24487 24488 24489 24490 24491 24492 24493 24494 24495 24496 24497 24498 24499 24500 24501 24502 24503 24504 24505 24506 24507 24508 24509 24510 24511 24512 24513 24514 24515 24516 24517 24518 24519 24520 24521 24522 24523 24524 24525 24526 24527 24528 24529 24530 24531 24532 24533 24534 24535 24536 24537 24538 24539 24540 24541 24542 24543 24544 24545 24546 24547 24548 24549 24550 24551 24552 24553 24554 24555 24556 24557 24558 24559 24560 24561 24562 24563 24564 24565 24566 24567 24568 24569 24570 24571 24572 24573 24574 24575 24576 24577 24578 24579 24580 24581 24582 24583 24584 24585 24586 24587 24588 24589 24590 24591 24592 24593 24594 24595 24596 24597 24598 24599 24600 24601 24602 24603 24604 24605 24606 24607 24608 24609 24610 24611 24612 24613 24614 24615 24616 24617 24618 24619 24620 24621 24622 24623 24624 24625 24626 24627 24628 24629 24630 24631 24632 24633 24634 24635 24636 24637 24638 24639 24640 24641 24642 24643 24644 24645 24646 24647 24648 24649 24650 24651 24652 24653 24654 24655 24656 24657 24658 24659 24660 24661 24662 24663 24664 24665 24666 24667 24668 24669 24670 24671 24672 24673 24674 24675 24676 24677 24678 24679 24680 24681 24682 24683 24684 24685 24686 24687 24688 24689 24690 24691 24692 24693 24694 24695 24696 24697 24698 24699 24700 24701 24702 24703 24704 24705 24706 24707 24708 24709 24710 24711 24712 24713 24714 24715 24716 24717 24718 24719 24720 24721 24722 24723 24724 24725 24726 24727 24728 24729 24730 24731 24732 24733 24734 24735 24736 24737 24738 24739 24740 24741 24742 24743 24744 24745 24746 24747 24748 24749 24750 24751 24752 24753 24754 24755 24756 24757 24758 24759 24760 24761 24762 24763 24764 24765 24766 24767 24768 24769 24770 24771 24772 24773 24774 24775 24776 24777 24778 24779 24780 24781 24782 24783 24784 24785 24786 24787 24788 24789 24790 24791 24792 24793 24794 24795 24796 24797 24798 24799 24800 24801 24802 24803 24804 24805 24806 24807 24808 24809 24810 24811 24812 24813 24814 24815 24816 24817 24818 24819 24820 24821 24822 24823 24824 24825 24826 24827 24828 24829 24830 24831 24832 24833 24834 24835 24836 24837 24838 24839 24840 24841 24842 24843 24844 24845 24846 24847 24848 24849 24850 24851 24852 24853 24854 24855 24856 24857 24858 24859 24860 24861 24862 24863 24864 24865 24866 24867 24868 24869 24870 24871 24872 24873 24874 24875 24876 24877 24878 24879 24880 24881 24882 24883 24884 24885 24886 24887 24888 24889 24890 24891 24892 24893 24894 24895 24896 24897 24898 24899 24900 24901 24902 24903 24904 24905 24906 24907 24908 24909 24910 24911 24912 24913 24914 24915 24916 24917 24918 24919 24920 24921 24922 24923 24924 24925 24926 24927 24928 24929 24930 24931 24932 24933 24934 24935 24936 24937 24938 24939 24940 24941 24942 24943 24944 24945 24946 24947 24948 24949 24950 24951 24952 24953 24954 24955 24956 24957 24958 24959 24960 24961 24962 24963 24964 24965 24966 24967 24968 24969 24970 24971 24972 24973 24974 24975 24976 24977 24978 24979 24980 24981 24982 24983 24984 24985 24986 24987 24988 24989 24990 24991 24992 24993 24994 24995 24996 24997 24998 24999 25000 25001 25002 25003 25004 25005 25006 25007 25008 25009 25010 25011 25012 25013 25014 25015 25016 25017 25018 25019 25020 25021 25022 25023 25024 25025 25026 25027 25028 25029 25030 25031 25032 25033 25034 25035 25036 25037 25038 25039 25040 25041 25042 25043 25044 25045 25046 25047 25048 25049 25050 25051 25052 25053 25054 25055 25056 25057 25058 25059 25060 25061 25062 25063 25064 25065 25066 25067 25068 25069 25070 25071 25072 25073 25074 25075 25076 25077 25078 25079 25080 25081 25082 25083 25084 25085 25086 25087 25088 25089 25090 25091 25092 25093 25094 25095 25096 25097 25098 25099 25100 25101 25102 25103 25104 25105 25106 25107 25108 25109 25110 25111 25112 25113 25114 25115 25116 25117 25118 25119 25120 25121 25122 25123 25124 25125 25126 25127 25128 25129 25130 25131 25132 25133 25134 25135 25136 25137 25138 25139 25140 25141 25142 25143 25144 25145 25146 25147 25148 25149 25150 25151 25152 25153 25154 25155 25156 25157 25158 25159 25160 25161 25162 25163 25164 25165 25166 25167 25168 25169 25170 25171 25172 25173 25174 25175 25176 25177 25178 25179 25180 25181 25182 25183 25184 25185 25186 25187 25188 25189 25190 25191 25192 25193 25194 25195 25196 25197 25198 25199 25200 25201 25202 25203 25204 25205 25206 25207 25208 25209 25210 25211 25212 25213 25214 25215 25216 25217 25218 25219 25220 25221 25222 25223 25224 25225 25226 25227 25228 25229 25230 25231 25232 25233 25234 25235 25236 25237 25238 25239 25240 25241 25242 25243 25244 25245 25246 25247 25248 25249 25250 25251 25252 25253 25254 25255 25256 25257 25258 25259 25260 25261 25262 25263 25264 25265 25266 25267 25268 25269 25270 25271 25272 25273 25274 25275 25276 25277 25278 25279 25280 25281 25282 25283 25284 25285 25286 25287 25288 25289 25290 25291 25292 25293 25294 25295 25296 25297 25298 25299 25300 25301 25302 25303 25304 25305 25306 25307 25308 25309 25310 25311 25312 25313 25314 25315 25316 25317 25318 25319 25320 25321 25322 25323 25324 25325 25326 25327 25328 25329 25330 25331 25332 25333 25334 25335 25336 25337 25338 25339 25340 25341 25342 25343 25344 25345 25346 25347 25348 25349 25350 25351 25352 25353 25354 25355 25356 25357 25358 25359 25360 25361 25362 25363 25364 25365 25366 25367 25368 25369 25370 25371 25372 25373 25374 25375 25376 25377 25378 25379 25380 25381 25382 25383 25384 25385 25386 25387 25388 25389 25390 25391 25392 25393 25394 25395 25396 25397 25398 25399 25400 25401 25402 25403 25404 25405 25406 25407 25408 25409 25410 25411 25412 25413 25414 25415 25416 25417 25418 25419 25420 25421 25422 25423 25424 25425 25426 25427 25428 25429 25430 25431 25432 25433 25434 25435 25436 25437 25438 25439 25440 25441 25442 25443 25444 25445 25446 25447 25448 25449 25450 25451 25452 25453 25454 25455 25456 25457 25458 25459 25460 25461 25462 25463 25464 25465 25466 25467 25468 25469 25470 25471 25472 25473 25474 25475 25476 25477 25478 25479 25480 25481 25482 25483 25484 25485 25486 25487 25488 25489 25490 25491 25492 25493 25494 25495 25496 25497 25498 25499 25500 25501 25502 25503 25504 25505 25506 25507 25508 25509 25510 25511 25512 25513 25514 25515 25516 25517 25518 25519 25520 25521 25522 25523 25524 25525 25526 25527 25528 25529 25530 25531 25532 25533 25534 25535 25536 25537 25538 25539 25540 25541 25542 25543 25544 25545 25546 25547 25548 25549 25550 25551 25552 25553 25554 25555 25556 25557 25558 25559 25560 25561 25562 25563 25564 25565 25566 25567 25568 25569 25570 25571 25572 25573 25574 25575 25576 25577 25578 25579 25580 25581 25582 25583 25584 25585 25586 25587 25588 25589 25590 25591 25592 25593 25594 25595 25596 25597 25598 25599 25600 25601 25602 25603 25604 25605 25606 25607 25608 25609 25610 25611 25612 25613 25614 25615 25616 25617 25618 25619 25620 25621 25622 25623 25624 25625 25626 25627 25628 25629 25630 25631 25632 25633 25634 25635 25636 25637 25638 25639 25640 25641 25642 25643 25644 25645 25646 25647 25648 25649 25650 25651 25652 25653 25654 25655 25656 25657 25658 25659 25660 25661 25662 25663 25664 25665 25666 25667 25668 25669 25670 25671 25672 25673 25674 25675 25676 25677 25678 25679 25680 25681 25682 25683 25684 25685 25686 25687 25688 25689 25690 25691 25692 25693 25694 25695 25696 25697 25698 25699 25700 25701 25702 25703 25704 25705 25706 25707 25708 25709 25710 25711 25712 25713 25714 25715 25716 25717 25718 25719 25720 25721 25722 25723 25724 25725 25726 25727 25728 25729 25730 25731 25732 25733 25734 25735 25736 25737 25738 25739 25740 25741 25742 25743 25744 25745 25746 25747 25748 25749 25750 25751 25752 25753 25754 25755 25756 25757 25758 25759 25760 25761 25762 25763 25764 25765 25766 25767 25768 25769 25770 25771 25772 25773 25774 25775 25776 25777 25778 25779 25780 25781 25782 25783 25784 25785 25786 25787 25788 25789 25790 25791 25792 25793 25794 25795 25796 25797 25798 25799 25800 25801 25802 25803 25804 25805 25806 25807 25808 25809 25810 25811 25812 25813 25814 25815 25816 25817 25818 25819 25820 25821 25822 25823 25824 25825 25826 25827 25828 25829 25830 25831 25832 25833 25834 25835 25836 25837 25838 25839 25840 25841 25842 25843 25844 25845 25846 25847 25848 25849 25850 25851 25852 25853 25854 25855 25856 25857 25858 25859 25860 25861 25862 25863 25864 25865 25866 25867 25868 25869 25870 25871 25872 25873 25874 25875 25876 25877 25878 25879 25880 25881 25882 25883 25884 25885 25886 25887 25888 25889 25890 25891 25892 25893 25894 25895 25896 25897 25898 25899 25900 25901 25902 25903 25904 25905 25906 25907 25908 25909 25910 25911 25912 25913 25914 25915 25916 25917 25918 25919 25920 25921 25922 25923 25924 25925 25926 25927 25928 25929 25930 25931 25932 25933 25934 25935 25936 25937 25938 25939 25940 25941 25942 25943 25944 25945 25946 25947 25948 25949 25950 25951 25952 25953 25954 25955 25956 25957 25958 25959 25960 25961 25962 25963 25964 25965 25966 25967 25968 25969 25970 25971 25972 25973 25974 25975 25976 25977 25978 25979 25980 25981 25982 25983 25984 25985 25986 25987 25988 25989 25990 25991 25992 25993 25994 25995 25996 25997 25998 25999 26000 26001 26002 26003 26004 26005 26006 26007 26008 26009 26010 26011 26012 26013 26014 26015 26016 26017 26018 26019 26020 26021 26022 26023 26024 26025 26026 26027 26028 26029 26030 26031 26032 26033 26034 26035 26036 26037 26038 26039 26040 26041 26042 26043 26044 26045 26046 26047 26048 26049 26050 26051 26052 26053 26054 26055 26056 26057 26058 26059 26060 26061 26062 26063 26064 26065 26066 26067 26068 26069 26070 26071 26072 26073 26074 26075 26076 26077 26078 26079 26080 26081 26082 26083 26084 26085 26086 26087 26088 26089 26090 26091 26092 26093 26094 26095 26096 26097 26098 26099 26100 26101 26102 26103 26104 26105 26106 26107 26108 26109 26110 26111 26112 26113 26114 26115 26116 26117 26118 26119 26120 26121 26122 26123 26124 26125 26126 26127 26128 26129 26130 26131 26132 26133 26134 26135 26136 26137 26138 26139 26140 26141 26142 26143 26144 26145 26146 26147 26148 26149 26150 26151 26152 26153 26154 26155 26156 26157 26158 26159 26160 26161 26162 26163 26164 26165 26166 26167 26168 26169 26170 26171 26172 26173 26174 26175 26176 26177 26178 26179 26180 26181 26182 26183 26184 26185 26186 26187 26188 26189 26190 26191 26192 26193 26194 26195 26196 26197 26198 26199 26200 26201 26202 26203 26204 26205 26206 26207 26208 26209 26210 26211 26212 26213 26214 26215 26216 26217 26218 26219 26220 26221 26222 26223 26224 26225 26226 26227 26228 26229 26230 26231 26232 26233 26234 26235 26236 26237 26238 26239 26240 26241 26242 26243 26244 26245 26246 26247 26248 26249 26250 26251 26252 26253 26254 26255 26256 26257 26258 26259 26260 26261 26262 26263 26264 26265 26266 26267 26268 26269 26270 26271 26272 26273 26274 26275 26276 26277 26278 26279 26280 26281 26282 26283 26284 26285 26286 26287 26288 26289 26290 26291 26292 26293 26294 26295 26296 26297 26298 26299 26300 26301 26302 26303 26304 26305 26306 26307 26308 26309 26310 26311 26312 26313 26314 26315 26316 26317 26318 26319 26320 26321 26322 26323 26324 26325 26326 26327 26328 26329 26330 26331 26332 26333 26334 26335 26336 26337 26338 26339 26340 26341 26342 26343 26344 26345 26346 26347 26348 26349 26350 26351 26352 26353 26354 26355 26356 26357 26358 26359 26360 26361 26362 26363 26364 26365 26366 26367 26368 26369 26370 26371 26372 26373 26374 26375 26376 26377 26378 26379 26380 26381 26382 26383 26384 26385 26386 26387 26388 26389 26390 26391 26392 26393 26394 26395 26396 26397 26398 26399 26400 26401 26402 26403 26404 26405 26406 26407 26408 26409 26410 26411 26412 26413 26414 26415 26416 26417 26418 26419 26420 26421 26422 26423 26424 26425 26426 26427 26428 26429 26430 26431 26432 26433 26434 26435 26436 26437 26438 26439 26440 26441 26442 26443 26444 26445 26446 26447 26448 26449 26450 26451 26452 26453 26454 26455 26456 26457 26458 26459 26460 26461 26462 26463 26464 26465 26466 26467 26468 26469 26470 26471 26472 26473 26474 26475 26476 26477 26478 26479 26480 26481 26482 26483 26484 26485 26486 26487 26488 26489 26490 26491 26492 26493 26494 26495 26496 26497 26498 26499 26500 26501 26502 26503 26504 26505 26506 26507 26508 26509 26510 26511 26512 26513 26514 26515 26516 26517 26518 26519 26520 26521 26522 26523 26524 26525 26526 26527 26528 26529 26530 26531 26532 26533 26534 26535 26536 26537 26538 26539 26540 26541 26542 26543 26544 26545 26546 26547 26548 26549 26550 26551 26552 26553 26554 26555 26556 26557 26558 26559 26560 26561 26562 26563 26564 26565 26566 26567 26568 26569 26570 26571 26572 26573 26574 26575 26576 26577 26578 26579 26580 26581 26582 26583 26584 26585 26586 26587 26588 26589 26590 26591 26592 26593 26594 26595 26596 26597 26598 26599 26600 26601 26602 26603 26604 26605 26606 26607 26608 26609 26610 26611 26612 26613 26614 26615 26616 26617 26618 26619 26620 26621 26622 26623 26624 26625 26626 26627 26628 26629 26630 26631 26632 26633 26634 26635 26636 26637 26638 26639 26640 26641 26642 26643 26644 26645 26646 26647 26648 26649 26650 26651 26652 26653 26654 26655 26656 26657 26658 26659 26660 26661 26662 26663 26664 26665 26666 26667 26668 26669 26670 26671 26672 26673 26674 26675 26676 26677 26678 26679 26680 26681 26682 26683 26684 26685 26686 26687 26688 26689 26690 26691 26692 26693 26694 26695 26696 26697 26698 26699 26700 26701 26702 26703 26704 26705 26706 26707 26708 26709 26710 26711 26712 26713 26714 26715 26716 26717 26718 26719 26720 26721 26722 26723 26724 26725 26726 26727 26728 26729 26730 26731 26732 26733 26734 26735 26736 26737 26738 26739 26740 26741 26742 26743 26744 26745 26746 26747 26748 26749 26750 26751 26752 26753 26754 26755 26756 26757 26758 26759 26760 26761 26762 26763 26764 26765 26766 26767 26768 26769 26770 26771 26772 26773 26774 26775 26776 26777 26778 26779 26780 26781 26782 26783 26784 26785 26786 26787 26788 26789 26790 26791 26792 26793 26794 26795 26796 26797 26798 26799 26800 26801 26802 26803 26804 26805 26806 26807 26808 26809 26810 26811 26812 26813 26814 26815 26816 26817 26818 26819 26820 26821 26822 26823 26824 26825 26826 26827 26828 26829 26830 26831 26832 26833 26834 26835 26836 26837 26838 26839 26840 26841 26842 26843 26844 26845 26846 26847 26848 26849 26850 26851 26852 26853 26854 26855 26856 26857 26858 26859 26860 26861 26862 26863 26864 26865 26866 26867 26868 26869 26870 26871 26872 26873 26874 26875 26876 26877 26878 26879 26880 26881 26882 26883 26884 26885 26886 26887 26888 26889 26890 26891 26892 26893 26894 26895 26896 26897 26898 26899 26900 26901 26902 26903 26904 26905 26906 26907 26908 26909 26910 26911 26912 26913 26914 26915 26916 26917 26918 26919 26920 26921 26922 26923 26924 26925 26926 26927 26928 26929 26930 26931 26932 26933 26934 26935 26936 26937 26938 26939 26940 26941 26942 26943 26944 26945 26946 26947 26948 26949 26950 26951 26952 26953 26954 26955 26956 26957 26958 26959 26960 26961 26962 26963 26964 26965 26966 26967 26968 26969 26970 26971 26972 26973 26974 26975 26976 26977 26978 26979 26980 26981 26982 26983 26984 26985 26986 26987 26988 26989 26990 26991 26992 26993 26994 26995 26996 26997 26998 26999 27000 27001 27002 27003 27004 27005 27006 27007 27008 27009 27010 27011 27012 27013 27014 27015 27016 27017 27018 27019 27020 27021 27022 27023 27024 27025 27026 27027 27028 27029 27030 27031 27032 27033 27034 27035 27036 27037 27038 27039 27040 27041 27042 27043 27044 27045 27046 27047 27048 27049 27050 27051 27052 27053 27054 27055 27056 27057 27058 27059 27060 27061 27062 27063 27064 27065 27066 27067 27068 27069 27070 27071 27072 27073 27074 27075 27076 27077 27078 27079 27080 27081 27082 27083 27084 27085 27086 27087 27088 27089 27090 27091 27092 27093 27094 27095 27096 27097 27098 27099 27100 27101 27102 27103 27104 27105 27106 27107 27108 27109 27110 27111 27112 27113 27114 27115 27116 27117 27118 27119 27120 27121 27122 27123 27124 27125 27126 27127 27128 27129 27130 27131 27132 27133 27134 27135 27136 27137 27138 27139 27140 27141 27142 27143 27144 27145 27146 27147 27148 27149 27150 27151 27152 27153 27154 27155 27156 27157 27158 27159 27160 27161 27162 27163 27164 27165 27166 27167 27168 27169 27170 27171 27172 27173 27174 27175 27176 27177 27178 27179 27180 27181 27182 27183 27184 27185 27186 27187 27188 27189 27190 27191 27192 27193 27194 27195 27196 27197 27198 27199 27200 27201 27202 27203 27204 27205 27206 27207 27208 27209 27210 27211 27212 27213 27214 27215 27216 27217 27218 27219 27220 27221 27222 27223 27224 27225 27226 27227 27228 27229 27230 27231 27232 27233 27234 27235 27236 27237 27238 27239 27240 27241 27242 27243 27244 27245 27246 27247 27248 27249 27250 27251 27252 27253 27254 27255 27256 27257 27258 27259 27260 27261 27262 27263 27264 27265 27266 27267 27268 27269 27270 27271 27272 27273 27274 27275 27276 27277 27278 27279 27280 27281 27282 27283 27284 27285 27286 27287 27288 27289 27290 27291 27292 27293 27294 27295 27296 27297 27298 27299 27300 27301 27302 27303 27304 27305 27306 27307 27308 27309 27310 27311 27312 27313 27314 27315 27316 27317 27318 27319 27320 27321 27322 27323 27324 27325 27326 27327 27328 27329 27330 27331 27332 27333 27334 27335 27336 27337 27338 27339 27340 27341 27342 27343 27344 27345 27346 27347 27348 27349 27350 27351 27352 27353 27354 27355 27356 27357 27358 27359 27360 27361 27362 27363 27364 27365 27366 27367 27368 27369 27370 27371 27372 27373 27374 27375 27376 27377 27378 27379 27380 27381 27382 27383 27384 27385 27386 27387 27388 27389 27390 27391 27392 27393 27394 27395 27396 27397 27398 27399 27400 27401 27402 27403 27404 27405 27406 27407 27408 27409 27410 27411 27412 27413 27414 27415 27416 27417 27418 27419 27420 27421 27422 27423 27424 27425 27426 27427 27428 27429 27430 27431 27432 27433 27434 27435 27436 27437 27438 27439 27440 27441 27442 27443 27444 27445 27446 27447 27448 27449 27450 27451 27452 27453 27454 27455 27456 27457 27458 27459 27460 27461 27462 27463 27464 27465 27466 27467 27468 27469 27470 27471 27472 27473 27474 27475 27476 27477 27478 27479 27480 27481 27482 27483 27484 27485 27486 27487 27488 27489 27490 27491 27492 27493 27494 27495 27496 27497 27498 27499 27500 27501 27502 27503 27504 27505 27506 27507 27508 27509 27510 27511 27512 27513 27514 27515 27516 27517 27518 27519 27520 27521 27522 27523 27524 27525 27526 27527 27528 27529 27530 27531 27532 27533 27534 27535 27536 27537 27538 27539 27540 27541 27542 27543 27544 27545 27546 27547 27548 27549 27550 27551 27552 27553 27554 27555 27556 27557 27558 27559 27560 27561 27562 27563 27564 27565 27566 27567 27568 27569 27570 27571 27572 27573 27574 27575 27576 27577 27578 27579 27580 27581 27582 27583 27584 27585 27586 27587 27588 27589 27590 27591 27592 27593 27594 27595 27596 27597 27598 27599 27600 27601 27602 27603 27604 27605 27606 27607 27608 27609 27610 27611 27612 27613 27614 27615 27616 27617 27618 27619 27620 27621 27622 27623 27624 27625 27626 27627 27628 27629 27630 27631 27632 27633 27634 27635 27636 27637 27638 27639 27640 27641 27642 27643 27644 27645 27646 27647 27648 27649 27650 27651 27652 27653 27654 27655 27656 27657 27658 27659 27660 27661 27662 27663 27664 27665 27666 27667 27668 27669 27670 27671 27672 27673 27674 27675 27676 27677 27678 27679 27680 27681 27682 27683 27684 27685 27686 27687 27688 27689 27690 27691 27692 27693 27694 27695 27696 27697 27698 27699 27700 27701 27702 27703 27704 27705 27706 27707 27708 27709 27710 27711 27712 27713 27714 27715 27716 27717 27718 27719 27720 27721 27722 27723 27724 27725 27726 27727 27728 27729 27730 27731 27732 27733 27734 27735 27736 27737 27738 27739 27740 27741 27742 27743 27744 27745 27746 27747 27748 27749 27750 27751 27752 27753 27754 27755 27756 27757 27758 27759 27760 27761 27762 27763 27764 27765 27766 27767 27768 27769 27770 27771 27772 27773 27774 27775 27776 27777 27778 27779 27780 27781 27782 27783 27784 27785 27786 27787 27788 27789 27790 27791 27792 27793 27794 27795 27796 27797 27798 27799 27800 27801 27802 27803 27804 27805 27806 27807 27808 27809 27810 27811 27812 27813 27814 27815 27816 27817 27818 27819 27820 27821 27822 27823 27824 27825 27826 27827 27828 27829 27830 27831 27832 27833 27834 27835 27836 27837 27838 27839 27840 27841 27842 27843 27844 27845 27846 27847 27848 27849 27850 27851 27852 27853 27854 27855 27856 27857 27858 27859 27860 27861 27862 27863 27864 27865 27866 27867 27868 27869 27870 27871 27872 27873 27874 27875 27876 27877 27878 27879 27880 27881 27882 27883 27884 27885 27886 27887 27888 27889 27890 27891 27892 27893 27894 27895 27896 27897 27898 27899 27900 27901 27902 27903 27904 27905 27906 27907 27908 27909 27910 27911 27912 27913 27914 27915 27916 27917 27918 27919 27920 27921 27922 27923 27924 27925 27926 27927 27928 27929 27930 27931 27932 27933 27934 27935 27936 27937 27938 27939 27940 27941 27942 27943 27944 27945 27946 27947 27948 27949 27950 27951 27952 27953 27954 27955 27956 27957 27958 27959 27960 27961 27962 27963 27964 27965 27966 27967 27968 27969 27970 27971 27972 27973 27974 27975 27976 27977 27978 27979 27980 27981 27982 27983 27984 27985 27986 27987 27988 27989 27990 27991 27992 27993 27994 27995 27996 27997 27998 27999 28000 28001 28002 28003 28004 28005 28006 28007 28008 28009 28010 28011 28012 28013 28014 28015 28016 28017 28018 28019 28020 28021 28022 28023 28024 28025 28026 28027 28028 28029 28030 28031 28032 28033 28034 28035 28036 28037 28038 28039 28040 28041 28042 28043 28044 28045 28046 28047 28048 28049 28050 28051 28052 28053 28054 28055 28056 28057 28058 28059 28060 28061 28062 28063 28064 28065 28066 28067 28068 28069 28070 28071 28072 28073 28074 28075 28076 28077 28078 28079 28080 28081 28082 28083 28084 28085 28086 28087 28088 28089 28090 28091 28092 28093 28094 28095 28096 28097 28098 28099 28100 28101 28102 28103 28104 28105 28106 28107 28108 28109 28110 28111 28112 28113 28114 28115 28116 28117 28118 28119 28120 28121 28122 28123 28124 28125 28126 28127 28128 28129 28130 28131 28132 28133 28134 28135 28136 28137 28138 28139 28140 28141 28142 28143 28144 28145 28146 28147 28148 28149 28150 28151 28152 28153 28154 28155 28156 28157 28158 28159 28160 28161 28162 28163 28164 28165 28166 28167 28168 28169 28170 28171 28172 28173 28174 28175 28176 28177 28178 28179 28180 28181 28182 28183 28184 28185 28186 28187 28188 28189 28190 28191 28192 28193 28194 28195 28196 28197 28198 28199 28200 28201 28202 28203 28204 28205 28206 28207 28208 28209 28210 28211 28212 28213 28214 28215 28216 28217 28218 28219 28220 28221 28222 28223 28224 28225 28226 28227 28228 28229 28230 28231 28232 28233 28234 28235 28236 28237 28238 28239 28240 28241 28242 28243 28244 28245 28246 28247 28248 28249 28250 28251 28252 28253 28254 28255 28256 28257 28258 28259 28260 28261 28262 28263 28264 28265 28266 28267 28268 28269 28270 28271 28272 28273 28274 28275 28276 28277 28278 28279 28280 28281 28282 28283 28284 28285 28286 28287 28288 28289 28290 28291 28292 28293 28294 28295 28296 28297 28298 28299 28300 28301 28302 28303 28304 28305 28306 28307 28308 28309 28310 28311 28312 28313 28314 28315 28316 28317 28318 28319 28320 28321 28322 28323 28324 28325 28326 28327 28328 28329 28330 28331 28332 28333 28334 28335 28336 28337 28338 28339 28340 28341 28342 28343 28344 28345 28346 28347 28348 28349 28350 28351 28352 28353 28354 28355 28356 28357 28358 28359 28360 28361 28362 28363 28364 28365 28366 28367 28368 28369 28370 28371 28372 28373 28374 28375 28376 28377 28378 28379 28380 28381 28382 28383 28384 28385 28386 28387 28388 28389 28390 28391 28392 28393 28394 28395 28396 28397 28398 28399 28400 28401 28402 28403 28404 28405 28406 28407 28408 28409 28410 28411 28412 28413 28414 28415 28416 28417 28418 28419 28420 28421 28422 28423 28424 28425 28426 28427 28428 28429 28430 28431 28432 28433 28434 28435 28436 28437 28438 28439 28440 28441 28442 28443 28444 28445 28446 28447 28448 28449 28450 28451 28452 28453 28454 28455 28456 28457 28458 28459 28460 28461 28462 28463 28464 28465 28466 28467 28468 28469 28470 28471 28472 28473 28474 28475 28476 28477 28478 28479 28480 28481 28482 28483 28484 28485 28486 28487 28488 28489 28490 28491 28492 28493 28494 28495 28496 28497 28498 28499 28500 28501 28502 28503 28504 28505 28506 28507 28508 28509 28510 28511 28512 28513 28514 28515 28516 28517 28518 28519 28520 28521 28522 28523 28524 28525 28526 28527 28528 28529 28530 28531 28532 28533 28534 28535 28536 28537 28538 28539 28540 28541 28542 28543 28544 28545 28546 28547 28548 28549 28550 28551 28552 28553 28554 28555 28556 28557 28558 28559 28560 28561 28562 28563 28564 28565 28566 28567 28568 28569 28570 28571 28572 28573 28574 28575 28576 28577 28578 28579 28580 28581 28582 28583 28584 28585 28586 28587 28588 28589 28590 28591 28592 28593 28594 28595 28596 28597 28598 28599 28600 28601 28602 28603 28604 28605 28606 28607 28608 28609 28610 28611 28612 28613 28614 28615 28616 28617 28618 28619 28620 28621 28622 28623 28624 28625 28626 28627 28628 28629 28630 28631 28632 28633 28634 28635 28636 28637 28638 28639 28640 28641 28642 28643 28644 28645 28646 28647 28648 28649 28650 28651 28652 28653 28654 28655 28656 28657 28658 28659 28660 28661 28662 28663 28664 28665 28666 28667 28668 28669 28670 28671 28672 28673 28674 28675 28676 28677 28678 28679 28680 28681 28682 28683 28684 28685 28686 28687 28688 28689 28690 28691 28692 28693 28694 28695 28696 28697 28698 28699 28700 28701 28702 28703 28704 28705 28706 28707 28708 28709 28710 28711 28712 28713 28714 28715 28716 28717 28718 28719 28720 28721 28722 28723 28724 28725 28726 28727 28728 28729 28730 28731 28732 28733 28734 28735 28736 28737 28738 28739 28740 28741 28742 28743 28744 28745 28746 28747 28748 28749 28750 28751 28752 28753 28754 28755 28756 28757 28758 28759 28760 28761 28762 28763 28764 28765 28766 28767 28768 28769 28770 28771 28772 28773 28774 28775 28776 28777 28778 28779 28780 28781 28782 28783 28784 28785 28786 28787 28788 28789 28790 28791 28792 28793 28794 28795 28796 28797 28798 28799 28800 28801 28802 28803 28804 28805 28806 28807 28808 28809 28810 28811 28812 28813 28814 28815 28816 28817 28818 28819 28820 28821 28822 28823 28824 28825 28826 28827 28828 28829 28830 28831 28832 28833 28834 28835 28836 28837 28838 28839 28840 28841 28842 28843 28844 28845 28846 28847 28848 28849 28850 28851 28852 28853 28854 28855 28856 28857 28858 28859 28860 28861 28862 28863 28864 28865 28866 28867 28868 28869 28870 28871 28872 28873 28874 28875 28876 28877 28878 28879 28880 28881 28882 28883 28884 28885 28886 28887 28888 28889 28890 28891 28892 28893 28894 28895 28896 28897 28898 28899 28900 28901 28902 28903 28904 28905 28906 28907 28908 28909 28910 28911 28912 28913 28914 28915 28916 28917 28918 28919 28920 28921 28922 28923 28924 28925 28926 28927 28928 28929 28930 28931 28932 28933 28934 28935 28936 28937 28938 28939 28940 28941 28942 28943 28944 28945 28946 28947 28948 28949 28950 28951 28952 28953 28954 28955 28956 28957 28958 28959 28960 28961 28962 28963 28964 28965 28966 28967 28968 28969 28970 28971 28972 28973 28974 28975 28976 28977 28978 28979 28980 28981 28982 28983 28984 28985 28986 28987 28988 28989 28990 28991 28992 28993 28994 28995 28996 28997 28998 28999 29000 29001 29002 29003 29004 29005 29006 29007 29008 29009 29010 29011 29012 29013 29014 29015 29016 29017 29018 29019 29020 29021 29022 29023 29024 29025 29026 29027 29028 29029 29030 29031 29032 29033 29034 29035 29036 29037 29038 29039 29040 29041 29042 29043 29044 29045 29046 29047 29048 29049 29050 29051 29052 29053 29054 29055 29056 29057 29058 29059 29060 29061 29062 29063 29064 29065 29066 29067 29068 29069 29070 29071 29072 29073 29074 29075 29076 29077 29078 29079 29080 29081 29082 29083 29084 29085 29086 29087 29088 29089 29090 29091 29092 29093 29094 29095 29096 29097 29098 29099 29100 29101 29102 29103 29104 29105 29106 29107 29108 29109 29110 29111 29112 29113 29114 29115 29116 29117 29118 29119 29120 29121 29122 29123 29124 29125 29126 29127 29128 29129 29130 29131 29132 29133 29134 29135 29136 29137 29138 29139 29140 29141 29142 29143 29144 29145 29146 29147 29148 29149 29150 29151 29152 29153 29154 29155 29156 29157 29158 29159 29160 29161 29162 29163 29164 29165 29166 29167 29168 29169 29170 29171 29172 29173 29174 29175 29176 29177 29178 29179 29180 29181 29182 29183 29184 29185 29186 29187 29188 29189 29190 29191 29192 29193 29194 29195 29196 29197 29198 29199 29200 29201 29202 29203 29204 29205 29206 29207 29208 29209 29210 29211 29212 29213 29214 29215 29216 29217 29218 29219 29220 29221 29222 29223 29224 29225 29226 29227 29228 29229 29230 29231 29232 29233 29234 29235 29236 29237 29238 29239 29240 29241 29242 29243 29244 29245 29246 29247 29248 29249 29250 29251 29252 29253 29254 29255 29256 29257 29258 29259 29260 29261 29262 29263 29264 29265 29266 29267 29268 29269 29270 29271 29272 29273 29274 29275 29276 29277 29278 29279 29280 29281 29282 29283 29284 29285 29286 29287 29288 29289 29290 29291 29292 29293 29294 29295 29296 29297 29298 29299 29300 29301 29302 29303 29304 29305 29306 29307 29308 29309 29310 29311 29312 29313 29314 29315 29316 29317 29318 29319 29320 29321 29322 29323 29324 29325 29326 29327 29328 29329 29330 29331 29332 29333 29334 29335 29336 29337 29338 29339 29340 29341 29342 29343 29344 29345 29346 29347 29348 29349 29350 29351 29352 29353 29354 29355 29356 29357 29358 29359 29360 29361 29362 29363 29364 29365 29366 29367 29368 29369 29370 29371 29372 29373 29374 29375 29376 29377 29378 29379 29380 29381 29382 29383 29384 29385 29386 29387 29388 29389 29390 29391 29392 29393 29394 29395 29396 29397 29398 29399 29400 29401 29402 29403 29404 29405 29406 29407 29408 29409 29410 29411 29412 29413 29414 29415 29416 29417 29418 29419 29420 29421 29422 29423 29424 29425 29426 29427 29428 29429 29430 29431 29432 29433 29434 29435 29436 29437 29438 29439 29440 29441 29442 29443 29444 29445 29446 29447 29448 29449 29450 29451 29452 29453 29454 29455 29456 29457 29458 29459 29460 29461 29462 29463 29464 29465 29466 29467 29468 29469 29470 29471 29472 29473 29474 29475 29476 29477 29478 29479 29480 29481 29482 29483 29484 29485 29486 29487 29488 29489 29490 29491 29492 29493 29494 29495 29496 29497 29498 29499 29500 29501 29502 29503 29504 29505 29506 29507 29508 29509 29510 29511 29512 29513 29514 29515 29516 29517 29518 29519 29520 29521 29522 29523 29524 29525 29526 29527 29528 29529 29530 29531 29532 29533 29534 29535 29536 29537 29538 29539 29540 29541 29542 29543 29544 29545 29546 29547 29548 29549 29550 29551 29552 29553 29554 29555 29556 29557 29558 29559 29560 29561 29562 29563 29564 29565 29566 29567 29568 29569 29570 29571 29572 29573 29574 29575 29576 29577 29578 29579 29580 29581 29582 29583 29584 29585 29586 29587 29588 29589 29590 29591 29592 29593 29594 29595 29596 29597 29598 29599 29600 29601 29602 29603 29604 29605 29606 29607 29608 29609 29610 29611 29612 29613 29614 29615 29616 29617 29618 29619 29620 29621 29622 29623 29624 29625 29626 29627 29628 29629 29630 29631 29632 29633 29634 29635 29636 29637 29638 29639 29640 29641 29642 29643 29644 29645 29646 29647 29648 29649 29650 29651 29652 29653 29654 29655 29656 29657 29658 29659 29660 29661 29662 29663 29664 29665 29666 29667 29668 29669 29670 29671 29672 29673 29674 29675 29676 29677 29678 29679 29680 29681 29682 29683 29684 29685 29686 29687 29688 29689 29690 29691 29692 29693 29694 29695 29696 29697 29698 29699 29700 29701 29702 29703 29704 29705 29706 29707 29708 29709 29710 29711 29712 29713 29714 29715 29716 29717 29718 29719 29720 29721 29722 29723 29724 29725 29726 29727 29728 29729 29730 29731 29732 29733 29734 29735 29736 29737 29738 29739 29740 29741 29742 29743 29744 29745 29746 29747 29748 29749 29750 29751 29752 29753 29754 29755 29756 29757 29758 29759 29760 29761 29762 29763 29764 29765 29766 29767 29768 29769 29770 29771 29772 29773 29774 29775 29776 29777 29778 29779 29780 29781 29782 29783 29784 29785 29786 29787 29788 29789 29790 29791 29792 29793 29794 29795 29796 29797 29798 29799 29800 29801 29802 29803 29804 29805 29806 29807 29808 29809 29810 29811 29812 29813 29814 29815 29816 29817 29818 29819 29820 29821 29822 29823 29824 29825 29826 29827 29828 29829 29830 29831 29832 29833 29834 29835 29836 29837 29838 29839 29840 29841 29842 29843 29844 29845 29846 29847 29848 29849 29850 29851 29852 29853 29854 29855 29856 29857 29858 29859 29860 29861 29862 29863 29864 29865 29866 29867 29868 29869 29870 29871 29872 29873 29874 29875 29876 29877 29878 29879 29880 29881 29882 29883 29884 29885 29886 29887 29888 29889 29890 29891 29892 29893 29894 29895 29896 29897 29898 29899 29900 29901 29902 29903 29904 29905 29906 29907 29908 29909 29910 29911 29912 29913 29914 29915 29916 29917 29918 29919 29920 29921 29922 29923 29924 29925 29926 29927 29928 29929 29930 29931 29932 29933 29934 29935 29936 29937 29938 29939 29940 29941 29942 29943 29944 29945 29946 29947 29948 29949 29950 29951 29952 29953 29954 29955 29956 29957 29958 29959 29960 29961 29962 29963 29964 29965 29966 29967 29968 29969 29970 29971 29972 29973 29974 29975 29976 29977 29978 29979 29980 29981 29982 29983 29984 29985 29986 29987 29988 29989 29990 29991 29992 29993 29994 29995 29996 29997 29998 29999 30000 30001 30002 30003 30004 30005 30006 30007 30008 30009 30010 30011 30012 30013 30014 30015 30016 30017 30018 30019 30020 30021 30022 30023 30024 30025 30026 30027 30028 30029 30030 30031 30032 30033 30034 30035 30036 30037 30038 30039 30040 30041 30042 30043 30044 30045 30046 30047 30048 30049 30050 30051 30052 30053 30054 30055 30056 30057 30058 30059 30060 30061 30062 30063 30064 30065 30066 30067 30068 30069 30070 30071 30072 30073 30074 30075 30076 30077 30078 30079 30080 30081 30082 30083 30084 30085 30086 30087 30088 30089 30090 30091 30092 30093 30094 30095 30096 30097 30098 30099 30100 30101 30102 30103 30104 30105 30106 30107 30108 30109 30110 30111 30112 30113 30114 30115 30116 30117 30118 30119 30120 30121 30122 30123 30124 30125 30126 30127 30128 30129 30130 30131 30132 30133 30134 30135 30136 30137 30138 30139 30140 30141 30142 30143 30144 30145 30146 30147 30148 30149 30150 30151 30152 30153 30154 30155 30156 30157 30158 30159 30160 30161 30162 30163 30164 30165 30166 30167 30168 30169 30170 30171 30172 30173 30174 30175 30176 30177 30178 30179 30180 30181 30182 30183 30184 30185 30186 30187 30188 30189 30190 30191 30192 30193 30194 30195 30196 30197 30198 30199 30200 30201 30202 30203 30204 30205 30206 30207 30208 30209 30210 30211 30212 30213 30214 30215 30216 30217 30218 30219 30220 30221 30222 30223 30224 30225 30226 30227 30228 30229 30230 30231 30232 30233 30234 30235 30236 30237 30238 30239 30240 30241 30242 30243 30244 30245 30246 30247 30248 30249 30250 30251 30252 30253 30254 30255 30256 30257 30258 30259 30260 30261 30262 30263 30264 30265 30266 30267 30268 30269 30270 30271 30272 30273 30274 30275 30276 30277 30278 30279 30280 30281 30282 30283 30284 30285 30286 30287 30288 30289 30290 30291 30292 30293 30294 30295 30296 30297 30298 30299 30300 30301 30302 30303 30304 30305 30306 30307 30308 30309 30310 30311 30312 30313 30314 30315 30316 30317 30318 30319 30320 30321 30322 30323 30324 30325 30326 30327 30328 30329 30330 30331 30332 30333 30334 30335 30336 30337 30338 30339 30340 30341 30342 30343 30344 30345 30346 30347 30348 30349 30350 30351 30352 30353 30354 30355 30356 30357 30358 30359 30360 30361 30362 30363 30364 30365 30366 30367 30368 30369 30370 30371 30372 30373 30374 30375 30376 30377 30378 30379 30380 30381 30382 30383 30384 30385 30386 30387 30388 30389 30390 30391 30392 30393 30394 30395 30396 30397 30398 30399 30400 30401 30402 30403 30404 30405 30406 30407 30408 30409 30410 30411 30412 30413 30414 30415 30416 30417 30418 30419 30420 30421 30422 30423 30424 30425 30426 30427 30428 30429 30430 30431 30432 30433 30434 30435 30436 30437 30438 30439 30440 30441 30442 30443 30444 30445 30446 30447 30448 30449 30450 30451 30452 30453 30454 30455 30456 30457 30458 30459 30460 30461 30462 30463 30464 30465 30466 30467 30468 30469 30470 30471 30472 30473 30474 30475 30476 30477 30478 30479 30480 30481 30482 30483 30484 30485 30486 30487 30488 30489 30490 30491 30492 30493 30494 30495 30496 30497 30498 30499 30500 30501 30502 30503 30504 30505 30506 30507 30508 30509 30510 30511 30512 30513 30514 30515 30516 30517 30518 30519 30520 30521 30522 30523 30524 30525 30526 30527 30528 30529 30530 30531 30532 30533 30534 30535 30536 30537 30538 30539 30540 30541 30542 30543 30544 30545 30546 30547 30548 30549 30550 30551 30552 30553 30554 30555 30556 30557 30558 30559 30560 30561 30562 30563 30564 30565 30566 30567 30568 30569 30570 30571 30572 30573 30574 30575 30576 30577 30578 30579 30580 30581 30582 30583 30584 30585 30586 30587 30588 30589 30590 30591 30592 30593 30594 30595 30596 30597 30598 30599 30600 30601 30602 30603 30604 30605 30606 30607 30608 30609 30610 30611 30612 30613 30614 30615 30616 30617 30618 30619 30620 30621 30622 30623 30624 30625 30626 30627 30628 30629 30630 30631 30632 30633 30634 30635 30636 30637 30638 30639 30640 30641 30642 30643 30644 30645 30646 30647 30648 30649 30650 30651 30652 30653 30654 30655 30656 30657 30658 30659 30660 30661 30662 30663 30664 30665 30666 30667 30668 30669 30670 30671 30672 30673 30674 30675 30676 30677 30678 30679 30680 30681 30682 30683 30684 30685 30686 30687 30688 30689 30690 30691 30692 30693 30694 30695 30696 30697 30698 30699 30700 30701 30702 30703 30704 30705 30706 30707 30708 30709 30710 30711 30712 30713 30714 30715 30716 30717 30718 30719 30720 30721 30722 30723 30724 30725 30726 30727 30728 30729 30730 30731 30732 30733 30734 30735 30736 30737 30738 30739 30740 30741 30742 30743 30744 30745 30746 30747 30748 30749 30750 30751 30752 30753 30754 30755 30756 30757 30758 30759 30760 30761 30762 30763 30764 30765 30766 30767 30768 30769 30770 30771 30772 30773 30774 30775 30776 30777 30778 30779 30780 30781 30782 30783 30784 30785 30786 30787 30788 30789 30790 30791 30792 30793 30794 30795 30796 30797 30798 30799 30800 30801 30802 30803 30804 30805 30806 30807 30808 30809 30810 30811 30812 30813 30814 30815 30816 30817 30818 30819 30820 30821 30822 30823 30824 30825 30826 30827 30828 30829 30830 30831 30832 30833 30834 30835 30836 30837 30838 30839 30840 30841 30842 30843 30844 30845 30846 30847 30848 30849 30850 30851 30852 30853 30854 30855 30856 30857 30858 30859 30860 30861 30862 30863 30864 30865 30866 30867 30868 30869 30870 30871 30872 30873 30874 30875 30876 30877 30878 30879 30880 
</DataArray>
<DataArray type="UInt32" Name="offsets" format="ascii">
3 6 8 11 14 17 20 22 25 28 31 34 37 40 43 46 49 52 55 58 60 63 66 69 72 74 77 80 83 86 89 92 95 97 100 103 106 109 112 115 118 121 123 126 129 132 135 138 141 144 147 150 153 156 158 160 163 166 169 172 175 178 181 184 186 189 192 195 198 201 204 207 210 213 216 219 222 225 228 231 234 237 240 243 246 249 252 254 257 260 263 266 269 272 275 278 281 284 287 289 292 295 298 300 303 306 309 312 315 318 321 324 327 330 333 336 339 342 345 348 351 354 357 360 363 366 369 372 375 378 381 384 387 390 393 396 399 402 405 408 411 414 417 420 423 426 429 432 435 437 440 442 445 448 451 454 457 460 463 466 469 472 475 478 481 484 487 490 493 496 499 502 505 508 511 514 517 520 522 525 528 530 533 535 538 541 544 547 550 553 556 559 562 565 568 571 574 577 579 582 584 587 590 593 596 599 602 605 607 610 612 615 618 621 624 627 630 632 635 638 640 643 646 649 652 655 658 660 662 665 668 670 673 675 678 680 682 685 688 691 693 696 699 702 705 708 711 714 717 720 723 726 729 732 734 737 740 743 746 749 752 755 757 760 763 766 769 772 775 778 780 783 786 789 792 794 797 800 803 806 809 812 814 817 820 823 825 828 831 834 837 840 843 846 848 851 854 857 860 863 866 868 871 874 877 880 883 886 888 891 894 897 900 903 906 909 911 914 917 920 923 926 929 932 935 938 941 944 947 950 953 956 959 962 965 968 971 974 976 978 981 984 987 990 993 995 998 1001 1004 1007 1010 1013 1016 1018 1021 1023 1026 1029 1032 1034 1037 1040 1043 1045 1048 1050 1053 1056 1059 1062 1065 1068 1071 1073 1076 1079 1082 1085 1088 1091 1094 1096 1099 1102 1105 1107 1110 1113 1116 1119 1122 1125 1128 1131 1134 1137 1140 1143 1146 1149 1152 1155 1158 1161 1164 1167 1170 1173 1176 1179 1182 1185 1188 1191 1194 1197 1200 1203 1205 1208 1211 1214 1217 1220 1223 1226 1229 1232 1235 1238 1241 1244 1247 1250 1253 1256 1259 1262 1265 1268 1271 1274 1277 1280 1283 1286 1289 1292 1295 1298 1301 1303 1306 1309 1312 1315 1318 1321 1324 1327 1330 1333 1336 1339 1342 1345 1348 1351 1354 1357 1360 1363 1365 1368 1371 1374 1377 1380 1383 1386 1388 1391 1394 1397 1400 1403 1405 1408 1411 1413 1416 1418 1421 1424 1427 1430 1432 1435 1438 1440 1443 1446 1449 1452 1455 1458 1460 1463 1466 1469 1472 1475 1478 1481 1484 1487 1490 1493 1496 1499 1502 1505 1508 1511 1514 1517 1519 1522 1525 1528 1531 1534 1537 1540 1543 1546 1549 1552 1554 1556 1559 1562 1565 1568 1571 1574 1577 1580 1583 1586 1589 1592 1595 1598 1601 1604 1607 1610 1613 1616 1619 1621 1624 1626 1628 1631 1634 1636 1639 1642 1645 1648 1651 1654 1657 1660 1663 1666 1669 1672 1675 1677 1680 1683 1686 1689 1692 1695 1698 1700 1702 1705 1708 1711 1714 1717 1720 1723 1726 1728 1730 1733 1736 1739 1741 1744 1747 1750 1753 1756 1759 1762 1765 1768 1771 1774 1777 1780 1783 1786 1789 1792 1795 1798 1801 1804 1807 1810 1813 1816 1819 1822 1825 1828 1831 1834 1837 1840 1843 1846 1848 1851 1854 1856 1859 1862 1865 1868 1870 1873 1876 1879 1881 1884 1887 1890 1892 1895 1898 1900 1903 1906 1909 1912 1915 1918 1921 1924 1927 1930 1933 1936 1939 1942 1945 1948 1951 1954 1957 1960 1963 1965 1968 1971 1974 1976 1979 1982 1985 1988 1991 1993 1996 1999 2002 2005 2008 2011 2013 2016 2019 2022 2025 2028 2031 2034 2037 2040 2043 2046 2049 2052 2055 2058 2061 2064 2067 2069 2072 2075 2078 2081 2084 2087 2090 2093 2096 2099 2102 2105 2108 2111 2114 2117 2120 2123 2126 2129 2132 2134 2137 2140 2143 2146 2149 2152 2155 2158 2161 2164 2167 2170 2173 2176 2179 2181 2184 2187 2190 2193 2196 2199 2202 2205 2208 2211 2214 2217 2220 2223 2226 2229 2232 2235 2237 2240 2243 2246 2249 2252 2255 2258 2260 2263 2266 2269 2272 2275 2278 2281 2284 2287 2290 2293 2296 2299 2302 2305 2308 2311 2314 2317 2320 2323 2325 2328 2331 2334 2337 2340 2343 2346 2349 2352 2354 2357 2360 2363 2366 2369 2372 2375 2378 2380 2383 2386 2389 2392 2395 2398 2401 2404 2407 2410 2413 2416 2419 2422 2425 2428 2431 2434 2437 2439 2442 2445 2448 2451 2454 2456 2459 2462 2465 2467 2470 2473 2476 2479 2482 2485 2487 2490 2493 2496 2499 2502 2505 2508 2511 2514 2517 2519 2522 2525 2528 2531 2534 2537 2540 2543 2546 2549 2552 2555 2557 2560 2562 2565 2568 2571 2574 2577 2580 2583 2585 2588 2590 2593 2596 2599 2602 2605 2608 2611 2614 2617 2620 2623 2626 2629 2632 2635 2638 2641 2644 2647 2650 2653 2656 2659 2662 2665 2668 2671 2674 2677 2680 2683 2686 2689 2692 2695 2698 2701 2704 2707 2710 2713 2716 2719 2722 2725 2727 2729 2732 2735 2737 2740 2743 2746 2749 2752 2755 2758 2761 2764 2767 2770 2773 2776 2779 2782 2785 2787 2790 2793 2796 2799 2801 2804 2807 2809 2812 2815 2818 2821 2824 2827 2829 2832 2834 2837 2840 2842 2845 2848 2851 2854 2857 2860 2863 2866 2869 2872 2874 2877 2880 2883 2886 2889 2891 2893 2896 2899 2902 2905 2907 2910 2913 2915 2918 2920 2923 2926 2929 2932 2935 2937 2940 2943 2945 2948 2951 2954 2957 2960 2963 2966 2969 2972 2975 2978 2981 2983 2986 2989 2992 2995 2998 3001 3004 3007 3010 3013 3016 3019 3022 3025 3028 3030 3033 3035 3038 3040 3042 3045 3047 3050 3053 3055 3058 3061 3064 3067 3070 3073 3075 3078 3080 3083 3086 3088 3091 3094 3097 3099 3102 3105 3107 3110 3113 3116 3119 3122 3124 3127 3130 3132 3135 3138 3141 3144 3147 3149 3152 3154 3157 3160 3162 3165 3168 3170 3173 3176 3179 3182 3185 3188 3191 3194 3196 3199 3202 3205 3208 3211 3214 3217 3220 3223 3226 3228 3231 3234 3237 3240 3242 3245 3248 3250 3253 3256 3259 3262 3265 3267 3270 3273 3276 3279 3282 3284 3287 3289 3292 3295 3298 3301 3304 3307 3309 3312 3315 3318 3321 3324 3327 3330 3333 3335 3337 3339 3342 3345 3348 3351 3353 3356 3358 3361 3364 3367 3369 3371 3374 3377 3380 3382 3385 3388 3391 3393 3396 3398 3401 3403 3405 3408 3410 3413 3416 3419 3422 3424 3427 3430 3433 3435 3438 3440 3443 3445 3448 3451 3454 3457 3460 3463 3466 3468 3471 3474 3477 3480 3482 3485 3488 3491 3494 3497 3500 3503 3506 3508 3511 3513 3515 3518 3521 3524 3526 3529 3532 3535 3538 3540 3542 3545 3548 3550 3552 3555 3558 3561 3564 3567 3569 3572 3575 3578 3581 3584 3587 3590 3593 3595 3598 3600 3603 3606 3609 3612 3615 3618 3621 3624 3627 3630 3633 3636 3639 3642 3645 3648 3651 3653 3656 3659 3662 3665 3668 3671 3674 3677 3680 3683 3686 3689 3692 3695 3698 3701 3704 3707 3710 3713 3716 3719 3722 3725 3728 3730 3733 3735 3738 3741 3744 3747 3750 3752 3754 3757 3760 3763 3766 3768 3770 3773 3775 3778 3781 3783 3786 3789 3791 3794 3797 3800 3803 3805 3807 3810 3813 3816 3819 3822 3825 3828 3831 3833 3836 3839 3841 3844 3847 3850 3852 3855 3858 3860 3863 3866 3869 3872 3875 3878 3880 3883 3886 3889 3892 3895 3898 3900 3903 3906 3909 3912 3915 3917 3920 3923 3925 3927 3930 3933 3935 3938 3941 3943 3946 3949 3952 3955 3958 3961 3964 3967 3970 3973 3976 3979 3981 3984 3986 3989 3992 3994 3997 4000 4003 4006 4009 4012 4014 4017 4020 4023 4025 4027 4029 4032 4035 4038 4040 4042 4045 4047 4049 4052 4055 4057 4060 4063 4065 4068 4070 4073 4075 4078 4081 4084 4086 4088 4091 4094 4096 4098 4100 4102 4105 4108 4111 4113 4115 4118 4121 4123 4125 4127 4130 4132 4134 4137 4140 4142 4145 4147 4149 4152 4154 4157 4160 4162 4165 4167 4169 4172 4175 4178 4181 4183 4185 4188 4191 4193 4196 4199 4202 4204 4207 4210 4213 4216 4219 4222 4225 4228 4231 4234 4237 4240 4243 4246 4249 4252 4255 4258 4261 4264 4267 4270 4273 4276 4279 4282 4285 4288 4291 4294 4297 4300 4303 4306 4309 4312 4315 4318 4321 4324 4327 4330 4333 4336 4339 4342 4345 4348 4351 4354 4357 4360 4363 4366 4369 4372 4375 4378 4380 4383 4385 4388 4391 4394 4397 4400 4403 4406 4409 4412 4415 4418 4421 4424 4427 4429 4432 4435 4438 4441 4444 4447 4450 4453 4456 4459 4461 4464 4467 4470 4473 4476 4479 4482 4485 4488 4491 4494 4497 4500 4503 4506 4509 4512 4515 4518 4521 4524 4527 4530 4533 4536 4539 4542 4545 4548 4551 4554 4557 4560 4563 4566 4569 4572 4575 4578 4581 4584 4587 4590 4593 4596 4599 4601 4604 4607 4610 4612 4615 4617 4620 4623 4626 4629 4632 4634 4637 4639 4642 4645 4648 4651 4654 4657 4660 4663 4666 4669 4672 4675 4678 4681 4684 4687 4690 4693 4696 4699 4702 4705 4708 4711 4714 4716 4719 4722 4725 4728 4731 4734 4736 4739 4741 4744 4747 4750 4752 4755 4758 4760 4763 4766 4769 4772 4775 4778 4781 4784 4787 4790 4793 4796 4799 4802 4805 4808 4811 4814 4817 4820 4823 4826 4829 4832 4835 4838 4841 4844 4847 4850 4853 4856 4859 4862 4865 4868 4871 4873 4876 4878 4881 4884 4887 4890 4893 4896 4899 4902 4905 4908 4910 4913 4916 4919 4922 4925 4928 4931 4934 4937 4940 4943 4946 4949 4952 4955 4958 4961 4963 4966 4969 4972 4974 4976 4979 4981 4984 4987 4990 4993 4996 4999 5002 5005 5007 5010 5013 5016 5019 5021 5024 5027 5030 5033 5036 5039 5042 5044 5047 5050 5052 5055 5057 5060 5063 5065 5068 5071 5073 5075 5078 5081 5084 5087 5090 5093 5096 5099 5102 5105 5108 5111 5114 5117 5120 5122 5125 5127 5130 5133 5136 5138 5141 5143 5146 5149 5152 5155 5158 5161 5164 5167 5170 5173 5176 5179 5181 5184 5186 5189 5192 5195 5198 5201 5204 5207 5210 5212 5215 5218 5220 5223 5226 5229 5231 5233 5236 5239 5242 5245 5248 5251 5254 5257 5260 5263 5266 5269 5272 5275 5278 5281 5284 5287 5290 5293 5296 5298 5301 5304 5307 5310 5313 5315 5318 5320 5323 5326 5329 5332 5334 5337 5340 5342 5345 5348 5351 5354 5357 5359 5362 5365 5368 5371 5373 5376 5379 5382 5385 5388 5391 5394 5396 5399 5402 5405 5407 5410 5413 5416 5419 5422 5425 5428 5431 5434 5437 5440 5442 5445 5448 5451 5454 5457 5460 5463 5466 5468 5471 5474 5477 5480 5483 5486 5488 5491 5494 5497 5500 5503 5506 5508 5511 5514 5517 5520 5523 5526 5529 5532 5535 5538 5541 5543 5546 5549 5552 5554 5557 5560 5563 5565 5568 5570 5573 5576 5579 5582 5585 5588 5590 5593 5596 5599 5602 5605 5608 5611 5614 5617 5620 5623 5626 5629 5632 5635 5637 5640 5643 5646 5649 5652 5654 5657 5660 5663 5666 5669 5672 5675 5678 5680 5683 5686 5689 5692 5695 5698 5701 5704 5707 5710 5713 5716 5719 5722 5725 5728 5730 5733 5736 5739 5742 5744 5747 5750 5753 5756 5759 5762 5765 5768 5771 5774 5777 5780 5783 5786 5789 5792 5795 5798 5801 5804 5807 5810 5813 5816 5819 5822 5824 5827 5830 5833 5835 5838 5840 5843 5846 5849 5852 5854 5857 5859 5862 5865 5868 5871 5874 5876 5879 5882 5885 5888 5891 5894 5897 5900 5903 5905 5908 5911 5914 5917 5920 5923 5926 5929 5932 5935 5938 5941 5944 5947 5950 5953 5956 5959 5962 5965 5968 5971 5974 5977 5979 5981 5984 5987 5990 5993 5996 5998 6001 6004 6007 6009 6012 6015 6018 6020 6023 6026 6028 6031 6033 6036 6039 6042 6045 6047 6050 6053 6056 6059 6061 6063 6066 6069 6072 6075 6078 6081 6084 6087 6090 6093 6096 6099 6101 6104 6107 6110 6113 6115 6118 6121 6124 6127 6130 6132 6135 6138 6140 6143 6146 6149 6152 6155 6158 6161 6164 6167 6170 6173 6176 6179 6182 6185 6188 6190 6193 6196 6198 6201 6204 6207 6209 6212 6215 6218 6221 6224 6227 6230 6233 6236 6239 6242 6244 6247 6250 6253 6256 6259 6262 6265 6268 6271 6274 6277 6280 6283 6286 6289 6292 6294 6297 6300 6302 6305 6307 6310 6313 6315 6318 6320 6323 6325 6328 6331 6334 6337 6340 6343 6346 6349 6352 6355 6358 6361 6364 6366 6369 6371 6373 6376 6379 6381 6383 6386 6389 6391 6393 6396 6399 6402 6404 6407 6409 6412 6415 6417 6420 6423 6426 6429 6431 6433 6436 6438 6441 6444 6446 6448 6451 6454 6456 6459 6462 6465 6467 6470 6473 6476 6478 6480 6482 6485 6488 6490 6493 6495 6497 6500 6503 6506 6509 6512 6515 6518 6521 6524 6527 6530 6532 6534 6537 6539 6542 6544 6547 6549 6552 6555 6558 6560 6563 6566 6569 6572 6575 6577 6580 6583 6586 6589 6592 6595 6598 6601 6604 6607 6610 6613 6616 6619 6622 6625 6628 6631 6634 6637 6640 6643 6646 6649 6651 6654 6657 6660 6663 6666 6669 6672 6675 6678 6681 6684 6687 6690 6693 6696 6699 6702 6705 6707 6710 6713 6716 6719 6722 6725 6728 6731 6734 6737 6740 6742 6745 6748 6751 6754 6757 6759 6762 6765 6768 6771 6774 6777 6780 6783 6786 6789 6792 6795 6798 6801 6803 6806 6809 6812 6815 6818 6821 6824 6827 6830 6833 6836 6839 6842 6845 6847 6850 6852 6855 6858 6861 6864 6866 6869 6872 6875 6878 6881 6884 6887 6890 6893 6896 6899 6902 6904 6907 6909 6912 6915 6918 6921 6923 6926 6929 6932 6935 6938 6941 6944 6946 6949 6952 6955 6958 6961 6964 6967 6969 6972 6975 6978 6980 6983 6985 6988 6991 6994 6997 7000 7003 7006 7009 7012 7014 7017 7020 7023 7026 7029 7032 7035 7038 7041 7044 7047 7050 7053 7056 7059 7062 7065 7068 7071 7074 7077 7080 7083 7086 7089 7092 7095 7098 7101 7104 7107 7110 7113 7116 7119 7122 7125 7128 7131 7134 7137 7140 7143 7145 7148 7151 7153 7156 7159 7162 7165 7168 7171 7174 7177 7180 7183 7185 7188 7191 7194 7197 7200 7202 7205 7208 7210 7213 7216 7219 7222 7225 7228 7230 7233 7236 7239 7242 7244 7247 7250 7252 7255 7257 7260 7263 7266 7269 7272 7275 7278 7281 7284 7287 7290 7292 7295 7297 7300 7303 7306 7309 7311 7314 7317 7320 7323 7326 7329 7332 7335 7338 7341 7344 7347 7350 7353 7356 7359 7362 7365 7368 7371 7374 7376 7379 7382 7385 7388 7390 7393 7396 7399 7402 7405 7408 7411 7413 7416 7419 7422 7425 7428 7430 7433 7436 7439 7441 7444 7447 7450 7452 7455 7458 7460 7463 7466 7469 7471 7474 7477 7479 7482 7485 7488 7491 7494 7497 7500 7503 7506 7509 7512 7515 7518 7521 7524 7527 7530 7533 7536 7539 7542 7545 7548 7551 7554 7557 7560 7563 7566 7569 7572 7574 7577 7580 7583 7586 7589 7592 7595 7598 7601 7604 7607 7609 7612 7615 7618 7621 7624 7627 7630 7633 7636 7639 7642 7645 7648 7651 7654 7656 7658 7661 7664 7667 7669 7672 7675 7678 7681 7683 7686 7689 7691 7694 7697 7700 7703 7706 7709 7712 7715 7718 7721 7724 7727 7730 7732 7734 7737 7740 7743 7746 7749 7752 7755 7758 7761 7764 7767 7769 7772 7775 7777 7780 7783 7786 7789 7792 7795 7798 7801 7804 7807 7810 7813 7816 7819 7822 7825 7828 7831 7834 7836 7839 7842 7845 7847 7850 7853 7856 7859 7862 7864 7867 7870 7873 7876 7879 7882 7885 7888 7891 7894 7897 7900 7903 7906 7909 7912 7915 7918 7921 7924 7926 7929 7932 7934 7937 7940 7943 7946 7949 7952 7955 7958 7961 7964 7967 7970 7973 7976 7979 7982 7985 7988 7991 7993 7996 7999 8002 8005 8008 8011 8014 8017 8020 8023 8026 8029 8032 8035 8038 8041 8044 8047 8050 8053 8056 8059 8062 8065 8068 8071 8074 8077 8080 8083 8086 8089 8091 8094 8097 8100 8103 8106 8109 8111 8114 8117 8120 8123 8126 8128 8131 8134 8137 8140 8142 8145 8148 8151 8154 8157 8160 8163 8166 8169 8172 8175 8178 8181 8184 8187 8190 8193 8196 8199 8202 8205 8208 8210 8213 8216 8219 8222 8225 8228 8231 8233 8236 8239 8241 8244 8247 8249 8252 8255 8258 8261 8264 8267 8269 8272 8275 8278 8281 8284 8287 8290 8293 8296 8299 8301 8304 8306 8309 8312 8315 8318 8321 8324 8327 8330 8332 8335 8338 8340 8343 8346 8349 8351 8354 8357 8360 8362 8365 8368 8371 8373 8375 8378 8381 8383 8386 8389 8391 8394 8397 8399 8402 8405 8408 8411 8414 8417 8420 8423 8426 8428 8431 8434 8437 8439 8442 8445 8448 8450 8453 8456 8459 8461 8464 8466 8469 8472 8474 8477 8480 8483 8486 8489 8492 8495 8498 8500 8503 8506 8508 8511 8514 8517 8520 8523 8526 8529 8532 8535 8538 8541 8544 8547 8549 8552 8554 8557 8560 8563 8565 8567 8570 8572 8575 8578 8581 8584 8586 8589 8591 8594 8597 8600 8603 8606 8609 8612 8615 8618 8620 8623 8626 8629 8632 8635 8638 8641 8644 8647 8650 8653 8656 8659 8662 8665 8668 8671 8674 8677 8680 8683 8686 8689 8692 8695 8698 8701 8704 8706 8709 8712 8715 8718 8721 8724 8726 8729 8732 8735 8738 8741 8744 8746 8749 8752 8755 8758 8761 8764 8766 8769 8772 8775 8777 8780 8783 8786 8788 8791 8794 8796 8799 8802 8805 8808 8811 8814 8816 8819 8822 8825 8827 8829 8832 8835 8838 8841 8844 8847 8850 8853 8856 8859 8862 8865 8868 8871 8874 8877 8880 8882 8885 8888 8891 8894 8897 8900 8903 8905 8908 8911 8914 8917 8920 8922 8925 8928 8931 8934 8937 8939 8942 8945 8947 8950 8953 8956 8959 8961 8964 8967 8970 8973 8976 8979 8981 8984 8986 8989 8991 8993 8996 8998 9001 9004 9007 9009 9012 9015 9018 9021 9024 9026 9029 9032 9035 9037 9040 9043 9046 9049 9051 9053 9055 9058 9061 9064 9067 9069 9071 9074 9076 9079 9082 9085 9088 9091 9094 9096 9099 9101 9104 9107 9109 9112 9115 9118 9120 9123 9126 9128 9131 9134 9137 9140 9143 9146 9149 9152 9155 9158 9161 9164 9166 9169 9172 9175 9178 9180 9183 9186 9189 9192 9194 9197 9200 9203 9206 9209 9212 9215 9218 9221 9223 9225 9227 9230 9233 9236 9238 9240 9243 9246 9248 9251 9253 9256 9259 9262 9265 9268 9271 9274 9276 9279 9282 9285 9288 9291 9294 9297 9300 9303 9306 9309 9312 9315 9318 9321 9324 9326 9329 9332 9335 9338 9341 9344 9347 9350 9353 9355 9358 9361 9363 9366 9368 9371 9373 9376 9379 9381 9384 9387 9390 9392 9394 9397 9400 9402 9405 9408 9411 9413 9416 9419 9422 9425 9427 9430 9433 9436 9439 9442 9445 9448 9451 9454 9457 9460 9462 9464 9467 9470 9473 9476 9479 9482 9485 9488 9491 9494 9497 9500 9503 9506 9509 9512 9515 9518 9521 9524 9527 9530 9533 9536 9539 9542 9545 9548 9551 9554 9557 9560 9562 9565 9568 9571 9574 9577 9580 9583 9586 9589 9592 9595 9598 9601 9604 9607 9610 9613 9616 9619 9621 9624 9627 9630 9633 9636 9639 9641 9643 9646 9649 9651 9653 9656 9659 9662 9664 9667 9670 9673 9676 9679 9682 9685 9688 9691 9694 9697 9700 9703 9706 9709 9712 9715 9718 9721 9724 9727 9730 9733 9735 9738 9740 9743 9745 9748 9751 9754 9757 9760 9763 9765 9768 9770 9772 9775 9778 9780 9783 9786 9789 9792 9795 9798 9800 9802 9805 9808 9810 9812 9815 9818 9820 9822 9825 9828 9831 9834 9837 9840 9843 9846 9848 9851 9854 9857 9860 9863 9865 9868 9871 9873 9876 9879 9882 9884 9887 9890 9893 9896 9899 9902 9905 9908 9911 9914 9917 9920 9923 9926 9929 9932 9935 9938 9941 9944 9947 9950 9953 9956 9959 9962 9965 9968 9971 9974 9977 9980 9983 9986 9988 9991 9994 9996 9999 10001 10003 10006 10009 10012 10015 10018 10021 10024 10027 10030 10032 10035 10038 10041 10044 10047 10049 10052 10055 10058 10061 10064 10067 10070 10072 10075 10078 10081 10084 10087 10090 10093 10096 10098 10101 10104 10107 10110 10113 10115 10118 10121 10124 10127 10130 10133 10136 10139 10142 10145 10148 10151 10154 10157 10160 10163 10166 10169 10172 10175 10178 10181 10184 10187 10190 10193 10196 10199 10202 10205 10207 10209 10212 10215 10218 10221 10224 10227 10230 10232 10235 10238 10241 10243 10246 10248 10251 10254 10257 10260 10263 10266 10269 10272 10275 10278 10281 10284 10287 10290 10293 10296 10299 10302 10305 10308 10311 10313 10316 10319 10322 10325 10328 10331 10333 10336 10339 10342 10345 10348 10351 10354 10356 10359 10362 10364 10367 10370 10373 10376 10379 10382 10384 10387 10390 10393 10395 10398 10401 10403 10405 10408 10411 10414 10417 10420 10423 10426 10429 10432 10435 10438 10441 10444 10447 10450 10453 10456 10459 10462 10465 10468 10471 10474 10477 10480 10483 10486 10489 10491 10494 10497 10500 10503 10506 10509 10512 10515 10518 10521 10524 10527 10530 10533 10536 10539 10542 10545 10548 10550 10553 10556 10559 10561 10563 10566 10569 10572 10575 10578 10580 10583 10586 10589 10591 10594 10597 10600 10603 10606 10608 10611 10614 10617 10620 10623 10626 10629 10632 10635 10638 10641 10644 10647 10650 10653 10656 10659 10662 10665 10668 10671 10673 10676 10679 10682 10685 10688 10691 10693 10696 10699 10702 10705 10708 10711 10714 10717 10720 10723 10726 10729 10731 10734 10737 10740 10743 10745 10748 10750 10753 10756 10759 10762 10765 10768 10771 10774 10777 10780 10783 10786 10789 10791 10794 10797 10800 10803 10806 10808 10811 10814 10817 10820 10823 10826 10828 10831 10834 10837 10840 10843 10846 10849 10852 10855 10858 10861 10864 10866 10869 10872 10874 10877 10880 10882 10885 10888 10890 10893 10896 10899 10902 10905 10908 10911 10914 10917 10920 10922 10925 10928 10931 10934 10937 10940 10943 10946 10948 10951 10954 10957 10959 10962 10965 10968 10970 10973 10976 10978 10981 10984 10987 10989 10992 10995 10998 11001 11004 11006 11009 11011 11014 11017 11020 11023 11025 11027 11030 11033 11036 11038 11041 11044 11047 11050 11052 11055 11058 11061 11064 11067 11070 11073 11076 11079 11082 11085 11088 11091 11094 11097 11099 11102 11105 11107 11109 11112 11115 11118 11121 11123 11126 11129 11132 11135 11138 11141 11143 11146 11149 11152 11155 11158 11161 11163 11166 11169 11172 11175 11178 11181 11184 11187 11189 11192 11195 11198 11201 11204 11207 11210 11213 11216 11219 11221 11224 11227 11229 11232 11235 11237 11240 11243 11246 11249 11252 11254 11256 11259 11262 11264 11266 11269 11271 11274 11276 11279 11281 11283 11286 11289 11291 11294 11296 11299 11301 11304 11306 11309 11311 11314 11317 11319 11322 11324 11327 11329 11332 11335 11338 11341 11344 11347 11349 11352 11355 11358 11360 11363 11366 11369 11372 11375 11378 11381 11384 11387 11389 11392 11395 11397 11400 11402 11405 11407 11410 11413 11416 11418 11420 11423 11426 11429 11432 11435 11438 11441 11444 11447 11450 11453 11455 11458 11461 11464 11467 11470 11472 11475 11478 11481 11484 11487 11490 11493 11496 11499 11502 11505 11508 11511 11514 11517 11520 11523 11525 11528 11531 11534 11537 11540 11543 11545 11548 11551 11554 11556 11559 11562 11564 11567 11570 11573 11575 11578 11580 11582 11585 11588 11591 11594 11597 11600 11603 11606 11609 11611 11614 11617 11620 11623 11626 11629 11632 11634 11637 11639 11642 11644 11647 11650 11653 11656 11659 11662 11665 11668 11671 11674 11677 11680 11683 11686 11689 11692 11695 11698 11701 11704 11707 11710 11713 11716 11719 11722 11725 11728 11731 11734 11737 11740 11743 11746 11749 11752 11755 11757 11760 11763 11765 11767 11770 11773 11776 11779 11781 11784 11787 11790 11793 11796 11798 11801 11804 11806 11808 11811 11814 11817 11820 11823 11826 11828 11831 11833 11836 11839 11841 11843 11846 11848 11851 11854 11857 11859 11862 11865 11868 11871 11873 11876 11879 11882 11884 11887 11890 11892 11894 11897 11900 11903 11905 11908 11911 11914 11917 11919 11922 11925 11927 11930 11933 11936 11938 11941 11944 11946 11949 11952 11955 11957 11960 11962 11965 11968 11970 11973 11976 11978 11980 11983 11986 11988 11991 11993 11995 11998 12001 12004 12007 12009 12012 12015 12018 12021 12023 12026 12029 12032 12035 12038 12041 12044 12047 12050 12053 12056 12059 12061 12064 12067 12070 12073 12075 12078 12080 12083 12086 12089 12092 12095 12097 12099 12101 12104 12107 12110 12113 12116 12119 12122 12125 12127 12130 12133 12136 12139 12142 12145 12147 12150 12153 12156 12159 12161 12164 12167 12170 12173 12176 12179 12182 12185 12188 12191 12194 12197 12200 12203 12206 12209 12212 12215 12217 12220 12222 12225 12228 12230 12232 12235 12237 12240 12243 12245 12248 12250 12253 12255 12258 12260 12263 12266 12269 12272 12274 12277 12280 12283 12285 12288 12291 12294 12297 12300 12303 12306 12309 12312 12315 12318 12321 12324 12327 12330 12333 12336 12339 12342 12345 12348 12351 12354 12357 12360 12362 12365 12368 12371 12374 12377 12379 12382 12385 12388 12391 12394 12397 12400 12403 12406 12409 12412 12414 12417 12420 12423 12426 12429 12431 12434 12437 12439 12441 12444 12447 12450 12452 12455 12458 12460 12462 12465 12467 12470 12473 12476 12479 12482 12485 12488 12491 12494 12497 12500 12503 12506 12509 12512 12515 12517 12520 12523 12526 12529 12531 12534 12537 12540 12543 12546 12549 12552 12555 12557 12559 12562 12565 12567 12570 12573 12576 12579 12582 12585 12588 12591 12594 12596 12598 12601 12604 12606 12609 12612 12615 12617 12620 12623 12626 12629 12632 12635 12638 12641 12644 12647 12650 12653 12656 12659 12662 12665 12668 12671 12674 12677 12680 12683 12686 12689 12692 12695 12697 12700 12703 12706 12709 12712 12715 12718 12721 12724 12727 12730 12733 12736 12739 12742 12745 12748 12751 12754 12757 12759 12762 12765 12768 12770 12772 12775 12778 12781 12783 12786 12789 12791 12794 12797 12800 12803 12806 12808 12811 12813 12816 12819 12822 12825 12828 12831 12834 12837 12839 12842 12845 12848 12850 12853 12856 12858 12861 12863 12866 12869 12872 12874 12877 12880 12883 12885 12888 12891 12894 12897 12900 12903 12906 12909 12912 12915 12918 12921 12924 12927 12930 12933 12936 12938 12941 12944 12947 12950 12953 12956 12959 12962 12965 12967 12970 12973 12976 12979 12982 12985 12988 12991 12993 12996 12999 13002 13005 13008 13011 13014 13017 13020 13023 13026 13029 13032 13034 13037 13040 13043 13045 13048 13051 13054 13057 13060 13063 13066 13069 13072 13075 13078 13081 13084 13087 13090 13093 13096 13099 13102 13104 13107 13110 13113 13115 13118 13120 13123 13126 13129 13131 13134 13137 13140 13142 13144 13147 13150 13153 13156 13159 13162 13165 13168 13171 13174 13177 13180 13183 13186 13189 13192 13195 13198 13201 13204 13207 13210 13212 13215 13218 13221 13224 13226 13229 13232 13235 13238 13240 13243 13246 13249 13252 13255 13258 13261 13263 13266 13269 13272 13275 13277 13280 13283 13286 13289 13292 13295 13297 13300 13303 13306 13309 13312 13315 13317 13320 13323 13326 13328 13331 13334 13337 13340 13343 13346 13349 13352 13355 13357 13360 13363 13366 13369 13372 13375 13377 13380 13383 13386 13389 13392 13395 13398 13401 13404 13407 13410 13412 13415 13418 13420 13423 13426 13429 13432 13435 13437 13440 13443 13445 13448 13451 13454 13457 13460 13463 13466 13468 13470 13473 13476 13479 13482 13484 13487 13490 13493 13496 13499 13502 13504 13507 13510 13513 13516 13519 13522 13525 13528 13531 13534 13536 13539 13542 13545 13548 13551 13554 13557 13560 13563 13566 13569 13572 13574 13577 13579 13582 13585 13588 13590 13593 13596 13598 13601 13604 13607 13610 13612 13615 13618 13621 13624 13627 13629 13632 13635 13638 13641 13644 13647 13650 13653 13655 13658 13661 13664 13667 13669 13672 13675 13678 13681 13684 13687 13690 13692 13695 13698 13701 13704 13707 13710 13713 13716 13719 13722 13724 13727 13730 13733 13735 13738 13740 13743 13746 13749 13752 13755 13758 13760 13763 13765 13768 13770 13773 13776 13779 13782 13784 13787 13790 13793 13796 13799 13802 13805 13808 13811 13814 13817 13820 13823 13826 13828 13831 13833 13836 13839 13842 13845 13848 13851 13854 13856 13859 13862 13865 13868 13871 13874 13877 13880 13883 13886 13889 13892 13895 13897 13900 13903 13906 13909 13911 13914 13917 13920 13923 13926 13929 13932 13935 13938 13941 13944 13947 13950 13953 13956 13959 13962 13965 13968 13971 13974 13977 13980 13983 13985 13988 13991 13994 13997 13999 14002 14005 14008 14010 14013 14016 14018 14021 14024 14026 14029 14032 14035 14038 14041 14044 14047 14050 14053 14056 14059 14062 14065 14068 14071 14073 14076 14079 14081 14084 14087 14090 14093 14096 14099 14102 14104 14107 14110 14113 14116 14119 14121 14124 14127 14130 14132 14135 14138 14141 14143 14146 14149 14152 14155 14158 14161 14164 14166 14169 14172 14175 14177 14180 14182 14184 14187 14190 14193 14196 14199 14201 14204 14207 14210 14213 14216 14219 14222 14225 14228 14231 14233 14236 14239 14242 14245 14248 14251 14254 14257 14260 14263 14266 14269 14272 14275 14278 14281 14284 14287 14290 14293 14296 14299 14302 14305 14308 14311 14314 14317 14320 14323 14326 14329 14332 14335 14338 14341 14344 14346 14349 14352 14355 14358 14361 14364 14367 14370 14373 14376 14379 14382 14385 14388 14391 14394 14396 14399 14402 14405 14408 14411 14414 14417 14420 14423 14425 14428 14431 14434 14437 14440 14443 14446 14448 14451 14454 14457 14460 14463 14466 14469 14472 14475 14478 14481 14484 14487 14490 14493 14496 14499 14502 14505 14508 14511 14513 14516 14519 14522 14525 14528 14531 14534 14537 14540 14543 14546 14549 14552 14555 14558 14561 14564 14566 14569 14572 14575 14578 14581 14584 14587 14590 14593 14596 14599 14602 14605 14608 14611 14614 14617 14620 14623 14626 14629 14632 14635 14638 14641 14644 14647 14650 14653 14656 14659 14662 14665 14668 14671 14674 14677 14680 14683 14686 14689 14692 14695 14698 14701 14704 14706 14709 14712 14715 14718 14721 14724 14727 14730 14733 14736 14739 14742 14745 14747 14750 14752 14755 14758 14761 14764 14767 14769 14772 14775 14778 14781 14784 14786 14788 14791 14794 14797 14800 14803 14806 14809 14812 14815 14818 14821 14824 14827 14830 14833 14836 14839 14841 14843 14846 14849 14852 14855 14858 14861 14863 14866 14868 14871 14874 14877 14880 14883 14886 14889 14892 14895 14897 14900 14903 14906 14909 14912 14915 14918 14921 14924 14927 14930 14933 14936 14939 14942 14945 14948 14951 14954 14956 14959 14962 14965 14968 14971 14973 14976 14978 14981 14984 14987 14990 14993 14996 14999 15001 15004 15007 15010 15012 15015 15018 15021 15023 15026 15029 15031 15034 15037 15040 15042 15045 15048 15050 15053 15055 15058 15060 15063 15066 15068 15071 15074 15077 15080 15083 15086 15089 15092 15095 15098 15101 15104 15107 15110 15113 15116 15119 15122 15125 15128 15131 15133 15136 15138 15141 15144 15147 15150 15153 15156 15159 15161 15164 15167 15170 15173 15176 15179 15182 15185 15188 15191 15194 15197 15200 15203 15206 15209 15212 15215 15218 15220 15223 15226 15229 15231 15234 15237 15240 15243 15246 15249 15252 15255 15258 15261 15263 15266 15269 15272 15275 15277 15280 15283 15285 15288 15291 15294 15297 15300 15302 15305 15308 15311 15314 15316 15319 15321 15324 15327 15329 15332 15335 15338 15341 15344 15347 15350 15352 15355 15358 15360 15363 15365 15368 15371 15374 15377 15380 15383 15386 15389 15392 15395 15398 15401 15404 15407 15410 15413 15416 15419 15421 15424 15427 15430 15433 15436 15439 15442 15444 15447 15450 15453 15456 15458 15461 15464 15467 15470 15473 15476 15479 15482 15485 15487 15490 15493 15496 15499 15501 15504 15507 15510 15513 15516 15519 15522 15525 15528 15531 15534 15537 15539 15542 15545 15548 15551 15554 15557 15560 15563 15566 15568 15571 15574 15577 15580 15583 15586 15589 15592 15595 15598 15601 15604 15606 15609 15612 15614 15617 15620 15623 15626 15629 15632 15635 15638 15641 15643 15645 15647 15650 15653 15656 15658 15661 15664 15667 15670 15673 15676 15678 15681 15684 15687 15689 15691 15694 15697 15700 15703 15706 15709 15712 15715 15718 15721 15724 15727 15729 15732 15735 15738 15740 15742 15745 15748 15751 15754 15757 15759 15762 15765 15768 15771 15773 15776 15779 15782 15785 15787 15790 15793 15796 15799 15802 15804 15806 15808 15811 15814 15817 15819 15821 15824 15827 15830 15833 15836 15839 15842 15845 15848 15850 15852 15855 15858 15861 15863 15865 15868 15871 15874 15877 15880 15883 15886 15889 15892 15895 15898 15901 15904 15907 15910 15913 15916 15918 15921 15923 15926 15929 15932 15935 15937 15940 15943 15946 15949 15952 15955 15958 15960 15963 15966 15969 15972 15975 15978 15981 15983 15986 15989 15991 15994 15996 15998 16001 16004 16007 16009 16011 16014 16017 16020 16022 16024 16027 16030 16033 16036 16039 16042 16045 16048 16051 16054 16056 16059 16062 16065 16068 16071 16074 16077 16079 16082 16085 16088 16091 16093 16096 16099 16102 16105 16108 16111 16113 16116 16119 16122 16125 16127 16130 16132 16135 16138 16141 16144 16147 16150 16153 16156 16159 16162 16165 16168 16171 16174 16176 16179 16182 16185 16188 16191 16194 16197 16199 16202 16205 16208 16211 16213 16216 16219 16222 16224 16227 16230 16233 16236 16239 16242 16245 16248 16251 16254 16257 16260 16263 16266 16269 16272 16275 16278 16281 16284 16287 16290 16292 16295 16297 16300 16303 16305 16308 16311 16314 16316 16319 16322 16324 16327 16330 16333 16336 16339 16342 16345 16348 16351 16354 16357 16360 16363 16366 16369 16372 16375 16378 16381 16384 16386 16388 16390 16393 16396 16399 16402 16405 16408 16411 16414 16417 16420 16423 16426 16429 16431 16434 16437 16440 16442 16445 16448 16450 16453 16456 16459 16462 16464 16467 16470 16472 16474 16477 16480 16483 16486 16488 16491 16494 16496 16499 16501 16504 16507 16510 16513 16516 16519 16522 16525 16528 16531 16534 16537 16539 16542 16545 16548 16551 16554 16557 16560 16562 16565 16567 16570 16573 16576 16579 16581 16584 16587 16590 16593 16596 16599 16602 16605 16608 16611 16614 16617 16620 16623 16626 16629 16632 16635 16638 16641 16644 16647 16650 16652 16655 16658 16661 16663 16666 16668 16671 16674 16677 16679 16682 16685 16688 16691 16694 16696 16699 16702 16704 16707 16710 16713 16716 16719 16722 16725 16728 16730 16733 16736 16739 16742 16745 16747 16750 16753 16756 16759 16762 16765 16768 16771 16774 16777 16780 16783 16786 16789 16791 16794 16797 16800 16803 16805 16808 16811 16814 16817 16820 16823 16826 16829 16832 16835 16838 16841 16843 16846 16849 16852 16855 16857 16860 16863 16866 16869 16872 16875 16878 16881 16884 16887 16890 16893 16896 16898 16901 16904 16906 16909 16912 16915 16917 16920 16923 16926 16929 16932 16935 16938 16941 16944 16947 16950 16953 16956 16958 16960 16963 16965 16967 16970 16973 16976 16978 16980 16983 16985 16988 16990 16993 16995 16998 17001 17004 17006 17009 17011 17014 17017 17020 17023 17025 17028 17031 17034 17037 17040 17043 17045 17048 17051 17054 17057 17060 17062 17065 17068 17070 17073 17076 17078 17081 17084 17086 17089 17092 17095 17098 17101 17103 17106 17108 17111 17114 17117 17120 17123 17126 17129 17132 17135 17138 17141 17144 17147 17149 17152 17155 17157 17160 17163 17166 17169 17172 17175 17178 17181 17184 17186 17189 17192 17195 17198 17201 17204 17207 17210 17213 17215 17218 17221 17223 17226 17228 17231 17234 17237 17240 17243 17246 17249 17251 17254 17257 17260 17263 17266 17269 17272 17274 17277 17279 17282 17285 17287 17290 17293 17296 17298 17301 17304 17307 17310 17312 17315 17318 17321 17324 17327 17329 17332 17335 17338 17341 17344 17347 17350 17353 17356 17359 17362 17365 17368 17371 17374 17377 17380 17383 17386 17389 17392 17394 17397 17400 17402 17405 17408 17411 17413 17416 17419 17422 17425 17427 17430 17433 17436 17439 17442 17445 17448 17451 17454 17457 17460 17463 17466 17469 17472 17475 17478 17481 17484 17487 17490 17493 17496 17498 17501 17504 17507 17510 17513 17516 17518 17521 17524 17527 17530 17533 17536 17539 17542 17545 17548 17551 17554 17557 17559 17562 17564 17567 17570 17572 17575 17578 17581 17584 17586 17588 17591 17593 17596 17598 17601 17604 17607 17610 17613 17615 17618 17621 17623 17625 17628 17631 17634 17637 17640 17642 17645 17648 17650 17653 17656 17659 17662 17665 17668 17671 17674 17676 17678 17681 17684 17687 17689 17692 17694 17697 17700 17703 17706 17709 17711 17714 17716 17719 17722 17725 17728 17731 17733 17735 17738 17741 17744 17747 17749 17752 17755 17758 17761 17763 17766 17769 17772 17775 17778 17781 17784 17787 17790 17793 17796 17799 17802 17805 17808 17811 17814 17816 17819 17822 17824 17827 17830 17833 17835 17838 17841 17844 17847 17850 17853 17856 17859 17862 17865 17868 17871 17874 17877 17880 17883 17886 17889 17892 17894 17897 17900 17903 17906 17909 17912 17915 17918 17921 17924 17927 17930 17933 17936 17938 17940 17943 17946 17949 17951 17954 17957 17960 17963 17966 17968 17971 17974 17977 17980 17983 17986 17989 17992 17995 17998 18001 18003 18006 18009 18011 18014 18017 18020 18023 18026 18029 18032 18035 18038 18041 18043 18046 18049 18052 18054 18057 18059 18062 18064 18067 18070 18073 18075 18077 18080 18082 18085 18088 18090 18093 18096 18098 18100 18103 18106 18109 18111 18114 18117 18119 18122 18124 18127 18130 18133 18135 18138 18141 18143 18145 18148 18150 18153 18156 18158 18161 18163 18166 18169 18172 18175 18178 18181 18184 18187 18190 18192 18195 18198 18201 18204 18207 18209 18212 18215 18218 18221 18224 18227 18230 18233 18236 18239 18241 18244 18247 18250 18253 18255 18257 18260 18263 18265 18268 18270 18273 18276 18279 18282 18285 18287 18290 18293 18295 18298 18300 18303 18306 18309 18312 18315 18318 18321 18323 18326 18329 18332 18335 18338 18341 18344 18347 18350 18352 18355 18357 18360 18362 18365 18367 18370 18373 18376 18379 18381 18384 18387 18390 18393 18396 18398 18400 18403 18406 18409 18412 18415 18418 18420 18423 18426 18429 18432 18435 18437 18440 18443 18446 18449 18451 18454 18457 18459 18462 18464 18467 18470 18473 18475 18478 18480 18483 18486 18488 18490 18492 18495 18498 18501 18504 18507 18510 18512 18514 18516 18519 18522 18525 18528 18530 18533 18535 18538 18540 18543 18546 18549 18552 18555 18558 18560 18563 18566 18569 18572 18575 18578 18581 18584 18587 18590 18593 18596 18599 18602 18605 18608 18611 18614 18617 18620 18623 18626 18629 18632 18635 18638 18641 18644 18647 18650 18653 18656 18659 18662 18665 18668 18671 18674 18677 18680 18683 18686 18689 18692 18695 18698 18701 18704 18707 18709 18712 18715 18718 18720 18722 18725 18728 18731 18734 18737 18740 18743 18746 18749 18752 18755 18758 18761 18764 18767 18770 18773 18776 18779 18781 18784 18787 18790 18793 18796 18799 18802 18804 18807 18810 18812 18815 18818 18820 18823 18826 18828 18831 18833 18836 18839 18841 18844 18847 18850 18852 18855 18857 18860 18862 18864 18867 18870 18873 18875 18877 18880 18883 18885 18888 18891 18893 18896 18899 18902 18905 18908 18911 18914 18917 18920 18923 18926 18929 18931 18934 18937 18940 18943 18945 18948 18951 18954 18957 18959 18962 18965 18968 18971 18974 18977 18980 18983 18986 18988 18991 18993 18996 18999 19002 19005 19007 19010 19013 19016 19018 19021 19024 19027 19030 19033 19036 19038 19041 19044 19046 19049 19052 19055 19057 19060 19063 19066 19069 19072 19075 19078 19080 19083 19086 19089 19092 19095 19097 19100 19103 19106 19109 19112 19115 19118 19121 19124 19127 19130 19133 19136 19139 19142 19144 19147 19150 19153 19156 19159 19161 19164 19167 19169 19172 19174 19177 19180 19183 19186 19188 19190 19193 19196 19198 19201 19204 19207 19210 19213 19216 19219 19222 19225 19228 19231 19233 19236 19238 19241 19244 19247 19250 19253 19255 19258 19261 19264 19266 19269 19272 19275 19277 19280 19283 19286 19289 19292 19295 19298 19301 19304 19307 19310 19313 19316 19318 19321 19324 19327 19330 19333 19336 19339 19341 19344 19346 19349 19352 19355 19358 19361 19364 19367 19369 19371 19374 19377 19380 19383 19386 19389 19392 19395 19398 19400 19403 19406 19409 19412 19415 19418 19420 19422 19424 19427 19429 19432 19435 19438 19441 19444 19447 19449 19452 19454 19457 19459 19462 19464 19467 19470 19473 19476 19479 19482 19484 19487 19490 19492 19495 19498 19501 19504 19506 19509 19512 19515 19518 19521 19524 19527 19530 19533 19536 19539 19542 19545 19548 19551 19554 19557 19560 19563 19566 19569 19571 19574 19576 19579 19582 19585 19588 19591 19594 19597 19600 19603 19606 19609 19612 19615 19618 19621 19624 19627 19630 19633 19636 19639 19642 19645 19648 19651 19654 19657 19660 19663 19666 19669 19672 19675 19678 19681 19684 19687 19690 19693 19696 19699 19702 19705 19708 19711 19714 19717 19720 19723 19726 19729 19732 19735 19738 19741 19744 19747 19750 19752 19755 19758 19761 19764 19767 19770 19773 19776 19779 19782 19785 19788 19791 19794 19797 19800 19803 19806 19809 19812 19815 19818 19821 19823 19826 19829 19832 19834 19837 19839 19842 19845 19848 19851 19854 19857 19860 19863 19866 19869 19872 19875 19878 19881 19884 19887 19890 19893 19896 19899 19902 19905 19908 19911 19914 19917 19920 19923 19926 19929 19932 19935 19938 19941 19944 19947 19950 19953 19956 19958 19961 19963 19966 19969 19972 19975 19978 19981 19984 19987 19990 19993 19996 19999 20002 20005 20008 20011 20014 20017 20020 20023 20026 20029 20032 20035 20038 20040 20043 20046 20049 20052 20055 20058 20061 20064 20067 20070 20073 20076 20079 20082 20085 20088 20091 20094 20097 20100 20103 20106 20109 20112 20115 20118 20121 20124 20127 20130 20133 20136 20139 20142 20145 20148 20151 20154 20157 20160 20163 20166 20169 20172 20175 20178 20181 20184 20187 20190 20193 20196 20199 20202 20205 20208 20211 20214 20217 20220 20223 20226 20229 20232 20235 20238 20241 20244 20247 20249 20252 20255 20258 20261 20264 20267 20270 20272 20275 20278 20280 20283 20286 20289 20292 20295 20298 20301 20304 20307 20310 20313 20316 20319 20322 20325 20328 20331 20334 20337 20340 20342 20345 20348 20351 20354 20357 20360 20363 20366 20369 20372 20375 20378 20381 20384 20387 20390 20393 20396 20399 20402 20405 20408 20411 20414 20417 20420 20423 20426 20429 20432 20435 20438 20440 20443 20446 20449 20452 20454 20457 20459 20462 20465 20468 20471 20474 20477 20479 20482 20485 20487 20490 20493 20495 20497 20500 20502 20505 20508 20511 20513 20516 20519 20522 20525 20528 20531 20534 20537 20540 20543 20546 20549 20552 20555 20558 20560 20563 20566 20569 20572 20575 20578 20581 20584 20586 20589 20592 20595 20598 20601 20604 20607 20610 20613 20616 20619 20622 20625 20628 20631 20634 20637 20640 20643 20646 20649 20652 20655 20658 20661 20664 20667 20670 20673 20676 20679 20682 20685 20688 20691 20694 20696 20699 20702 20705 20708 20711 20714 20717 20719 20722 20725 20727 20730 20732 20735 20738 20741 20744 20747 20750 20753 20756 20759 20762 20765 20767 20769 20772 20775 20777 20780 20783 20785 20787 20790 20793 20796 20799 20801 20804 20806 20809 20812 20814 20817 20819 20821 20824 20826 20829 20831 20834 20837 20840 20843 20846 20849 20852 20854 20857 20859 20862 20865 20868 20871 20874 20876 20879 20882 20885 20887 20890 20893 20895 20898 20900 20903 20905 20907 20910 20913 20915 20918 20921 20924 20927 20930 20933 20935 20938 20941 20944 20947 20950 20953 20956 20959 20961 20963 20966 20969 20972 20974 20977 20980 20983 20986 20988 20990 20993 20995 20998 21001 21004 21006 21009 21012 21015 21018 21021 21024 21027 21030 21033 21036 21039 21042 21045 21048 21051 21054 21056 21059 21062 21065 21068 21071 21074 21076 21079 21081 21084 21087 21090 21092 21094 21097 21100 21102 21105 21107 21110 21113 21116 21119 21122 21125 21128 21131 21134 21137 21140 21143 21145 21147 21150 21153 21156 21159 21162 21164 21167 21170 21173 21176 21179 21182 21185 21187 21190 21193 21196 21198 21201 21203 21206 21209 21211 21214 21217 21220 21223 21226 21229 21232 21235 21238 21240 21243 21246 21248 21251 21254 21257 21260 21263 21266 21269 21272 21275 21278 21281 21283 21286 21289 21292 21295 21298 21301 21304 21307 21310 21313 21316 21319 21322 21325 21328 21331 21334 21337 21340 21343 21346 21349 21351 21354 21357 21360 21363 21366 21369 21372 21375 21378 21381 21384 21386 21389 21392 21395 21398 21400 21403 21406 21409 21412 21415 21418 21421 21424 21427 21430 21433 21435 21438 21441 21444 21447 21450 21452 21455 21457 21460 21463 21466 21469 21472 21475 21478 21481 21484 21486 21489 21492 21494 21497 21500 21502 21505 21508 21511 21514 21516 21519 21522 21525 21528 21531 21534 21537 21540 21543 21546 21549 21552 21555 21558 21561 21564 21567 21570 21573 21576 21579 21581 21584 21587 21589 21592 21594 21597 21600 21603 21606 21609 21612 21615 21618 21621 21623 21626 21629 21631 21633 21635 21638 21641 21644 21646 21649 21652 21655 21658 21661 21664 21666 21668 21671 21673 21676 21679 21681 21684 21687 21689 21692 21695 21698 21701 21703 21706 21709 21712 21715 21717 21720 21723 21726 21729 21732 21735 21738 21741 21744 21747 21750 21752 21755 21758 21760 21763 21765 21767 21770 21773 21775 21777 21779 21782 21785 21788 21791 21794 21797 21800 21803 21806 21809 21811 21814 21817 21820 21823 21826 21829 21832 21835 21838 21840 21843 21846 21849 21852 21855 21857 21860 21863 21866 21869 21872 21875 21878 21881 21884 21887 21889 21892 21895 21898 21901 21904 21907 21910 21913 21916 21919 21922 21925 21928 21931 21934 21937 21940 21943 21946 21949 21952 21955 21958 21961 21963 21965 21968 21971 21974 21977 21980 21983 21986 21989 21991 21994 21997 22000 22003 22006 22009 22012 22015 22018 22021 22024 22027 22030 22033 22036 22039 22041 22044 22047 22050 22053 22055 22058 22061 22064 22066 22068 22071 22074 22077 22080 22083 22086 22088 22091 22093 22096 22099 22102 22104 22107 22110 22113 22116 22119 22122 22125 22128 22130 22133 22135 22137 22140 22143 22146 22149 22152 22155 22158 22161 22164 22167 22170 22173 22175 22178 22181 22183 22186 22188 22191 22194 22197 22200 22203 22206 22209 22212 22215 22218 22221 22224 22227 22230 22233 22236 22239 22242 22245 22248 22251 22254 22257 22259 22262 22265 22268 22271 22274 22276 22279 22282 22285 22288 22291 22294 22297 22300 22303 22306 22308 22311 22314 22317 22319 22322 22325 22328 22331 22334 22337 22340 22343 22346 22349 22352 22354 22356 22359 22362 22365 22368 22371 22373 22376 22379 22382 22384 22387 22390 22393 22396 22399 22402 22405 22408 22411 22414 22416 22419 22422 22425 22428 22431 22434 22437 22439 22441 22444 22446 22449 22452 22455 22458 22460 22463 22466 22469 22472 22475 22477 22480 22483 22486 22489 22492 22495 22498 22501 22504 22507 22509 22512 22515 22518 22521 22524 22527 22530 22533 22536 22539 22541 22544 22547 22550 22553 22556 22559 22562 22564 22567 22570 22573 22576 22579 22582 22585 22588 22591 22594 22597 22600 22603 22606 22609 22612 22615 22618 22621 22624 22626 22629 22632 22635 22637 22640 22643 22646 22649 22652 22655 22658 22661 22664 22667 22670 22673 22676 22678 22681 22683 22685 22688 22690 22692 22695 22698 22701 22704 22707 22709 22712 22715 22718 22721 22724 22727 22730 22732 22735 22738 22740 22743 22746 22748 22751 22754 22756 22759 22762 22764 22766 22768 22770 22773 22776 22778 22780 22783 22786 22788 22791 22794 22796 22799 22802 22805 22808 22810 22812 22814 22816 22819 22822 22825 22827 22830 22832 22835 22837 22840 22842 22844 22847 22850 22853 22856 22859 22862 22865 22867 22870 22873 22875 22878 22880 22883 22886 22888 22890 22893 22896 22899 22902 22905 22908 22911 22914 22917 22920 22923 22926 22929 22932 22935 22938 22941 22943 22946 22949 22952 22955 22958 22961 22964 22967 22970 22973 22976 22979 22982 22985 22988 22991 22994 22996 22999 23002 23005 23008 23011 23014 23017 23020 23023 23026 23029 23032 23035 23038 23040 23042 23045 23048 23051 23054 23056 23059 23061 23064 23067 23070 23072 23074 23077 23079 23082 23085 23088 23091 23094 23097 23100 23103 23106 23109 23112 23115 23118 23121 23124 23127 23130 23133 23136 23138 23141 23143 23146 23149 23152 23155 23157 23160 23163 23166 23169 23172 23175 23178 23181 23184 23187 23190 23193 23196 23199 23202 23205 23208 23211 23214 23217 23219 23222 23225 23228 23231 23234 23237 23240 23243 23246 23249 23252 23255 23258 23261 23263 23266 23269 23272 23275 23278 23281 23284 23287 23290 23293 23296 23299 23302 23305 23308 23311 23314 23317 23320 23323 23326 23329 23332 23335 23338 23341 23344 23347 23350 23353 23356 23359 23362 23365 23368 23371 23374 23377 23380 23383 23386 23389 23392 23395 23398 23401 23404 23407 23410 23413 23416 23419 23422 23425 23428 23431 23434 23437 23440 23443 23446 23449 23451 23454 23457 23460 23462 23465 23468 23470 23473 23476 23479 23482 23485 23488 23491 23494 23497 23500 23503 23505 23508 23511 23514 23517 23519 23522 23525 23528 23531 23534 23537 23540 23543 23546 23549 23552 23555 23558 23561 23564 23567 23570 23573 23576 23579 23582 23585 23588 23591 23594 23597 23600 23603 23606 23608 23611 23614 23617 23620 23622 23625 23628 23631 23634 23637 23640 23643 23646 23649 23652 23654 23657 23660 23662 23665 23668 23671 23674 23677 23680 23683 23686 23689 23692 23695 23698 23700 23703 23706 23709 23712 23715 23718 23721 23724 23726 23729 23732 23735 23738 23741 23744 23747 23750 23753 23756 23758 23761 23763 23766 23769 23772 23774 23777 23780 23783 23785 23788 23790 23793 23795 23797 23800 23803 23806 23809 23812 23814 23817 23820 23823 23826 23829 23832 23835 23838 23841 23844 23847 23850 23853 23856 23859 23862 23865 23868 23871 23874 23877 23880 23883 23885 23888 23891 23893 23896 23899 23902 23904 23907 23909 23912 23915 23918 23921 23924 23927 23930 23933 23936 23939 23942 23945 23947 23950 23953 23956 23959 23962 23965 23968 23971 23974 23977 23980 23983 23986 23989 23992 23995 23998 24001 24004 24006 24009 24012 24015 24018 24021 24024 24027 24030 24033 24036 24039 24042 24045 24048 24051 24054 24057 24060 24063 24066 24069 24072 24075 24078 24081 24084 24087 24089 24092 24095 24098 24101 24104 24107 24110 24113 24116 24119 24122 24125 24128 24131 24134 24137 24140 24143 24145 24148 24151 24154 24156 24159 24162 24165 24167 24169 24172 24175 24178 24181 24184 24186 24189 24192 24195 24198 24201 24204 24207 24209 24211 24214 24217 24220 24222 24225 24227 24230 24233 24236 24239 24242 24245 24247 24249 24252 24255 24257 24259 24262 24265 24268 24271 24274 24277 24280 24283 24286 24289 24291 24294 24297 24300 24303 24306 24309 24311 24314 24317 24320 24323 24326 24329 24332 24335 24338 24341 24344 24347 24350 24353 24356 24359 24362 24364 24367 24370 24373 24376 24378 24381 24384 24386 24389 24392 24395 24398 24401 24404 24407 24410 24413 24416 24419 24421 24424 24426 24429 24431 24434 24437 24440 24443 24446 24449 24452 24455 24458 24461 24464 24467 24470 24473 24476 24479 24482 24485 24488 24490 24493 24496 24498 24501 24504 24507 24509 24512 24515 24517 24520 24523 24526 24529 24531 24534 24537 24540 24543 24546 24549 24552 24554 24557 24560 24563 24566 24569 24572 24575 24578 24581 24584 24587 24590 24593 24596 24599 24602 24605 24608 24611 24614 24617 24620 24623 24626 24629 24632 24635 24638 24641 24643 24646 24649 24652 24655 24658 24661 24664 24667 24670 24673 24676 24679 24682 24685 24688 24691 24694 24697 24700 24703 24706 24709 24712 24715 24718 24721 24724 24727 24730 24733 24736 24739 24742 24745 24748 24751 24754 24756 24758 24760 24763 24766 24768 24771 24774 24777 24779 24782 24784 24787 24790 24793 24796 24799 24801 24804 24807 24810 24813 24816 24819 24822 24824 24827 24830 24833 24836 24839 24842 24845 24848 24851 24854 24857 24860 24863 24866 24868 24871 24874 24877 24879 24882 24884 24887 24890 24893 24896 24899 24902 24905 24908 24910 24913 24916 24919 24922 24925 24928 24931 24933 24936 24938 24941 24943 24946 24949 24952 24955 24958 24961 24964 24967 24969 24972 24975 24977 24979 24981 24984 24986 24989 24991 24994 24997 25000 25003 25006 25009 25012 25015 25018 25021 25024 25027 25030 25033 25036 25039 25042 25045 25048 25051 25054 25056 25059 25062 25064 25066 25069 25072 25075 25077 25080 25083 25086 25089 25092 25095 25098 25100 25103 25105 25108 25111 25114 25117 25119 25122 25125 25127 25130 25133 25136 25139 25142 25145 25148 25150 25153 25156 25158 25161 25164 25167 25169 25172 25175 25178 25181 25184 25187 25190 25193 25196 25198 25201 25204 25207 25210 25213 25216 25218 25221 25224 25226 25229 25232 25235 25238 25240 25243 25246 25249 25252 25255 25258 25260 25262 25264 25267 25270 25273 25275 25278 25280 25283 25285 25288 25291 25294 25297 25300 25303 25305 25308 25311 25314 25316 25319 25322 25325 25327 25330 25333 25336 25339 25342 25345 25348 25351 25354 25357 25360 25363 25365 25368 25371 25374 25376 25379 25382 25385 25388 25391 25393 25395 25398 25401 25403 25406 25408 25410 25412 25415 25418 25421 25423 25426 25429 25432 25435 25438 25440 25443 25446 25449 25452 25455 25458 25461 25464 25467 25470 25473 25476 25478 25481 25484 25487 25490 25493 25496 25498 25501 25504 25506 25509 25512 25514 25517 25520 25523 25526 25529 25531 25534 25537 25539 25542 25544 25547 25549 25552 25555 25558 25561 25564 25567 25569 25572 25575 25578 25581 25583 25586 25589 25592 25595 25598 25601 25604 25607 25610 25613 25615 25618 25621 25624 25627 25630 25632 25635 25638 25641 25644 25647 25650 25653 25656 25659 25662 25665 25668 25671 25674 25677 25679 25682 25685 25688 25691 25694 25696 25699 25701 25704 25707 25710 25713 25716 25718 25721 25724 25727 25730 25733 25735 25738 25741 25744 25747 25750 25752 25755 25758 25761 25764 25767 25770 25773 25776 25779 25782 25784 25787 25789 25792 25794 25797 25800 25802 25805 25808 25811 25814 25817 25820 25823 25826 25828 25831 25833 25836 25839 25842 25845 25848 25851 25854 25857 25860 25863 25865 25868 25871 25874 25877 25880 25883 25886 25889 25892 25895 25897 25900 25903 25906 25908 25911 25913 25915 25918 25921 25924 25926 25929 25932 25935 25937 25939 25942 25945 25948 25951 25954 25957 25960 25963 25966 25969 25971 25973 25976 25979 25982 25985 25988 25990 25993 25996 25999 26002 26005 26008 26011 26014 26017 26020 26022 26025 26027 26029 26031 26034 26037 26040 26043 26046 26049 26052 26055 26057 26060 26063 26066 26069 26072 26075 26078 26081 26084 26087 26090 26093 26096 26099 26102 26105 26108 26111 26114 26117 26120 26123 26126 26129 26132 26135 26138 26141 26144 26146 26149 26152 26155 26158 26160 26163 26166 26169 26172 26175 26178 26181 26184 26186 26189 26192 26195 26198 26201 26204 26207 26210 26212 26215 26218 26221 26224 26227 26230 26233 26236 26239 26242 26245 26248 26251 26254 26257 26260 26263 26266 26269 26272 26275 26278 26281 26284 26287 26290 26292 26295 26298 26301 26304 26307 26310 26312 26315 26317 26320 26323 26325 26328 26331 26334 26336 26339 26341 26344 26347 26350 26352 26355 26358 26361 26363 26366 26369 26372 26375 26378 26381 26383 26386 26389 26392 26395 26398 26401 26404 26407 26410 26413 26416 26419 26422 26425 26428 26431 26434 26437 26440 26443 26446 26449 26452 26455 26458 26461 26464 26466 26469 26471 26474 26477 26480 26483 26485 26488 26491 26494 26497 26500 26503 26506 26509 26512 26515 26518 26521 26524 26526 26529 26532 26534 26537 26540 26542 26545 26548 26551 26554 26557 26559 26562 26565 26568 26571 26574 26577 26580 26583 26585 26588 26590 26593 26596 26599 26602 26605 26607 26609 26612 26615 26617 26620 26623 26626 26628 26631 26634 26637 26640 26643 26646 26649 26651 26654 26657 26660 26663 26666 26669 26672 26675 26678 26681 26684 26687 26690 26693 26696 26699 26701 26704 26707 26710 26713 26716 26718 26721 26723 26726 26729 26732 26735 26738 26741 26744 26747 26750 26753 26756 26759 26761 26764 26766 26769 26772 26775 26778 26781 26784 26786 26788 26791 26794 26797 26800 26803 26806 26809 26812 26815 26818 26821 26824 26827 26830 26833 26836 26839 26842 26845 26848 26851 26853 26856 26859 26861 26864 26867 26870 26873 26876 26878 26881 26884 26887 26890 26893 26896 26898 26901 26904 26907 26910 26913 26916 26919 26922 26925 26928 26931 26934 26937 26940 26943 26946 26948 26951 26954 26956 26959 26962 26965 26968 26970 26973 26976 26979 26982 26985 26988 26991 26994 26997 27000 27003 27005 27008 27011 27014 27017 27020 27023 27026 27029 27032 27035 27038 27041 27044 27047 27050 27053 27056 27059 27062 27064 27067 27070 27073 27076 27079 27082 27085 27088 27091 27094 27097 27100 27102 27105 27108 27111 27114 27117 27120 27123 27126 27129 27132 27135 27138 27141 27143 27145 27148 27151 27154 27157 27160 27163 27165 27168 27171 27174 27177 27180 27183 27186 27189 27192 27195 27198 27201 27204 27207 27210 27213 27216 27219 27222 27225 27228 27231 27234 27237 27240 27243 27246 27249 27252 27255 27258 27261 27264 27267 27270 27272 27275 27278 27281 27284 27287 27290 27293 27296 27298 27301 27304 27307 27310 27313 27316 27319 27322 27325 27328 27331 27334 27336 27339 27342 27345 27348 27350 27353 27355 27358 27361 27364 27367 27370 27373 27376 27379 27381 27384 27387 27390 27393 27396 27399 27402 27405 27408 27411 27413 27416 27419 27422 27424 27427 27430 27432 27435 27438 27441 27444 27446 27449 27452 27454 27457 27460 27463 27466 27469 27472 27475 27478 27480 27483 27486 27489 27491 27494 27497 27500 27503 27506 27509 27512 27514 27517 27519 27522 27524 27527 27529 27531 27534 27537 27540 27542 27544 27546 27549 27552 27554 27557 27560 27563 27565 27568 27571 27574 27577 27579 27582 27585 27588 27591 27594 27597 27600 27603 27606 27609 27612 27615 27618 27621 27624 27627 27630 27633 27636 27639 27642 27645 27648 27651 27654 27657 27660 27663 27666 27669 27672 27675 27678 27681 27684 27687 27690 27693 27695 27698 27701 27704 27707 27710 27713 27716 27719 27721 27724 27727 27730 27733 27735 27738 27741 27743 27746 27749 27751 27754 27757 27760 27763 27765 27768 27771 27774 27777 27780 27782 27785 27788 27791 27794 27797 27800 27803 27806 27809 27812 27815 27818 27821 27823 27825 27828 27831 27834 27836 27839 27842 27845 27848 27851 27854 27857 27860 27863 27866 27869 27872 27875 27878 27880 27883 27886 27889 27892 27895 27898 27900 27903 27906 27908 27911 27914 27917 27920 27923 27926 27929 27932 27935 27938 27940 27943 27946 27949 27952 27955 27957 27960 27963 27966 27969 27972 27975 27978 27981 27984 27987 27989 27992 27995 27998 28001 28004 28007 28010 28013 28016 28019 28022 28025 28028 28031 28034 28036 28039 28042 28045 28048 28051 28054 28057 28060 28063 28066 28069 28072 28075 28078 28081 28084 28087 28090 28093 28096 28099 28102 28105 28107 28110 28112 28115 28118 28121 28123 28126 28129 28132 28135 28138 28141 28144 28147 28150 28152 28155 28158 28161 28163 28166 28169 28172 28175 28178 28181 28184 28187 28190 28193 28196 28199 28202 28205 28208 28211 28213 28216 28219 28222 28225 28228 28230 28233 28236 28239 28241 28244 28246 28249 28252 28255 28258 28261 28264 28266 28269 28272 28275 28278 28281 28284 28287 28290 28293 28296 28299 28302 28305 28308 28311 28314 28317 28320 28323 28326 28329 28332 28335 28338 28341 28344 28347 28349 28352 28355 28357 28360 28363 28366 28369 28372 28375 28378 28380 28383 28386 28389 28392 28394 28397 28400 28402 28405 28408 28411 28414 28417 28420 28422 28425 28428 28431 28433 28436 28439 28442 28444 28447 28450 28453 28456 28459 28461 28464 28467 28470 28473 28476 28478 28481 28484 28487 28490 28493 28496 28499 28502 28504 28507 28510 28512 28515 28518 28521 28524 28526 28529 28532 28535 28538 28540 28543 28546 28549 28552 28554 28557 28560 28563 28565 28568 28570 28573 28576 28579 28582 28585 28588 28591 28594 28597 28600 28602 28605 28608 28611 28614 28617 28620 28623 28625 28627 28630 28633 28636 28639 28642 28644 28647 28650 28653 28656 28659 28661 28664 28667 28670 28672 28675 28678 28680 28683 28686 28688 28691 28694 28697 28699 28702 28705 28708 28711 28714 28717 28719 28722 28725 28728 28731 28734 28736 28739 28742 28745 28748 28751 28753 28756 28759 28762 28765 28768 28771 28773 28776 28779 28782 28785 28787 28790 28793 28796 28799 28802 28804 28807 28810 28813 28816 28819 28822 28825 28828 28831 28834 28836 28839 28842 28845 28848 28851 28854 28857 28859 28862 28865 28868 28871 28873 28875 28878 28881 28883 28886 28889 28892 28895 28898 28901 28904 28906 28909 28912 28915 28918 28921 28924 28927 28929 28932 28934 28937 28940 28942 28945 28948 28951 28954 28956 28959 28961 28964 28967 28970 28973 28976 28979 28982 28985 28988 28991 28993 28996 28999 29002 29005 29008 29010 29013 29016 29019 29021 29024 29027 29030 29033 29035 29038 29041 29043 29046 29049 29052 29055 29058 29060 29063 29065 29068 29070 29072 29075 29078 29081 29084 29086 29088 29091 29094 29097 29100 29103 29106 29109 29112 29115 29118 29121 29124 29127 29129 29132 29135 29138 29141 29144 29147 29149 29151 29154 29157 29160 29163 29166 29169 29172 29175 29178 29181 29184 29187 29190 29192 29195 29198 29201 29204 29207 29210 29213 29216 29219 29222 29225 29228 29231 29234 29237 29240 29243 29246 29249 29252 29255 29258 29261 29264 29267 29270 29273 29276 29279 29282 29285 29288 29291 29293 29296 29299 29301 29304 29307 29310 29313 29316 29319 29322 29324 29327 29330 29333 29335 29338 29341 29343 29346 29349 29352 29354 29356 29359 29362 29365 29368 29370 29372 29375 29378 29381 29384 29387 29390 29393 29396 29399 29402 29405 29408 29411 29414 29416 29419 29422 29424 29427 29430 29433 29435 29438 29441 29444 29447 29449 29452 29455 29457 29460 29463 29466 29469 29472 29475 29478 29481 29484 29487 29490 29492 29495 29498 29501 29504 29507 29510 29513 29515 29518 29521 29524 29527 29530 29533 29536 29539 29542 29545 29548 29551 29554 29557 29560 29563 29566 29569 29571 29574 29577 29580 29583 29586 29589 29591 29594 29596 29599 29602 29605 29608 29611 29613 29616 29619 29621 29624 29627 29630 29632 29635 29638 29641 29643 29646 29649 29652 29655 29658 29661 29664 29667 29670 29673 29676 29679 29682 29685 29687 29690 29693 29696 29699 29701 29703 29706 29709 29712 29715 29718 29721 29724 29727 29730 29733 29736 29739 29742 29745 29748 29751 29754 29757 29760 29762 29765 29768 29771 29774 29777 29780 29783 29786 29788 29791 29793 29796 29799 29802 29805 29808 29811 29814 29816 29819 29821 29824 29827 29830 29833 29836 29838 29841 29844 29847 29850 29853 29856 29858 29861 29864 29867 29870 29873 29875 29877 29880 29883 29886 29888 29890 29892 29895 29898 29901 29904 29907 29909 29912 29915 29918 29921 29924 29926 29929 29932 29935 29938 29940 29943 29945 29947 29950 29952 29954 29957 29960 29963 29965 29968 29971 29974 29976 29979 29982 29985 29987 29990 29993 29996 29998 30001 30004 30007 30010 30013 30016 30019 30022 30024 30027 30030 30033 30035 30038 30041 30044 30047 30050 30053 30055 30058 30061 30064 30067 30070 30073 30075 30078 30081 30084 30087 30090 30093 30096 30099 30102 30105 30108 30111 30114 30117 30119 30122 30124 30127 30130 30133 30135 30138 30141 30143 30146 30148 30151 30153 30156 30159 30161 30164 30167 30170 30173 30176 30179 30181 30184 30187 30190 30193 30195 30198 30201 30204 30207 30210 30213 30215 30218 30221 30224 30227 30230 30233 30236 30239 30242 30245 30247 30250 30253 30256 30259 30262 30265 30268 30271 30274 30277 30280 30283 30286 30289 30292 30295 30298 30301 30304 30306 30308 30311 30314 30317 30319 30322 30325 30327 30330 30333 30335 30338 30341 30343 30346 30349 30351 30353 30356 30359 30362 30365 30367 30370 30373 30376 30379 30382 30385 30388 30391 30394 30397 30400 30402 30404 30407 30410 30413 30415 30418 30420 30423 30425 30428 30431 30434 30437 30440 30442 30445 30448 30450 30453 30455 30458 30461 30463 30465 30467 30470 30473 30476 30479 30481 30484 30487 30489 30492 30494 30497 30500 30502 30505 30508 30511 30514 30517 30520 30523 30526 30528 30531 30533 30535 30538 30541 30544 30547 30550 30552 30554 30557 30560 30563 30565 30567 30570 30573 30576 30579 30582 30585 30588 30591 30593 30596 30598 30601 30604 30607 30610 30613 30616 30619 30622 30625 30628 30631 30634 30637 30640 30643 30646 30649 30652 30655 30658 30661 30664 30667 30670 30673 30676 30679 30682 30685 30687 30690 30693 30696 30699 30702 30705 30708 30711 30714 30717 30720 30723 30726 30729 30732 30734 30737 30740 30742 30745 30748 30751 30754 30757 30759 30762 30765 30768 30771 30774 30777 30780 30783 30786 30789 30792 30795 30798 30800 30803 30806 30809 30812 30815 30818 30821 30824 30827 30829 30832 30835 30837 30840 30843 30846 30849 30851 30853 30855 30858 30861 30864 30867 30870 30872 30875 30878 30881 
</DataArray>
<DataArray type="UInt32" Name="types" format="ascii">
5 5 3 5 5 5 5 3 5 5 5 5 5 5 5 5 5 5 5 5 3 5 5 5 5 3 5 5 5 5 5 5 5 3 5 5 5 5 5 5 5 5 3 5 5 5 5 5 5 5 5 5 5 5 3 3 5 5 5 5 5 5 5 5 3 5 5 5 5 5 5 5 5 5 5 5 5 5 5 5 5 5 5 5 5 5 5 3 5 5 5 5 5 5 5 5 5 5 5 3 5 5 5 3 5 5 5 5 5 5 5 5 5 5 5 5 5 5 5 5 5 5 5 5 5 5 5 5 5 5 5 5 5 5 5 5 5 5 5 5 5 5 5 5 5 5 5 5 5 3 5 3 5 5 5 5 5 5 5 5 5 5 5 5 5 5 5 5 5 5 5 5 5 5 5 5 5 5 3 5 5 3 5 3 5 5 5 5 5 5 5 5 5 5 5 5 5 5 3 5 3 5 5 5 5 5 5 5 3 5 3 5 5 5 5 5 5 3 5 5 3 5 5 5 5 5 5 3 3 5 5 3 5 3 5 3 3 5 5 5 3 5 5 5 5 5 5 5 5 5 5 5 5 5 3 5 5 5 5 5 5 5 3 5 5 5 5 5 5 5 3 5 5 5 5 3 5 5 5 5 5 5 3 5 5 5 3 5 5 5 5 5 5 5 3 5 5 5 5 5 5 3 5 5 5 5 5 5 3 5 5 5 5 5 5 5 3 5 5 5 5 5 5 5 5 5 5 5 5 5 5 5 5 5 5 5 5 5 3 3 5 5 5 5 5 3 5 5 5 5 5 5 5 3 5 3 5 5 5 3 5 5 5 3 5 3 5 5 5 5 5 5 5 3 5 5 5 5 5 5 5 3 5 5 5 3 5 5 5 5 5 5 5 5 5 5 5 5 5 5 5 5 5 5 5 5 5 5 5 5 5 5 5 5 5 5 5 5 3 5 5 5 5 5 5 5 5 5 5 5 5 5 5 5 5 5 5 5 5 5 5 5 5 5 5 5 5 5 5 5 5 3 5 5 5 5 5 5 5 5 5 5 5 5 5 5 5 5 5 5 5 5 3 5 5 5 5 5 5 5 3 5 5 5 5 5 3 5 5 3 5 3 5 5 5 5 3 5 5 3 5 5 5 5 5 5 3 5 5 5 5 5 5 5 5 5 5 5 5 5 5 5 5 5 5 5 3 5 5 5 5 5 5 5 5 5 5 5 3 3 5 5 5 5 5 5 5 5 5 5 5 5 5 5 5 5 5 5 5 5 5 3 5 3 3 5 5 3 5 5 5 5 5 5 5 5 5 5 5 5 5 3 5 5 5 5 5 5 5 3 3 5 5 5 5 5 5 5 5 3 3 5 5 5 3 5 5 5 5 5 5 5 5 5 5 5 5 5 5 5 5 5 5 5 5 5 5 5 5 5 5 5 5 5 5 5 5 5 5 5 3 5 5 3 5 5 5 5 3 5 5 5 3 5 5 5 3 5 5 3 5 5 5 5 5 5 5 5 5 5 5 5 5 5 5 5 5 5 5 5 5 3 5 5 5 3 5 5 5 5 5 3 5 5 5 5 5 5 3 5 5 5 5 5 5 5 5 5 5 5 5 5 5 5 5 5 5 3 5 5 5 5 5 5 5 5 5 5 5 5 5 5 5 5 5 5 5 5 5 3 5 5 5 5 5 5 5 5 5 5 5 5 5 5 5 3 5 5 5 5 5 5 5 5 5 5 5 5 5 5 5 5 5 5 3 5 5 5 5 5 5 5 3 5 5 5 5 5 5 5 5 5 5 5 5 5 5 5 5 5 5 5 5 5 3 5 5 5 5 5 5 5 5 5 3 5 5 5 5 5 5 5 5 3 5 5 5 5 5 5 5 5 5 5 5 5 5 5 5 5 5 5 5 3 5 5 5 5 5 3 5 5 5 3 5 5 5 5 5 5 3 5 5 5 5 5 5 5 5 5 5 3 5 5 5 5 5 5 5 5 5 5 5 5 3 5 3 5 5 5 5 5 5 5 3 5 3 5 5 5 5 5 5 5 5 5 5 5 5 5 5 5 5 5 5 5 5 5 5 5 5 5 5 5 5 5 5 5 5 5 5 5 5 5 5 5 5 5 5 5 5 5 3 3 5 5 3 5 5 5 5 5 5 5 5 5 5 5 5 5 5 5 5 3 5 5 5 5 3 5 5 3 5 5 5 5 5 5 3 5 3 5 5 3 5 5 5 5 5 5 5 5 5 5 3 5 5 5 5 5 3 3 5 5 5 5 3 5 5 3 5 3 5 5 5 5 5 3 5 5 3 5 5 5 5 5 5 5 5 5 5 5 5 3 5 5 5 5 5 5 5 5 5 5 5 5 5 5 5 3 5 3 5 3 3 5 3 5 5 3 5 5 5 5 5 5 3 5 3 5 5 3 5 5 5 3 5 5 3 5 5 5 5 5 3 5 5 3 5 5 5 5 5 3 5 3 5 5 3 5 5 3 5 5 5 5 5 5 5 5 3 5 5 5 5 5 5 5 5 5 5 3 5 5 5 5 3 5 5 3 5 5 5 5 5 3 5 5 5 5 5 3 5 3 5 5 5 5 5 5 3 5 5 5 5 5 5 5 5 3 3 3 5 5 5 5 3 5 3 5 5 5 3 3 5 5 5 3 5 5 5 3 5 3 5 3 3 5 3 5 5 5 5 3 5 5 5 3 5 3 5 3 5 5 5 5 5 5 5 3 5 5 5 5 3 5 5 5 5 5 5 5 5 3 5 3 3 5 5 5 3 5 5 5 5 3 3 5 5 3 3 5 5 5 5 5 3 5 5 5 5 5 5 5 5 3 5 3 5 5 5 5 5 5 5 5 5 5 5 5 5 5 5 5 5 3 5 5 5 5 5 5 5 5 5 5 5 5 5 5 5 5 5 5 5 5 5 5 5 5 5 3 5 3 5 5 5 5 5 3 3 5 5 5 5 3 3 5 3 5 5 3 5 5 3 5 5 5 5 3 3 5 5 5 5 5 5 5 5 3 5 5 3 5 5 5 3 5 5 3 5 5 5 5 5 5 3 5 5 5 5 5 5 3 5 5 5 5 5 3 5 5 3 3 5 5 3 5 5 3 5 5 5 5 5 5 5 5 5 5 5 5 3 5 3 5 5 3 5 5 5 5 5 5 3 5 5 5 3 3 3 5 5 5 3 3 5 3 3 5 5 3 5 5 3 5 3 5 3 5 5 5 3 3 5 5 3 3 3 3 5 5 5 3 3 5 5 3 3 3 5 3 3 5 5 3 5 3 3 5 3 5 5 3 5 3 3 5 5 5 5 3 3 5 5 3 5 5 5 3 5 5 5 5 5 5 5 5 5 5 5 5 5 5 5 5 5 5 5 5 5 5 5 5 5 5 5 5 5 5 5 5 5 5 5 5 5 5 5 5 5 5 5 5 5 5 5 5 5 5 5 5 5 5 5 5 5 5 3 5 3 5 5 5 5 5 5 5 5 5 5 5 5 5 5 3 5 5 5 5 5 5 5 5 5 5 3 5 5 5 5 5 5 5 5 5 5 5 5 5 5 5 5 5 5 5 5 5 5 5 5 5 5 5 5 5 5 5 5 5 5 5 5 5 5 5 5 5 5 5 5 5 5 3 5 5 5 3 5 3 5 5 5 5 5 3 5 3 5 5 5 5 5 5 5 5 5 5 5 5 5 5 5 5 5 5 5 5 5 5 5 5 5 3 5 5 5 5 5 5 3 5 3 5 5 5 3 5 5 3 5 5 5 5 5 5 5 5 5 5 5 5 5 5 5 5 5 5 5 5 5 5 5 5 5 5 5 5 5 5 5 5 5 5 5 5 5 3 5 3 5 5 5 5 5 5 5 5 5 5 3 5 5 5 5 5 5 5 5 5 5 5 5 5 5 5 5 5 3 5 5 5 3 3 5 3 5 5 5 5 5 5 5 5 3 5 5 5 5 3 5 5 5 5 5 5 5 3 5 5 3 5 3 5 5 3 5 5 3 3 5 5 5 5 5 5 5 5 5 5 5 5 5 5 5 3 5 3 5 5 5 3 5 3 5 5 5 5 5 5 5 5 5 5 5 5 3 5 3 5 5 5 5 5 5 5 5 3 5 5 3 5 5 5 3 3 5 5 5 5 5 5 5 5 5 5 5 5 5 5 5 5 5 5 5 5 5 3 5 5 5 5 5 3 5 3 5 5 5 5 3 5 5 3 5 5 5 5 5 3 5 5 5 5 3 5 5 5 5 5 5 5 3 5 5 5 3 5 5 5 5 5 5 5 5 5 5 5 3 5 5 5 5 5 5 5 5 3 5 5 5 5 5 5 3 5 5 5 5 5 5 3 5 5 5 5 5 5 5 5 5 5 5 3 5 5 5 3 5 5 5 3 5 3 5 5 5 5 5 5 3 5 5 5 5 5 5 5 5 5 5 5 5 5 5 5 3 5 5 5 5 5 3 5 5 5 5 5 5 5 5 3 5 5 5 5 5 5 5 5 5 5 5 5 5 5 5 5 3 5 5 5 5 3 5 5 5 5 5 5 5 5 5 5 5 5 5 5 5 5 5 5 5 5 5 5 5 5 5 5 3 5 5 5 3 5 3 5 5 5 5 3 5 3 5 5 5 5 5 3 5 5 5 5 5 5 5 5 5 3 5 5 5 5 5 5 5 5 5 5 5 5 5 5 5 5 5 5 5 5 5 5 5 5 3 3 5 5 5 5 5 3 5 5 5 3 5 5 5 3 5 5 3 5 3 5 5 5 5 3 5 5 5 5 3 3 5 5 5 5 5 5 5 5 5 5 5 5 3 5 5 5 5 3 5 5 5 5 5 3 5 5 3 5 5 5 5 5 5 5 5 5 5 5 5 5 5 5 5 3 5 5 3 5 5 5 3 5 5 5 5 5 5 5 5 5 5 5 3 5 5 5 5 5 5 5 5 5 5 5 5 5 5 5 5 3 5 5 3 5 3 5 5 3 5 3 5 3 5 5 5 5 5 5 5 5 5 5 5 5 5 3 5 3 3 5 5 3 3 5 5 3 3 5 5 5 3 5 3 5 5 3 5 5 5 5 3 3 5 3 5 5 3 3 5 5 3 5 5 5 3 5 5 5 3 3 3 5 5 3 5 3 3 5 5 5 5 5 5 5 5 5 5 5 3 3 5 3 5 3 5 3 5 5 5 3 5 5 5 5 5 3 5 5 5 5 5 5 5 5 5 5 5 5 5 5 5 5 5 5 5 5 5 5 5 5 3 5 5 5 5 5 5 5 5 5 5 5 5 5 5 5 5 5 5 3 5 5 5 5 5 5 5 5 5 5 5 3 5 5 5 5 5 3 5 5 5 5 5 5 5 5 5 5 5 5 5 5 3 5 5 5 5 5 5 5 5 5 5 5 5 5 5 3 5 3 5 5 5 5 3 5 5 5 5 5 5 5 5 5 5 5 5 3 5 3 5 5 5 5 3 5 5 5 5 5 5 5 3 5 5 5 5 5 5 5 3 5 5 5 3 5 3 5 5 5 5 5 5 5 5 5 3 5 5 5 5 5 5 5 5 5 5 5 5 5 5 5 5 5 5 5 5 5 5 5 5 5 5 5 5 5 5 5 5 5 5 5 5 5 5 5 5 5 5 5 3 5 5 3 5 5 5 5 5 5 5 5 5 5 3 5 5 5 5 5 3 5 5 3 5 5 5 5 5 5 3 5 5 5 5 3 5 5 3 5 3 5 5 5 5 5 5 5 5 5 5 5 3 5 3 5 5 5 5 3 5 5 5 5 5 5 5 5 5 5 5 5 5 5 5 5 5 5 5 5 5 3 5 5 5 5 3 5 5 5 5 5 5 5 3 5 5 5 5 5 3 5 5 5 3 5 5 5 3 5 5 3 5 5 5 3 5 5 3 5 5 5 5 5 5 5 5 5 5 5 5 5 5 5 5 5 5 5 5 5 5 5 5 5 5 5 5 5 5 5 3 5 5 5 5 5 5 5 5 5 5 5 3 5 5 5 5 5 5 5 5 5 5 5 5 5 5 5 3 3 5 5 5 3 5 5 5 5 3 5 5 3 5 5 5 5 5 5 5 5 5 5 5 5 5 3 3 5 5 5 5 5 5 5 5 5 5 5 3 5 5 3 5 5 5 5 5 5 5 5 5 5 5 5 5 5 5 5 5 5 5 3 5 5 5 3 5 5 5 5 5 3 5 5 5 5 5 5 5 5 5 5 5 5 5 5 5 5 5 5 5 5 3 5 5 3 5 5 5 5 5 5 5 5 5 5 5 5 5 5 5 5 5 5 5 3 5 5 5 5 5 5 5 5 5 5 5 5 5 5 5 5 5 5 5 5 5 5 5 5 5 5 5 5 5 5 5 5 3 5 5 5 5 5 5 3 5 5 5 5 5 3 5 5 5 5 3 5 5 5 5 5 5 5 5 5 5 5 5 5 5 5 5 5 5 5 5 5 5 3 5 5 5 5 5 5 5 3 5 5 3 5 5 3 5 5 5 5 5 5 3 5 5 5 5 5 5 5 5 5 5 3 5 3 5 5 5 5 5 5 5 5 3 5 5 3 5 5 5 3 5 5 5 3 5 5 5 3 3 5 5 3 5 5 3 5 5 3 5 5 5 5 5 5 5 5 5 3 5 5 5 3 5 5 5 3 5 5 5 3 5 3 5 5 3 5 5 5 5 5 5 5 5 3 5 5 3 5 5 5 5 5 5 5 5 5 5 5 5 5 3 5 3 5 5 5 3 3 5 3 5 5 5 5 3 5 3 5 5 5 5 5 5 5 5 5 3 5 5 5 5 5 5 5 5 5 5 5 5 5 5 5 5 5 5 5 5 5 5 5 5 5 5 5 5 3 5 5 5 5 5 5 3 5 5 5 5 5 5 3 5 5 5 5 5 5 3 5 5 5 3 5 5 5 3 5 5 3 5 5 5 5 5 5 3 5 5 5 3 3 5 5 5 5 5 5 5 5 5 5 5 5 5 5 5 5 5 3 5 5 5 5 5 5 5 3 5 5 5 5 5 3 5 5 5 5 5 3 5 5 3 5 5 5 5 3 5 5 5 5 5 5 3 5 3 5 3 3 5 3 5 5 5 3 5 5 5 5 5 3 5 5 5 3 5 5 5 5 3 3 3 5 5 5 5 3 3 5 3 5 5 5 5 5 5 3 5 3 5 5 3 5 5 5 3 5 5 3 5 5 5 5 5 5 5 5 5 5 5 5 3 5 5 5 5 3 5 5 5 5 3 5 5 5 5 5 5 5 5 5 3 3 3 5 5 5 3 3 5 5 3 5 3 5 5 5 5 5 5 5 3 5 5 5 5 5 5 5 5 5 5 5 5 5 5 5 5 3 5 5 5 5 5 5 5 5 5 3 5 5 3 5 3 5 3 5 5 3 5 5 5 3 3 5 5 3 5 5 5 3 5 5 5 5 3 5 5 5 5 5 5 5 5 5 5 5 3 3 5 5 5 5 5 5 5 5 5 5 5 5 5 5 5 5 5 5 5 5 5 5 5 5 5 5 5 5 5 5 5 5 3 5 5 5 5 5 5 5 5 5 5 5 5 5 5 5 5 5 5 5 3 5 5 5 5 5 5 3 3 5 5 3 3 5 5 5 3 5 5 5 5 5 5 5 5 5 5 5 5 5 5 5 5 5 5 5 5 5 5 5 3 5 3 5 3 5 5 5 5 5 5 3 5 3 3 5 5 3 5 5 5 5 5 5 3 3 5 5 3 3 5 5 3 3 5 5 5 5 5 5 5 5 3 5 5 5 5 5 3 5 5 3 5 5 5 3 5 5 5 5 5 5 5 5 5 5 5 5 5 5 5 5 5 5 5 5 5 5 5 5 5 5 5 5 5 5 5 5 5 5 3 5 5 3 5 3 3 5 5 5 5 5 5 5 5 5 3 5 5 5 5 5 3 5 5 5 5 5 5 5 3 5 5 5 5 5 5 5 5 3 5 5 5 5 5 3 5 5 5 5 5 5 5 5 5 5 5 5 5 5 5 5 5 5 5 5 5 5 5 5 5 5 5 5 5 5 3 3 5 5 5 5 5 5 5 3 5 5 5 3 5 3 5 5 5 5 5 5 5 5 5 5 5 5 5 5 5 5 5 5 5 5 5 3 5 5 5 5 5 5 3 5 5 5 5 5 5 5 3 5 5 3 5 5 5 5 5 5 3 5 5 5 3 5 5 3 3 5 5 5 5 5 5 5 5 5 5 5 5 5 5 5 5 5 5 5 5 5 5 5 5 5 5 5 5 3 5 5 5 5 5 5 5 5 5 5 5 5 5 5 5 5 5 5 5 3 5 5 5 3 3 5 5 5 5 5 3 5 5 5 3 5 5 5 5 5 3 5 5 5 5 5 5 5 5 5 5 5 5 5 5 5 5 5 5 5 5 5 3 5 5 5 5 5 5 3 5 5 5 5 5 5 5 5 5 5 5 5 3 5 5 5 5 3 5 3 5 5 5 5 5 5 5 5 5 5 5 5 5 3 5 5 5 5 5 3 5 5 5 5 5 5 3 5 5 5 5 5 5 5 5 5 5 5 5 3 5 5 3 5 5 3 5 5 3 5 5 5 5 5 5 5 5 5 5 3 5 5 5 5 5 5 5 5 3 5 5 5 3 5 5 5 3 5 5 3 5 5 5 3 5 5 5 5 5 3 5 3 5 5 5 5 3 3 5 5 5 3 5 5 5 5 3 5 5 5 5 5 5 5 5 5 5 5 5 5 5 5 3 5 5 3 3 5 5 5 5 3 5 5 5 5 5 5 3 5 5 5 5 5 5 3 5 5 5 5 5 5 5 5 3 5 5 5 5 5 5 5 5 5 5 3 5 5 3 5 5 3 5 5 5 5 5 3 3 5 5 3 3 5 3 5 3 5 3 3 5 5 3 5 3 5 3 5 3 5 3 5 5 3 5 3 5 3 5 5 5 5 5 5 3 5 5 5 3 5 5 5 5 5 5 5 5 5 3 5 5 3 5 3 5 3 5 5 5 3 3 5 5 5 5 5 5 5 5 5 5 5 3 5 5 5 5 5 3 5 5 5 5 5 5 5 5 5 5 5 5 5 5 5 5 5 3 5 5 5 5 5 5 3 5 5 5 3 5 5 3 5 5 5 3 5 3 3 5 5 5 5 5 5 5 5 5 3 5 5 5 5 5 5 5 3 5 3 5 3 5 5 5 5 5 5 5 5 5 5 5 5 5 5 5 5 5 5 5 5 5 5 5 5 5 5 5 5 5 5 5 5 5 5 5 5 5 3 5 5 3 3 5 5 5 5 3 5 5 5 5 5 3 5 5 3 3 5 5 5 5 5 5 3 5 3 5 5 3 3 5 3 5 5 5 3 5 5 5 5 3 5 5 5 3 5 5 3 3 5 5 5 3 5 5 5 5 3 5 5 3 5 5 5 3 5 5 3 5 5 5 3 5 3 5 5 3 5 5 3 3 5 5 3 5 3 3 5 5 5 5 3 5 5 5 5 3 5 5 5 5 5 5 5 5 5 5 5 5 3 5 5 5 5 3 5 3 5 5 5 5 5 3 3 3 5 5 5 5 5 5 5 5 3 5 5 5 5 5 5 3 5 5 5 5 3 5 5 5 5 5 5 5 5 5 5 5 5 5 5 5 5 5 5 3 5 3 5 5 3 3 5 3 5 5 3 5 3 5 3 5 3 5 5 5 5 3 5 5 5 3 5 5 5 5 5 5 5 5 5 5 5 5 5 5 5 5 5 5 5 5 5 5 5 5 5 3 5 5 5 5 5 3 5 5 5 5 5 5 5 5 5 5 5 3 5 5 5 5 5 3 5 5 3 3 5 5 5 3 5 5 3 3 5 3 5 5 5 5 5 5 5 5 5 5 5 5 5 5 5 5 3 5 5 5 5 3 5 5 5 5 5 5 5 5 3 3 5 5 3 5 5 5 5 5 5 5 5 5 3 3 5 5 3 5 5 5 3 5 5 5 5 5 5 5 5 5 5 5 5 5 5 5 5 5 5 5 5 5 5 5 5 5 5 3 5 5 5 5 5 5 5 5 5 5 5 5 5 5 5 5 5 5 5 5 3 5 5 5 3 3 5 5 5 3 5 5 3 5 5 5 5 5 3 5 3 5 5 5 5 5 5 5 5 3 5 5 5 3 5 5 3 5 3 5 5 5 3 5 5 5 3 5 5 5 5 5 5 5 5 5 5 5 5 5 5 5 5 5 3 5 5 5 5 5 5 5 5 5 3 5 5 5 5 5 5 5 5 3 5 5 5 5 5 5 5 5 5 5 5 5 5 3 5 5 5 3 5 5 5 5 5 5 5 5 5 5 5 5 5 5 5 5 5 5 5 3 5 5 5 3 5 3 5 5 5 3 5 5 5 3 3 5 5 5 5 5 5 5 5 5 5 5 5 5 5 5 5 5 5 5 5 5 5 3 5 5 5 5 3 5 5 5 5 3 5 5 5 5 5 5 5 3 5 5 5 5 3 5 5 5 5 5 5 3 5 5 5 5 5 5 3 5 5 5 3 5 5 5 5 5 5 5 5 5 3 5 5 5 5 5 5 3 5 5 5 5 5 5 5 5 5 5 5 3 5 5 3 5 5 5 5 5 3 5 5 3 5 5 5 5 5 5 5 3 3 5 5 5 5 3 5 5 5 5 5 5 3 5 5 5 5 5 5 5 5 5 5 3 5 5 5 5 5 5 5 5 5 5 5 5 3 5 3 5 5 5 3 5 5 3 5 5 5 5 3 5 5 5 5 5 3 5 5 5 5 5 5 5 5 3 5 5 5 5 3 5 5 5 5 5 5 5 3 5 5 5 5 5 5 5 5 5 5 3 5 5 5 3 5 3 5 5 5 5 5 5 3 5 3 5 3 5 5 5 5 3 5 5 5 5 5 5 5 5 5 5 5 5 5 5 3 5 3 5 5 5 5 5 5 5 3 5 5 5 5 5 5 5 5 5 5 5 5 5 3 5 5 5 5 3 5 5 5 5 5 5 5 5 5 5 5 5 5 5 5 5 5 5 5 5 5 5 5 5 3 5 5 5 5 3 5 5 5 3 5 5 3 5 5 3 5 5 5 5 5 5 5 5 5 5 5 5 5 5 5 3 5 5 3 5 5 5 5 5 5 5 3 5 5 5 5 5 3 5 5 5 3 5 5 5 3 5 5 5 5 5 5 5 3 5 5 5 3 5 3 3 5 5 5 5 5 3 5 5 5 5 5 5 5 5 5 5 3 5 5 5 5 5 5 5 5 5 5 5 5 5 5 5 5 5 5 5 5 5 5 5 5 5 5 5 5 5 5 5 5 5 5 5 5 5 3 5 5 5 5 5 5 5 5 5 5 5 5 5 5 5 5 3 5 5 5 5 5 5 5 5 5 3 5 5 5 5 5 5 5 3 5 5 5 5 5 5 5 5 5 5 5 5 5 5 5 5 5 5 5 5 5 3 5 5 5 5 5 5 5 5 5 5 5 5 5 5 5 5 5 3 5 5 5 5 5 5 5 5 5 5 5 5 5 5 5 5 5 5 5 5 5 5 5 5 5 5 5 5 5 5 5 5 5 5 5 5 5 5 5 5 5 5 5 5 5 5 3 5 5 5 5 5 5 5 5 5 5 5 5 5 3 5 3 5 5 5 5 5 3 5 5 5 5 5 3 3 5 5 5 5 5 5 5 5 5 5 5 5 5 5 5 5 5 3 3 5 5 5 5 5 5 3 5 3 5 5 5 5 5 5 5 5 5 3 5 5 5 5 5 5 5 5 5 5 5 5 5 5 5 5 5 5 5 3 5 5 5 5 5 3 5 3 5 5 5 5 5 5 5 3 5 5 5 3 5 5 5 3 5 5 3 5 5 5 3 5 5 3 5 3 5 3 5 5 3 5 5 5 5 5 5 5 5 5 5 5 5 5 5 5 5 5 5 5 5 5 3 5 3 5 5 5 5 5 5 5 3 5 5 5 5 5 5 5 5 5 5 5 5 5 5 5 5 5 5 5 3 5 5 5 3 5 5 5 5 5 5 5 5 5 5 3 5 5 5 5 3 5 5 3 5 5 5 5 5 3 5 5 5 5 3 5 3 5 5 3 5 5 5 5 5 5 5 3 5 5 3 5 3 5 5 5 5 5 5 5 5 5 5 5 5 5 5 5 5 5 5 3 5 5 5 5 5 5 5 3 5 5 5 5 3 5 5 5 5 5 5 5 5 5 3 5 5 5 5 3 5 5 5 5 5 5 5 5 5 5 5 5 3 5 5 5 5 5 5 5 5 5 3 5 5 5 5 5 5 5 5 5 5 5 5 3 5 5 3 5 5 5 5 5 5 5 5 5 3 3 3 5 5 5 3 5 5 5 5 5 5 3 5 5 5 3 3 5 5 5 5 5 5 5 5 5 5 5 5 3 5 5 5 3 3 5 5 5 5 5 3 5 5 5 5 3 5 5 5 5 3 5 5 5 5 5 3 3 3 5 5 5 3 3 5 5 5 5 5 5 5 5 5 3 3 5 5 5 3 3 5 5 5 5 5 5 5 5 5 5 5 5 5 5 5 5 5 3 5 3 5 5 5 5 3 5 5 5 5 5 5 5 3 5 5 5 5 5 5 5 3 5 5 3 5 3 3 5 5 5 3 3 5 5 5 3 3 5 5 5 5 5 5 5 5 5 5 3 5 5 5 5 5 5 5 3 5 5 5 5 3 5 5 5 5 5 5 3 5 5 5 5 3 5 3 5 5 5 5 5 5 5 5 5 5 5 5 5 5 3 5 5 5 5 5 5 5 3 5 5 5 5 3 5 5 5 3 5 5 5 5 5 5 5 5 5 5 5 5 5 5 5 5 5 5 5 5 5 5 3 5 3 5 5 3 5 5 5 3 5 5 3 5 5 5 5 5 5 5 5 5 5 5 5 5 5 5 5 5 5 5 5 3 3 3 5 5 5 5 5 5 5 5 5 5 5 5 5 3 5 5 5 3 5 5 3 5 5 5 5 3 5 5 3 3 5 5 5 5 3 5 5 3 5 3 5 5 5 5 5 5 5 5 5 5 5 5 3 5 5 5 5 5 5 5 3 5 3 5 5 5 5 3 5 5 5 5 5 5 5 5 5 5 5 5 5 5 5 5 5 5 5 5 5 5 5 3 5 5 5 3 5 3 5 5 5 3 5 5 5 5 5 3 5 5 3 5 5 5 5 5 5 5 5 3 5 5 5 5 5 3 5 5 5 5 5 5 5 5 5 5 5 5 5 5 3 5 5 5 5 3 5 5 5 5 5 5 5 5 5 5 5 5 3 5 5 5 5 3 5 5 5 5 5 5 5 5 5 5 5 5 5 3 5 5 3 5 5 5 3 5 5 5 5 5 5 5 5 5 5 5 5 5 3 3 5 3 3 5 5 5 3 3 5 3 5 3 5 3 5 5 5 3 5 3 5 5 5 5 3 5 5 5 5 5 5 3 5 5 5 5 5 3 5 5 3 5 5 3 5 5 3 5 5 5 5 5 3 5 3 5 5 5 5 5 5 5 5 5 5 5 5 5 3 5 5 3 5 5 5 5 5 5 5 5 5 3 5 5 5 5 5 5 5 5 5 3 5 5 3 5 3 5 5 5 5 5 5 5 3 5 5 5 5 5 5 5 3 5 3 5 5 3 5 5 5 3 5 5 5 5 3 5 5 5 5 5 3 5 5 5 5 5 5 5 5 5 5 5 5 5 5 5 5 5 5 5 5 5 3 5 5 3 5 5 5 3 5 5 5 5 3 5 5 5 5 5 5 5 5 5 5 5 5 5 5 5 5 5 5 5 5 5 5 5 3 5 5 5 5 5 5 3 5 5 5 5 5 5 5 5 5 5 5 5 5 3 5 3 5 5 3 5 5 5 5 3 3 5 3 5 3 5 5 5 5 5 3 5 5 3 3 5 5 5 5 5 3 5 5 3 5 5 5 5 5 5 5 5 3 3 5 5 5 3 5 3 5 5 5 5 5 3 5 3 5 5 5 5 5 3 3 5 5 5 5 3 5 5 5 5 3 5 5 5 5 5 5 5 5 5 5 5 5 5 5 5 5 5 3 5 5 3 5 5 5 3 5 5 5 5 5 5 5 5 5 5 5 5 5 5 5 5 5 5 5 3 5 5 5 5 5 5 5 5 5 5 5 5 5 5 3 3 5 5 5 3 5 5 5 5 5 3 5 5 5 5 5 5 5 5 5 5 5 3 5 5 3 5 5 5 5 5 5 5 5 5 5 3 5 5 5 3 5 3 5 3 5 5 5 3 3 5 3 5 5 3 5 5 3 3 5 5 5 3 5 5 3 5 3 5 5 5 3 5 5 3 3 5 3 5 5 3 5 3 5 5 5 5 5 5 5 5 5 3 5 5 5 5 5 3 5 5 5 5 5 5 5 5 5 5 3 5 5 5 5 3 3 5 5 3 5 3 5 5 5 5 5 3 5 5 3 5 3 5 5 5 5 5 5 5 3 5 5 5 5 5 5 5 5 5 3 5 3 5 3 5 3 5 5 5 5 3 5 5 5 5 5 3 3 5 5 5 5 5 5 3 5 5 5 5 5 3 5 5 5 5 3 5 5 3 5 3 5 5 5 3 5 3 5 5 3 3 3 5 5 5 5 5 5 3 3 3 5 5 5 5 3 5 3 5 3 5 5 5 5 5 5 3 5 5 5 5 5 5 5 5 5 5 5 5 5 5 5 5 5 5 5 5 5 5 5 5 5 5 5 5 5 5 5 5 5 5 5 5 5 5 5 5 5 5 5 5 5 5 5 5 5 3 5 5 5 3 3 5 5 5 5 5 5 5 5 5 5 5 5 5 5 5 5 5 5 5 3 5 5 5 5 5 5 5 3 5 5 3 5 5 3 5 5 3 5 3 5 5 3 5 5 5 3 5 3 5 3 3 5 5 5 3 3 5 5 3 5 5 3 5 5 5 5 5 5 5 5 5 5 5 5 3 5 5 5 5 3 5 5 5 5 3 5 5 5 5 5 5 5 5 5 3 5 3 5 5 5 5 3 5 5 5 3 5 5 5 5 5 5 3 5 5 3 5 5 5 3 5 5 5 5 5 5 5 3 5 5 5 5 5 3 5 5 5 5 5 5 5 5 5 5 5 5 5 5 5 3 5 5 5 5 5 3 5 5 3 5 3 5 5 5 5 3 3 5 5 3 5 5 5 5 5 5 5 5 5 5 5 3 5 3 5 5 5 5 5 3 5 5 5 3 5 5 5 3 5 5 5 5 5 5 5 5 5 5 5 5 5 3 5 5 5 5 5 5 5 3 5 3 5 5 5 5 5 5 5 3 3 5 5 5 5 5 5 5 5 5 3 5 5 5 5 5 5 3 3 3 5 3 5 5 5 5 5 5 3 5 3 5 3 5 3 5 5 5 5 5 5 3 5 5 3 5 5 5 5 3 5 5 5 5 5 5 5 5 5 5 5 5 5 5 5 5 5 5 5 5 5 3 5 3 5 5 5 5 5 5 5 5 5 5 5 5 5 5 5 5 5 5 5 5 5 5 5 5 5 5 5 5 5 5 5 5 5 5 5 5 5 5 5 5 5 5 5 5 5 5 5 5 5 5 5 5 5 5 5 5 5 5 3 5 5 5 5 5 5 5 5 5 5 5 5 5 5 5 5 5 5 5 5 5 5 5 3 5 5 5 3 5 3 5 5 5 5 5 5 5 5 5 5 5 5 5 5 5 5 5 5 5 5 5 5 5 5 5 5 5 5 5 5 5 5 5 5 5 5 5 5 5 3 5 3 5 5 5 5 5 5 5 5 5 5 5 5 5 5 5 5 5 5 5 5 5 5 5 5 5 3 5 5 5 5 5 5 5 5 5 5 5 5 5 5 5 5 5 5 5 5 5 5 5 5 5 5 5 5 5 5 5 5 5 5 5 5 5 5 5 5 5 5 5 5 5 5 5 5 5 5 5 5 5 5 5 5 5 5 5 5 5 5 5 5 5 5 5 5 5 3 5 5 5 5 5 5 5 3 5 5 3 5 5 5 5 5 5 5 5 5 5 5 5 5 5 5 5 5 5 5 5 3 5 5 5 5 5 5 5 5 5 5 5 5 5 5 5 5 5 5 5 5 5 5 5 5 5 5 5 5 5 5 5 5 3 5 5 5 5 3 5 3 5 5 5 5 5 5 3 5 5 3 5 5 3 3 5 3 5 5 5 3 5 5 5 5 5 5 5 5 5 5 5 5 5 5 5 3 5 5 5 5 5 5 5 5 3 5 5 5 5 5 5 5 5 5 5 5 5 5 5 5 5 5 5 5 5 5 5 5 5 5 5 5 5 5 5 5 5 5 5 5 5 3 5 5 5 5 5 5 5 3 5 5 3 5 3 5 5 5 5 5 5 5 5 5 5 5 3 3 5 5 3 5 5 3 3 5 5 5 5 3 5 3 5 5 3 5 3 3 5 3 5 3 5 5 5 5 5 5 5 3 5 3 5 5 5 5 5 3 5 5 5 3 5 5 3 5 3 5 3 3 5 5 3 5 5 5 5 5 5 3 5 5 5 5 5 5 5 5 3 3 5 5 5 3 5 5 5 5 3 3 5 3 5 5 5 3 5 5 5 5 5 5 5 5 5 5 5 5 5 5 5 5 3 5 5 5 5 5 5 3 5 3 5 5 5 3 3 5 5 3 5 3 5 5 5 5 5 5 5 5 5 5 5 5 3 3 5 5 5 5 5 3 5 5 5 5 5 5 5 3 5 5 5 3 5 3 5 5 3 5 5 5 5 5 5 5 5 5 3 5 5 3 5 5 5 5 5 5 5 5 5 5 5 3 5 5 5 5 5 5 5 5 5 5 5 5 5 5 5 5 5 5 5 5 5 5 3 5 5 5 5 5 5 5 5 5 5 5 3 5 5 5 5 3 5 5 5 5 5 5 5 5 5 5 5 3 5 5 5 5 5 3 5 3 5 5 5 5 5 5 5 5 5 3 5 5 3 5 5 3 5 5 5 5 3 5 5 5 5 5 5 5 5 5 5 5 5 5 5 5 5 5 5 5 5 5 3 5 5 3 5 3 5 5 5 5 5 5 5 5 5 3 5 5 3 3 3 5 5 5 3 5 5 5 5 5 5 3 3 5 3 5 5 3 5 5 3 5 5 5 5 3 5 5 5 5 3 5 5 5 5 5 5 5 5 5 5 5 3 5 5 3 5 3 3 5 5 3 3 3 5 5 5 5 5 5 5 5 5 5 3 5 5 5 5 5 5 5 5 5 3 5 5 5 5 5 3 5 5 5 5 5 5 5 5 5 5 3 5 5 5 5 5 5 5 5 5 5 5 5 5 5 5 5 5 5 5 5 5 5 5 5 3 3 5 5 5 5 5 5 5 5 3 5 5 5 5 5 5 5 5 5 5 5 5 5 5 5 5 3 5 5 5 5 3 5 5 5 3 3 5 5 5 5 5 5 3 5 3 5 5 5 3 5 5 5 5 5 5 5 5 3 5 3 3 5 5 5 5 5 5 5 5 5 5 5 5 3 5 5 3 5 3 5 5 5 5 5 5 5 5 5 5 5 5 5 5 5 5 5 5 5 5 5 5 5 3 5 5 5 5 5 3 5 5 5 5 5 5 5 5 5 5 3 5 5 5 3 5 5 5 5 5 5 5 5 5 5 5 3 3 5 5 5 5 5 3 5 5 5 3 5 5 5 5 5 5 5 5 5 5 3 5 5 5 5 5 5 5 3 3 5 3 5 5 5 5 3 5 5 5 5 5 3 5 5 5 5 5 5 5 5 5 5 3 5 5 5 5 5 5 5 5 5 5 3 5 5 5 5 5 5 5 3 5 5 5 5 5 5 5 5 5 5 5 5 5 5 5 5 5 5 5 5 3 5 5 5 3 5 5 5 5 5 5 5 5 5 5 5 5 5 3 5 3 3 5 3 3 5 5 5 5 5 3 5 5 5 5 5 5 5 3 5 5 3 5 5 3 5 5 3 5 5 3 3 3 3 5 5 3 3 5 5 3 5 5 3 5 5 5 5 3 3 3 3 5 5 5 3 5 3 5 3 5 3 3 5 5 5 5 5 5 5 3 5 5 3 5 3 5 5 3 3 5 5 5 5 5 5 5 5 5 5 5 5 5 5 5 5 5 3 5 5 5 5 5 5 5 5 5 5 5 5 5 5 5 5 5 3 5 5 5 5 5 5 5 5 5 5 5 5 5 5 3 3 5 5 5 5 3 5 3 5 5 5 3 3 5 3 5 5 5 5 5 5 5 5 5 5 5 5 5 5 5 5 5 5 5 3 5 3 5 5 5 5 3 5 5 5 5 5 5 5 5 5 5 5 5 5 5 5 5 5 5 5 5 3 5 5 5 5 5 5 5 5 5 5 5 5 5 5 3 5 5 5 5 5 5 5 5 5 5 5 5 5 5 5 5 5 5 5 5 5 5 5 5 5 5 5 5 5 5 5 5 5 5 5 5 5 5 5 5 5 5 5 5 5 5 5 5 5 5 5 5 5 5 5 5 5 5 5 5 5 5 3 5 5 5 3 5 5 3 5 5 5 5 5 5 5 5 5 5 5 3 5 5 5 5 3 5 5 5 5 5 5 5 5 5 5 5 5 5 5 5 5 5 5 5 5 5 5 5 5 5 5 5 5 5 3 5 5 5 5 3 5 5 5 5 5 5 5 5 5 5 3 5 5 3 5 5 5 5 5 5 5 5 5 5 5 5 3 5 5 5 5 5 5 5 5 3 5 5 5 5 5 5 5 5 5 5 3 5 3 5 5 5 3 5 5 5 3 5 3 5 3 3 5 5 5 5 5 3 5 5 5 5 5 5 5 5 5 5 5 5 5 5 5 5 5 5 5 5 5 5 5 3 5 5 3 5 5 5 3 5 3 5 5 5 5 5 5 5 5 5 5 5 5 3 5 5 5 5 5 5 5 5 5 5 5 5 5 5 5 5 5 5 5 3 5 5 5 5 5 5 5 5 5 5 5 5 5 5 5 5 5 5 5 5 5 5 5 5 5 5 5 3 5 5 5 5 5 5 5 5 5 5 5 5 5 5 5 5 5 5 3 5 5 5 3 5 5 5 3 3 5 5 5 5 5 3 5 5 5 5 5 5 5 3 3 5 5 5 3 5 3 5 5 5 5 5 5 3 3 5 5 3 3 5 5 5 5 5 5 5 5 5 5 3 5 5 5 5 5 5 3 5 5 5 5 5 5 5 5 5 5 5 5 5 5 5 5 5 3 5 5 5 5 3 5 5 3 5 5 5 5 5 5 5 5 5 5 5 3 5 3 5 3 5 5 5 5 5 5 5 5 5 5 5 5 5 5 5 5 5 5 5 3 5 5 3 5 5 5 3 5 5 3 5 5 5 5 3 5 5 5 5 5 5 5 3 5 5 5 5 5 5 5 5 5 5 5 5 5 5 5 5 5 5 5 5 5 5 5 5 5 5 5 5 5 3 5 5 5 5 5 5 5 5 5 5 5 5 5 5 5 5 5 5 5 5 5 5 5 5 5 5 5 5 5 5 5 5 5 5 5 5 5 3 3 3 5 5 3 5 5 5 3 5 3 5 5 5 5 5 3 5 5 5 5 5 5 5 3 5 5 5 5 5 5 5 5 5 5 5 5 5 5 3 5 5 5 3 5 3 5 5 5 5 5 5 5 5 3 5 5 5 5 5 5 5 3 5 3 5 3 5 5 5 5 5 5 5 5 3 5 5 3 3 3 5 3 5 3 5 5 5 5 5 5 5 5 5 5 5 5 5 5 5 5 5 5 5 5 5 3 5 5 3 3 5 5 5 3 5 5 5 5 5 5 5 3 5 3 5 5 5 5 3 5 5 3 5 5 5 5 5 5 5 3 5 5 3 5 5 5 3 5 5 5 5 5 5 5 5 5 3 5 5 5 5 5 5 3 5 5 3 5 5 5 5 3 5 5 5 5 5 5 3 3 3 5 5 5 3 5 3 5 3 5 5 5 5 5 5 3 5 5 5 3 5 5 5 3 5 5 5 5 5 5 5 5 5 5 5 5 3 5 5 5 3 5 5 5 5 5 3 3 5 5 3 5 3 3 3 5 5 5 3 5 5 5 5 5 3 5 5 5 5 5 5 5 5 5 5 5 5 3 5 5 5 5 5 5 3 5 5 3 5 5 3 5 5 5 5 5 3 5 5 3 5 3 5 3 5 5 5 5 5 5 3 5 5 5 5 3 5 5 5 5 5 5 5 5 5 5 3 5 5 5 5 5 3 5 5 5 5 5 5 5 5 5 5 5 5 5 5 5 3 5 5 5 5 5 3 5 3 5 5 5 5 5 3 5 5 5 5 5 3 5 5 5 5 5 3 5 5 5 5 5 5 5 5 5 5 3 5 3 5 3 5 5 3 5 5 5 5 5 5 5 5 3 5 3 5 5 5 5 5 5 5 5 5 5 3 5 5 5 5 5 5 5 5 5 5 3 5 5 5 3 5 3 3 5 5 5 3 5 5 5 3 3 5 5 5 5 5 5 5 5 5 5 3 3 5 5 5 5 5 3 5 5 5 5 5 5 5 5 5 5 3 5 3 3 3 5 5 5 5 5 5 5 5 3 5 5 5 5 5 5 5 5 5 5 5 5 5 5 5 5 5 5 5 5 5 5 5 5 5 5 5 5 5 3 5 5 5 5 3 5 5 5 5 5 5 5 5 3 5 5 5 5 5 5 5 5 3 5 5 5 5 5 5 5 5 5 5 5 5 5 5 5 5 5 5 5 5 5 5 5 5 5 5 3 5 5 5 5 5 5 3 5 3 5 5 3 5 5 5 3 5 3 5 5 5 3 5 5 5 3 5 5 5 5 5 5 3 5 5 5 5 5 5 5 5 5 5 5 5 5 5 5 5 5 5 5 5 5 5 5 5 5 5 5 3 5 3 5 5 5 5 3 5 5 5 5 5 5 5 5 5 5 5 5 5 3 5 5 3 5 5 3 5 5 5 5 5 3 5 5 5 5 5 5 5 5 3 5 3 5 5 5 5 5 3 3 5 5 3 5 5 5 3 5 5 5 5 5 5 5 3 5 5 5 5 5 5 5 5 5 5 5 5 5 5 5 5 3 5 5 5 5 5 3 5 3 5 5 5 5 5 5 5 5 5 5 5 5 3 5 3 5 5 5 5 5 5 3 3 5 5 5 5 5 5 5 5 5 5 5 5 5 5 5 5 5 5 5 5 5 3 5 5 3 5 5 5 5 5 3 5 5 5 5 5 5 3 5 5 5 5 5 5 5 5 5 5 5 5 5 5 5 5 3 5 5 3 5 5 5 5 3 5 5 5 5 5 5 5 5 5 5 5 3 5 5 5 5 5 5 5 5 5 5 5 5 5 5 5 5 5 5 5 3 5 5 5 5 5 5 5 5 5 5 5 5 3 5 5 5 5 5 5 5 5 5 5 5 5 5 3 3 5 5 5 5 5 5 3 5 5 5 5 5 5 5 5 5 5 5 5 5 5 5 5 5 5 5 5 5 5 5 5 5 5 5 5 5 5 5 5 5 5 5 3 5 5 5 5 5 5 5 5 3 5 5 5 5 5 5 5 5 5 5 5 5 3 5 5 5 5 3 5 3 5 5 5 5 5 5 5 5 3 5 5 5 5 5 5 5 5 5 5 3 5 5 5 3 5 5 3 5 5 5 5 3 5 5 3 5 5 5 5 5 5 5 5 3 5 5 5 3 5 5 5 5 5 5 5 3 5 3 5 3 5 3 3 5 5 5 3 3 3 5 5 3 5 5 5 3 5 5 5 5 3 5 5 5 5 5 5 5 5 5 5 5 5 5 5 5 5 5 5 5 5 5 5 5 5 5 5 5 5 5 5 5 5 5 5 5 5 5 5 3 5 5 5 5 5 5 5 5 3 5 5 5 5 3 5 5 3 5 5 3 5 5 5 5 3 5 5 5 5 5 3 5 5 5 5 5 5 5 5 5 5 5 5 5 3 3 5 5 5 3 5 5 5 5 5 5 5 5 5 5 5 5 5 5 3 5 5 5 5 5 5 3 5 5 3 5 5 5 5 5 5 5 5 5 5 3 5 5 5 5 5 3 5 5 5 5 5 5 5 5 5 5 3 5 5 5 5 5 5 5 5 5 5 5 5 5 5 5 3 5 5 5 5 5 5 5 5 5 5 5 5 5 5 5 5 5 5 5 5 5 5 5 3 5 3 5 5 5 3 5 5 5 5 5 5 5 5 5 3 5 5 5 3 5 5 5 5 5 5 5 5 5 5 5 5 5 5 5 5 3 5 5 5 5 5 3 5 5 5 3 5 3 5 5 5 5 5 5 3 5 5 5 5 5 5 5 5 5 5 5 5 5 5 5 5 5 5 5 5 5 5 5 5 5 5 5 3 5 5 3 5 5 5 5 5 5 5 3 5 5 5 5 3 5 5 3 5 5 5 5 5 5 3 5 5 5 3 5 5 5 3 5 5 5 5 5 3 5 5 5 5 5 3 5 5 5 5 5 5 5 5 3 5 5 3 5 5 5 5 3 5 5 5 5 3 5 5 5 5 3 5 5 5 3 5 3 5 5 5 5 5 5 5 5 5 5 3 5 5 5 5 5 5 5 3 3 5 5 5 5 5 3 5 5 5 5 5 3 5 5 5 3 5 5 3 5 5 3 5 5 5 3 5 5 5 5 5 5 3 5 5 5 5 5 3 5 5 5 5 5 3 5 5 5 5 5 5 3 5 5 5 5 3 5 5 5 5 5 3 5 5 5 5 5 5 5 5 5 5 3 5 5 5 5 5 5 5 3 5 5 5 5 3 3 5 5 3 5 5 5 5 5 5 5 3 5 5 5 5 5 5 5 3 5 3 5 5 3 5 5 5 5 3 5 3 5 5 5 5 5 5 5 5 5 5 3 5 5 5 5 5 3 5 5 5 3 5 5 5 5 3 5 5 3 5 5 5 5 5 3 5 3 5 3 3 5 5 5 5 3 3 5 5 5 5 5 5 5 5 5 5 5 5 5 3 5 5 5 5 5 5 3 3 5 5 5 5 5 5 5 5 5 5 5 5 5 3 5 5 5 5 5 5 5 5 5 5 5 5 5 5 5 5 5 5 5 5 5 5 5 5 5 5 5 5 5 5 5 5 5 3 5 5 3 5 5 5 5 5 5 5 3 5 5 5 3 5 5 3 5 5 5 3 3 5 5 5 5 3 3 5 5 5 5 5 5 5 5 5 5 5 5 5 5 3 5 5 3 5 5 5 3 5 5 5 5 3 5 5 3 5 5 5 5 5 5 5 5 5 5 5 3 5 5 5 5 5 5 5 3 5 5 5 5 5 5 5 5 5 5 5 5 5 5 5 5 5 5 3 5 5 5 5 5 5 3 5 3 5 5 5 5 5 3 5 5 3 5 5 5 3 5 5 5 3 5 5 5 5 5 5 5 5 5 5 5 5 5 5 3 5 5 5 5 3 3 5 5 5 5 5 5 5 5 5 5 5 5 5 5 5 5 5 5 5 3 5 5 5 5 5 5 5 5 3 5 3 5 5 5 5 5 5 5 3 5 3 5 5 5 5 5 3 5 5 5 5 5 5 3 5 5 5 5 5 3 3 5 5 5 3 3 3 5 5 5 5 5 3 5 5 5 5 5 3 5 5 5 5 3 5 3 3 5 3 3 5 5 5 3 5 5 5 3 5 5 5 3 5 5 5 3 5 5 5 5 5 5 5 5 3 5 5 5 3 5 5 5 5 5 5 3 5 5 5 5 5 5 3 5 5 5 5 5 5 5 5 5 5 5 5 5 5 3 5 3 5 5 5 3 5 5 3 5 3 5 3 5 5 3 5 5 5 5 5 5 3 5 5 5 5 3 5 5 5 5 5 5 3 5 5 5 5 5 5 5 5 5 5 3 5 5 5 5 5 5 5 5 5 5 5 5 5 5 5 5 5 5 5 3 3 5 5 5 3 5 5 3 5 5 3 5 5 3 5 5 3 3 5 5 5 5 3 5 5 5 5 5 5 5 5 5 5 5 3 3 5 5 5 3 5 3 5 3 5 5 5 5 5 3 5 5 3 5 3 5 5 3 3 3 5 5 5 5 3 5 5 3 5 3 5 5 3 5 5 5 5 5 5 5 5 3 5 3 3 5 5 5 5 5 3 3 5 5 5 3 3 5 5 5 5 5 5 5 5 3 5 3 5 5 5 5 5 5 5 5 5 5 5 5 5 5 5 5 5 5 5 5 5 5 5 5 5 5 5 5 5 3 5 5 5 5 5 5 5 5 5 5 5 5 5 5 5 3 5 5 3 5 5 5 5 5 3 5 5 5 5 5 5 5 5 5 5 5 5 5 3 5 5 5 5 5 5 5 5 5 3 5 5 3 5 5 5 5 3 3 3 5 5 5 5 5 3 5 5 5 
</DataArray>
</Cells>
<PointData Scalars="" Vectors="displacement," Tensors="">
<DataArray type="Float64" Name="displacement" NumberOfComponents="3" format="ascii">
-7.64963095936246e-07 0.05355025849883658 0 5.1013818298994393e-07 0.054996930401207761 0 -2.4853795349124683e-07 0.054956282513897302 0 5.1013818298994393e-07 0.054996930401207761 0 -2.4853795349124683e-07 0.054956282513897302 0 -2.5308089028394406e-07 0.055001351691367828 0 -1.7465125540899385e-07 0.05354660511712727 0 5.7601565163193896e-06 0.054235154296270814 0 2.1834754430255988e-07 0.053542110592425182 0 0.00029565669604376987 0.052716873378514134 0 0.00027973109034685003 0.053250379479154203 0 2.1834754430255988e-07 0.053542110592425182 0 0.00029565669604376987 0.052716873378514134 0 1.6137713081935409e-06 0.051260029006190352 0 0.00029565669604376987 0.052716873378514134 0 0.00017931388714084612 0.053808750236643832 0 0.00024912779819269556 0.053425909104238715 0 0.00029565669604376987 0.052716873378514134 0 0.00027973109034685003 0.053250379479154203 0 0.00017931388714084612 0.053808750236643832 0 5.7601565163193896e-06 0.054235154296270814 0 2.6008501591809342e-07 0.05499870456500789 0 0.00027973109034685003 0.053250379479154203 0 1.8836072742388779e-06 0.054996283116601631 0 0.00017931388714084612 0.053808750236643832 0 1.8836072742388779e-06 0.054996283116601631 0 0.00017931388714084612 0.053808750236643832 0 0.0001786538040334679 0.054299193450580818 0 0.00017931388714084612 0.053808750236643832 0 0.0001786538040334679 0.054299193450580818 0 0.00024912779819269556 0.053425909104238715 0 0.00027833111199306471 0.053877267975779408 0 0.0001786538040334679 0.054299193450580818 0 0.00024912779819269556 0.053425909104238715 0 0.00027833111199306471 0.053877267975779408 0 0.0001786538040334679 0.054299193450580818 0 0.00013906544800982546 0.054328507050034128 0 0.0001786538040334679 0.054299193450580818 0 -4.799932531373476e-07 0.054999220390287595 0 0.00013906544800982546 0.054328507050034128 0 1.8836072742388779e-06 0.054996283116601631 0 0.0001786538040334679 0.054299193450580818 0 -4.799932531373476e-07 0.054999220390287595 0 0.00034834487290526369 0.053364073794290659 0 0.0011151156846001997 0.052458618170881585 0 0.00075367987680148964 0.053167085550370648 0 0.00027833111199306471 0.053877267975779408 0 0.00034834487290526369 0.053364073794290659 0 0.00024912779819269556 0.053425909104238715 0 0.00027833111199306471 0.053877267975779408 0 0.00034834487290526369 0.053364073794290659 0 0.00043878929743850322 0.053683244983233 0 0.00034834487290526369 0.053364073794290659 0 0.00024912779819269556 0.053425909104238715 0 -0.00040958230629513012 0.053056505742142247 0 0.00034834487290526369 0.053364073794290659 0 -0.00040958230629513012 0.053056505742142247 0 0.0011151156846001997 0.052458618170881585 0 0.00023705069658528662 0.050282899122925426 0 0.00034386329331396114 0.051136605258281932 0 0.00024912779819269556 0.053425909104238715 0 -0.00040958230629513012 0.053056505742142247 0 0.00027375981298583918 0.051919679502072352 0 0.00029565669604376987 0.052716873378514134 0 0.00024912779819269556 0.053425909104238715 0 0.00027375981298583918 0.051919679502072352 0 0.00029565669604376987 0.052716873378514134 0 0.00027375981298583918 0.051919679502072352 0 1.6137713081935409e-06 0.051260029006190352 0 0.00027375981298583918 0.051919679502072352 0 1.6137713081935409e-06 0.051260029006190352 0 -3.0455066279734326e-06 0.048978749176070056 0 0.00023705069658528662 0.050282899122925426 0 5.9085112269560481e-07 0.048974863530756377 0 0.0012984310242732402 0.047457190067970112 0 3.6583413230598249e-07 0.048968183556656872 0 0.00053087213141103987 0.047212149149898519 0 -0.00040958230629513012 0.053056505742142247 0 0.00027375981298583918 0.051919679502072352 0 -3.0455066279734326e-06 0.048978749176070056 0 3.6583413230598249e-07 0.048968183556656872 0 0.00053087213141103987 0.047212149149898519 0 1.3727115303615841e-06 0.045753061024918891 0 0.00053087213141103987 0.047212149149898519 0 1.3727115303615841e-06 0.045753061024918891 0 5.1686883250724715e-05 0.046852507969888678 0 1.3727115303615841e-06 0.045753061024918891 0 5.1686883250724715e-05 0.046852507969888678 0 -0.00012846811477265139 0.045149213828455055 0 0.0012984310242732402 0.047457190067970112 0 0.00053087213141103987 0.047212149149898519 0 5.1686883250724715e-05 0.046852507969888678 0 -2.408377471869834e-06 0.042528597560199846 0 -0.0010302296671455698 0.045821717033083 0 -0.00037164717576224245 0.040827875298702146 0 5.8931148616694135e-05 0.04326586999750312 0 2.9466361931849822e-05 0.042883486015833978 0 -2.408377471869834e-06 0.042528597560199846 0 -0.00012846811477265139 0.045149213828455055 0 -0.0010302296671455698 0.045821717033083 0 1.3727115303615841e-06 0.045753061024918891 0 -2.408377471869834e-06 0.042528597560199846 0 -0.00012846811477265139 0.045149213828455055 0 5.1686883250724715e-05 0.046852507969888678 0 -0.00012846811477265139 0.045149213828455055 0 -0.0010302296671455698 0.045821717033083 0 5.1686883250724715e-05 0.046852507969888678 0 -0.0010302296671455698 0.045821717033083 0 -0.0010004891285522594 0.048989023999219582 0 -0.00037095034698929054 0.037446156474558949 0 -0.00019336434918073865 0.038275459102912433 0 -0.00026430430537472988 0.03758001341456832 0 -0.00037095034698929054 0.037446156474558949 0 -0.00037164717576224245 0.040827875298702146 0 -0.00019336434918073865 0.038275459102912433 0 0.00032358116259655962 0.038039136706445154 0 -0.00026430430537472988 0.03758001341456832 0 -0.00037157597629766751 0.038002485198705346 0 -0.00037095034698929054 0.037446156474558949 0 0.00032358116259655962 0.038039136706445154 0 -0.00026430430537472988 0.03758001341456832 0 5.8931148616694135e-05 0.04326586999750312 0 0.00044675411850580695 0.044556774026316096 0 -0.00037095034698929054 0.037446156474558949 0 0.00032358116259655962 0.038039136706445154 0 0.0017779256573409786 0.037849978109011792 0 0.0016185693839872852 0.038791638986646775 0 0.0028778425471662271 0.038526481814307123 0 0.001773376876666398 0.040057099249474988 0 0.00032358116259655962 0.038039136706445154 0 0.0016185693839872852 0.038791638986646775 0 0.00084180182007179659 0.03943008468615454 0 0.00032358116259655962 0.038039136706445154 0 0.0016185693839872852 0.038791638986646775 0 0.0017779256573409786 0.037849978109011792 0 0.00032358116259655962 0.038039136706445154 0 -0.00027371747797008694 0.039277623044449504 0 0.00084180182007179659 0.03943008468615454 0 0.00032358116259655962 0.038039136706445154 0 -0.00027371747797008694 0.039277623044449504 0 -0.00037157597629766751 0.038002485198705346 0 0.0012984310242732402 0.047457190067970112 0 0.00022503835433912369 0.049556999851404993 0 0.0011151156846001997 0.052458618170881585 0 0.0012984310242732402 0.047457190067970112 0 5.1686883250724715e-05 0.046852507969888678 0 0.00022503835433912369 0.049556999851404993 0 0.00022503835433912369 0.049556999851404993 0 -0.0010004891285522594 0.048989023999219582 0 -0.00061861432153818732 0.050876988084472503 0 5.1686883250724715e-05 0.046852507969888678 0 0.00022503835433912369 0.049556999851404993 0 -0.0010004891285522594 0.048989023999219582 0 0.0016185693839872852 0.038791638986646775 0 0.0017779256573409786 0.037849978109011792 0 0.0028778425471662271 0.038526481814307123 0 0.00044675411850580695 0.044556774026316096 0 0.00067957252192705824 0.045493618144726383 0 0.00067957252192705824 0.045493618144726383 0 0.0011552804692588697 0.046429703304758457 0 0.00022503835433912369 0.049556999851404993 0 0.00051491489734441221 0.052684421059573452 0 0.0011151156846001997 0.052458618170881585 0 0.00022503835433912369 0.049556999851404993 0 -0.00061861432153818732 0.050876988084472503 0 0.00051491489734441221 0.052684421059573452 0 0.00051491489734441221 0.052684421059573452 0 0.0011151156846001997 0.052458618170881585 0 0.0009038475294808558 0.052966456281743707 0 0.0009038475294808558 0.052966456281743707 0 0.0008616676925777317 0.052941453969610378 0 0.00091460202841741971 0.053141580071814097 0 0.00051491489734441221 0.052684421059573452 0 0.0009038475294808558 0.052966456281743707 0 0.0008616676925777317 0.052941453969610378 0 0.0028778425471662271 0.038526481814307123 0 0.0033796528990963216 0.041333533460187873 0 0.001773376876666398 0.040057099249474988 0 0.00037059950706302703 0.052594278293711695 0 0.00051491489734441221 0.052684421059573452 0 0.0008616676925777317 0.052941453969610378 0 0.00037059950706302703 0.052594278293711695 0 0.0008616676925777317 0.052941453969610378 0 0.0011446439394445852 0.053042695543033064 0 0.00067957252192705824 0.045493618144726383 0 0.001658610172147952 0.047126068353871814 0 0.0008616676925777317 0.052941453969610378 0 0.0011446439394445852 0.053042695543033064 0 0.0010605545432386891 0.052988269111997083 0 0.0011446439394445852 0.053042695543033064 0 0.0010605545432386891 0.052988269111997083 0 0.0012383000788395676 0.052759427313672377 0 0.0010605545432386891 0.052988269111997083 0 0.0012383000788395676 0.052759427313672377 0 0.00091460202841741971 0.053141580071814097 0 0.0008616676925777317 0.052941453969610378 0 0.0010605545432386891 0.052988269111997083 0 0.00091460202841741971 0.053141580071814097 0 -0.00027371747797008694 0.039277623044449504 0 0.00053695094176344675 0.04036719439648348 0 -0.00039975264753211237 0.041138625937504225 0 -0.00027371747797008694 0.039277623044449504 0 0.00053695094176344675 0.04036719439648348 0 0.00084180182007179659 0.03943008468615454 0 0.00053695094176344675 0.04036719439648348 0 0.00084180182007179659 0.03943008468615454 0 0.001773376876666398 0.040057099249474988 0 0.0016185693839872852 0.038791638986646775 0 0.00084180182007179659 0.03943008468615454 0 0.001773376876666398 0.040057099249474988 0 0.0033796528990963216 0.041333533460187873 0 0.00091580356889929895 0.04217621625267607 0 0.0016432078846229661 0.044300768159691431 0 0.00053695094176344675 0.04036719439648348 0 0.001773376876666398 0.040057099249474988 0 0.00091580356889929895 0.04217621625267607 0 0.0033796528990963216 0.041333533460187873 0 0.001773376876666398 0.040057099249474988 0 0.00091580356889929895 0.04217621625267607 0 0.00053695094176344675 0.04036719439648348 0 0.00091580356889929895 0.04217621625267607 0 -0.00039975264753211237 0.041138625937504225 0 0.00091580356889929895 0.04217621625267607 0 -0.00039975264753211237 0.041138625937504225 0 -0.00057730149775788732 0.042805711519595092 0 -0.00020678860990473694 0.044346682578654005 0 -0.00057730149775788732 0.042805711519595092 0 -0.0016083828308852423 0.043977818890006654 0 0.00091580356889929895 0.04217621625267607 0 -0.00020678860990473694 0.044346682578654005 0 -0.00057730149775788732 0.042805711519595092 0 0.00091580356889929895 0.04217621625267607 0 -0.00020678860990473694 0.044346682578654005 0 0.0016432078846229661 0.044300768159691431 0 0.0016432078846229661 0.044300768159691431 0 0.0036152679430367057 0.045436444494772306 0 0.0015857965983959068 0.047456874305485515 0 0.0016432078846229661 0.044300768159691431 0 -0.00035407570396846786 0.047275988467809095 0 0.0015857965983959068 0.047456874305485515 0 -0.00020678860990473694 0.044346682578654005 0 0.0016432078846229661 0.044300768159691431 0 -0.00035407570396846786 0.047275988467809095 0 -0.00020678860990473694 0.044346682578654005 0 -0.00035407570396846786 0.047275988467809095 0 -0.0015795932370985255 0.045686343935905885 0 0.0011446439394445852 0.053042695543033064 0 0.0012383000788395676 0.052759427313672377 0 0.0020785167972870952 0.052368491663001109 0 0.0033796528990963216 0.041333533460187873 0 0.0016432078846229661 0.044300768159691431 0 0.0036152679430367057 0.045436444494772306 0 0.001658610172147952 0.047126068353871814 0 0.0021598318835740569 0.048581165440654564 0 0.0020785167972870952 0.052368491663001109 0 0.0015047985851137202 0.05208352834266048 0 0.0019398966755626134 0.051080152723620056 0 0.0015047985851137202 0.05208352834266048 0 0.00099539885960384317 0.052274382151927846 0 0.00146410649692157 0.051480784869700084 0 0.0012383000788395676 0.052759427313672377 0 0.0015047985851137202 0.05208352834266048 0 0.00099539885960384317 0.052274382151927846 0 0.0012383000788395676 0.052759427313672377 0 0.0020785167972870952 0.052368491663001109 0 0.0015047985851137202 0.05208352834266048 0 0.00099539885960384317 0.052274382151927846 0 0.00077936242772587731 0.053061903681146778 0 0.00047384613313284225 0.052661168825254075 0 0.0012383000788395676 0.052759427313672377 0 0.00099539885960384317 0.052274382151927846 0 0.00077936242772587731 0.053061903681146778 0 0.00077936242772587731 0.053061903681146778 0 0.00047384613313284225 0.052661168825254075 0 0.00031278038956845299 0.053315111519467287 0 0.00099539885960384317 0.052274382151927846 0 0.00047384613313284225 0.052661168825254075 0 0.00054679309632605483 0.051962896199855294 0 0.00047384613313284225 0.052661168825254075 0 -2.6963608282551318e-05 0.052299004430980234 0 0.00054679309632605483 0.051962896199855294 0 -2.6963608282551318e-05 0.052299004430980234 0 -0.00071481726764690212 0.052877283105761577 0 6.7891413680791626e-05 0.052964385784940365 0 0.00047384613313284225 0.052661168825254075 0 -2.6963608282551318e-05 0.052299004430980234 0 6.7891413680791626e-05 0.052964385784940365 0 -1.6148885838146297e-05 0.054120969940575005 0 0.0001714274952244844 0.054562970156133823 0 -3.1770076518781575e-05 0.055052646815568991 0 2.3712486143956571e-09 0.054999037720222202 0 -5.8247651989933008e-08 0.055000637431260477 0 -3.1770076518781575e-05 0.055052646815568991 0 1.2226925906296376e-05 0.054995160837669199 0 -5.8247651989933008e-08 0.055000637431260477 0 -2.6963608282551318e-05 0.052299004430980234 0 -0.00071481726764690212 0.052877283105761577 0 -0.00078415935529994711 0.051878492286758227 0 -1.6148885838146297e-05 0.054120969940575005 0 -5.3144972566255434e-05 0.054160777007251214 0 -0.00071481726764690212 0.052877283105761577 0 6.7891413680791626e-05 0.052964385784940365 0 5.678739364235403e-07 0.053631877936000383 0 -3.1770076518781575e-05 0.055052646815568991 0 2.3712486143956571e-09 0.054999037720222202 0 -0.00017497637994361032 0.054579861960132148 0 -0.00071481726764690212 0.052877283105761577 0 5.678739364235403e-07 0.053631877936000383 0 -0.00017497637994361032 0.054579861960132148 0 0.00047384613313284225 0.052661168825254075 0 6.7891413680791626e-05 0.052964385784940365 0 0.00031278038956845299 0.053315111519467287 0 6.7891413680791626e-05 0.052964385784940365 0 5.678739364235403e-07 0.053631877936000383 0 0.00031278038956845299 0.053315111519467287 0 0.00031278038956845299 0.053315111519467287 0 0.00021121936237925853 0.05399740668462618 0 0.00051668210747979034 0.053512861926040767 0 5.678739364235403e-07 0.053631877936000383 0 0.00021121936237925853 0.05399740668462618 0 -0.00017497637994361032 0.054579861960132148 0 5.678739364235403e-07 0.053631877936000383 0 0.00031278038956845299 0.053315111519467287 0 0.00021121936237925853 0.05399740668462618 0 0.00021121936237925853 0.05399740668462618 0 -0.00017497637994361032 0.054579861960132148 0 2.2501177460620519e-05 0.054492806902370204 0 2.3712486143956571e-09 0.054999037720222202 0 -0.00017497637994361032 0.054579861960132148 0 -4.799932531373476e-07 0.054999220390287595 0 -0.00017497637994361032 0.054579861960132148 0 2.2501177460620519e-05 0.054492806902370204 0 -4.799932531373476e-07 0.054999220390287595 0 2.2501177460620519e-05 0.054492806902370204 0 -4.799932531373476e-07 0.054999220390287595 0 0.00013906544800982546 0.054328507050034128 0 0.00027833111199306471 0.053877267975779408 0 0.00013906544800982546 0.054328507050034128 0 0.00043878929743850322 0.053683244983233 0 0.00021121936237925853 0.05399740668462618 0 0.00013906544800982546 0.054328507050034128 0 0.00043878929743850322 0.053683244983233 0 0.00021121936237925853 0.05399740668462618 0 2.2501177460620519e-05 0.054492806902370204 0 0.00013906544800982546 0.054328507050034128 0 0.00034834487290526369 0.053364073794290659 0 0.00043878929743850322 0.053683244983233 0 0.00075367987680148964 0.053167085550370648 0 0.00043878929743850322 0.053683244983233 0 0.00071388475478321501 0.053339573078834232 0 0.00051668210747979034 0.053512861926040767 0 0.00043878929743850322 0.053683244983233 0 0.00075367987680148964 0.053167085550370648 0 0.00071388475478321501 0.053339573078834232 0 0.0011151156846001997 0.052458618170881585 0 0.0009038475294808558 0.052966456281743707 0 0.00075367987680148964 0.053167085550370648 0 0.0009038475294808558 0.052966456281743707 0 0.00075367987680148964 0.053167085550370648 0 0.00091460202841741971 0.053141580071814097 0 0.00075367987680148964 0.053167085550370648 0 0.00071388475478321501 0.053339573078834232 0 0.00091460202841741971 0.053141580071814097 0 0.0012383000788395676 0.052759427313672377 0 0.00077936242772587731 0.053061903681146778 0 0.00091460202841741971 0.053141580071814097 0 0.00077936242772587731 0.053061903681146778 0 0.00071388475478321501 0.053339573078834232 0 0.00091460202841741971 0.053141580071814097 0 0.00077936242772587731 0.053061903681146778 0 0.00071388475478321501 0.053339573078834232 0 0.00051668210747979034 0.053512861926040767 0 0.00077936242772587731 0.053061903681146778 0 0.00031278038956845299 0.053315111519467287 0 0.00051668210747979034 0.053512861926040767 0 0.00021121936237925853 0.05399740668462618 0 0.00043878929743850322 0.053683244983233 0 0.00051668210747979034 0.053512861926040767 0 0.00018004842453014599 0.031494000781129704 0 0.00025553787642705692 0.03239162902699514 0 -0.00025757042411876912 0.03217423802005933 0 0.00018004842453014599 0.031494000781129704 0 0.00054150866858526626 0.032293940489836415 0 0.00025553787642705692 0.03239162902699514 0 0.00018004842453014599 0.031494000781129704 0 -0.00025757042411876912 0.03217423802005933 0 -0.00029200425659571061 0.031227258796431207 0 0.00018004842453014599 0.031494000781129704 0 0.00054150866858526626 0.032293940489836415 0 0.00054795014967445432 0.031500450026237914 0 0.00054150866858526626 0.032293940489836415 0 0.00054795014967445432 0.031500450026237914 0 0.00067397574262206123 0.032649425434719243 0 0.00054795014967445432 0.031500450026237914 0 0.00017145528404805441 0.029269535490619947 0 -7.9591640819250722e-05 0.030292359628196316 0 0.00018004842453014599 0.031494000781129704 0 0.00054795014967445432 0.031500450026237914 0 -7.9591640819250722e-05 0.030292359628196316 0 0.00018004842453014599 0.031494000781129704 0 -7.9591640819250722e-05 0.030292359628196316 0 -0.00029200425659571061 0.031227258796431207 0 0.00017145528404805441 0.029269535490619947 0 5.8065942341934334e-07 0.029640211655446783 0 4.2910275418467074e-07 0.026416618424478622 0 0.00017145528404805441 0.029269535490619947 0 5.8065942341934334e-07 0.029640211655446783 0 0.00036888948105290195 0.031376192042725591 0 0.00054795014967445432 0.031500450026237914 0 0.00017145528404805441 0.029269535490619947 0 0.00036888948105290195 0.031376192042725591 0 0.00054795014967445432 0.031500450026237914 0 0.00036888948105290195 0.031376192042725591 0 0.0005150173256350544 0.033024282120203655 0 0.00036888948105290195 0.031376192042725591 0 8.7914299731317486e-07 0.032862047384138074 0 0.0005150173256350544 0.033024282120203655 0 5.8065942341934334e-07 0.029640211655446783 0 0.00036888948105290195 0.031376192042725591 0 8.7914299731317486e-07 0.032862047384138074 0 8.7914299731317486e-07 0.032862047384138074 0 0.0005150173256350544 0.033024282120203655 0 0.00011611394193361798 0.035066660656161333 0 0.0005150173256350544 0.033024282120203655 0 0.00067397574262206123 0.032649425434719243 0 0.00021756034421244893 0.033979301830491783 0 0.00054795014967445432 0.031500450026237914 0 0.0005150173256350544 0.033024282120203655 0 0.00067397574262206123 0.032649425434719243 0 0.00054150866858526626 0.032293940489836415 0 0.00067397574262206123 0.032649425434719243 0 0.00062803820742833604 0.032510775474878059 0 0.00067397574262206123 0.032649425434719243 0 0.00021756034421244893 0.033979301830491783 0 0.00053824345409741157 0.032584100803783204 0 -0.0014593436880484308 0.031583991592794972 0 -0.0019921321364314622 0.031043782016599273 0 0.00021756034421244893 0.033979301830491783 0 -0.00096564193947892038 0.036038618584565203 0 -0.0009767991710678259 0.032990445968773652 0 -0.0020392982263195687 0.036250025287133107 0 -0.0023127810719497997 0.036476554184665749 0 0.00021756034421244893 0.033979301830491783 0 -0.00096564193947892038 0.036038618584565203 0 0.00011611394193361798 0.035066660656161333 0 0.0005150173256350544 0.033024282120203655 0 0.00021756034421244893 0.033979301830491783 0 0.00011611394193361798 0.035066660656161333 0 8.7914299731317486e-07 0.032862047384138074 0 0.00011611394193361798 0.035066660656161333 0 7.1824033422974037e-08 0.03608359465506867 0 0.00011611394193361798 0.035066660656161333 0 7.1824033422974037e-08 0.03608359465506867 0 -0.00011123651498891317 0.03705661675422206 0 7.1824033422974037e-08 0.03608359465506867 0 -1.7631455461896737e-07 0.039305222350242704 0 -0.00011123651498891317 0.03705661675422206 0 -0.00096564193947892038 0.036038618584565203 0 0.00011611394193361798 0.035066660656161333 0 -0.00011123651498891317 0.03705661675422206 0 -0.00096564193947892038 0.036038618584565203 0 -0.00024703450321251363 0.037471458426965559 0 -0.00011123651498891317 0.03705661675422206 0 -0.00024703450321251363 0.037471458426965559 0 -0.00011123651498891317 0.03705661675422206 0 -4.7435147263877324e-05 0.038621004890993883 0 -1.7631455461896737e-07 0.039305222350242704 0 -0.00011123651498891317 0.03705661675422206 0 -4.7435147263877324e-05 0.038621004890993883 0 -1.7631455461896737e-07 0.039305222350242704 0 -0.00037164717576224245 0.040827875298702146 0 -4.7435147263877324e-05 0.038621004890993883 0 -2.408377471869834e-06 0.042528597560199846 0 -1.7631455461896737e-07 0.039305222350242704 0 -0.00037164717576224245 0.040827875298702146 0 -0.00037164717576224245 0.040827875298702146 0 -4.7435147263877324e-05 0.038621004890993883 0 -0.00019336434918073865 0.038275459102912433 0 -0.00024703450321251363 0.037471458426965559 0 -0.00019336434918073865 0.038275459102912433 0 -0.00026430430537472988 0.03758001341456832 0 -0.00024703450321251363 0.037471458426965559 0 -4.7435147263877324e-05 0.038621004890993883 0 -0.00019336434918073865 0.038275459102912433 0 -0.00026430430537472988 0.03758001341456832 0 -0.00054905966396112877 0.03722578965321012 0 -0.00037157597629766751 0.038002485198705346 0 -0.00024703450321251363 0.037471458426965559 0 -0.00026430430537472988 0.03758001341456832 0 -0.00054905966396112877 0.03722578965321012 0 -0.00096564193947892038 0.036038618584565203 0 -0.00024703450321251363 0.037471458426965559 0 -0.00054905966396112877 0.03722578965321012 0 -0.00096564193947892038 0.036038618584565203 0 -0.00054905966396112877 0.03722578965321012 0 -0.0010875305296659447 0.038557368542219167 0 -0.00096564193947892038 0.036038618584565203 0 -0.0010875305296659447 0.038557368542219167 0 -0.0025227293410537157 0.039021026384712797 0 -0.00027371747797008694 0.039277623044449504 0 -0.0010875305296659447 0.038557368542219167 0 -0.00037157597629766751 0.038002485198705346 0 -0.00054905966396112877 0.03722578965321012 0 -0.0010875305296659447 0.038557368542219167 0 -0.00037157597629766751 0.038002485198705346 0 -0.00027371747797008694 0.039277623044449504 0 -0.00039975264753211237 0.041138625937504225 0 -0.0013336377454382178 0.040231286621337348 0 -0.00027371747797008694 0.039277623044449504 0 -0.0010875305296659447 0.038557368542219167 0 -0.0013336377454382178 0.040231286621337348 0 -0.0010875305296659447 0.038557368542219167 0 -0.0013336377454382178 0.040231286621337348 0 -0.0019149006297174279 0.040148856256802937 0 -0.0010875305296659447 0.038557368542219167 0 -0.0019149006297174279 0.040148856256802937 0 -0.0025227293410537157 0.039021026384712797 0 -0.0013336377454382178 0.040231286621337348 0 -0.0019149006297174279 0.040148856256802937 0 -0.0014584809035952508 0.040875642146186109 0 -0.002521608997892423 0.041489479200413425 0 -0.0031802686321555935 0.038245274775166253 0 -0.0019149006297174279 0.040148856256802937 0 -0.0014584809035952508 0.040875642146186109 0 -0.0027760538736917159 0.040870319480502598 0 -0.0013336377454382178 0.040231286621337348 0 -0.0027385730172102374 0.04237675525017532 0 -0.0018041821181569674 0.042476862588865266 0 -0.002521608997892423 0.041489479200413425 0 -0.0024817732226636788 0.041514848917669635 0 -0.00039975264753211237 0.041138625937504225 0 -0.0013336377454382178 0.040231286621337348 0 -0.0018041821181569674 0.042476862588865266 0 -0.0023829258459266045 0.041271639856955582 0 -0.002521608997892423 0.041489479200413425 0 -0.00039975264753211237 0.041138625937504225 0 -0.00057730149775788732 0.042805711519595092 0 -0.0018041821181569674 0.042476862588865266 0 -0.00057730149775788732 0.042805711519595092 0 -0.0018041821181569674 0.042476862588865266 0 -0.0016083828308852423 0.043977818890006654 0 -0.003239853901866591 0.042412501006024471 0 -0.0023755511864005678 0.043460782366979707 0 -0.0028850338287610333 0.044884518103938828 0 -0.0018041821181569674 0.042476862588865266 0 -0.0023755511864005678 0.043460782366979707 0 -0.0016083828308852423 0.043977818890006654 0 -0.003239853901866591 0.042412501006024471 0 -0.0018041821181569674 0.042476862588865266 0 -0.0023755511864005678 0.043460782366979707 0 -0.0028850338287610333 0.044884518103938828 0 -0.0016083828308852423 0.043977818890006654 0 -0.0015795932370985255 0.045686343935905885 0 -0.0023755511864005678 0.043460782366979707 0 -0.0028850338287610333 0.044884518103938828 0 -0.0016083828308852423 0.043977818890006654 0 -0.00020678860990473694 0.044346682578654005 0 -0.0016083828308852423 0.043977818890006654 0 -0.0015795932370985255 0.045686343935905885 0 -0.0028850338287610333 0.044884518103938828 0 -0.0015795932370985255 0.045686343935905885 0 -0.0023464977817544723 0.047197859581080845 0 -0.00035407570396846786 0.047275988467809095 0 -0.0015795932370985255 0.045686343935905885 0 -0.0023464977817544723 0.047197859581080845 0 -0.0028850338287610333 0.044884518103938828 0 -0.0023464977817544723 0.047197859581080845 0 -0.0046326036511034523 0.046592758695737306 0 -0.003239853901866591 0.042412501006024471 0 -0.0028850338287610333 0.044884518103938828 0 -0.0046326036511034523 0.046592758695737306 0 -0.0025846684873903551 0.043742367155973204 0 -0.0037230299520382248 0.047061430693724919 0 -0.0044205246148792321 0.045184931205856232 0 -0.0025846684873903551 0.043742367155973204 0 -0.0044205246148792321 0.045184931205856232 0 -0.0055018373952124867 0.043499990685268455 0 -0.002521608997892423 0.041489479200413425 0 -0.0040446036311542954 0.046357040923613577 0 -0.0044205246148792321 0.045184931205856232 0 -0.0058683633653035683 0.04642945689319608 0 -0.0055018373952124867 0.043499990685268455 0 -0.0044192960530117231 0.042807080315307784 0 -0.0031802686321555935 0.038245274775166253 0 -0.0037230299520382248 0.047061430693724919 0 -0.0044205246148792321 0.045184931205856232 0 -0.0058683633653035683 0.04642945689319608 0 -0.0037230299520382248 0.047061430693724919 0 -0.0058683633653035683 0.04642945689319608 0 -0.0051632561661185093 0.048275084181359874 0 -0.004412403235825515 0.039662975418466341 0 -0.006803004237047449 0.041540642953458926 0 -0.0077449775623162371 0.038128150783285304 0 -0.006803004237047449 0.041540642953458926 0 -0.0077449775623162371 0.038128150783285304 0 -0.0093537998855511197 0.041431730412500541 0 -0.004412403235825515 0.039662975418466341 0 -0.0077449775623162371 0.038128150783285304 0 -0.0038082132165449126 0.034937823833498922 0 -0.0077449775623162371 0.038128150783285304 0 -0.0038082132165449126 0.034937823833498922 0 -0.0084915480163458516 0.034540713555882618 0 -0.00071957390360321595 0.031268440193411171 0 9.770520224205199e-05 0.032353611255966148 0 0.00080004560462065431 0.031410067646371109 0 -0.0031802686321555935 0.038245274775166253 0 -0.0040735833505894893 0.034247250757791434 0 -0.0019149006297174279 0.040148856256802937 0 -0.0027760538736917159 0.040870319480502598 0 -0.0025227293410537157 0.039021026384712797 0 -0.0031802686321555935 0.038245274775166253 0 -0.0023127810719497997 0.036476554184665749 0 -0.00071957390360321595 0.031268440193411171 0 -0.0009767991710678259 0.032990445968773652 0 9.770520224205199e-05 0.032353611255966148 0 9.770520224205199e-05 0.032353611255966148 0 0.0012212294794819989 0.032733520772579676 0 0.00080004560462065431 0.031410067646371109 0 0.00021756034421244893 0.033979301830491783 0 -0.0009767991710678259 0.032990445968773652 0 9.770520224205199e-05 0.032353611255966148 0 0.00021756034421244893 0.033979301830491783 0 9.770520224205199e-05 0.032353611255966148 0 0.0012212294794819989 0.032733520772579676 0 0.00067397574262206123 0.032649425434719243 0 0.00053824345409741157 0.032584100803783204 0 0.00062803820742833604 0.032510775474878059 0 0.00053824345409741157 0.032584100803783204 0 0.00062803820742833604 0.032510775474878059 0 0.00065949615907306242 0.032648633090944464 0 -0.0019921321364314622 0.031043782016599273 0 -0.0052930487864936218 0.030834166168317776 0 0.00054150866858526626 0.032293940489836415 0 0.00062803820742833604 0.032510775474878059 0 0.00065949615907306242 0.032648633090944464 0 0.0012212294794819989 0.032733520772579676 0 0.0022646785424598223 0.03154007684860393 0 0.00080004560462065431 0.031410067646371109 0 -0.0052930487864936218 0.030834166168317776 0 -0.0040735833505894893 0.034247250757791434 0 -0.013170123552428361 0.034138519472083038 0 -0.0084915480163458516 0.034540713555882618 0 -0.011899798691112648 0.038235191861436875 0 -0.0077449775623162371 0.038128150783285304 0 -0.0084915480163458516 0.034540713555882618 0 -0.011899798691112648 0.038235191861436875 0 -0.0077449775623162371 0.038128150783285304 0 -0.0093537998855511197 0.041431730412500541 0 -0.011899798691112648 0.038235191861436875 0 -0.011899798691112648 0.038235191861436875 0 -0.016790070375561818 0.038122670023294357 0 -0.014453169402690466 0.042634516138421341 0 -0.0093537998855511197 0.041431730412500541 0 -0.011899798691112648 0.038235191861436875 0 -0.014453169402690466 0.042634516138421341 0 -0.013170123552428361 0.034138519472083038 0 -0.011899798691112648 0.038235191861436875 0 -0.016790070375561818 0.038122670023294357 0 -0.0052930487864936218 0.030834166168317776 0 -0.007257884459131933 0.026329194530430079 0 -0.007257884459131933 0.026329194530430079 0 -0.0099085468299986504 0.02672516007303645 0 -0.0095515484482374905 0.014425000225621492 0 -0.0080375856729262996 0.012705434971885246 0 -0.010677829117092703 0.012226772121374152 0 -0.0096646040637236967 0.014394445729630164 0 -0.0080375856729262996 0.012705434971885246 0 -0.0077244849295857523 0.014998428643262632 0 -0.007257884459131933 0.026329194530430079 0 -0.0053699932607586993 0.021444424471737486 0 -0.0096646040637236967 0.014394445729630164 0 -0.0077244849295857523 0.014998428643262632 0 -0.0082531292584899218 0.017417852376880493 0 -0.007257884459131933 0.026329194530430079 0 -0.0050894318326862092 0.026820560241252907 0 -0.0077244849295857523 0.014998428643262632 0 -0.0082531292584899218 0.017417852376880493 0 -0.0063898545962327215 0.017655062920559444 0 -0.0050894318326862092 0.026820560241252907 0 -0.0055273774812423567 0.026316987637935652 0 -0.0052930487864936218 0.030834166168317776 0 -0.0050894318326862092 0.026820560241252907 0 0.00065949615907306242 0.032648633090944464 0 0.000169698803047566 0.032699436605327731 0 0.00025553787642705692 0.03239162902699514 0 -0.0057210251090010367 0.028320501736138346 0 -0.005891821890967674 0.02850234221285845 0 -0.0060011554923738077 0.028292378668036081 0 0.00054150866858526626 0.032293940489836415 0 0.00065949615907306242 0.032648633090944464 0 0.00025553787642705692 0.03239162902699514 0 -0.0050894318326862092 0.026820560241252907 0 -0.0040457607277957844 0.026623846992864856 0 0.000169698803047566 0.032699436605327731 0 0.00025553787642705692 0.03239162902699514 0 -0.00025757042411876912 0.03217423802005933 0 -0.0078418604350682861 0.017545078147393013 0 -0.0062361144504034178 0.020168976525948724 0 -0.0063898545962327215 0.017655062920559444 0 -0.0085820174183760048 0.0074445836881346459 0 -0.0081591101026890853 0.0089867417373359106 0 -0.0073888440749873751 0.0076583611595910815 0 -0.0085820174183760048 0.0074445836881346459 0 -0.0098956190160481849 0.006886591390484329 0 -0.0087868352847674663 0.0061709378806612675 0 -0.0085820174183760048 0.0074445836881346459 0 -0.0098956190160481849 0.006886591390484329 0 -0.0097741352326243883 0.0086457975266137355 0 -0.0098956190160481849 0.006886591390484329 0 -0.0097741352326243883 0.0086457975266137355 0 -0.011109061501856476 0.0076930697430908149 0 -0.0097741352326243883 0.0086457975266137355 0 -0.0081591101026890853 0.0089867417373359106 0 -0.0091236944349753803 0.010587723760637706 0 -0.0085820174183760048 0.0074445836881346459 0 -0.0097741352326243883 0.0086457975266137355 0 -0.0081591101026890853 0.0089867417373359106 0 -0.0081591101026890853 0.0089867417373359106 0 -0.0091236944349753803 0.010587723760637706 0 -0.0073066680660887695 0.010592919855227293 0 -0.0080375856729262996 0.012705434971885246 0 -0.0091236944349753803 0.010587723760637706 0 -0.0073066680660887695 0.010592919855227293 0 -0.0080375856729262996 0.012705434971885246 0 -0.0091236944349753803 0.010587723760637706 0 -0.010677829117092703 0.012226772121374152 0 -0.0091236944349753803 0.010587723760637706 0 -0.011703044709402869 0.010085709750167399 0 -0.010677829117092703 0.012226772121374152 0 -0.0097741352326243883 0.0086457975266137355 0 -0.0091236944349753803 0.010587723760637706 0 -0.011703044709402869 0.010085709750167399 0 -0.010398497806545507 0.02801668991833944 0 -0.0099085468299986504 0.02672516007303645 0 -0.0093537998855511197 0.041431730412500541 0 -0.014453169402690466 0.042634516138421341 0 -0.010516084992862194 0.044263284226994631 0 -0.012092534061274232 0.047180719259756192 0 -0.014453169402690466 0.042634516138421341 0 -0.010516084992862194 0.044263284226994631 0 -0.0093537998855511197 0.041431730412500541 0 -0.010516084992862194 0.044263284226994631 0 -0.0078328884650814678 0.043738040384567023 0 -0.010516084992862194 0.044263284226994631 0 -0.008175125156137426 0.046373235278929885 0 -0.0078328884650814678 0.043738040384567023 0 -0.012092534061274232 0.047180719259756192 0 -0.0082532295950025585 0.049053109499458236 0 -0.008175125156137426 0.046373235278929885 0 -0.012092534061274232 0.047180719259756192 0 -0.010516084992862194 0.044263284226994631 0 -0.008175125156137426 0.046373235278929885 0 -0.012092534061274232 0.047180719259756192 0 -0.0096036651937080192 0.051694266822560293 0 -0.0082532295950025585 0.049053109499458236 0 -0.010398497806545507 0.02801668991833944 0 -0.0099243989077082186 0.029220318310179471 0 -0.0096036651937080192 0.051694266822560293 0 -0.00754171927837186 0.050925685156683741 0 -0.0082532295950025585 0.049053109499458236 0 -0.0097741352326243883 0.0086457975266137355 0 -0.011703044709402869 0.010085709750167399 0 -0.011109061501856476 0.0076930697430908149 0 -0.011703044709402869 0.010085709750167399 0 -0.011109061501856476 0.0076930697430908149 0 -0.012621517183043074 0.0080397259045540993 0 -0.011109061501856476 0.0076930697430908149 0 -0.012062419630629741 0.0068677445582164907 0 -0.0111008677189911 0.0061944548362876314 0 -0.0098956190160481849 0.006886591390484329 0 -0.011109061501856476 0.0076930697430908149 0 -0.0111008677189911 0.0061944548362876314 0 -0.012621517183043074 0.0080397259045540993 0 -0.013474740988888758 0.0061245499251650123 0 -0.012062419630629741 0.0068677445582164907 0 -0.011109061501856476 0.0076930697430908149 0 -0.012621517183043074 0.0080397259045540993 0 -0.012062419630629741 0.0068677445582164907 0 -0.0099243989077082186 0.029220318310179471 0 -0.0086558136682065162 0.030347390249879268 0 -0.0066017070786802438 0.053654407665605766 0 -0.0059539011124217292 0.052855443282828776 0 -0.0064173456689158581 0.051840350709461351 0 -0.0096036651937080192 0.051694266822560293 0 -0.0066017070786802438 0.053654407665605766 0 -0.0072847815726327907 0.055067619627206896 0 -0.0066017070786802438 0.053654407665605766 0 -0.0057051566213270092 0.04920733978195458 0 -0.00754171927837186 0.050925685156683741 0 -0.0096036651937080192 0.051694266822560293 0 -0.0066017070786802438 0.053654407665605766 0 -0.00754171927837186 0.050925685156683741 0 -0.0060368421209086058 0.051322732329891332 0 -0.0057838147774345152 0.04976318754399401 0 -0.0066017070786802438 0.053654407665605766 0 -0.0055665885828381258 0.053938348236302683 0 -0.0059539011124217292 0.052855443282828776 0 -0.0059539011124217292 0.052855443282828776 0 -0.0042949554477247232 0.052964301311420527 0 -0.0047409638390786511 0.05375916031750759 0 -0.0055665885828381258 0.053938348236302683 0 -0.0059539011124217292 0.052855443282828776 0 -0.0047409638390786511 0.05375916031750759 0 -0.0055665885828381258 0.053938348236302683 0 -0.0047409638390786511 0.05375916031750759 0 -0.0047404035345365563 0.054455235256100555 0 -0.0059539011124217292 0.052855443282828776 0 -0.0064173456689158581 0.051840350709461351 0 -0.0049009409590776761 0.05025320957165344 0 -0.0059539011124217292 0.052855443282828776 0 -0.0055297442825026156 0.050380131497744431 0 -0.0048340090608810548 0.052011166831915166 0 -0.0055403145433405394 0.051165024637709777 0 -0.0050626953508928025 0.049634696171802987 0 -0.0059539011124217292 0.052855443282828776 0 -0.0048340090608810548 0.052011166831915166 0 -0.0042949554477247232 0.052964301311420527 0 -0.0057051566213270092 0.04920733978195458 0 -0.00754171927837186 0.050925685156683741 0 -0.0082532295950025585 0.049053109499458236 0 -0.0057051566213270092 0.04920733978195458 0 -0.0082532295950025585 0.049053109499458236 0 -0.008175125156137426 0.046373235278929885 0 -0.0057838147774345152 0.04976318754399401 0 -0.0052258449920013147 0.04659968101405125 0 -0.0057051566213270092 0.04920733978195458 0 -0.008175125156137426 0.046373235278929885 0 -0.0050225410758061194 0.044420112191555179 0 -0.004412403235825515 0.039662975418466341 0 -0.006803004237047449 0.041540642953458926 0 -0.0050225410758061194 0.044420112191555179 0 -0.008175125156137426 0.046373235278929885 0 -0.0078328884650814678 0.043738040384567023 0 -0.0050225410758061194 0.044420112191555179 0 -0.006803004237047449 0.041540642953458926 0 -0.0078328884650814678 0.043738040384567023 0 -0.0050225410758061194 0.044420112191555179 0 -0.006803004237047449 0.041540642953458926 0 -0.0093537998855511197 0.041431730412500541 0 -0.0078328884650814678 0.043738040384567023 0 -0.0058683633653035683 0.04642945689319608 0 -0.0051632561661185093 0.048275084181359874 0 -0.0061819798059457231 0.049305783311408224 0 -0.0051632561661185093 0.048275084181359874 0 -0.0061819798059457231 0.049305783311408224 0 -0.0049009409590776761 0.05025320957165344 0 -0.0044192960530117231 0.042807080315307784 0 -0.0052258449920013147 0.04659968101405125 0 -0.0037230299520382248 0.047061430693724919 0 -0.0051632561661185093 0.048275084181359874 0 -0.0049009409590776761 0.05025320957165344 0 -0.0064173456689158581 0.051840350709461351 0 -0.0061819798059457231 0.049305783311408224 0 -0.0049009409590776761 0.05025320957165344 0 -0.0055297442825026156 0.050380131497744431 0 -0.0034419430286503614 0.049099513310628284 0 -0.0034889846705186286 0.051736703663824921 0 -0.0055297442825026156 0.050380131497744431 0 -0.0034889846705186286 0.051736703663824921 0 -0.0048340090608810548 0.052011166831915166 0 -0.0023464977817544723 0.047197859581080845 0 -0.0046326036511034523 0.046592758695737306 0 -0.0034419430286503614 0.049099513310628284 0 -0.0046326036511034523 0.046592758695737306 0 -0.0055297442825026156 0.050380131497744431 0 -0.0034419430286503614 0.049099513310628284 0 -0.0040446036311542954 0.046357040923613577 0 -0.0050626953508928025 0.049634696171802987 0 -0.00035407570396846786 0.047275988467809095 0 -0.0023464977817544723 0.047197859581080845 0 -0.0013019878889362236 0.049438975150199425 0 -0.0023464977817544723 0.047197859581080845 0 -0.0034419430286503614 0.049099513310628284 0 -0.0013019878889362236 0.049438975150199425 0 -0.0034419430286503614 0.049099513310628284 0 -0.0013019878889362236 0.049438975150199425 0 -0.0034889846705186286 0.051736703663824921 0 -0.0013019878889362236 0.049438975150199425 0 -0.0034889846705186286 0.051736703663824921 0 -7.8053833452287837e-05 0.051634470149465622 0 -0.0034889846705186286 0.051736703663824921 0 -0.0042949554477247232 0.052964301311420527 0 -0.0025703741718678865 0.053518191401886447 0 -0.0034889846705186286 0.051736703663824921 0 -0.0025703741718678865 0.053518191401886447 0 -0.0019594699342182199 0.052413184581699523 0 -0.0021853281461038008 0.052259709582890945 0 -0.0012703295807565686 0.052371040886553782 0 -0.0034889846705186286 0.051736703663824921 0 -0.0048340090608810548 0.052011166831915166 0 -0.0042949554477247232 0.052964301311420527 0 -0.0042949554477247232 0.052964301311420527 0 -0.0038292672774033498 0.053865141131346259 0 -0.0025703741718678865 0.053518191401886447 0 -0.0042949554477247232 0.052964301311420527 0 -0.0047409638390786511 0.05375916031750759 0 -0.0038292672774033498 0.053865141131346259 0 -0.0047409638390786511 0.05375916031750759 0 -0.0038292672774033498 0.053865141131346259 0 -0.0041238903310580532 0.054443779823845517 0 -0.0038292672774033498 0.053865141131346259 0 -0.0025703741718678865 0.053518191401886447 0 -0.0035117683634240285 0.054553958696097159 0 -0.0025703741718678865 0.053518191401886447 0 -0.0030953028263949619 0.055360935492374148 0 -0.0035117683634240285 0.054553958696097159 0 -0.0025703741718678865 0.053518191401886447 0 -0.0028221878440855938 0.054989577619498554 0 -0.0021723795595166226 0.054268581463991598 0 -0.0027939305203273611 0.054092979549951133 0 -0.0028529676590652578 0.054232949236755715 0 -0.0030953028263949619 0.055360935492374148 0 -0.0035809141416638384 0.055196092708126983 0 -0.0035117683634240285 0.054553958696097159 0 -0.0028221878440855938 0.054989577619498554 0 -0.0023825103060922535 0.055034335626235976 0 -0.0021723795595166226 0.054268581463991598 0 -0.0038292672774033498 0.053865141131346259 0 -0.0035117683634240285 0.054553958696097159 0 -0.0041238903310580532 0.054443779823845517 0 -0.0035117683634240285 0.054553958696097159 0 -0.0041238903310580532 0.054443779823845517 0 -0.0039125178024175542 0.054939375497273069 0 -0.0047409638390786511 0.05375916031750759 0 -0.0041238903310580532 0.054443779823845517 0 -0.0047404035345365563 0.054455235256100555 0 -0.0041238903310580532 0.054443779823845517 0 -0.0047404035345365563 0.054455235256100555 0 -0.0045180976712928863 0.055092409366674047 0 -0.0047404035345365563 0.054455235256100555 0 -0.0045180976712928863 0.055092409366674047 0 -0.0051893344142391684 0.05482259367624804 0 -0.0041238903310580532 0.054443779823845517 0 -0.0045180976712928863 0.055092409366674047 0 -0.0039125178024175542 0.054939375497273069 0 -0.0035809141416638384 0.055196092708126983 0 -0.0035117683634240285 0.054553958696097159 0 -0.0039125178024175542 0.054939375497273069 0 -0.0045180976712928863 0.055092409366674047 0 -0.0039125178024175542 0.054939375497273069 0 -0.0040932058699565252 0.055372123902660712 0 -0.0035809141416638384 0.055196092708126983 0 -0.0039125178024175542 0.054939375497273069 0 -0.0040932058699565252 0.055372123902660712 0 -0.0035809141416638384 0.055196092708126983 0 -0.0040932058699565252 0.055372123902660712 0 -0.0038335564447133253 0.055911476893319163 0 -0.0038335564447133253 0.055911476893319163 0 -0.0043122355912589769 0.056480354290024459 0 -0.0035782910042716255 0.057328288038760444 0 -0.0040932058699565252 0.055372123902660712 0 -0.0038335564447133253 0.055911476893319163 0 -0.0044021571086992834 0.055735786682191146 0 -0.0044021571086992834 0.055735786682191146 0 -0.0049257858138632747 0.056246028726412475 0 -0.0051226973528749392 0.055470555265704512 0 -0.0045180976712928863 0.055092409366674047 0 -0.0040932058699565252 0.055372123902660712 0 -0.0044021571086992834 0.055735786682191146 0 -0.0045180976712928863 0.055092409366674047 0 -0.0044021571086992834 0.055735786682191146 0 -0.0051226973528749392 0.055470555265704512 0 -0.0044021571086992834 0.055735786682191146 0 -0.0043122355912589769 0.056480354290024459 0 -0.0049257858138632747 0.056246028726412475 0 -0.0043122355912589769 0.056480354290024459 0 -0.004679223083693439 0.056938629209138107 0 -0.0049257858138632747 0.056246028726412475 0 -0.0038335564447133253 0.055911476893319163 0 -0.0044021571086992834 0.055735786682191146 0 -0.0043122355912589769 0.056480354290024459 0 -0.0027832553250566614 0.055211008419546147 0 -0.0030522033041170101 0.056058771921734057 0 -0.0021079208429886421 0.055579998110657863 0 -0.0028529676590652578 0.054232949236755715 0 -0.0022851860510975288 0.051358256994513664 0 -0.0016030758143362664 0.053945640713135561 0 -0.0014120154667942558 0.053778345170628392 0 -0.0027832553250566614 0.055211008419546147 0 -0.0023825103060922535 0.055034335626235976 0 -0.001944460581186345 0.055673137235787588 0 -0.0030953028263949619 0.055360935492374148 0 -0.0038335564447133253 0.055911476893319163 0 -0.0035782910042716255 0.057328288038760444 0 -0.0028221878440855938 0.054989577619498554 0 -0.0027832553250566614 0.055211008419546147 0 -0.0030522033041170101 0.056058771921734057 0 -0.0030953028263949619 0.055360935492374148 0 -0.0035809141416638384 0.055196092708126983 0 -0.0038335564447133253 0.055911476893319163 0 -0.0028221878440855938 0.054989577619498554 0 -0.0027832553250566614 0.055211008419546147 0 -0.0023825103060922535 0.055034335626235976 0 -0.0022851860510975288 0.051358256994513664 0 -0.0014120154667942558 0.053778345170628392 0 8.0374646033811543e-05 0.054329871240455102 0 0.00010284846709688801 0.054313324633648408 0 0.00010108200806446197 0.054344159427809763 0 8.0374646033811543e-05 0.054329871240455102 0 9.1121730214285384e-05 0.054345428463774312 0 0.00010108200806446197 0.054344159427809763 0 8.0374646033811543e-05 0.054329871240455102 0 9.1121730214285384e-05 0.054345428463774312 0 9.4685169308734708e-05 0.05435034063944965 0 9.1121730214285384e-05 0.054345428463774312 0 9.3789945428927277e-05 0.054353938473308834 0 9.4685169308734708e-05 0.05435034063944965 0 9.1121730214285384e-05 0.054345428463774312 0 0.00010108200806446197 0.054344159427809763 0 9.3789945428927277e-05 0.054353938473308834 0 0.0025127582936323761 0.04227627172375157 0 0.00051502597644471936 0.044238925167906451 0 0.0019297873461253533 0.044946134394912192 0 0.0025127582936323761 0.04227627172375157 0 0.00010639166472948534 0.043466792954945183 0 0.00051502597644471936 0.044238925167906451 0 -0.0022851860510975288 0.051358256994513664 0 -0.00058963112062977458 0.050183697013581843 0 -0.0035782910042716255 0.057328288038760444 0 -0.004679223083693439 0.056938629209138107 0 -0.0051730561318034446 0.058085541523308172 0 -0.0022851860510975288 0.051358256994513664 0 -0.00095306802016510597 0.044508101254924957 0 -0.0043122355912589769 0.056480354290024459 0 -0.0035782910042716255 0.057328288038760444 0 -0.004679223083693439 0.056938629209138107 0 -0.004679223083693439 0.056938629209138107 0 -0.0052799633391716451 0.05680070626655976 0 -0.0049257858138632747 0.056246028726412475 0 -0.004679223083693439 0.056938629209138107 0 -0.0052799633391716451 0.05680070626655976 0 -0.0051730561318034446 0.058085541523308172 0 -0.0053682431916837314 0.033320728515497215 0 -0.00095306802016510597 0.044508101254924957 0 -0.00095756915147474672 0.040223926479321478 0 0.00046934085443012523 0.042935081566317534 0 -0.0012093174295690927 0.042095882826593045 0 -0.0052799633391716451 0.05680070626655976 0 -0.0059653594053823301 0.056618253920037644 0 -0.0051730561318034446 0.058085541523308172 0 0.00046934085443012523 0.042935081566317534 0 -0.0017559883725792214 0.043022450266964371 0 -0.0012093174295690927 0.042095882826593045 0 -0.00095306802016510597 0.044508101254924957 0 -0.0016997007635200401 0.044662265915953771 0 8.4313106790199788e-05 0.04341583634544055 0 -0.00056563633385665717 0.044505611919098867 0 -0.0019628321561687987 0.044405006968346136 0 -0.00095306802016510597 0.044508101254924957 0 -0.00091842439388671257 0.044503871575512756 0 -0.00056563633385665717 0.044505611919098867 0 0.00051502597644471936 0.044238925167906451 0 -0.00012239064471552717 0.045234665878112174 0 8.4313106790199788e-05 0.04341583634544055 0 -0.00056563633385665717 0.044505611919098867 0 0.00051502597644471936 0.044238925167906451 0 -0.0018249495709369336 0.044098750770271651 0 -0.0028239618145564195 0.043035069406027922 0 -0.0040597671947233344 0.045325051729231548 0 0.00046934085443012523 0.042935081566317534 0 -0.0018249495709369336 0.044098750770271651 0 -0.0017559883725792214 0.043022450266964371 0 -0.0017559883725792214 0.043022450266964371 0 -0.0028239618145564195 0.043035069406027922 0 -0.0012093174295690927 0.042095882826593045 0 -0.0018249495709369336 0.044098750770271651 0 -0.0017559883725792214 0.043022450266964371 0 -0.0028239618145564195 0.043035069406027922 0 -0.01437594397321729 0.0043099163673320133 0 -0.013205806242939924 0.0026075308610388967 0 -0.013347255581419802 0.0037541532348112383 0 -0.0053682431916837314 0.033320728515497215 0 -0.0055675794291959683 0.026473049506528037 0 -0.013205806242939924 0.0026075308610388967 0 -0.013347255581419802 0.0037541532348112383 0 -0.012814396208357358 0.0032072022681563016 0 -0.00095756915147474672 0.040223926479321478 0 -0.0028239618145564195 0.043035069406027922 0 -0.0012093174295690927 0.042095882826593045 0 -0.01437594397321729 0.0043099163673320133 0 -0.013347255581419802 0.0037541532348112383 0 -0.013642222364797013 0.0043184388222390025 0 -0.013347255581419802 0.0037541532348112383 0 -0.013057291786512472 0.0044041960955167343 0 -0.013642222364797013 0.0043184388222390025 0 -0.013057291786512472 0.0044041960955167343 0 -0.013444575063153457 0.004886641112193107 0 -0.012780973132946571 0.0052814154988811996 0 -0.01437594397321729 0.0043099163673320133 0 -0.013444575063153457 0.004886641112193107 0 -0.013474740988888758 0.0061245499251650123 0 -0.0060150647597733298 0.056690867188946698 0 -0.005979702739229399 0.055643004008405196 0 -0.0072847815726327907 0.055067619627206896 0 -0.0053682431916837314 0.033320728515497215 0 -0.0086558136682065162 0.030347390249879268 0 -0.013057291786512472 0.0044041960955167343 0 -0.013642222364797013 0.0043184388222390025 0 -0.013444575063153457 0.004886641112193107 0 -0.013444575063153457 0.004886641112193107 0 -0.013474740988888758 0.0061245499251650123 0 -0.012780973132946571 0.0052814154988811996 0 -0.01437594397321729 0.0043099163673320133 0 -0.013642222364797013 0.0043184388222390025 0 -0.013444575063153457 0.004886641112193107 0 -0.0053682431916837314 0.033320728515497215 0 -0.0062368436837470509 0.035236308102072074 0 -0.0052799633391716451 0.05680070626655976 0 -0.0059653594053823301 0.056618253920037644 0 -0.0056539273939386686 0.056135777758024509 0 -0.0060150647597733298 0.056690867188946698 0 -0.0056539273939386686 0.056135777758024509 0 -0.005979702739229399 0.055643004008405196 0 -0.0052799633391716451 0.05680070626655976 0 -0.0056539273939386686 0.056135777758024509 0 -0.0049257858138632747 0.056246028726412475 0 -0.0056539273939386686 0.056135777758024509 0 -0.0049257858138632747 0.056246028726412475 0 -0.0051226973528749392 0.055470555265704512 0 -0.0056539273939386686 0.056135777758024509 0 -0.0051226973528749392 0.055470555265704512 0 -0.005979702739229399 0.055643004008405196 0 -0.0051226973528749392 0.055470555265704512 0 -0.005979702739229399 0.055643004008405196 0 -0.0058746843385775495 0.05477092587189912 0 -0.0045180976712928863 0.055092409366674047 0 -0.0051226973528749392 0.055470555265704512 0 -0.0051893344142391684 0.05482259367624804 0 -0.0051226973528749392 0.055470555265704512 0 -0.0058746843385775495 0.05477092587189912 0 -0.0051893344142391684 0.05482259367624804 0 -0.0055665885828381258 0.053938348236302683 0 -0.0047404035345365563 0.054455235256100555 0 -0.0051893344142391684 0.05482259367624804 0 -0.0066017070786802438 0.053654407665605766 0 -0.0055665885828381258 0.053938348236302683 0 -0.0058746843385775495 0.05477092587189912 0 -0.0055665885828381258 0.053938348236302683 0 -0.0058746843385775495 0.05477092587189912 0 -0.0051893344142391684 0.05482259367624804 0 -0.0066017070786802438 0.053654407665605766 0 -0.0058746843385775495 0.05477092587189912 0 -0.0072847815726327907 0.055067619627206896 0 -0.005979702739229399 0.055643004008405196 0 -0.0058746843385775495 0.05477092587189912 0 -0.0072847815726327907 0.055067619627206896 0 -0.013474740988888758 0.0061245499251650123 0 -0.012182091153938986 0.0058817568377875695 0 -0.012062419630629741 0.0068677445582164907 0 -0.013474740988888758 0.0061245499251650123 0 -0.012182091153938986 0.0058817568377875695 0 -0.012780973132946571 0.0052814154988811996 0 -0.012182091153938986 0.0058817568377875695 0 -0.0111008677189911 0.0061944548362876314 0 -0.011636554823767903 0.0048696678686094425 0 -0.012182091153938986 0.0058817568377875695 0 -0.012062419630629741 0.0068677445582164907 0 -0.0111008677189911 0.0061944548362876314 0 -0.011636554823767903 0.0048696678686094425 0 -0.010633687523734385 0.0041497149031276956 0 -0.0099875337361585367 0.0052550599978590231 0 -0.0111008677189911 0.0061944548362876314 0 -0.011636554823767903 0.0048696678686094425 0 -0.0099875337361585367 0.0052550599978590231 0 -0.011636554823767903 0.0048696678686094425 0 -0.012350781343944494 0.0044138532251032179 0 -0.01160388700069478 0.0036419986969362149 0 -0.011636554823767903 0.0048696678686094425 0 -0.012350781343944494 0.0044138532251032179 0 -0.012780973132946571 0.0052814154988811996 0 -0.012182091153938986 0.0058817568377875695 0 -0.011636554823767903 0.0048696678686094425 0 -0.012780973132946571 0.0052814154988811996 0 -0.013057291786512472 0.0044041960955167343 0 -0.012350781343944494 0.0044138532251032179 0 -0.012780973132946571 0.0052814154988811996 0 -0.013347255581419802 0.0037541532348112383 0 -0.013057291786512472 0.0044041960955167343 0 -0.012688246765583507 0.0037965646762800898 0 -0.013057291786512472 0.0044041960955167343 0 -0.012350781343944494 0.0044138532251032179 0 -0.012688246765583507 0.0037965646762800898 0 -0.012350781343944494 0.0044138532251032179 0 -0.012688246765583507 0.0037965646762800898 0 -0.01160388700069478 0.0036419986969362149 0 -0.01228528686352259 0.0032026555390154347 0 -0.01177622729625292 0.0027406078400921 0 -0.01160388700069478 0.0036419986969362149 0 -0.012688246765583507 0.0037965646762800898 0 -0.01228528686352259 0.0032026555390154347 0 -0.01160388700069478 0.0036419986969362149 0 -0.013347255581419802 0.0037541532348112383 0 -0.012688246765583507 0.0037965646762800898 0 -0.012814396208357358 0.0032072022681563016 0 -0.012688246765583507 0.0037965646762800898 0 -0.01228528686352259 0.0032026555390154347 0 -0.012814396208357358 0.0032072022681563016 0 -0.01228528686352259 0.0032026555390154347 0 -0.012814396208357358 0.0032072022681563016 0 -0.01242566462805344 0.0027798724789150501 0 -0.013205806242939924 0.0026075308610388967 0 -0.012057186228273811 0.002143171189673635 0 -0.011988907747045875 0.00098826300441561183 0 -0.0055675794291959683 0.026473049506528037 0 -0.0066556493345738257 0.024755503389729844 0 -0.013205806242939924 0.0026075308610388967 0 -0.01242566462805344 0.0027798724789150501 0 -0.012057186228273811 0.002143171189673635 0 -0.013205806242939924 0.0026075308610388967 0 -0.012814396208357358 0.0032072022681563016 0 -0.01242566462805344 0.0027798724789150501 0 -0.01242566462805344 0.0027798724789150501 0 -0.01177622729625292 0.0027406078400921 0 -0.012057186228273811 0.002143171189673635 0 -0.01177622729625292 0.0027406078400921 0 -0.012057186228273811 0.002143171189673635 0 -0.011320256592983432 0.0022694306511288989 0 -0.01228528686352259 0.0032026555390154347 0 -0.01242566462805344 0.0027798724789150501 0 -0.01177622729625292 0.0027406078400921 0 -0.010563385932124907 0.0021951948606575311 0 -0.011320256592983432 0.0022694306511288989 0 -0.011141199485818036 0.0015379509506580956 0 -0.012057186228273811 0.002143171189673635 0 -0.011320256592983432 0.0022694306511288989 0 -0.011141199485818036 0.0015379509506580956 0 -0.01177622729625292 0.0027406078400921 0 -0.011320256592983432 0.0022694306511288989 0 -0.011081209366396332 0.002793244799546912 0 -0.010563385932124907 0.0021951948606575311 0 -0.011081209366396332 0.002793244799546912 0 -0.010392279045834875 0.0031993235877838589 0 -0.010563385932124907 0.0021951948606575311 0 -0.011320256592983432 0.0022694306511288989 0 -0.011081209366396332 0.002793244799546912 0 -0.011081209366396332 0.002793244799546912 0 -0.01160388700069478 0.0036419986969362149 0 -0.010392279045834875 0.0031993235877838589 0 -0.01177622729625292 0.0027406078400921 0 -0.011081209366396332 0.002793244799546912 0 -0.01160388700069478 0.0036419986969362149 0 -0.011636554823767903 0.0048696678686094425 0 -0.01160388700069478 0.0036419986969362149 0 -0.010633687523734385 0.0041497149031276956 0 -0.01160388700069478 0.0036419986969362149 0 -0.010633687523734385 0.0041497149031276956 0 -0.010392279045834875 0.0031993235877838589 0 -0.0093771225542839676 0.0038080310552138499 0 -0.010392279045834875 0.0031993235877838589 0 -0.0096034789755541066 0.0024227153527201558 0 -0.010633687523734385 0.0041497149031276956 0 -0.0093771225542839676 0.0038080310552138499 0 -0.010392279045834875 0.0031993235877838589 0 -0.010563385932124907 0.0021951948606575311 0 -0.010392279045834875 0.0031993235877838589 0 -0.0096034789755541066 0.0024227153527201558 0 -0.010563385932124907 0.0021951948606575311 0 -0.0096034789755541066 0.0024227153527201558 0 -0.0099350476751037062 0.0013064183740106902 0 -0.0084600661266631023 0.00267317935944335 0 -0.0082182230904765795 0.0013206054050466031 0 -0.0072509168240816567 0.0022683673998924901 0 -0.0096034789755541066 0.0024227153527201558 0 -0.0084600661266631023 0.00267317935944335 0 -0.0082182230904765795 0.0013206054050466031 0 -0.0093771225542839676 0.0038080310552138499 0 -0.0084600661266631023 0.00267317935944335 0 -0.0079025685037577061 0.0035997317416166753 0 -0.0093771225542839676 0.0038080310552138499 0 -0.0096034789755541066 0.0024227153527201558 0 -0.0084600661266631023 0.00267317935944335 0 -0.0093771225542839676 0.0038080310552138499 0 -0.0085150162239824544 0.0048735653375753798 0 -0.0079025685037577061 0.0035997317416166753 0 -0.010633687523734385 0.0041497149031276956 0 -0.0093771225542839676 0.0038080310552138499 0 -0.0099875337361585367 0.0052550599978590231 0 -0.0093771225542839676 0.0038080310552138499 0 -0.0085150162239824544 0.0048735653375753798 0 -0.0099875337361585367 0.0052550599978590231 0 -0.0098956190160481849 0.006886591390484329 0 -0.0099875337361585367 0.0052550599978590231 0 -0.0087868352847674663 0.0061709378806612675 0 -0.0098956190160481849 0.006886591390484329 0 -0.0111008677189911 0.0061944548362876314 0 -0.0099875337361585367 0.0052550599978590231 0 -0.0085150162239824544 0.0048735653375753798 0 -0.0099875337361585367 0.0052550599978590231 0 -0.0087868352847674663 0.0061709378806612675 0 -0.0085150162239824544 0.0048735653375753798 0 -0.0087868352847674663 0.0061709378806612675 0 -0.0075820992682773519 0.0063014588623826273 0 -0.0085820174183760048 0.0074445836881346459 0 -0.0087868352847674663 0.0061709378806612675 0 -0.0075820992682773519 0.0063014588623826273 0 -7.4818098708796239e-06 0.054507835236492455 0 -5.4216555910223193e-05 0.0544550867940485 0 -1.5689771495729177e-05 0.05459507286594309 0 -7.4818098708796239e-06 0.054507835236492455 0 -1.5689771495729177e-05 0.05459507286594309 0 5.1898845519521468e-06 0.054715604610683075 0 -9.128497586696062e-05 0.05408062327962411 0 0.00027609855959764504 0.053394240942559415 0 -7.4818098708796239e-06 0.054507835236492455 0 -0.00011912197013064231 0.054299698972921702 0 -5.4216555910223193e-05 0.0544550867940485 0 -7.4818098708796239e-06 0.054507835236492455 0 -0.00011912197013064231 0.054299698972921702 0 -0.00021446499751566475 0.05401953200468098 0 -0.00011912197013064231 0.054299698972921702 0 -5.4216555910223193e-05 0.0544550867940485 0 -7.8625419148746148e-05 0.054473855522365902 0 -0.00011912197013064231 0.054299698972921702 0 -7.8625419148746148e-05 0.054473855522365902 0 -0.0001695212032596687 0.054317211667583284 0 -7.8625419148746148e-05 0.054473855522365902 0 -0.00011299274556694258 0.054529566717690034 0 -0.0001695212032596687 0.054317211667583284 0 -7.8625419148746148e-05 0.054473855522365902 0 -0.00011299274556694258 0.054529566717690034 0 -5.0010249741528439e-05 0.054644608658510528 0 -1.5689771495729177e-05 0.05459507286594309 0 -3.3991718772933457e-06 0.054734079599138293 0 -5.0010249741528439e-05 0.054644608658510528 0 -1.5689771495729177e-05 0.05459507286594309 0 -3.3991718772933457e-06 0.054734079599138293 0 1.103124163833713e-05 0.054779056444652051 0 -7.8625419148746148e-05 0.054473855522365902 0 -1.5689771495729177e-05 0.05459507286594309 0 -5.0010249741528439e-05 0.054644608658510528 0 -5.4216555910223193e-05 0.0544550867940485 0 -7.8625419148746148e-05 0.054473855522365902 0 -1.5689771495729177e-05 0.05459507286594309 0 -3.3991718772933457e-06 0.054734079599138293 0 1.103124163833713e-05 0.054779056444652051 0 1.4612887733618676e-05 0.054877492686469125 0 1.103124163833713e-05 0.054779056444652051 0 1.1697959246351549e-05 0.054885353281243318 0 1.4612887733618676e-05 0.054877492686469125 0 -1.5689771495729177e-05 0.05459507286594309 0 1.103124163833713e-05 0.054779056444652051 0 5.1898845519521468e-06 0.054715604610683075 0 1.103124163833713e-05 0.054779056444652051 0 1.1697959246351549e-05 0.054885353281243318 0 1.0644739843647844e-05 0.054837228852479741 0 4.4811927030986713e-08 0.054999686716786983 0 1.1697959246351549e-05 0.054885353281243318 0 1.4612887733618676e-05 0.054877492686469125 0 4.4811927030986713e-08 0.054999686716786983 0 1.1697959246351549e-05 0.054885353281243318 0 1.2952469337662783e-05 0.054959088297165622 0 4.4811927030986713e-08 0.054999686716786983 0 1.2952469337662783e-05 0.054959088297165622 0 4.802213107292334e-09 0.054999927117330059 0 1.2952469337662783e-05 0.054959088297165622 0 6.11905374786398e-06 0.054877624163482526 0 4.3871298631828068e-05 0.054808100959346941 0 1.1697959246351549e-05 0.054885353281243318 0 1.2952469337662783e-05 0.054959088297165622 0 1.0644739843647844e-05 0.054837228852479741 0 1.2952469337662783e-05 0.054959088297165622 0 1.0644739843647844e-05 0.054837228852479741 0 6.11905374786398e-06 0.054877624163482526 0 -9.128497586696062e-05 0.05408062327962411 0 -8.7228199803177488e-05 0.054291348126281058 0 -7.4818098708796239e-06 0.054507835236492455 0 6.11905374786398e-06 0.054877624163482526 0 5.1898845519521468e-06 0.054715604610683075 0 1.0644739843647844e-05 0.054837228852479741 0 6.11905374786398e-06 0.054877624163482526 0 5.1898845519521468e-06 0.054715604610683075 0 1.103124163833713e-05 0.054779056444652051 0 1.0644739843647844e-05 0.054837228852479741 0 5.1898845519521468e-06 0.054715604610683075 0 6.11905374786398e-06 0.054877624163482526 0 -7.2988390963976539e-05 0.054822397911275085 0 -2.0240609625353531e-05 0.054810504754281952 0 -0.00011954755689100813 0.05484804089678471 0 6.11905374786398e-06 0.054877624163482526 0 -7.2988390963976539e-05 0.054822397911275085 0 -2.0240609625353531e-05 0.054810504754281952 0 -2.8915456645551278e-06 0.054778121580372478 0 -6.7667178926326786e-05 0.054773849956298526 0 -7.2988390963976539e-05 0.054822397911275085 0 -2.0240609625353531e-05 0.054810504754281952 0 -6.7667178926326786e-05 0.054773849956298526 0 0.000124538891783956 0.054823203223953641 0 0.00013619750995367194 0.054767222730863693 0 1.2952469337662783e-05 0.054959088297165622 0 4.802213107292334e-09 0.054999927117330059 0 3.1967131875984875e-06 0.055004739884693399 0 4.802213107292334e-09 0.054999927117330059 0 3.1967131875984875e-06 0.055004739884693399 0 2.452156888693914e-09 0.055000047207781941 0 6.11905374786398e-06 0.054877624163482526 0 -2.0240609625353531e-05 0.054810504754281952 0 4.3871298631828068e-05 0.054808100959346941 0 -2.0240609625353531e-05 0.054810504754281952 0 4.3871298631828068e-05 0.054808100959346941 0 -2.8915456645551278e-06 0.054778121580372478 0 4.3871298631828068e-05 0.054808100959346941 0 -2.8915456645551278e-06 0.054778121580372478 0 3.5713484642274265e-05 0.05472228281345521 0 0.00013619750995367194 0.054767222730863693 0 0.0001714274952244844 0.054562970156133823 0 -2.8915456645551278e-06 0.054778121580372478 0 3.5713484642274265e-05 0.05472228281345521 0 -6.7667178926326786e-05 0.054773849956298526 0 3.1967131875984875e-06 0.055004739884693399 0 -2.42099832054481e-07 0.05500047461665427 0 2.452156888693914e-09 0.055000047207781941 0 0.0001714274952244844 0.054562970156133823 0 1.3578724379560757e-07 0.054997096078038467 0 -2.6963608282551318e-05 0.052299004430980234 0 -0.00078415935529994711 0.051878492286758227 0 7.1123054860423052e-05 0.051459266255957217 0 0.0001714274952244844 0.054562970156133823 0 0.00027914696288922156 0.053796371477632901 0 -2.6963608282551318e-05 0.052299004430980234 0 7.1123054860423052e-05 0.051459266255957217 0 0.00054679309632605483 0.051962896199855294 0 0.00054679309632605483 0.051962896199855294 0 0.00060789824908698005 0.051457399776334935 0 0.0010182244396072465 0.051427779432920796 0 7.1123054860423052e-05 0.051459266255957217 0 0.00054679309632605483 0.051962896199855294 0 0.00060789824908698005 0.051457399776334935 0 7.1123054860423052e-05 0.051459266255957217 0 0.00060789824908698005 0.051457399776334935 0 0.00079154116003761271 0.050943936028518225 0 0.00027914696288922156 0.053796371477632901 0 0.00042489944722427314 0.053398631896602336 0 -7.2988390963976539e-05 0.054822397911275085 0 -6.7667178926326786e-05 0.054773849956298526 0 -0.00014716238564457983 0.054813624590563222 0 -0.00011954755689100813 0.05484804089678471 0 -7.2988390963976539e-05 0.054822397911275085 0 -0.00014716238564457983 0.054813624590563222 0 0.00042489944722427314 0.053398631896602336 0 0.00027609855959764504 0.053394240942559415 0 0.00079154116003761271 0.050943936028518225 0 0.0010182244396072465 0.051427779432920796 0 0.0017674901560449394 0.050419403381465056 0 -0.00011954755689100813 0.05484804089678471 0 -0.00014716238564457983 0.054813624590563222 0 -0.00021168441401665699 0.054836661618148388 0 0.00099539885960384317 0.052274382151927846 0 0.0010182244396072465 0.051427779432920796 0 0.00146410649692157 0.051480784869700084 0 0.00099539885960384317 0.052274382151927846 0 0.00054679309632605483 0.051962896199855294 0 0.0010182244396072465 0.051427779432920796 0 0.00060789824908698005 0.051457399776334935 0 0.00079154116003761271 0.050943936028518225 0 0.0010182244396072465 0.051427779432920796 0 0.0015047985851137202 0.05208352834266048 0 0.00146410649692157 0.051480784869700084 0 0.0019398966755626134 0.051080152723620056 0 0.0021598318835740569 0.048581165440654564 0 0.0022670112129217304 0.049374211036881097 0 0.0020785167972870952 0.052368491663001109 0 0.0019398966755626134 0.051080152723620056 0 0.0026099938806551691 0.050373802319115479 0 0.0022170781864960668 0.050633032943388549 0 0.0023642950114322091 0.050934165206556165 0 0.0017674901560449394 0.050419403381465056 0 0.0019398966755626134 0.051080152723620056 0 0.0026099938806551691 0.050373802319115479 0 0.0022170781864960668 0.050633032943388549 0 0.0026099938806551691 0.050373802319115479 0 0.0022170781864960668 0.050633032943388549 0 0.0023642950114322091 0.050934165206556165 0 0.0010182244396072465 0.051427779432920796 0 0.00146410649692157 0.051480784869700084 0 0.0017674901560449394 0.050419403381465056 0 0.00146410649692157 0.051480784869700084 0 0.0019398966755626134 0.051080152723620056 0 0.0017674901560449394 0.050419403381465056 0 0.0019398966755626134 0.051080152723620056 0 0.0022170781864960668 0.050633032943388549 0 0.0017674901560449394 0.050419403381465056 0 -0.00035407570396846786 0.047275988467809095 0 0.0015857965983959068 0.047456874305485515 0 0.00069962011220301476 0.049653101637020816 0 -0.00035407570396846786 0.047275988467809095 0 -0.0013019878889362236 0.049438975150199425 0 0.00069962011220301476 0.049653101637020816 0 0.0036152679430367057 0.045436444494772306 0 0.0026099938806551691 0.050373802319115479 0 0.0015857965983959068 0.047456874305485515 0 0.0026099938806551691 0.050373802319115479 0 0.0015857965983959068 0.047456874305485515 0 0.00069962011220301476 0.049653101637020816 0 0.0026099938806551691 0.050373802319115479 0 0.0014804790764994236 0.050622838239345248 0 0.00069962011220301476 0.049653101637020816 0 0.0014804790764994236 0.050622838239345248 0 -7.8053833452287837e-05 0.051634470149465622 0 0.0023642950114322091 0.050934165206556165 0 0.0026099938806551691 0.050373802319115479 0 0.0014804790764994236 0.050622838239345248 0 0.0023642950114322091 0.050934165206556165 0 -0.0013019878889362236 0.049438975150199425 0 0.00069962011220301476 0.049653101637020816 0 -7.8053833452287837e-05 0.051634470149465622 0 0.0014804790764994236 0.050622838239345248 0 0.00069962011220301476 0.049653101637020816 0 -7.8053833452287837e-05 0.051634470149465622 0 -0.0025703741718678865 0.053518191401886447 0 -0.0019594699342182199 0.052413184581699523 0 -0.0018549289609952665 0.053554674620859215 0 -0.0019594699342182199 0.052413184581699523 0 -0.0013327605955911405 0.053276486004251222 0 -0.0018549289609952665 0.053554674620859215 0 -0.0019594699342182199 0.052413184581699523 0 -0.0013327605955911405 0.053276486004251222 0 -0.00080256629873651849 0.052931751276033057 0 -0.0012703295807565686 0.052371040886553782 0 -2.355440737142753e-05 0.052689466714610021 0 -0.0013327605955911405 0.053276486004251222 0 -0.00093935431480439923 0.053713709206382333 0 -0.00060495576725004823 0.053579026690198511 0 -0.0013327605955911405 0.053276486004251222 0 -0.00080256629873651849 0.052931751276033057 0 -0.00060495576725004823 0.053579026690198511 0 -0.00093935431480439923 0.053713709206382333 0 -0.0013395523318061476 0.053996703281147113 0 -0.0008075161423503922 0.054077899523928941 0 -0.0013395523318061476 0.053996703281147113 0 -0.0008075161423503922 0.054077899523928941 0 -0.00093993524202099432 0.05445182268605462 0 -0.0013327605955911405 0.053276486004251222 0 -0.00093935431480439923 0.053713709206382333 0 -0.0013395523318061476 0.053996703281147113 0 -0.0013327605955911405 0.053276486004251222 0 -0.0013395523318061476 0.053996703281147113 0 -0.0018549289609952665 0.053554674620859215 0 -0.0013395523318061476 0.053996703281147113 0 -0.0018549289609952665 0.053554674620859215 0 -0.0021723795595166226 0.054268581463991598 0 -0.0025703741718678865 0.053518191401886447 0 -0.0018549289609952665 0.053554674620859215 0 -0.0021723795595166226 0.054268581463991598 0 -0.00021446499751566475 0.05401953200468098 0 -0.0003020671814880416 0.054198640953123919 0 -0.0001695212032596687 0.054317211667583284 0 -0.00011912197013064231 0.054299698972921702 0 -0.00021446499751566475 0.05401953200468098 0 -0.0001695212032596687 0.054317211667583284 0 -0.00021446499751566475 0.05401953200468098 0 -0.00047884518884311561 0.053936260214665611 0 -0.0003020671814880416 0.054198640953123919 0 0.00027609855959764504 0.053394240942559415 0 -8.8659117772727354e-05 0.05353704226693231 0 -2.355440737142753e-05 0.052689466714610021 0 0.00027609855959764504 0.053394240942559415 0 -0.00021446499751566475 0.05401953200468098 0 -0.00060495576725004823 0.053579026690198511 0 -0.00047884518884311561 0.053936260214665611 0 -0.00080256629873651849 0.052931751276033057 0 0.00080292646656891884 0.052959781211674009 0 -0.00060495576725004823 0.053579026690198511 0 -0.00093935431480439923 0.053713709206382333 0 -0.00060495576725004823 0.053579026690198511 0 -0.00047884518884311561 0.053936260214665611 0 -0.00047884518884311561 0.053936260214665611 0 -0.00053026470135687743 0.054263785162922094 0 -0.0003020671814880416 0.054198640953123919 0 -0.00093935431480439923 0.053713709206382333 0 -0.00047884518884311561 0.053936260214665611 0 -0.0008075161423503922 0.054077899523928941 0 -0.00047884518884311561 0.053936260214665611 0 -0.0008075161423503922 0.054077899523928941 0 -0.00053026470135687743 0.054263785162922094 0 -0.0008075161423503922 0.054077899523928941 0 -0.00053026470135687743 0.054263785162922094 0 -0.00093993524202099432 0.05445182268605462 0 -0.00053026470135687743 0.054263785162922094 0 -0.0003020671814880416 0.054198640953123919 0 -0.0003575306665589234 0.054438544306036354 0 -0.0003020671814880416 0.054198640953123919 0 -0.00019913211075773819 0.054499770983006381 0 -0.0003575306665589234 0.054438544306036354 0 -0.0003020671814880416 0.054198640953123919 0 -0.0001695212032596687 0.054317211667583284 0 -0.00019913211075773819 0.054499770983006381 0 -0.00011299274556694258 0.054529566717690034 0 -0.0001695212032596687 0.054317211667583284 0 -0.00019913211075773819 0.054499770983006381 0 -0.00019913211075773819 0.054499770983006381 0 -0.00019816490374170226 0.054687191003093008 0 -0.00011375243114234164 0.054662721693673012 0 -0.00019913211075773819 0.054499770983006381 0 -0.00019816490374170226 0.054687191003093008 0 -0.0003136474694956745 0.0546241866749217 0 -0.00019816490374170226 0.054687191003093008 0 -0.0003136474694956745 0.0546241866749217 0 -0.00026494169567887105 0.054750050784726889 0 -0.00019913211075773819 0.054499770983006381 0 -0.0003136474694956745 0.0546241866749217 0 -0.0003575306665589234 0.054438544306036354 0 -0.00053026470135687743 0.054263785162922094 0 -0.0003575306665589234 0.054438544306036354 0 -0.00051945644598319987 0.054576508680676261 0 -0.0003136474694956745 0.0546241866749217 0 -0.0003575306665589234 0.054438544306036354 0 -0.00051945644598319987 0.054576508680676261 0 -0.00053026470135687743 0.054263785162922094 0 -0.00051945644598319987 0.054576508680676261 0 -0.00093993524202099432 0.05445182268605462 0 -0.00051945644598319987 0.054576508680676261 0 -0.00093993524202099432 0.05445182268605462 0 -0.00085254777261668314 0.054782918676865598 0 -0.00051945644598319987 0.054576508680676261 0 -0.00050319366138227943 0.054861093368195342 0 -0.00085254777261668314 0.054782918676865598 0 -0.0003136474694956745 0.0546241866749217 0 -0.00035938942124973832 0.054671352352765032 0 -0.00026494169567887105 0.054750050784726889 0 -0.00074579636793718296 0.054305803994945424 0 -0.0007796851105491045 0.054303871866671474 0 -0.0003136474694956745 0.0546241866749217 0 -0.00051945644598319987 0.054576508680676261 0 -0.00052237995598051416 0.054737855624993843 0 -0.00077547048145728886 0.054328652208391198 0 -0.0007796851105491045 0.054303871866671474 0 -0.0007796851105491045 0.054303871866671474 0 -0.0011328045032087208 0.05413950880456523 0 -0.00073977395138220435 0.054101778728124064 0 -0.00074050309405026377 0.054151773968845809 0 -0.00078820902599994374 0.054125189589599207 0 -0.00035938942124973832 0.054671352352765032 0 -0.00032203766801436893 0.054806257176034413 0 -0.00026494169567887105 0.054750050784726889 0 -0.0007796851105491045 0.054303871866671474 0 -0.00056049196190101249 0.054428223713796457 0 -0.00032203766801436893 0.054806257176034413 0 -0.00026494169567887105 0.054750050784726889 0 -0.00020362952699978144 0.054857647808171865 0 -0.00026494169567887105 0.054750050784726889 0 -0.00020362952699978144 0.054857647808171865 0 -0.00012265614500868826 0.054804770365291453 0 -0.00019816490374170226 0.054687191003093008 0 -0.00026494169567887105 0.054750050784726889 0 -0.00012265614500868826 0.054804770365291453 0 -0.0013395523318061476 0.053996703281147113 0 -0.0021723795595166226 0.054268581463991598 0 -0.0015335261943097455 0.054618623003325519 0 -0.0023825103060922535 0.055034335626235976 0 -0.0019916421842676234 0.054965027645169452 0 -0.0021723795595166226 0.054268581463991598 0 -0.0019916421842676234 0.054965027645169452 0 -0.0015335261943097455 0.054618623003325519 0 -0.0016206153146237864 0.055112925657808377 0 -0.0019916421842676234 0.054965027645169452 0 -0.0021723795595166226 0.054268581463991598 0 -0.0015335261943097455 0.054618623003325519 0 -0.0011878309411426137 0.054825033522224412 0 -0.0015335261943097455 0.054618623003325519 0 -0.00093993524202099432 0.05445182268605462 0 -0.0011878309411426137 0.054825033522224412 0 -0.0015335261943097455 0.054618623003325519 0 -0.0016206153146237864 0.055112925657808377 0 -0.0013395523318061476 0.053996703281147113 0 -0.0015335261943097455 0.054618623003325519 0 -0.00093993524202099432 0.05445182268605462 0 -0.0011878309411426137 0.054825033522224412 0 -0.00085254777261668314 0.054782918676865598 0 -0.0011668562237292233 0.055250715456003699 0 -0.0011878309411426137 0.054825033522224412 0 -0.00093993524202099432 0.05445182268605462 0 -0.00085254777261668314 0.054782918676865598 0 -0.00050319366138227943 0.054861093368195342 0 -0.00085254777261668314 0.054782918676865598 0 -0.0011668562237292233 0.055250715456003699 0 -0.0011328045032087208 0.05413950880456523 0 -0.0014120154667942558 0.053778345170628392 0 -0.00078820902599994374 0.054125189589599207 0 -0.00083765214222116338 0.054148452481914099 0 -0.00078908136131174145 0.054175662522401462 0 -0.00074050309405026377 0.054151773968845809 0 -0.00078820902599994374 0.054125189589599207 0 -0.00078908136131174145 0.054175662522401462 0 -0.0011878309411426137 0.054825033522224412 0 -0.0011668562237292233 0.055250715456003699 0 -0.0016206153146237864 0.055112925657808377 0 -0.0011668562237292233 0.055250715456003699 0 -0.0016206153146237864 0.055112925657808377 0 -0.001944460581186345 0.055673137235787588 0 -0.0019916421842676234 0.054965027645169452 0 -0.0016206153146237864 0.055112925657808377 0 -0.001944460581186345 0.055673137235787588 0 -0.0023825103060922535 0.055034335626235976 0 -0.0019916421842676234 0.054965027645169452 0 -0.001944460581186345 0.055673137235787588 0 0.00010284846709688801 0.054313324633648408 0 0.00012592168949214936 0.054322674350431761 0 0.00010108200806446197 0.054344159427809763 0 -0.0014120154667942558 0.053778345170628392 0 -0.00069858198243720254 0.054225554275776099 0 -0.00069858198243720254 0.054225554275776099 0 -0.00034702403104533105 0.054517921244355283 0 0.00012592168949214936 0.054322674350431761 0 0.00013164541918693246 0.054343953498756828 0 0.00015832005698747874 0.054333721699445302 0 0.00013164541918693246 0.054343953498756828 0 0.00010108200806446197 0.054344159427809763 0 0.0001191074625707525 0.054367276011020205 0 0.00012592168949214936 0.054322674350431761 0 0.00013164541918693246 0.054343953498756828 0 0.00010108200806446197 0.054344159427809763 0 0.00013164541918693246 0.054343953498756828 0 0.00016669444139215116 0.054374598189583359 0 0.0001191074625707525 0.054367276011020205 0 -0.00020362952699978144 0.054857647808171865 0 -0.0001030128774098444 0.054938557669884376 0 -0.00012123707639013275 0.054882532863258379 0 -0.00020362952699978144 0.054857647808171865 0 -0.00012123707639013275 0.054882532863258379 0 -0.00012265614500868826 0.054804770365291453 0 -0.00032203766801436893 0.054806257176034413 0 -0.00020362952699978144 0.054857647808171865 0 -0.00029594989683835981 0.054909620160069152 0 -0.00074050309405026377 0.054151773968845809 0 -0.00078908136131174145 0.054175662522401462 0 -0.00074087541706176771 0.054202757842288993 0 -0.00056049196190101249 0.054428223713796457 0 -0.00034702403104533105 0.054517921244355283 0 -0.00034702403104533105 0.054517921244355283 0 -0.00018722272070387979 0.054521199483389654 0 0.00018815486588045769 0.054791995497136849 0 5.7823435547654229e-05 0.054726942895609719 0 0.00019127216399400857 0.054682649604789219 0 0.00013164541918693246 0.054343953498756828 0 0.00015832005698747874 0.054333721699445302 0 0.00016669444139215116 0.054374598189583359 0 -0.00020362952699978144 0.054857647808171865 0 -0.00029594989683835981 0.054909620160069152 0 -0.0001030128774098444 0.054938557669884376 0 -0.00034702403104533105 0.054517921244355283 0 -9.8198955436048336e-05 0.054718818788974923 0 -0.0001030128774098444 0.054938557669884376 0 -4.6776223686625172e-05 0.054913654116977427 0 -6.5650602373643042e-05 0.054890562688146696 0 -0.0001030128774098444 0.054938557669884376 0 -6.5650602373643042e-05 0.054890562688146696 0 -0.00012123707639013275 0.054882532863258379 0 -0.0001030128774098444 0.054938557669884376 0 -4.6776223686625172e-05 0.054913654116977427 0 -3.7479635307301238e-05 0.054805069580245704 0 -6.5650602373643042e-05 0.054890562688146696 0 -4.1764120326559258e-05 0.054838944607654205 0 -2.5482653702146261e-05 0.054907618237642404 0 -4.6776223686625172e-05 0.054913654116977427 0 -6.5650602373643042e-05 0.054890562688146696 0 -2.5482653702146261e-05 0.054907618237642404 0 -6.5650602373643042e-05 0.054890562688146696 0 -0.00012123707639013275 0.054882532863258379 0 -0.00012265614500868826 0.054804770365291453 0 -0.00012265614500868826 0.054804770365291453 0 -6.3064539475645299e-05 0.054755186691605034 0 -4.1764120326559258e-05 0.054838944607654205 0 -0.00012265614500868826 0.054804770365291453 0 -6.3064539475645299e-05 0.054755186691605034 0 -0.00011375243114234164 0.054662721693673012 0 -6.5650602373643042e-05 0.054890562688146696 0 -0.00012265614500868826 0.054804770365291453 0 -4.1764120326559258e-05 0.054838944607654205 0 -0.00019816490374170226 0.054687191003093008 0 -0.00012265614500868826 0.054804770365291453 0 -0.00011375243114234164 0.054662721693673012 0 -4.1764120326559258e-05 0.054838944607654205 0 -7.9167180318634017e-06 0.054872544305993504 0 -2.5482653702146261e-05 0.054907618237642404 0 -4.1764120326559258e-05 0.054838944607654205 0 -1.5809107067501844e-05 0.054787642815891463 0 -7.9167180318634017e-06 0.054872544305993504 0 -6.3064539475645299e-05 0.054755186691605034 0 -4.1764120326559258e-05 0.054838944607654205 0 -1.5809107067501844e-05 0.054787642815891463 0 -6.3064539475645299e-05 0.054755186691605034 0 -1.5809107067501844e-05 0.054787642815891463 0 -5.0010249741528439e-05 0.054644608658510528 0 -3.3991718772933457e-06 0.054734079599138293 0 -1.5809107067501844e-05 0.054787642815891463 0 -5.0010249741528439e-05 0.054644608658510528 0 -0.00011299274556694258 0.054529566717690034 0 -5.0010249741528439e-05 0.054644608658510528 0 -0.00011375243114234164 0.054662721693673012 0 -0.00011299274556694258 0.054529566717690034 0 -0.00019913211075773819 0.054499770983006381 0 -0.00011375243114234164 0.054662721693673012 0 -6.3064539475645299e-05 0.054755186691605034 0 -5.0010249741528439e-05 0.054644608658510528 0 -0.00011375243114234164 0.054662721693673012 0 4.4811927030986713e-08 0.054999686716786983 0 1.4612887733618676e-05 0.054877492686469125 0 1.4821169023883211e-08 0.054999878817886642 0 -1.5809107067501844e-05 0.054787642815891463 0 1.4612887733618676e-05 0.054877492686469125 0 -7.9167180318634017e-06 0.054872544305993504 0 -3.3991718772933457e-06 0.054734079599138293 0 -1.5809107067501844e-05 0.054787642815891463 0 1.4612887733618676e-05 0.054877492686469125 0 1.4612887733618676e-05 0.054877492686469125 0 -7.9167180318634017e-06 0.054872544305993504 0 -1.6510356158072775e-06 0.054952120439221257 0 1.4612887733618676e-05 0.054877492686469125 0 1.4821169023883211e-08 0.054999878817886642 0 -1.6510356158072775e-06 0.054952120439221257 0 -1.1263200088588329e-08 0.054999914540481205 0 -1.6510356158072775e-06 0.054952120439221257 0 -2.3613976645705703e-05 0.054948030479223232 0 1.4821169023883211e-08 0.054999878817886642 0 -1.1263200088588329e-08 0.054999914540481205 0 -1.6510356158072775e-06 0.054952120439221257 0 -1.6510356158072775e-06 0.054952120439221257 0 -2.5482653702146261e-05 0.054907618237642404 0 -2.3613976645705703e-05 0.054948030479223232 0 -7.9167180318634017e-06 0.054872544305993504 0 -1.6510356158072775e-06 0.054952120439221257 0 -2.5482653702146261e-05 0.054907618237642404 0 -4.6776223686625172e-05 0.054913654116977427 0 -2.5482653702146261e-05 0.054907618237642404 0 -2.3613976645705703e-05 0.054948030479223232 0 -4.6776223686625172e-05 0.054913654116977427 0 -2.3613976645705703e-05 0.054948030479223232 0 -5.0646476367552408e-05 0.0549414653205011 0 -1.1263200088588329e-08 0.054999914540481205 0 -2.3613976645705703e-05 0.054948030479223232 0 -9.0467318372062965e-09 0.054999937424650792 0 -2.3613976645705703e-05 0.054948030479223232 0 -9.0467318372062965e-09 0.054999937424650792 0 -5.0646476367552408e-05 0.0549414653205011 0 -9.0467318372062965e-09 0.054999937424650792 0 -5.0646476367552408e-05 0.0549414653205011 0 -3.3575908000417682e-05 0.054978751397398051 0 -5.0646476367552408e-05 0.0549414653205011 0 -3.3575908000417682e-05 0.054978751397398051 0 -2.7162498754587193e-05 0.054978358269054638 0 -9.0467318372062965e-09 0.054999937424650792 0 -3.3575908000417682e-05 0.054978751397398051 0 -4.6703285663629456e-08 0.054999999913679508 0 5.7823435547654229e-05 0.054726942895609719 0 3.6375720630637997e-05 0.054686436857029889 0 -3.7479635307301238e-05 0.054805069580245704 0 -9.8198955436048336e-05 0.054718818788974923 0 -7.9654233160664678e-05 0.05474355208742207 0 -4.6776223686625172e-05 0.054913654116977427 0 -5.0646476367552408e-05 0.0549414653205011 0 -3.7479635307301238e-05 0.054805069580245704 0 -5.0646476367552408e-05 0.0549414653205011 0 -3.7479635307301238e-05 0.054805069580245704 0 -5.1025271271365898e-05 0.054641079013985808 0 -2.4328833174472152e-05 0.054825313993513876 0 -1.9724630875767708e-07 0.054779090136568544 0 -3.3575908000417682e-05 0.054978751397398051 0 -2.7162498754587193e-05 0.054978358269054638 0 -2.9621190028801529e-05 0.054942011981980107 0 3.6375720630637997e-05 0.054686436857029889 0 -3.7479635307301238e-05 0.054805069580245704 0 -5.1025271271365898e-05 0.054641079013985808 0 3.6375720630637997e-05 0.054686436857029889 0 -5.1025271271365898e-05 0.054641079013985808 0 8.3130379136605586e-05 0.054579435967419633 0 -2.7162498754587193e-05 0.054978358269054638 0 -2.9621190028801529e-05 0.054942011981980107 0 5.8912559205157631e-05 0.054894931858651692 0 -1.9724630875767708e-07 0.054779090136568544 0 4.9522467113589051e-05 0.05470017323345458 0 -2.9621190028801529e-05 0.054942011981980107 0 -1.4509708960045341e-05 0.05488103597182558 0 5.8912559205157631e-05 0.054894931858651692 0 -5.1025271271365898e-05 0.054641079013985808 0 9.3816934928979867e-05 0.05444364323821424 0 8.3130379136605586e-05 0.054579435967419633 0 -2.9621190028801529e-05 0.054942011981980107 0 -1.4509708960045341e-05 0.05488103597182558 0 -3.9772640709333683e-05 0.054961824446364424 0 3.2160668456829132e-05 0.054886671033829479 0 1.9480982776196746e-07 0.054947864429447255 0 1.4256408114872916e-05 0.054887452296389583 0 4.0808959107943422e-05 0.054853563092493875 0 4.0238972451347043e-06 0.054948256648679736 0 1.4256408114872916e-05 0.054887452296389583 0 4.0808959107943422e-05 0.054853563092493875 0 3.0993536955939022e-05 0.054820641179490447 0 -1.4509708960045341e-05 0.05488103597182558 0 5.8912559205157631e-05 0.054894931858651692 0 9.1196818298869636e-05 0.054689163824198819 0 3.2160668456829132e-05 0.054886671033829479 0 6.9070769882825258e-05 0.054845644354024801 0 4.0808959107943422e-05 0.054853563092493875 0 5.5748511044987926e-05 0.054769613503176891 0 9.1196818298869636e-05 0.054689163824198819 0 4.0808959107943422e-05 0.054853563092493875 0 3.0993536955939022e-05 0.054820641179490447 0 5.5748511044987926e-05 0.054769613503176891 0 -2.1469798214176577e-08 0.054999905909725977 0 1.9480982776196746e-07 0.054947864429447255 0 -9.361227410023543e-09 0.054999987858573844 0 4.0238972451347043e-06 0.054948256648679736 0 -1.3430019844472661e-06 0.054944543102765683 0 -3.3575908000417682e-05 0.054978751397398051 0 -4.6703285663629456e-08 0.054999999913679508 0 -3.9772640709333683e-05 0.054961824446364424 0 -3.3575908000417682e-05 0.054978751397398051 0 -2.9621190028801529e-05 0.054942011981980107 0 -3.9772640709333683e-05 0.054961824446364424 0 1.4256408114872916e-05 0.054887452296389583 0 4.0238972451347043e-06 0.054948256648679736 0 -1.3430019844472661e-06 0.054944543102765683 0 1.4256408114872916e-05 0.054887452296389583 0 -1.3430019844472661e-06 0.054944543102765683 0 1.183038699227745e-05 0.054871932817055165 0 -9.361227410023543e-09 0.054999987858573844 0 -1.3430019844472661e-06 0.054944543102765683 0 -5.6420464080694604e-09 0.054999868490550073 0 -1.3430019844472661e-06 0.054944543102765683 0 -5.6420464080694604e-09 0.054999868490550073 0 1.3613344076498053e-06 0.054929716960381243 0 -5.6420464080694604e-09 0.054999868490550073 0 1.3613344076498053e-06 0.054929716960381243 0 2.6291702191078122e-09 0.054999878430605456 0 5.572591266902573e-06 0.054895210187342204 0 1.3613344076498053e-06 0.054929716960381243 0 2.6291702191078122e-09 0.054999878430605456 0 5.572591266902573e-06 0.054895210187342204 0 1.3613344076498053e-06 0.054929716960381243 0 1.4263081880728958e-05 0.054852695655450569 0 1.3613344076498053e-06 0.054929716960381243 0 1.183038699227745e-05 0.054871932817055165 0 1.4263081880728958e-05 0.054852695655450569 0 -1.3430019844472661e-06 0.054944543102765683 0 1.3613344076498053e-06 0.054929716960381243 0 1.183038699227745e-05 0.054871932817055165 0 1.4256408114872916e-05 0.054887452296389583 0 1.183038699227745e-05 0.054871932817055165 0 3.0993536955939022e-05 0.054820641179490447 0 1.183038699227745e-05 0.054871932817055165 0 3.0993536955939022e-05 0.054820641179490447 0 3.0011920836791171e-05 0.054797016252393506 0 1.183038699227745e-05 0.054871932817055165 0 3.0011920836791171e-05 0.054797016252393506 0 1.4263081880728958e-05 0.054852695655450569 0 5.5748511044987926e-05 0.054769613503176891 0 5.167379690861156e-05 0.054747481813228624 0 7.1290841224982445e-05 0.054709287643619701 0 3.0993536955939022e-05 0.054820641179490447 0 5.5748511044987926e-05 0.054769613503176891 0 5.167379690861156e-05 0.054747481813228624 0 3.0011920836791171e-05 0.054797016252393506 0 5.167379690861156e-05 0.054747481813228624 0 5.783206977064797e-05 0.054714416181512085 0 3.0993536955939022e-05 0.054820641179490447 0 3.0011920836791171e-05 0.054797016252393506 0 5.167379690861156e-05 0.054747481813228624 0 5.167379690861156e-05 0.054747481813228624 0 5.783206977064797e-05 0.054714416181512085 0 9.1128389072606027e-05 0.05462975305447048 0 -0.00011771445467359433 0.0546563947049774 0 -8.474598293885786e-05 0.054559240436599689 0 -3.1042460623809093e-05 0.054546063731394603 0 -1.4675687680895219e-05 0.054770673109130259 0 2.8822938980079494e-05 0.054691541261318186 0 5.783206977064797e-05 0.054714416181512085 0 3.4028632263903051e-05 0.054768935909852497 0 8.5032441511680645e-05 0.054628535893601025 0 3.0011920836791171e-05 0.054797016252393506 0 5.783206977064797e-05 0.054714416181512085 0 3.4028632263903051e-05 0.054768935909852497 0 5.572591266902573e-06 0.054895210187342204 0 1.4263081880728958e-05 0.054852695655450569 0 3.4028632263903051e-05 0.054768935909852497 0 -2.2583886594541507e-05 0.054878068783448898 0 -1.4675687680895219e-05 0.054770673109130259 0 3.0011920836791171e-05 0.054797016252393506 0 1.4263081880728958e-05 0.054852695655450569 0 3.4028632263903051e-05 0.054768935909852497 0 -4.6190853864923411e-05 0.054809409440785634 0 -0.00011771445467359433 0.0546563947049774 0 -0.00011108924980973076 0.054729939144239494 0 -0.00011771445467359433 0.0546563947049774 0 -0.00011108924980973076 0.054729939144239494 0 -8.474598293885786e-05 0.054559240436599689 0 -0.00011108924980973076 0.054729939144239494 0 -8.474598293885786e-05 0.054559240436599689 0 -8.7314161467816844e-05 0.054379661724569046 0 -0.00016665794664442695 0.054852211295215905 0 -9.4548082925568759e-05 0.054864776580144825 0 -0.0001145211594856056 0.05489875350356458 0 -0.00067430356159775497 0.05369210550671849 0 -0.00079812959020353141 0.053359804608787094 0 -0.00011108924980973076 0.054729939144239494 0 -9.4548082925568759e-05 0.054864776580144825 0 -2.4113017971665559e-05 0.054900004642864028 0 -0.00011108924980973076 0.054729939144239494 0 -0.00016665794664442695 0.054852211295215905 0 -9.4548082925568759e-05 0.054864776580144825 0 -2.4113017971665559e-05 0.054900004642864028 0 -5.1802723133804366e-05 0.054924686962234716 0 -1.8678709317297369e-05 0.054959957885065532 0 -9.4548082925568759e-05 0.054864776580144825 0 -2.4113017971665559e-05 0.054900004642864028 0 -5.1802723133804366e-05 0.054924686962234716 0 -2.4113017971665559e-05 0.054900004642864028 0 1.6950948955566317e-09 0.054999952712909701 0 -1.8678709317297369e-05 0.054959957885065532 0 -4.6190853864923411e-05 0.054809409440785634 0 -2.4113017971665559e-05 0.054900004642864028 0 1.9937393626509909e-08 0.054999731230749117 0 -2.2583886594541507e-05 0.054878068783448898 0 -3.1137536364222303e-08 0.054999732790265439 0 -2.4113017971665559e-05 0.054900004642864028 0 1.6950948955566317e-09 0.054999952712909701 0 1.9937393626509909e-08 0.054999731230749117 0 -4.6190853864923411e-05 0.054809409440785634 0 -0.00011108924980973076 0.054729939144239494 0 -2.4113017971665559e-05 0.054900004642864028 0 0.00013822889182120221 0.054270965790448759 0 8.9266445289415525e-05 0.054388074083978881 0 0.00016065749395347212 0.05432533695307934 0 0.00019127989265876945 0.054217906790198556 0 0.00013822889182120221 0.054270965790448759 0 0.00016065749395347212 0.05432533695307934 0 0.00019127989265876945 0.054217906790198556 0 0.00016065749395347212 0.05432533695307934 0 0.0002149929708283786 0.054187526844732742 0 0.00019127989265876945 0.054217906790198556 0 0.0001623124987110785 0.054191715719301169 0 0.00013822889182120221 0.054270965790448759 0 0.00019127989265876945 0.054217906790198556 0 0.00023536866161506922 0.054159836153649096 0 0.00020251880239618693 0.054149724696596346 0 0.00019127989265876945 0.054217906790198556 0 0.0001623124987110785 0.054191715719301169 0 0.00020251880239618693 0.054149724696596346 0 0.0001623124987110785 0.054191715719301169 0 0.00013822889182120221 0.054270965790448759 0 0.00010880214798894782 0.05422613885202722 0 0.00013822889182120221 0.054270965790448759 0 0.00010880214798894782 0.05422613885202722 0 5.8543028510794391e-05 0.05431720093164874 0 0.00013822889182120221 0.054270965790448759 0 5.8543028510794391e-05 0.05431720093164874 0 8.9266445289415525e-05 0.054388074083978881 0 0.00010880214798894782 0.05422613885202722 0 5.8543028510794391e-05 0.05431720093164874 0 3.0369960547806263e-05 0.054183245527377299 0 -8.7314161467816844e-05 0.054379661724569046 0 5.8543028510794391e-05 0.05431720093164874 0 -1.2282549565715235e-05 0.054445058052162265 0 -8.7314161467816844e-05 0.054379661724569046 0 5.8543028510794391e-05 0.05431720093164874 0 3.0369960547806263e-05 0.054183245527377299 0 -8.474598293885786e-05 0.054559240436599689 0 -1.2282549565715235e-05 0.054445058052162265 0 -3.1042460623809093e-05 0.054546063731394603 0 -8.474598293885786e-05 0.054559240436599689 0 -8.7314161467816844e-05 0.054379661724569046 0 -1.2282549565715235e-05 0.054445058052162265 0 -1.2282549565715235e-05 0.054445058052162265 0 8.9266445289415525e-05 0.054388074083978881 0 -3.1042460623809093e-05 0.054546063731394603 0 5.8543028510794391e-05 0.05431720093164874 0 -1.2282549565715235e-05 0.054445058052162265 0 8.9266445289415525e-05 0.054388074083978881 0 6.0672597998506024e-05 0.054658710864580788 0 2.8822938980079494e-05 0.054691541261318186 0 8.9266445289415525e-05 0.054388074083978881 0 0.00010906904067888118 0.054458839164354553 0 -3.1042460623809093e-05 0.054546063731394603 0 0.00010906904067888118 0.054458839164354553 0 8.5032441511680645e-05 0.054628535893601025 0 9.1128389072606027e-05 0.05462975305447048 0 5.783206977064797e-05 0.054714416181512085 0 8.5032441511680645e-05 0.054628535893601025 0 9.1128389072606027e-05 0.05462975305447048 0 5.5748511044987926e-05 0.054769613503176891 0 7.1290841224982445e-05 0.054709287643619701 0 9.1196818298869636e-05 0.054689163824198819 0 5.167379690861156e-05 0.054747481813228624 0 9.1128389072606027e-05 0.05462975305447048 0 7.1290841224982445e-05 0.054709287643619701 0 9.1128389072606027e-05 0.05462975305447048 0 0.00012757926926982124 0.054539361905212969 0 9.1196818298869636e-05 0.054689163824198819 0 9.1128389072606027e-05 0.05462975305447048 0 7.1290841224982445e-05 0.054709287643619701 0 9.1196818298869636e-05 0.054689163824198819 0 0.00012757926926982124 0.054539361905212969 0 0.00012109119939392159 0.054404170591461055 0 0.00011666690221478316 0.054449122910755154 0 0.00010906904067888118 0.054458839164354553 0 9.1128389072606027e-05 0.05462975305447048 0 0.00012757926926982124 0.054539361905212969 0 0.00010906904067888118 0.054458839164354553 0 0.00012757926926982124 0.054539361905212969 0 0.00012109119939392159 0.054404170591461055 0 0.00010906904067888118 0.054458839164354553 0 0.00012109119939392159 0.054404170591461055 0 0.00016065749395347212 0.05432533695307934 0 8.9266445289415525e-05 0.054388074083978881 0 0.00010906904067888118 0.054458839164354553 0 0.00016065749395347212 0.05432533695307934 0 0.00016065749395347212 0.05432533695307934 0 0.0001412530513950119 0.054298731204934135 0 0.00020806525194113159 0.05425755704661317 0 0.00012109119939392159 0.054404170591461055 0 0.00016065749395347212 0.05432533695307934 0 0.0001412530513950119 0.054298731204934135 0 0.00012109119939392159 0.054404170591461055 0 0.0001412530513950119 0.054298731204934135 0 0.00011342394120221023 0.054352052772067991 0 0.00012109119939392159 0.054404170591461055 0 0.00012088783317720394 0.05441379942658825 0 0.00011666690221478316 0.054449122910755154 0 0.00012109119939392159 0.054404170591461055 0 0.00011342394120221023 0.054352052772067991 0 0.00012088783317720394 0.05441379942658825 0 0.00012088783317720394 0.05441379942658825 0 0.00013778414185774873 0.054448421941382864 0 0.00011692347769524807 0.054406630534718378 0 0.00011342394120221023 0.054352052772067991 0 0.00012088783317720394 0.05441379942658825 0 0.00011692347769524807 0.054406630534718378 0 0.00011342394120221023 0.054352052772067991 0 0.00011692347769524807 0.054406630534718378 0 9.3893650940418799e-05 0.054337629502629617 0 0.00012757926926982124 0.054539361905212969 0 5.8912559205157631e-05 0.054894931858651692 0 9.1196818298869636e-05 0.054689163824198819 0 7.7152908575256951e-05 0.054654998872060261 0 4.9522467113589051e-05 0.05470017323345458 0 9.3816934928979867e-05 0.05444364323821424 0 0.00011924512311191804 0.054475376679189169 0 0.00011862902778522771 0.054459751593396673 0 0.00012757926926982124 0.054539361905212969 0 9.3816934928979867e-05 0.05444364323821424 0 0.00011924512311191804 0.054475376679189169 0 0.00011924512311191804 0.054475376679189169 0 0.00012535356378785319 0.054448978625224763 0 0.00011862902778522771 0.054459751593396673 0 0.00012757926926982124 0.054539361905212969 0 0.00011924512311191804 0.054475376679189169 0 0.00011666690221478316 0.054449122910755154 0 0.00011924512311191804 0.054475376679189169 0 0.00011666690221478316 0.054449122910755154 0 0.00012535356378785319 0.054448978625224763 0 0.00012088783317720394 0.05441379942658825 0 0.00011666690221478316 0.054449122910755154 0 0.00012535356378785319 0.054448978625224763 0 0.00012088783317720394 0.05441379942658825 0 0.00012535356378785319 0.054448978625224763 0 0.00013778414185774873 0.054448421941382864 0 0.00013778414185774873 0.054448421941382864 0 0.00012666059432414712 0.05448025501096905 0 0.00016497251236791252 0.054488346208835282 0 0.00012535356378785319 0.054448978625224763 0 0.00011862902778522771 0.054459751593396673 0 0.00012666059432414712 0.05448025501096905 0 0.00012535356378785319 0.054448978625224763 0 0.00013778414185774873 0.054448421941382864 0 0.00012666059432414712 0.05448025501096905 0 9.3816934928979867e-05 0.05444364323821424 0 0.00012666059432414712 0.05448025501096905 0 8.3130379136605586e-05 0.054579435967419633 0 9.3816934928979867e-05 0.05444364323821424 0 0.00011862902778522771 0.054459751593396673 0 0.00012666059432414712 0.05448025501096905 0 3.6375720630637997e-05 0.054686436857029889 0 8.3130379136605586e-05 0.054579435967419633 0 0.0001083856873774727 0.054623066602259768 0 8.3130379136605586e-05 0.054579435967419633 0 0.00016497251236791252 0.054488346208835282 0 0.0001083856873774727 0.054623066602259768 0 0.00012666059432414712 0.05448025501096905 0 8.3130379136605586e-05 0.054579435967419633 0 0.00016497251236791252 0.054488346208835282 0 -0.00013938602622099103 0.054515008403115461 0 -0.00018722272070387979 0.054521199483389654 0 0.00016497251236791252 0.054488346208835282 0 0.00019127216399400857 0.054682649604789219 0 0.0001083856873774727 0.054623066602259768 0 0.00016497251236791252 0.054488346208835282 0 0.00016669444139215116 0.054374598189583359 0 0.00012280934589409305 0.054408282484143249 0 5.7823435547654229e-05 0.054726942895609719 0 0.00019127216399400857 0.054682649604789219 0 0.0001083856873774727 0.054623066602259768 0 5.7823435547654229e-05 0.054726942895609719 0 3.6375720630637997e-05 0.054686436857029889 0 0.0001083856873774727 0.054623066602259768 0 0.00011692347769524807 0.054406630534718378 0 0.00010102956245660936 0.054374402650102016 0 9.3893650940418799e-05 0.054337629502629617 0 0.00011692347769524807 0.054406630534718378 0 0.00012280934589409305 0.054408282484143249 0 0.00010102956245660936 0.054374402650102016 0 0.00013778414185774873 0.054448421941382864 0 0.00016497251236791252 0.054488346208835282 0 0.00011692347769524807 0.054406630534718378 0 0.00016497251236791252 0.054488346208835282 0 0.00011692347769524807 0.054406630534718378 0 0.00012280934589409305 0.054408282484143249 0 0.00012280934589409305 0.054408282484143249 0 0.0001191074625707525 0.054367276011020205 0 0.00010102956245660936 0.054374402650102016 0 0.00016669444139215116 0.054374598189583359 0 0.00012280934589409305 0.054408282484143249 0 0.0001191074625707525 0.054367276011020205 0 0.00010108200806446197 0.054344159427809763 0 0.0001191074625707525 0.054367276011020205 0 0.00010102956245660936 0.054374402650102016 0 0.00010108200806446197 0.054344159427809763 0 0.00010102956245660936 0.054374402650102016 0 9.3789945428927277e-05 0.054353938473308834 0 0.00010102956245660936 0.054374402650102016 0 9.3789945428927277e-05 0.054353938473308834 0 9.6467193704939157e-05 0.054349802706686406 0 9.3789945428927277e-05 0.054353938473308834 0 9.6467193704939157e-05 0.054349802706686406 0 9.4685169308734708e-05 0.05435034063944965 0 9.6467193704939157e-05 0.054349802706686406 0 9.3893650940418799e-05 0.054337629502629617 0 0.00011577440232491859 0.054320985269452268 0 0.00010102956245660936 0.054374402650102016 0 9.6467193704939157e-05 0.054349802706686406 0 9.3893650940418799e-05 0.054337629502629617 0 0.0013541342587269866 0.047765200412514218 0 0.0019297873461253533 0.044946134394912192 0 0.00071362787315196175 0.045703582705054396 0 9.6467193704939157e-05 0.054349802706686406 0 0.00011577440232491859 0.054320985269452268 0 9.4685169308734708e-05 0.05435034063944965 0 -8.6453549128436943e-05 0.051036074151662683 0 -0.00058963112062977458 0.050183697013581843 0 0.00051502597644471936 0.044238925167906451 0 0.0019297873461253533 0.044946134394912192 0 0.00071362787315196175 0.045703582705054396 0 0.00051502597644471936 0.044238925167906451 0 0.00071362787315196175 0.045703582705054396 0 -0.00012239064471552717 0.045234665878112174 0 -0.00056563633385665717 0.044505611919098867 0 -0.00012239064471552717 0.045234665878112174 0 -0.0012833573993003189 0.04557870957190352 0 -0.00018944807060050184 0.046593650012878671 0 -0.0012833573993003189 0.04557870957190352 0 -0.0013857172181219841 0.046982149549040793 0 -0.00012239064471552717 0.045234665878112174 0 -0.00018944807060050184 0.046593650012878671 0 -0.0012833573993003189 0.04557870957190352 0 0.00071362787315196175 0.045703582705054396 0 -0.00012239064471552717 0.045234665878112174 0 -0.00018944807060050184 0.046593650012878671 0 -0.0019628321561687987 0.044405006968346136 0 -0.0029891209007164876 0.045510071164213961 0 -0.0040597671947233344 0.045325051729231548 0 -0.0016997007635200401 0.044662265915953771 0 -0.0023455862141036322 0.044918514454456722 0 -0.0019628321561687987 0.044405006968346136 0 -0.0029891209007164876 0.045510071164213961 0 -0.0021726502674822316 0.045445309456487448 0 -0.0019628321561687987 0.044405006968346136 0 -0.0012833573993003189 0.04557870957190352 0 -0.0021726502674822316 0.045445309456487448 0 -0.00056563633385665717 0.044505611919098867 0 -0.0019628321561687987 0.044405006968346136 0 -0.0012833573993003189 0.04557870957190352 0 -0.0012833573993003189 0.04557870957190352 0 -0.0021726502674822316 0.045445309456487448 0 -0.0024590934999941865 0.046304749052289526 0 -0.0012833573993003189 0.04557870957190352 0 -0.0024590934999941865 0.046304749052289526 0 -0.0013857172181219841 0.046982149549040793 0 -0.0029891209007164876 0.045510071164213961 0 -0.0024590934999941865 0.046304749052289526 0 -0.0035700255650459706 0.046106978935814502 0 -0.0029891209007164876 0.045510071164213961 0 -0.0021726502674822316 0.045445309456487448 0 -0.0024590934999941865 0.046304749052289526 0 -0.0021769181069851897 0.048123204590239499 0 -0.0036297812571722565 0.047418719158931207 0 -0.0035018381252757431 0.049523864379159295 0 -0.0024590934999941865 0.046304749052289526 0 -0.0021769181069851897 0.048123204590239499 0 -0.0036297812571722565 0.047418719158931207 0 -0.0024590934999941865 0.046304749052289526 0 -0.0013857172181219841 0.046982149549040793 0 -0.0021769181069851897 0.048123204590239499 0 -0.0013857172181219841 0.046982149549040793 0 -0.0021769181069851897 0.048123204590239499 0 -0.00059862719062457235 0.048330838523078477 0 0.0013541342587269866 0.047765200412514218 0 -0.00018944807060050184 0.046593650012878671 0 -0.00059862719062457235 0.048330838523078477 0 0.0013541342587269866 0.047765200412514218 0 0.00071362787315196175 0.045703582705054396 0 -0.00018944807060050184 0.046593650012878671 0 -0.00018944807060050184 0.046593650012878671 0 -0.0013857172181219841 0.046982149549040793 0 -0.00059862719062457235 0.048330838523078477 0 -0.00059862719062457235 0.048330838523078477 0 -0.0017879494727776899 0.049889438883249926 0 0.00071775684467434377 0.050686096180173203 0 0.0013541342587269866 0.047765200412514218 0 -0.00059862719062457235 0.048330838523078477 0 0.00071775684467434377 0.050686096180173203 0 -0.0021769181069851897 0.048123204590239499 0 -0.0017879494727776899 0.049889438883249926 0 -0.0035018381252757431 0.049523864379159295 0 -0.0021769181069851897 0.048123204590239499 0 -0.00059862719062457235 0.048330838523078477 0 -0.0017879494727776899 0.049889438883249926 0 -0.0017879494727776899 0.049889438883249926 0 -0.0026290316288589666 0.051463302888264673 0 -0.0035018381252757431 0.049523864379159295 0 -0.0017879494727776899 0.049889438883249926 0 -0.0026290316288589666 0.051463302888264673 0 -0.0010668570439967594 0.05153571958671848 0 -0.0026290316288589666 0.051463302888264673 0 -0.0010668570439967594 0.05153571958671848 0 -0.0017081361850436287 0.052870148614871271 0 -5.3100724363246146e-05 0.052196404351126671 0 -0.00013672689434297836 0.052856298501081339 0 -0.0010668570439967594 0.05153571958671848 0 0.00071775684467434377 0.050686096180173203 0 -0.00016665721067746846 0.053833023139166679 0 -0.0017879494727776899 0.049889438883249926 0 -0.0010668570439967594 0.05153571958671848 0 0.00071775684467434377 0.050686096180173203 0 9.259660277010639e-05 0.054194418391786639 0 9.4264992300530675e-05 0.054261633696438341 0 0.0001011934891225389 0.054180533565574181 0 9.259660277010639e-05 0.054194418391786639 0 0.0001011934891225389 0.054180533565574181 0 -0.00016665721067746846 0.053833023139166679 0 0.0001412530513950119 0.054298731204934135 0 0.00011342394120221023 0.054352052772067991 0 9.4264992300530675e-05 0.054261633696438341 0 0.0001412530513950119 0.054298731204934135 0 9.4264992300530675e-05 0.054261633696438341 0 0.0001011934891225389 0.054180533565574181 0 9.3893650940418799e-05 0.054337629502629617 0 0.00011577440232491859 0.054320985269452268 0 9.4264992300530675e-05 0.054261633696438341 0 0.00011342394120221023 0.054352052772067991 0 9.3893650940418799e-05 0.054337629502629617 0 9.4264992300530675e-05 0.054261633696438341 0 0.00011577440232491859 0.054320985269452268 0 9.259660277010639e-05 0.054194418391786639 0 9.4264992300530675e-05 0.054261633696438341 0 -8.6453549128436943e-05 0.051036074151662683 0 -5.3100724363246146e-05 0.052196404351126671 0 -0.0082182230904765795 0.0013206054050466031 0 -0.0092616651840024058 0.00036858843289718369 0 -0.0081354594198551067 -0.00063522333325561004 0 -0.0092616651840024058 0.00036858843289718369 0 -0.0096137668930396658 -0.00062132634707753463 0 -0.0081354594198551067 -0.00063522333325561004 0 -0.0082182230904765795 0.0013206054050466031 0 -0.0099350476751037062 0.0013064183740106902 0 -0.0092616651840024058 0.00036858843289718369 0 -0.0096034789755541066 0.0024227153527201558 0 -0.0082182230904765795 0.0013206054050466031 0 -0.0099350476751037062 0.0013064183740106902 0 -0.0099350476751037062 0.0013064183740106902 0 -0.0092616651840024058 0.00036858843289718369 0 -0.010413479551345138 0.00049796256260189445 0 -0.010830372374586733 -0.00053614871958592521 0 -0.010413479551345138 0.00049796256260189445 0 -0.0096137668930396658 -0.00062132634707753463 0 -0.0092616651840024058 0.00036858843289718369 0 -0.010413479551345138 0.00049796256260189445 0 -0.0096137668930396658 -0.00062132634707753463 0 -0.010830372374586733 -0.00053614871958592521 0 -0.010413479551345138 0.00049796256260189445 0 -0.011988907747045875 0.00098826300441561183 0 -0.0071110513704994455 0.024086736743806691 0 -0.0066556493345738257 0.024755503389729844 0 -0.0062540099659423891 0.048413557266160576 0 -0.0046156552329690015 0.045906668040638365 0 -0.0046510377282621921 0.048390307821340614 0 -0.0099350476751037062 0.0013064183740106902 0 -0.010413479551345138 0.00049796256260189445 0 -0.011141199485818036 0.0015379509506580956 0 -0.010413479551345138 0.00049796256260189445 0 -0.011141199485818036 0.0015379509506580956 0 -0.011988907747045875 0.00098826300441561183 0 -0.010563385932124907 0.0021951948606575311 0 -0.0099350476751037062 0.0013064183740106902 0 -0.011141199485818036 0.0015379509506580956 0 -0.0028239618145564195 0.043035069406027922 0 -0.0046156552329690015 0.045906668040638365 0 -0.0040597671947233344 0.045325051729231548 0 -0.012057186228273811 0.002143171189673635 0 -0.011141199485818036 0.0015379509506580956 0 -0.011988907747045875 0.00098826300441561183 0 -0.0046156552329690015 0.045906668040638365 0 -0.0035700255650459706 0.046106978935814502 0 -0.0036297812571722565 0.047418719158931207 0 -0.0029891209007164876 0.045510071164213961 0 -0.0040597671947233344 0.045325051729231548 0 -0.0035700255650459706 0.046106978935814502 0 -0.0046156552329690015 0.045906668040638365 0 -0.0040597671947233344 0.045325051729231548 0 -0.0035700255650459706 0.046106978935814502 0 -0.0024590934999941865 0.046304749052289526 0 -0.0035700255650459706 0.046106978935814502 0 -0.0036297812571722565 0.047418719158931207 0 -0.0036297812571722565 0.047418719158931207 0 -0.0046510377282621921 0.048390307821340614 0 -0.0035018381252757431 0.049523864379159295 0 -0.0046156552329690015 0.045906668040638365 0 -0.0036297812571722565 0.047418719158931207 0 -0.0046510377282621921 0.048390307821340614 0 -0.0046510377282621921 0.048390307821340614 0 -0.0035018381252757431 0.049523864379159295 0 -0.0052534889053488867 0.050664956311542039 0 -0.0035018381252757431 0.049523864379159295 0 -0.0038433814015217866 0.050885995663467611 0 -0.0052534889053488867 0.050664956311542039 0 -0.0026290316288589666 0.051463302888264673 0 -0.0035018381252757431 0.049523864379159295 0 -0.0038433814015217866 0.050885995663467611 0 -0.004060059615953425 0.052151346776508803 0 -0.0052534889053488867 0.050664956311542039 0 -0.0052828986681154174 0.053314866031600398 0 -0.0026290316288589666 0.051463302888264673 0 -0.0038433814015217866 0.050885995663467611 0 -0.004060059615953425 0.052151346776508803 0 -0.0026290316288589666 0.051463302888264673 0 -0.004060059615953425 0.052151346776508803 0 -0.0027907258923182709 0.053299096327642646 0 -0.0038433814015217866 0.050885995663467611 0 -0.004060059615953425 0.052151346776508803 0 -0.0052534889053488867 0.050664956311542039 0 -0.0058777682921945856 0.022134625140372705 0 -0.0032230773179946297 0.026932748715817807 0 -0.0052534889053488867 0.050664956311542039 0 -0.00793619459902805 0.050883516157832626 0 -0.0052828986681154174 0.053314866031600398 0 -0.0062540099659423891 0.048413557266160576 0 -0.0052534889053488867 0.050664956311542039 0 -0.00793619459902805 0.050883516157832626 0 -0.0062540099659423891 0.048413557266160576 0 -0.0046510377282621921 0.048390307821340614 0 -0.0052534889053488867 0.050664956311542039 0 -0.0096137668930396658 -0.00062132634707753463 0 -0.0097456486790309504 -0.0020443768416127028 0 -0.0081354594198551067 -0.00063522333325561004 0 -0.010830372374586733 -0.00053614871958592521 0 -0.0096137668930396658 -0.00062132634707753463 0 -0.0097456486790309504 -0.0020443768416127028 0 -0.0071110513704994455 0.024086736743806691 0 -0.0058777682921945856 0.022134625140372705 0 -0.0057958393447005855 0.00089111456410743202 0 -0.0063700114394378022 0.00083800055301394745 0 -0.0046320367821351153 0.0031444928283137319 0 -0.0057958393447005855 0.00089111456410743202 0 -0.0056085719079963384 0.00059891630222461763 0 -0.0046320367821351153 0.0031444928283137319 0 -0.0057958393447005855 0.00089111456410743202 0 -0.0058253529005410573 0.00072279007122687949 0 -0.0063700114394378022 0.00083800055301394745 0 -0.0057615215843071976 0.02187923466339706 0 -0.0058777682921945856 0.022134625140372705 0 -0.0058253529005410573 0.00072279007122687949 0 -0.0063700114394378022 0.00083800055301394745 0 -0.0063836939370546649 0.00073397620614034959 0 -0.0063700114394378022 0.00083800055301394745 0 -0.0063490860052996274 0.00067422808940923763 0 -0.0063707392951021409 0.00060225768366372007 0 -0.0063700114394378022 0.00083800055301394745 0 -0.0063490860052996274 0.00067422808940923763 0 -0.0063836939370546649 0.00073397620614034959 0 -0.0063490860052996274 0.00067422808940923763 0 -0.0063836939370546649 0.00073397620614034959 0 -0.0063287878086769073 0.00063823580121733945 0 -0.0058253529005410573 0.00072279007122687949 0 -0.0063836939370546649 0.00073397620614034959 0 -0.0064835610910326386 0.00065923050230767193 0 -0.0063836939370546649 0.00073397620614034959 0 -0.0064835610910326386 0.00065923050230767193 0 -0.0063287878086769073 0.00063823580121733945 0 -0.0058777682921945856 0.022134625140372705 0 -0.010481279568308109 0.0075659889589705341 0 -0.0064649532057636317 0.00040989822817870327 0 -0.0063676618613457683 0.00045393682795112834 0 -0.0062534274230084137 0.00023985137618247673 0 -0.0064649532057636317 0.00040989822817870327 0 -0.0065593116737801202 0.00036559739439203374 0 -0.0062534274230084137 0.00023985137618247673 0 -0.0064649532057636317 0.00040989822817870327 0 -0.0063676618613457683 0.00045393682795112834 0 -0.0064565193377601358 0.00051854304519818742 0 -0.0063676618613457683 0.00045393682795112834 0 -0.0063707392951021409 0.00060225768366372007 0 -0.0062830719398545062 0.00048855305386649197 0 -0.0063490860052996274 0.00067422808940923763 0 -0.0063707392951021409 0.00060225768366372007 0 -0.0062830719398545062 0.00048855305386649197 0 -0.0063700114394378022 0.00083800055301394745 0 -0.0063707392951021409 0.00060225768366372007 0 -0.006473178291596585 0.00064609649729026016 0 -0.0063676618613457683 0.00045393682795112834 0 -0.0063707392951021409 0.00060225768366372007 0 -0.0064565193377601358 0.00051854304519818742 0 -0.0063707392951021409 0.00060225768366372007 0 -0.0064565193377601358 0.00051854304519818742 0 -0.006473178291596585 0.00064609649729026016 0 -0.0063700114394378022 0.00083800055301394745 0 -0.006473178291596585 0.00064609649729026016 0 -0.0066670666906637156 0.00058404491403074772 0 -0.0064565193377601358 0.00051854304519818742 0 -0.0065424578906655697 0.00055637876956274974 0 -0.0065773046042434538 0.00048628597435897836 0 -0.0090442275158852704 0.0062838048912277969 0 -0.0086517930930362485 0.009189326063660656 0 -0.0064565193377601358 0.00051854304519818742 0 -0.0065424578906655697 0.00055637876956274974 0 -0.006473178291596585 0.00064609649729026016 0 -0.0065424578906655697 0.00055637876956274974 0 -0.006473178291596585 0.00064609649729026016 0 -0.0066670666906637156 0.00058404491403074772 0 -0.0065424578906655697 0.00055637876956274974 0 -0.0065773046042434538 0.00048628597435897836 0 -0.0066670666906637156 0.00058404491403074772 0 -0.0065773046042434538 0.00048628597435897836 0 -0.0066510777022959653 0.00050288939389414133 0 -0.0066670666906637156 0.00058404491403074772 0 -0.0065773046042434538 0.00048628597435897836 0 -0.0066483049239633545 0.0004483510506326214 0 -0.0066510777022959653 0.00050288939389414133 0 -0.0064649532057636317 0.00040989822817870327 0 -0.0064565193377601358 0.00051854304519818742 0 -0.0065773046042434538 0.00048628597435897836 0 -0.0064649532057636317 0.00040989822817870327 0 -0.0065773046042434538 0.00048628597435897836 0 -0.0065733782820553595 0.00042572643551313914 0 -0.0064649532057636317 0.00040989822817870327 0 -0.0065733782820553595 0.00042572643551313914 0 -0.0065593116737801202 0.00036559739439203374 0 -0.0065733782820553595 0.00042572643551313914 0 -0.0066483049239633545 0.0004483510506326214 0 -0.0065593116737801202 0.00036559739439203374 0 -0.0065773046042434538 0.00048628597435897836 0 -0.0065733782820553595 0.00042572643551313914 0 -0.0066483049239633545 0.0004483510506326214 0 -0.0066483049239633545 0.0004483510506326214 0 -0.006708049754646536 0.00049164947725418402 0 -0.0068305800178465395 0.0004762126841670674 0 -0.0066483049239633545 0.0004483510506326214 0 -0.0068305800178465395 0.0004762126841670674 0 -0.0065593116737801202 0.00036559739439203374 0 -0.0041966306895927395 0.022413036201935098 0 -0.0062367852361050373 0.0098304701618003257 0 -0.006708049754646536 0.00049164947725418402 0 -0.0066670666906637156 0.00058404491403074772 0 -0.0068305800178465395 0.0004762126841670674 0 -0.0086517930930362485 0.009189326063660656 0 -0.0041966306895927395 0.022413036201935098 0 -0.006708049754646536 0.00049164947725418402 0 -0.0066510777022959653 0.00050288939389414133 0 -0.0066670666906637156 0.00058404491403074772 0 -0.0066483049239633545 0.0004483510506326214 0 -0.006708049754646536 0.00049164947725418402 0 -0.0066510777022959653 0.00050288939389414133 0 -0.0046320367821351153 0.0031444928283137319 0 -0.0031941407956295291 0.0028743447738644266 0 -0.0020504170950527058 0.0057087312681305003 0 -0.0056085719079963384 0.00059891630222461763 0 -0.0046320367821351153 0.0031444928283137319 0 -0.0031941407956295291 0.0028743447738644266 0 -0.0052828986681154174 0.053314866031600398 0 -0.0036771117562807549 0.053577784974190336 0 -0.0025788425884373492 0.055451856648824828 0 -0.004060059615953425 0.052151346776508803 0 -0.0052828986681154174 0.053314866031600398 0 -0.0036771117562807549 0.053577784974190336 0 -0.004060059615953425 0.052151346776508803 0 -0.0036771117562807549 0.053577784974190336 0 -0.0027907258923182709 0.053299096327642646 0 -0.0032230773179946297 0.026932748715817807 0 7.8469166776121515e-05 0.030783017361583308 0 -0.0031941407956295291 0.0028743447738644266 0 -0.0020504170950527058 0.0057087312681305003 0 -0.00033668203023049903 0.0055559888331767095 0 -0.0041966306895927395 0.022413036201935098 0 7.8469166776121515e-05 0.030783017361583308 0 -0.0019512503610431599 0.002688866887866312 0 -0.001416166041760199 0.004339306115487762 0 0.0022753276300771178 0.0041482686477616396 0 -0.0024545749117060338 -0.00023172799064588755 0 -0.0019512503610431599 0.002688866887866312 0 0.0022753276300771178 0.0041482686477616396 0 -0.0024545749117060338 -0.00023172799064588755 0 -0.0019512503610431599 0.002688866887866312 0 -0.0043122148895157206 0.0017379133913102702 0 -0.0038611718291459755 0.0034536157082952082 0 -0.0019512503610431599 0.002688866887866312 0 -0.0043122148895157206 0.0017379133913102702 0 -0.0038611718291459755 0.0034536157082952082 0 -0.0019512503610431599 0.002688866887866312 0 -0.001416166041760199 0.004339306115487762 0 -0.001416166041760199 0.004339306115487762 0 -0.0032351106893020462 0.0057405101274008883 0 -0.00013216873800811642 0.0067501077106912524 0 -0.0032351106893020462 0.0057405101274008883 0 -0.00013216873800811642 0.0067501077106912524 0 -0.0033641952703680556 0.0084606195941929925 0 -0.0038611718291459755 0.0034536157082952082 0 -0.001416166041760199 0.004339306115487762 0 -0.0032351106893020462 0.0057405101274008883 0 -0.0038611718291459755 0.0034536157082952082 0 -0.0032351106893020462 0.0057405101274008883 0 -0.0057429644805562204 0.0043297086785430219 0 -0.0032351106893020462 0.0057405101274008883 0 -0.0057429644805562204 0.0043297086785430219 0 -0.0055980313838114712 0.0067733739805493458 0 -0.0032351106893020462 0.0057405101274008883 0 -0.0055980313838114712 0.0067733739805493458 0 -0.0033641952703680556 0.0084606195941929925 0 -0.0055980313838114712 0.0067733739805493458 0 -0.0079601486917757706 0.0050468839321232556 0 -0.0078511914592693539 0.0077590295210498506 0 -0.0055980313838114712 0.0067733739805493458 0 -0.0078511914592693539 0.0077590295210498506 0 -0.006180327024662524 0.0092960642585750985 0 -0.0057429644805562204 0.0043297086785430219 0 -0.0055980313838114712 0.0067733739805493458 0 -0.0079601486917757706 0.0050468839321232556 0 -0.0024545749117060338 -0.00023172799064588755 0 -0.0064836462906757786 0.0016325807309343977 0 -0.0097631789098626964 0.00082320477786676895 0 -0.0057429644805562204 0.0043297086785430219 0 -0.0074700551884177239 0.0029039822617245468 0 -0.0079601486917757706 0.0050468839321232556 0 -0.0024545749117060338 -0.00023172799064588755 0 -0.0043122148895157206 0.0017379133913102702 0 -0.0064836462906757786 0.0016325807309343977 0 -0.0074700551884177239 0.0029039822617245468 0 -0.0058672981515120711 0.0027263067338404419 0 -0.0064836462906757786 0.0016325807309343977 0 -0.0057429644805562204 0.0043297086785430219 0 -0.0074700551884177239 0.0029039822617245468 0 -0.0058672981515120711 0.0027263067338404419 0 -0.0038611718291459755 0.0034536157082952082 0 -0.0058672981515120711 0.0027263067338404419 0 -0.0043122148895157206 0.0017379133913102702 0 -0.0038611718291459755 0.0034536157082952082 0 -0.0057429644805562204 0.0043297086785430219 0 -0.0058672981515120711 0.0027263067338404419 0 -0.0058672981515120711 0.0027263067338404419 0 -0.0043122148895157206 0.0017379133913102702 0 -0.0064836462906757786 0.0016325807309343977 0 -0.0074700551884177239 0.0029039822617245468 0 -0.0064836462906757786 0.0016325807309343977 0 -0.0088380357813378722 0.0016579769152831054 0 -0.0064836462906757786 0.0016325807309343977 0 -0.0088380357813378722 0.0016579769152831054 0 -0.0097631789098626964 0.00082320477786676895 0 -0.0088380357813378722 0.0016579769152831054 0 -0.0094302076397271718 0.0012553914260621736 0 -0.0094087702067705819 0.001982849966470425 0 -0.0088380357813378722 0.0016579769152831054 0 -0.0094302076397271718 0.0012553914260621736 0 -0.0097631789098626964 0.00082320477786676895 0 -0.0094087702067705819 0.001982849966470425 0 -0.0097324418056728076 0.0008198877761108281 0 -0.010326952432354332 0.0032571570105002392 0 -0.0094302076397271718 0.0012553914260621736 0 -0.0097631789098626964 0.00082320477786676895 0 -0.0097324418056728076 0.0008198877761108281 0 -0.0094302076397271718 0.0012553914260621736 0 -0.0094087702067705819 0.001982849966470425 0 -0.0097324418056728076 0.0008198877761108281 0 -0.0094087702067705819 0.001982849966470425 0 -0.010326952432354332 0.0032571570105002392 0 -0.008955373954749846 0.0031945286270611043 0 -0.010326952432354332 0.0032571570105002392 0 -0.008955373954749846 0.0031945286270611043 0 -0.0097114553421446433 0.0046529412546180825 0 -0.0074700551884177239 0.0029039822617245468 0 -0.008955373954749846 0.0031945286270611043 0 -0.0079601486917757706 0.0050468839321232556 0 -0.0088380357813378722 0.0016579769152831054 0 -0.0094087702067705819 0.001982849966470425 0 -0.008955373954749846 0.0031945286270611043 0 -0.0074700551884177239 0.0029039822617245468 0 -0.0088380357813378722 0.0016579769152831054 0 -0.008955373954749846 0.0031945286270611043 0 -0.0079601486917757706 0.0050468839321232556 0 -0.0099072566079762732 0.0068059283356492481 0 -0.0097114553421446433 0.0046529412546180825 0 -0.008955373954749846 0.0031945286270611043 0 -0.0079601486917757706 0.0050468839321232556 0 -0.0097114553421446433 0.0046529412546180825 0 -0.0079601486917757706 0.0050468839321232556 0 -0.0078511914592693539 0.0077590295210498506 0 -0.0099072566079762732 0.0068059283356492481 0 -0.0099072566079762732 0.0068059283356492481 0 -0.011468733642762007 0.0053271860429520363 0 -0.012508292864354576 0.0071188056923039335 0 -0.010326952432354332 0.0032571570105002392 0 -0.0097114553421446433 0.0046529412546180825 0 -0.011468733642762007 0.0053271860429520363 0 -0.0099072566079762732 0.0068059283356492481 0 -0.0097114553421446433 0.0046529412546180825 0 -0.011468733642762007 0.0053271860429520363 0 -0.011468733642762007 0.0053271860429520363 0 -0.012508292864354576 0.0071188056923039335 0 -0.013885589201762433 0.0048130780862573946 0 -0.010326952432354332 0.0032571570105002392 0 -0.011468733642762007 0.0053271860429520363 0 -0.013885589201762433 0.0048130780862573946 0 -0.012508292864354576 0.0071188056923039335 0 -0.013885589201762433 0.0048130780862573946 0 -0.017724776723756667 0.0086880826658341393 0 -0.0097324418056728076 0.0008198877761108281 0 -0.0090052461925123461 -0.00043595000949403961 0 -0.0082612645120829341 0.00052364843163470295 0 -0.0097631789098626964 0.00082320477786676895 0 -0.0097324418056728076 0.0008198877761108281 0 -0.0082612645120829341 0.00052364843163470295 0 -0.0062367852361050373 0.0098304701618003257 0 -0.0066573719203658344 0.0048275812398504096 0 -0.0092931466766689157 0.0035282148369002149 0 -0.009645240451589673 0.0045394537761293515 0 -0.0097324418056728076 0.0008198877761108281 0 -0.010326952432354332 0.0032571570105002392 0 -0.013885589201762433 0.0048130780862573946 0 0.00020806525194113159 0.05425755704661317 0 0.00015330036160981274 0.054009899415013017 0 0.00019649373612536856 0.054120374300766182 0 -0.00092578652348214701 0.044845879545016842 0 -0.0010637341148329073 0.041855524052443062 0 0.00020806525194113159 0.05425755704661317 0 8.0166884645899576e-05 0.054231889975163282 0 -6.5248293909842491e-05 0.054709548604486728 0 0.00020806525194113159 0.05425755704661317 0 0.00019649373612536856 0.054120374300766182 0 0.0002149929708283786 0.054187526844732742 0 0.00016065749395347212 0.05432533695307934 0 0.00020806525194113159 0.05425755704661317 0 0.0002149929708283786 0.054187526844732742 0 0.0001412530513950119 0.054298731204934135 0 0.00020806525194113159 0.05425755704661317 0 0.0001011934891225389 0.054180533565574181 0 0.00020806525194113159 0.05425755704661317 0 0.0001011934891225389 0.054180533565574181 0 8.0166884645899576e-05 0.054231889975163282 0 0.0001011934891225389 0.054180533565574181 0 8.0166884645899576e-05 0.054231889975163282 0 -0.00016665721067746846 0.053833023139166679 0 8.0166884645899576e-05 0.054231889975163282 0 -0.00016665721067746846 0.053833023139166679 0 -6.5248293909842491e-05 0.054709548604486728 0 -0.0010668570439967594 0.05153571958671848 0 -0.00016665721067746846 0.053833023139166679 0 -0.0017081361850436287 0.052870148614871271 0 -0.00016665721067746846 0.053833023139166679 0 -0.0017081361850436287 0.052870148614871271 0 -0.0013817843457998153 0.054111881135825178 0 -0.00016665721067746846 0.053833023139166679 0 -0.0013817843457998153 0.054111881135825178 0 -6.5248293909842491e-05 0.054709548604486728 0 -0.0036771117562807549 0.053577784974190336 0 -0.0027907258923182709 0.053299096327642646 0 -0.0025788425884373492 0.055451856648824828 0 -0.0026290316288589666 0.051463302888264673 0 -0.0027907258923182709 0.053299096327642646 0 -0.0017081361850436287 0.052870148614871271 0 -0.0027907258923182709 0.053299096327642646 0 -0.0017081361850436287 0.052870148614871271 0 -0.0013817843457998153 0.054111881135825178 0 -0.0027907258923182709 0.053299096327642646 0 -0.0013817843457998153 0.054111881135825178 0 -0.0025788425884373492 0.055451856648824828 0 -0.0013817843457998153 0.054111881135825178 0 -0.0025788425884373492 0.055451856648824828 0 -6.5248293909842491e-05 0.054709548604486728 0 7.4994633948771767e-05 0.053883389551085702 0 0.00015330036160981274 0.054009899415013017 0 8.5917214152388203e-05 0.053938013961191522 0 7.8469166776121515e-05 0.030783017361583308 0 -0.0010637341148329073 0.041855524052443062 0 0.00015330036160981274 0.054009899415013017 0 0.00015917553997859369 0.054043681548068392 0 8.5917214152388203e-05 0.053938013961191522 0 8.5917214152388203e-05 0.053938013961191522 0 -0.00013989646755662672 0.054111203143978742 0 7.0042193100381271e-05 0.054083970633399051 0 8.5917214152388203e-05 0.053938013961191522 0 0.00014644583516147195 0.054084600689265468 0 7.0042193100381271e-05 0.054083970633399051 0 0.00015917553997859369 0.054043681548068392 0 8.5917214152388203e-05 0.053938013961191522 0 0.00014644583516147195 0.054084600689265468 0 -0.0041966306895927395 0.022413036201935098 0 -0.00028535155434317633 0.029065698677291411 0 -0.00047602848547231624 0.053236934235491792 0 8.5917214152388203e-05 0.053938013961191522 0 -0.00013989646755662672 0.054111203143978742 0 -0.0010634160616814891 0.053261303851230825 0 -0.00047602848547231624 0.053236934235491792 0 -0.00013989646755662672 0.054111203143978742 0 7.8469166776121515e-05 0.030783017361583308 0 0.003300509668770977 0.036754786523003624 0 0.0022753276300771178 0.0041482686477616396 0 0.0027248675514805706 0.0074198739556507924 0 -0.00013216873800811642 0.0067501077106912524 0 -0.001416166041760199 0.004339306115487762 0 0.0022753276300771178 0.0041482686477616396 0 -0.00013216873800811642 0.0067501077106912524 0 0.0022753276300771178 0.0041482686477616396 0 0.0027248675514805706 0.0074198739556507924 0 0.0055001409399841553 0.0071239492802167908 0 0.0027248675514805706 0.0074198739556507924 0 0.0055001409399841553 0.0071239492802167908 0 0.0070779934453901218 0.0085760718169898987 0 0.00014644583516147195 0.054084600689265468 0 0.0001430560764429078 0.054166402996720139 0 0.00018704836469396398 0.05414050513173705 0 0.00014644583516147195 0.054084600689265468 0 7.0042193100381271e-05 0.054083970633399051 0 0.0001430560764429078 0.054166402996720139 0 -0.00028535155434317633 0.029065698677291411 0 0.000696687695532176 0.032400389521108713 0 -0.00013989646755662672 0.054111203143978742 0 7.0042193100381271e-05 0.054083970633399051 0 0.0001430560764429078 0.054166402996720139 0 0.000696687695532176 0.032400389521108713 0 0.00088147657498156406 0.034081788763549364 0 0.0001430560764429078 0.054166402996720139 0 0.00018704836469396398 0.05414050513173705 0 0.00017200315201857104 0.0541629429709585 0 0.00018704836469396398 0.05414050513173705 0 0.00023536866161506922 0.054159836153649096 0 0.00017200315201857104 0.0541629429709585 0 -0.0016345101511839393 0.038996771557809604 0 0.00088147657498156406 0.034081788763549364 0 0.00018704836469396398 0.05414050513173705 0 0.00020055465024778241 0.054121586152282922 0 0.00023536866161506922 0.054159836153649096 0 0.00014644583516147195 0.054084600689265468 0 0.00018704836469396398 0.05414050513173705 0 0.00020055465024778241 0.054121586152282922 0 0.00015917553997859369 0.054043681548068392 0 0.00014644583516147195 0.054084600689265468 0 0.00020055465024778241 0.054121586152282922 0 0.00020055465024778241 0.054121586152282922 0 0.00019649373612536856 0.054120374300766182 0 0.0002149929708283786 0.054187526844732742 0 0.00015330036160981274 0.054009899415013017 0 0.00015917553997859369 0.054043681548068392 0 0.00019649373612536856 0.054120374300766182 0 0.00015917553997859369 0.054043681548068392 0 0.00020055465024778241 0.054121586152282922 0 0.00019649373612536856 0.054120374300766182 0 0.00020055465024778241 0.054121586152282922 0 0.0002149929708283786 0.054187526844732742 0 0.00023536866161506922 0.054159836153649096 0 0.00019127989265876945 0.054217906790198556 0 0.0002149929708283786 0.054187526844732742 0 0.00023536866161506922 0.054159836153649096 0 0.00023536866161506922 0.054159836153649096 0 0.00024491955893987525 0.054098580960611181 0 0.00032503662882554373 0.054071527100880708 0 0.00023536866161506922 0.054159836153649096 0 0.00024491955893987525 0.054098580960611181 0 0.00020251880239618693 0.054149724696596346 0 0.001633619322380735 0.042106255231982345 0 0.00012502358143288769 0.04618900010140406 0 0.00024491955893987525 0.054098580960611181 0 0.00026534235760560855 0.054037114525743703 0 0.00020564400131774501 0.054089382943082812 0 0.00049717906892817658 0.043740295889168494 0 0.0016179970267392906 0.043782038469346161 0 0.0012663991193918264 0.044085384559681369 0 0.00049717906892817658 0.043740295889168494 0 0.0010477504497986433 0.044343556629816157 0 0.0012663991193918264 0.044085384559681369 0 0.0018265202072355595 0.037046303875652296 0 0.0019852646341716007 0.037709514079852589 0 0.0027054564431643431 0.038014728769908253 0 0.0018265202072355595 0.037046303875652296 0 0.0019852646341716007 0.037709514079852589 0 0.0013649273571920803 0.037569576072923674 0 0.001633619322380735 0.042106255231982345 0 0.00090862747966408033 0.043205429208203146 0 0.001633619322380735 0.042106255231982345 0 0.00083194470835237138 0.040825182810101161 0 0.001885091167799137 0.037016374840003273 0 0.0005695964758254588 0.036962874586248196 0 0.00066734979397298623 0.035681027569716257 0 0.0018265202072355595 0.037046303875652296 0 0.0013649273571920803 0.037569576072923674 0 0.00054704044710388532 0.036986317633195091 0 0.0013649273571920803 0.037569576072923674 0 0.00054704044710388532 0.036986317633195091 0 0.00021219156660101134 0.037743477270861997 0 0.00024491955893987525 0.054098580960611181 0 0.00026534235760560855 0.054037114525743703 0 0.00032503662882554373 0.054071527100880708 0 0.001633619322380735 0.042106255231982345 0 0.0014663794969755608 0.036544468973285539 0 0.00023536866161506922 0.054159836153649096 0 0.00032503662882554373 0.054071527100880708 0 0.00034200455475648232 0.054079222341750138 0 0.0005695964758254588 0.036962874586248196 0 0.00066734979397298623 0.035681027569716257 0 0.00036735482756090199 0.035352784834580028 0 0.0014663794969755608 0.036544468973285539 0 0.00088147657498156406 0.034081788763549364 0 0.0005695964758254588 0.036962874586248196 0 -0.00026044784516350138 0.036086764518826975 0 0.00036735482756090199 0.035352784834580028 0 0.00088147657498156406 0.034081788763549364 0 -0.00034934069911039296 0.028174857016477456 0 -0.00026044784516350138 0.036086764518826975 0 0.00036735482756090199 0.035352784834580028 0 -0.0018135786382744172 0.035898598445350462 0 0.0027248675514805706 0.0074198739556507924 0 0.0070779934453901218 0.0085760718169898987 0 0.00054038555369833252 0.010189785010962397 0 -0.00026044784516350138 0.036086764518826975 0 -0.0018135786382744172 0.035898598445350462 0 -0.00074715824221227079 0.036909447031441701 0 0.0027248675514805706 0.0074198739556507924 0 -0.00013216873800811642 0.0067501077106912524 0 0.00054038555369833252 0.010189785010962397 0 -0.0018135786382744172 0.035898598445350462 0 -0.0018634389095866768 0.037103166030723209 0 -0.00074715824221227079 0.036909447031441701 0 -0.002522600488908869 0.032972581174806635 0 -0.00086798423873879992 0.037017389745058013 0 -0.0040735013172417973 0.033757752052912808 0 -0.0015659950629237675 0.034537543300883801 0 -0.002725940970502415 0.035071572148564052 0 -0.0018634389095866768 0.037103166030723209 0 -0.00074715824221227079 0.036909447031441701 0 0.00021219156660101134 0.037743477270861997 0 0.00083194470835237138 0.040825182810101161 0 0.00041430001015164741 0.040421478802282723 0 0.00054704044710388532 0.036986317633195091 0 -0.00074715824221227079 0.036909447031441701 0 0.00021219156660101134 0.037743477270861997 0 0.0005695964758254588 0.036962874586248196 0 -0.00026044784516350138 0.036086764518826975 0 -0.00074715824221227079 0.036909447031441701 0 -0.0015659950629237675 0.034537543300883801 0 -0.002725940970502415 0.035071572148564052 0 -0.0017867130809724563 0.035712505201791193 0 -0.002725940970502415 0.035071572148564052 0 -0.0017867130809724563 0.035712505201791193 0 -0.0026443831725389854 0.036021926399353157 0 -0.0015659950629237675 0.034537543300883801 0 -0.0017867130809724563 0.035712505201791193 0 -0.00074537322205864666 0.035786394969031139 0 -0.0040735013172417973 0.033757752052912808 0 -0.0036323114390425311 0.035245125893344047 0 -0.0043977831302580723 0.034592633810954017 0 -0.0040735013172417973 0.033757752052912808 0 -0.002725940970502415 0.035071572148564052 0 -0.0036323114390425311 0.035245125893344047 0 -0.0036323114390425311 0.035245125893344047 0 -0.0035136283416736958 0.036070640001380085 0 -0.0026443831725389854 0.036021926399353157 0 -0.002725940970502415 0.035071572148564052 0 -0.0036323114390425311 0.035245125893344047 0 -0.0026443831725389854 0.036021926399353157 0 -0.0036323114390425311 0.035245125893344047 0 -0.0035136283416736958 0.036070640001380085 0 -0.0045510110442568844 0.035887189274100978 0 -0.0036323114390425311 0.035245125893344047 0 -0.0043977831302580723 0.034592633810954017 0 -0.0045510110442568844 0.035887189274100978 0 -0.0031174144613390058 0.03703307638245569 0 -0.0045510110442568844 0.035887189274100978 0 -0.0035936417852276189 0.038241124653413019 0 -0.0028649388794126001 0.033795522224960371 0 -0.0021517045967975909 0.030560650479419679 0 -0.0035136283416736958 0.036070640001380085 0 -0.0031174144613390058 0.03703307638245569 0 -0.0045510110442568844 0.035887189274100978 0 -0.0035136283416736958 0.036070640001380085 0 -0.0031174144613390058 0.03703307638245569 0 -0.0026443831725389854 0.036021926399353157 0 -0.0031174144613390058 0.03703307638245569 0 -0.0015968077838582589 0.03674147470863743 0 -0.0016464134623458673 0.038230524251356333 0 -0.0031174144613390058 0.03703307638245569 0 -0.0026443831725389854 0.036021926399353157 0 -0.0015968077838582589 0.03674147470863743 0 -0.0017867130809724563 0.035712505201791193 0 -0.0026443831725389854 0.036021926399353157 0 -0.0015968077838582589 0.03674147470863743 0 -0.0017867130809724563 0.035712505201791193 0 -0.0015968077838582589 0.03674147470863743 0 -0.00074537322205864666 0.035786394969031139 0 -0.0015968077838582589 0.03674147470863743 0 -0.00012931417872550141 0.037102157799948882 0 -0.0016464134623458673 0.038230524251356333 0 -0.0015968077838582589 0.03674147470863743 0 -0.00012931417872550141 0.037102157799948882 0 -0.00074537322205864666 0.035786394969031139 0 -0.00012931417872550141 0.037102157799948882 0 0.0002137678300688669 0.036158711202395985 0 -0.00074537322205864666 0.035786394969031139 0 -0.00012931417872550141 0.037102157799948882 0 0.00084785677369942356 0.036426594293334939 0 0.0010815867784355769 0.037873362057339884 0 0.00084785677369942356 0.036426594293334939 0 0.0010815867784355769 0.037873362057339884 0 0.0021409851501713027 0.03569817035441835 0 -0.00012931417872550141 0.037102157799948882 0 0.00084785677369942356 0.036426594293334939 0 0.0002137678300688669 0.036158711202395985 0 0.00084785677369942356 0.036426594293334939 0 0.0002137678300688669 0.036158711202395985 0 0.00087792332213435127 0.035330011546672611 0 0.00055590644302441446 0.042235525298985388 0 0.0008867126004993074 0.042137507296371592 0 0.0011308977126947134 0.042403832958288937 0 0.00084785677369942356 0.036426594293334939 0 0.00087792332213435127 0.035330011546672611 0 0.0021409851501713027 0.03569817035441835 0 0.00088003430446280504 0.041708557061697349 0 0.00064087600388356596 0.043356559094918784 0 0.0019852646341716007 0.037709514079852589 0 0.0022528652880552348 0.038360962259681497 0 0.0027011831356970164 0.038012975860285021 0 0.00087811390445731343 0.04296220602319923 0 0.00090862747966408033 0.043205429208203146 0 0.0022528652880552348 0.038360962259681497 0 0.0027011831356970164 0.038012975860285021 0 0.0028565147800378148 0.038183753308788503 0 0.00088003430446280504 0.041708557061697349 0 0.00084502531243191444 0.043213039654083359 0 0.00090862747966408033 0.043205429208203146 0 0.00084502531243191444 0.043213039654083359 0 0.0019852646341716007 0.037709514079852589 0 0.0013649273571920803 0.037569576072923674 0 0.0022528652880552348 0.038360962259681497 0 -0.00086798423873879992 0.037017389745058013 0 0.00088003430446280504 0.041708557061697349 0 0.0002137678300688669 0.036158711202395985 0 0.00087792332213435127 0.035330011546672611 0 -0.00074537322205864666 0.035786394969031139 0 -0.0015659950629237675 0.034537543300883801 0 0.00093260023871904552 0.035305312236530335 0 -0.00074537322205864666 0.035786394969031139 0 0.00088003430446280504 0.041708557061697349 0 0.00093209386858879501 0.040905156495123045 0 0.0013649273571920803 0.037569576072923674 0 0.00021219156660101134 0.037743477270861997 0 0.0022528652880552348 0.038360962259681497 0 -0.0062397982099898341 0.013012022042169913 0 -0.0057638203082315785 0.014699489661166642 0 -0.0082865532627414869 0.013484122015620832 0 -0.0062397982099898341 0.013012022042169913 0 -0.0066878734183970804 0.01152905565012924 0 -0.0082865532627414869 0.013484122015620832 0 -0.012508292864354576 0.0071188056923039335 0 -0.013548457597702124 0.0099083754374905304 0 -0.0093222335078665033 0.011153271839921895 0 -0.012508292864354576 0.0071188056923039335 0 -0.013548457597702124 0.0099083754374905304 0 -0.017724776723756667 0.0086880826658341393 0 -0.0062397982099898341 0.013012022042169913 0 -0.0066878734183970804 0.01152905565012924 0 -0.0047725715658998597 0.012090927834513864 0 -0.0097689159271485502 0.012886878444240154 0 -0.0087699336853038733 0.019426605602636659 0 -0.0078511914592693539 0.0077590295210498506 0 -0.0099072566079762732 0.0068059283356492481 0 -0.0094836162362864559 0.010896931698022496 0 -0.011116969709820157 0.01534806850814152 0 -0.0087699336853038733 0.019426605602636659 0 -0.0099072566079762732 0.0068059283356492481 0 -0.012508292864354576 0.0071188056923039335 0 -0.0094836162362864559 0.010896931698022496 0 -0.0078511914592693539 0.0077590295210498506 0 -0.0094836162362864559 0.010896931698022496 0 -0.006180327024662524 0.0092960642585750985 0 -0.0087699336853038733 0.019426605602636659 0 -0.0047440732337655951 0.027053248761709659 0 -0.0047725715658998597 0.012090927834513864 0 -0.0029783355385595983 0.014358719512729009 0 -0.0057638203082315785 0.014699489661166642 0 -0.0062397982099898341 0.013012022042169913 0 -0.0047725715658998597 0.012090927834513864 0 -0.0057638203082315785 0.014699489661166642 0 -0.0074180377016015084 0.032613928916791636 0 -0.0066540580727182967 0.033093525183571268 0 -0.0061126427107745865 0.034129588560422891 0 -0.0087699336853038733 0.019426605602636659 0 -0.0054735777166019647 0.023912461703381935 0 -0.006227690114279141 0.032988551519555986 0 -0.0053069875564876927 0.033507938111092039 0 -0.0061126427107745865 0.034129588560422891 0 -0.0074180377016015084 0.032613928916791636 0 -0.0061641900507306731 0.032949408445698852 0 -0.0066540580727182967 0.033093525183571268 0 -0.0047440732337655951 0.027053248761709659 0 -0.0049125937930417024 0.027184784218780407 0 -0.006227690114279141 0.032988551519555986 0 -0.0066540580727182967 0.033093525183571268 0 -0.0061126427107745865 0.034129588560422891 0 -0.0094836162362864559 0.010896931698022496 0 -0.0058604222521209202 0.011946751322195224 0 -0.006180327024662524 0.0092960642585750985 0 -0.0055980313838114712 0.0067733739805493458 0 -0.006180327024662524 0.0092960642585750985 0 -0.0033641952703680556 0.0084606195941929925 0 -0.0058604222521209202 0.011946751322195224 0 -0.006180327024662524 0.0092960642585750985 0 -0.0033641952703680556 0.0084606195941929925 0 0.00054038555369833252 0.010189785010962397 0 -0.0058604222521209202 0.011946751322195224 0 -0.0033641952703680556 0.0084606195941929925 0 -0.00034934069911039296 0.028174857016477456 0 -0.0047440732337655951 0.027053248761709659 0 -0.00013216873800811642 0.0067501077106912524 0 0.00054038555369833252 0.010189785010962397 0 -0.0033641952703680556 0.0084606195941929925 0 -0.0018135786382744172 0.035898598445350462 0 -0.0018634389095866768 0.037103166030723209 0 -0.0039461361768397185 0.036466293305920272 0 -0.002522600488908869 0.032972581174806635 0 -0.0047440732337655951 0.027053248761709659 0 -0.0040735013172417973 0.033757752052912808 0 -0.006227690114279141 0.032988551519555986 0 -0.0053069875564876927 0.033507938111092039 0 -0.0040735013172417973 0.033757752052912808 0 -0.0053069875564876927 0.033507938111092039 0 -0.0043977831302580723 0.034592633810954017 0 -0.0047463238698468987 0.035004577645819747 0 -0.0050776914413559011 0.035275086022520288 0 -0.0061126427107745865 0.034129588560422891 0 -0.0053069875564876927 0.033507938111092039 0 -0.0047463238698468987 0.035004577645819747 0 -0.0061126427107745865 0.034129588560422891 0 -0.0053069875564876927 0.033507938111092039 0 -0.0043977831302580723 0.034592633810954017 0 -0.0045510110442568844 0.035887189274100978 0 -0.0034455798092146335 0.033715025812148948 0 -0.0028649388794126001 0.033795522224960371 0 -0.0047463238698468987 0.035004577645819747 0 -0.0050776914413559011 0.035275086022520288 0 -0.0041967260259990861 0.036299837586109558 0 -0.0038164103983461977 0.026776615733111412 0 -0.0021517045967975909 0.030560650479419679 0 -0.0011700206826754888 0.016640842047148902 0 -0.0034197720071101213 0.016924880819390174 0 -0.0014674556539590574 0.018749808644565231 0 -0.0011700206826754888 0.016640842047148902 0 -0.0034197720071101213 0.016924880819390174 0 -0.0029783355385595983 0.014358719512729009 0 -0.0038164103983461977 0.026776615733111412 0 -0.0054735777166019647 0.023912461703381935 0 -0.0034197720071101213 0.016924880819390174 0 -0.0029783355385595983 0.014358719512729009 0 -0.0057638203082315785 0.014699489661166642 0 -0.0034197720071101213 0.016924880819390174 0 -0.0058617264207985317 0.017797769272702199 0 -0.0057638203082315785 0.014699489661166642 0 -0.004412242115564729 0.010928169014914247 0 -0.0065392615249504687 0.007724940737802383 0 -0.0058617264207985317 0.017797769272702199 0 -0.0057638203082315785 0.014699489661166642 0 -0.0084517969710051124 0.016281887670064953 0 -0.0012528184660824857 0.0080553220141891535 0 0.0011383607894912631 0.0057093185272018201 0 0.00055843283117803198 0.011249270354621043 0 -0.0049642368695038148 0.0077088384733903573 0 -0.0033380093682444114 0.0077926599344206324 0 -0.0045053598490678113 0.009144508154796397 0 -0.0033380093682444114 0.0077926599344206324 0 -0.0025229390438002101 0.0093465313524774135 0 -0.0045053598490678113 0.009144508154796397 0 -0.0033380093682444114 0.0077926599344206324 0 -0.0043854209676209418 0.006322925575221224 0 -0.0018028261727220478 0.0060653432623826616 0 -0.0049642368695038148 0.0077088384733903573 0 -0.0033380093682444114 0.0077926599344206324 0 -0.0043854209676209418 0.006322925575221224 0 -0.0027716261564583412 0.0033677075392646522 0 -0.0043854209676209418 0.006322925575221224 0 -0.0063741670403347052 0.004484184897585613 0 -0.0027716261564583412 0.0033677075392646522 0 -0.0043854209676209418 0.006322925575221224 0 -0.0018028261727220478 0.0060653432623826616 0 -0.004412242115564729 0.010928169014914247 0 -0.0021487031597750995 0.01443516546528136 0 -0.0034197720071101213 0.016924880819390174 0 -0.0058617264207985317 0.017797769272702199 0 -0.0032519044201736015 0.019327346658281178 0 -0.0027716261564583412 0.0033677075392646522 0 -0.0018028261727220478 0.0060653432623826616 0 0.0011383607894912631 0.0057093185272018201 0 -0.0018028261727220478 0.0060653432623826616 0 -0.0012528184660824857 0.0080553220141891535 0 0.0011383607894912631 0.0057093185272018201 0 -0.0033380093682444114 0.0077926599344206324 0 -0.0018028261727220478 0.0060653432623826616 0 -0.0012528184660824857 0.0080553220141891535 0 -0.0033380093682444114 0.0077926599344206324 0 -0.0012528184660824857 0.0080553220141891535 0 -0.0025229390438002101 0.0093465313524774135 0 0.0011383607894912631 0.0057093185272018201 0 0.0049424885687495762 0.007981070724139637 0 0.00055843283117803198 0.011249270354621043 0 -0.0034197720071101213 0.016924880819390174 0 -0.0032519044201736015 0.019327346658281178 0 -0.0014674556539590574 0.018749808644565231 0 -0.0011700206826754888 0.016640842047148902 0 -0.0014674556539590574 0.018749808644565231 0 0.00065088389745068429 0.018941277696177018 0 -0.0014674556539590574 0.018749808644565231 0 -0.00061750203328049633 0.020863459755169293 0 0.00065088389745068429 0.018941277696177018 0 -0.0032519044201736015 0.019327346658281178 0 -0.0014674556539590574 0.018749808644565231 0 -0.00061750203328049633 0.020863459755169293 0 -0.0021487031597750995 0.01443516546528136 0 -0.0004559840939777327 0.019105419863159469 0 0.0049424885687495762 0.007981070724139637 0 0.0051591899010967526 0.012014311467957421 0 0.00055843283117803198 0.011249270354621043 0 0.0030493683652242877 0.023399865720676313 0 0.0036941075355260856 0.024314504135999223 0 0.0025001328681081556 0.024298823157929132 0 0.0030493683652242877 0.023399865720676313 0 0.0015546767824320522 0.023128799322837054 0 0.0025001328681081556 0.024298823157929132 0 0.0015546767824320522 0.023128799322837054 0 0.0014079750148474636 0.024049503199936696 0 0.0025001328681081556 0.024298823157929132 0 0.0027380832534719423 0.02171309885405066 0 0.00049708059381684412 0.018874498973794378 0 -0.0012528184660824857 0.0080553220141891535 0 0.00055843283117803198 0.011249270354621043 0 -0.0025229390438002101 0.0093465313524774135 0 0.00055843283117803198 0.011249270354621043 0 -0.0040329142410220412 0.010492137357937662 0 -0.0025229390438002101 0.0093465313524774135 0 0.00049708059381684412 0.018874498973794378 0 -0.0031107178351661227 0.017004973057576853 0 0.0015546767824320522 0.023128799322837054 0 0.00086051335649811058 0.023634534071287509 0 1.240902445741478e-05 0.022866064893909365 0 0.0015546767824320522 0.023128799322837054 0 0.0014079750148474636 0.024049503199936696 0 0.00086051335649811058 0.023634534071287509 0 0.0014079750148474636 0.024049503199936696 0 0.00086051335649811058 0.023634534071287509 0 0.00060579557028676075 0.024478702220366345 0 -0.0041441417456031457 0.012565637104621389 0 -0.003725681907268619 0.010794164176356947 0 -0.0016531268753743847 0.016642657703565249 0 0.00086051335649811058 0.023634534071287509 0 1.240902445741478e-05 0.022866064893909365 0 0.00060579557028676075 0.024478702220366345 0 -0.0031107178351661227 0.017004973057576853 0 -0.00108351189959147 0.02064257103538383 0 -0.0041441417456031457 0.012565637104621389 0 -0.0053479142640562877 0.013794471063886404 0 -0.0016531268753743847 0.016642657703565249 0 -0.0041441417456031457 0.012565637104621389 0 -0.0053619056893425415 0.011554185054018045 0 -0.0053479142640562877 0.013794471063886404 0 -0.0041441417456031457 0.012565637104621389 0 -0.003725681907268619 0.010794164176356947 0 -0.0040502322716071291 0.010740918210198888 0 -0.0041441417456031457 0.012565637104621389 0 -0.0040502322716071291 0.010740918210198888 0 -0.0053619056893425415 0.011554185054018045 0 -0.0040502322716071291 0.010740918210198888 0 -0.0053399713480447239 0.010063893160103792 0 -0.0053619056893425415 0.011554185054018045 0 -0.0031107178351661227 0.017004973057576853 0 -0.0031161910594154946 0.016998692715330051 0 -0.0040329142410220412 0.010492137357937662 0 -0.0025229390438002101 0.0093465313524774135 0 -0.0045053598490678113 0.009144508154796397 0 -0.0031107178351661227 0.017004973057576853 0 -0.0033417637640860789 0.016260704456197202 0 -0.003733481371338972 0.010786930396412651 0 -0.0040502322716071291 0.010740918210198888 0 -0.0045053598490678113 0.009144508154796397 0 -0.0040502322716071291 0.010740918210198888 0 -0.0045053598490678113 0.009144508154796397 0 -0.0053399713480447239 0.010063893160103792 0 -0.00095083904738528405 0.039515349833596024 0 -9.9907537565069963e-05 0.040064209512603234 0 -0.00037759044377512507 0.038539269918878287 0 -0.00095083904738528405 0.039515349833596024 0 -0.0019983378118976795 0.040142799794018524 0 -0.00066912481586323656 0.040490296600935248 0 -0.00095083904738528405 0.039515349833596024 0 -9.9907537565069963e-05 0.040064209512603234 0 -0.00066912481586323656 0.040490296600935248 0 -9.9907537565069963e-05 0.040064209512603234 0 0.00074295044093575528 0.039783842660786065 0 0.00017396679742668689 0.041094207838414394 0 0.0010540081578971458 0.039806916291668021 0 0.0013467405626548467 0.039807990826461158 0 -9.9907537565069963e-05 0.040064209512603234 0 0.00074295044093575528 0.039783842660786065 0 0.0006182050765278325 0.03879492577482159 0 0.00074295044093575528 0.039783842660786065 0 0.0006182050765278325 0.03879492577482159 0 0.0011609569634559076 0.038795453616096084 0 -9.9907537565069963e-05 0.040064209512603234 0 0.0010815867784355769 0.037873362057339884 0 -0.00037759044377512507 0.038539269918878287 0 -0.00012931417872550141 0.037102157799948882 0 0.0010815867784355769 0.037873362057339884 0 -0.00037759044377512507 0.038539269918878287 0 -0.00012931417872550141 0.037102157799948882 0 -0.00037759044377512507 0.038539269918878287 0 -0.0016464134623458673 0.038230524251356333 0 -0.00095083904738528405 0.039515349833596024 0 -0.00037759044377512507 0.038539269918878287 0 -0.0016464134623458673 0.038230524251356333 0 -0.0031174144613390058 0.03703307638245569 0 -0.0016464134623458673 0.038230524251356333 0 -0.0035936417852276189 0.038241124653413019 0 -0.0016464134623458673 0.038230524251356333 0 -0.0035936417852276189 0.038241124653413019 0 -0.0019983378118976795 0.040142799794018524 0 -0.0021517045967975909 0.030560650479419679 0 -0.0012585818483924034 0.027859768908336257 0 -0.0021517045967975909 0.030560650479419679 0 -0.00062949246527893858 0.033955213584840091 0 -0.0004559840939777327 0.019105419863159469 0 -0.00014745206455302757 0.026606293323528044 0 -0.0023682249690425219 0.029956203498729725 0 -0.0019674969361818885 0.03092295467184953 0 -0.0012735901454135493 0.031312469594560806 0 -0.00061750203328049633 0.020863459755169293 0 0.00065088389745068429 0.018941277696177018 0 0.0013456494282382513 0.020664860183791729 0 -0.00061750203328049633 0.020863459755169293 0 0.0013456494282382513 0.020664860183791729 0 0.0020373449536490221 0.022398375178629595 0 -0.00095083904738528405 0.039515349833596024 0 -0.0016464134623458673 0.038230524251356333 0 -0.0019983378118976795 0.040142799794018524 0 -0.0012585818483924034 0.027859768908336257 0 -0.00014745206455302757 0.026606293323528044 0 -0.0019674969361818885 0.03092295467184953 0 -0.0012735901454135493 0.031312469594560806 0 -0.0015701886341387631 0.031894981993202037 0 -0.00014745206455302757 0.026606293323528044 0 0.00030819552583682063 0.034806757019052559 0 -0.0012735901454135493 0.031312469594560806 0 -0.0015701886341387631 0.031894981993202037 0 -0.00017555920152330376 0.032686167184068513 0 -0.0020806230155307561 0.030499669264470737 0 -0.0014985121632198591 0.031957249611334095 0 0.00097771612894716523 0.032260471370845895 0 0.0087363983341185829 0.010236678588407235 0 0.0080275365952775547 0.010631756245972393 0 0.0094063242507445247 0.011957266141616716 0 -0.00014745206455302757 0.026606293323528044 0 0.0010835999052661543 0.026377838416818407 0 0.00098258826852144917 0.025256134549566548 0 0.0010835999052661543 0.026377838416818407 0 0.0049424885687495762 0.007981070724139637 0 0.0051591899010967526 0.012014311467957421 0 0.0080275365952775547 0.010631756245972393 0 0.0049424885687495762 0.007981070724139637 0 0.0087363983341185829 0.010236678588407235 0 0.0080275365952775547 0.010631756245972393 0 0.0051591899010967526 0.012014311467957421 0 0.0080275365952775547 0.010631756245972393 0 0.0093856420064390989 0.01190532622216642 0 0.0027380832534719423 0.02171309885405066 0 0.0016060861677528206 0.026843911425262899 0 0.0051591899010967526 0.012014311467957421 0 0.009725062183919957 0.012769518138099742 0 0.0093856420064390989 0.01190532622216642 0 0.0030493683652242877 0.023399865720676313 0 0.0045300505807951376 0.023650486005586495 0 0.0036941075355260856 0.024314504135999223 0 0.00012897203200983476 0.031066913254431325 0 0.00069569349228058895 0.031155372674601663 0 0.001101476893536251 0.033501312681672731 0 0.0016060861677528206 0.026843911425262899 0 0.0014769792997267053 0.030521198747213377 0 -0.00057698684753872793 0.03280685891441476 0 -0.0014985121632198591 0.031957249611334095 0 0.00097771612894716523 0.032260471370845895 0 0.0016060861677528206 0.026843911425262899 0 0.0012190949176772558 0.027903191601771512 0 0.00086566308991061196 0.027861004127580913 0 0.00092194009488990377 0.02787056986109052 0 0.00083820017400622359 0.027791395605032593 0 0.0012190949176772558 0.027903191601771512 0 0.0010835999052661543 0.026377838416818407 0 0.0016060861677528206 0.026843911425262899 0 0.0010835999052661543 0.026377838416818407 0 0.0045300505807951376 0.023650486005586495 0 0.004324303308584871 0.024410954488276564 0 0.0036941075355260856 0.024314504135999223 0 0.0012190949176772558 0.027903191601771512 0 0.0013821641211302668 0.02850902442309821 0 -0.00057698684753872793 0.03280685891441476 0 0.001980681913796412 0.033212685635128948 0 0.00097771612894716523 0.032260471370845895 0 -0.00057744340458968919 0.032808441520004547 0 0.001980681913796412 0.033212685635128948 0 0.0025941227978333011 0.035747461608800539 0 -0.0019983378118976795 0.040142799794018524 0 -0.00051985828354502556 0.041571240220286701 0 -0.00066912481586323656 0.040490296600935248 0 -0.00051985828354502556 0.041571240220286701 0 -0.00066912481586323656 0.040490296600935248 0 0.00017396679742668689 0.041094207838414394 0 -0.00062949246527893858 0.033955213584840091 0 0.00030819552583682063 0.034806757019052559 0 -9.9907537565069963e-05 0.040064209512603234 0 -0.00066912481586323656 0.040490296600935248 0 0.00017396679742668689 0.041094207838414394 0 0.00048146710414081724 0.040567956307404132 0 0.00017396679742668689 0.041094207838414394 0 0.00064942237542453313 0.041001704126909552 0 0.00017396679742668689 0.041094207838414394 0 0.00051146990830387468 0.041892863372091617 0 0.00064942237542453313 0.041001704126909552 0 0.00096556698716787767 0.040964985534263379 0 0.00084894447471944878 0.040980969200190398 0 -0.00051985828354502556 0.041571240220286701 0 0.00017396679742668689 0.041094207838414394 0 0.00051146990830387468 0.041892863372091617 0 0.00030819552583682063 0.034806757019052559 0 0.00023579120485533783 0.042244597552832337 0 0.001980681913796412 0.033212685635128948 0 0.00097771612894716523 0.032260471370845895 0 0.0038951092116643001 0.033945780746524511 0 0.00023579120485533783 0.042244597552832337 0 -0.00029534372526955421 0.046806310693438047 0 -0.00018141781643994784 0.054811300323437888 0 -0.00017196421945042849 0.054830707326555102 0 -0.00017984998309198097 0.05481779499564117 0 -0.00017196421945042849 0.054830707326555102 0 -0.00016214580153399503 0.054843459374231213 0 -0.00016479135876612406 0.054839020702605282 0 -0.00017196421945042849 0.054830707326555102 0 -0.00016479135876612406 0.054839020702605282 0 -0.00017984998309198097 0.05481779499564117 0 -0.00016479135876612406 0.054839020702605282 0 -0.00017984998309198097 0.05481779499564117 0 -0.00015228462724746174 0.054805113679783142 0 0.00051146990830387468 0.041892863372091617 0 0.00091255721581732195 0.040995630505824852 0 0.00064942237542453313 0.041001704126909552 0 0.00091255721581732195 0.040995630505824852 0 0.00064942237542453313 0.041001704126909552 0 0.00081136325354165236 0.040950546526068485 0 0.00064942237542453313 0.041001704126909552 0 0.00081970956914261786 0.040919040920795978 0 0.00081136325354165236 0.040950546526068485 0 0.00088946518932304854 0.041178247514860794 0 0.00090549851690495896 0.041272621749069649 0 0.00048146710414081724 0.040567956307404132 0 0.00064942237542453313 0.041001704126909552 0 0.00069104069802726465 0.040498497481334036 0 0.00081970956914261786 0.040919040920795978 0 0.00085009310384509377 0.040946934344779182 0 0.00083582269281107376 0.040940307905281317 0 0.00081970956914261786 0.040919040920795978 0 0.00085009310384509377 0.040946934344779182 0 0.00081136325354165236 0.040950546526068485 0 0.00091255721581732195 0.040995630505824852 0 0.00085009310384509377 0.040946934344779182 0 0.00081136325354165236 0.040950546526068485 0 -0.00029534372526955421 0.046806310693438047 0 0.00032791657567567958 0.048136845647734759 0 0.00085009310384509377 0.040946934344779182 0 0.00083027462327785401 0.040944198659904875 0 0.00081506094399748992 0.04093308810898226 0 0.00091255721581732195 0.040995630505824852 0 0.00085009310384509377 0.040946934344779182 0 0.00081506094399748992 0.04093308810898226 0 -0.00017984998309198097 0.05481779499564117 0 -0.00015228462724746174 0.054805113679783142 0 -0.00015052540260289711 0.054747891526613857 0 0.00085009310384509377 0.040946934344779182 0 0.00083027462327785401 0.040944198659904875 0 0.00083582269281107376 0.040940307905281317 0 0.00083027462327785401 0.040944198659904875 0 0.00082704980013451306 0.040962084826753682 0 0.00083582269281107376 0.040940307905281317 0 0.00082704980013451306 0.040962084826753682 0 0.00079739785517988311 0.040961897455937805 0 0.00083687764739633812 0.041010166715380048 0 0.00083027462327785401 0.040944198659904875 0 0.00082704980013451306 0.040962084826753682 0 0.00080093200694937475 0.040957049653775404 0 0.00082704980013451306 0.040962084826753682 0 0.00079739785517988311 0.040961897455937805 0 0.00080093200694937475 0.040957049653775404 0 0.00056926205133392437 0.047803984438215721 0 0.00032791657567567958 0.048136845647734759 0 0.00048146710414081724 0.040567956307404132 0 0.00069104069802726465 0.040498497481334036 0 0.00074220378721112494 0.0400253804112915 0 0.00090549851690495896 0.041272621749069649 0 0.00091999065041125261 0.041855707103617946 0 0.00096556698716787767 0.040964985534263379 0 0.00091999065041125261 0.041855707103617946 0 0.00081970956914261786 0.040919040920795978 0 0.00085124582785547887 0.040964651192797685 0 0.00083582269281107376 0.040940307905281317 0 0.00082704980013451306 0.040962084826753682 0 0.00085124582785547887 0.040964651192797685 0 0.00083582269281107376 0.040940307905281317 0 0.00015486000849070815 0.050320037717153654 0 2.0152400615614551e-05 0.050356322165705417 0 0.00018514591747738511 0.050419814802355266 0 0.00010875204143566456 0.050689660552101085 0 0.00027080979328975111 0.052036447366613205 0 -6.4029016455324428e-05 0.054861239616521423 0 -5.9957170797125699e-05 0.054880106170098607 0 -5.1193546886761316e-05 0.05487756697225038 0 0.00015486000849070815 0.050320037717153654 0 0.00022741015419950876 0.050348557445079059 0 0.00018514591747738511 0.050419814802355266 0 0.00015486000849070815 0.050320037717153654 0 0.00022741015419950876 0.050348557445079059 0 0.00029994505744434212 0.050293407624361824 0 -6.4029016455324428e-05 0.054861239616521423 0 -7.9340557168780821e-05 0.054850441893305762 0 -6.8058306819464303e-05 0.054874381243705139 0 0.00010875204143566456 0.050689660552101085 0 0.00024133044281120903 0.048512042292302222 0 0.00024133044281120903 0.048512042292302222 0 0.00015018018485224858 0.049371636910036487 0 0.00022741015419950876 0.050348557445079059 0 0.00029994505744434212 0.050293407624361824 0 0.00020641518342965032 0.050425714279613815 0 -0.0001455793999491956 0.054739474992493951 0 -0.00015052540260289711 0.054747891526613857 0 -0.00013688226770655173 0.054780345408598274 0 0.00024133044281120903 0.048512042292302222 0 0.00032791657567567958 0.048136845647734759 0 0.00024133044281120903 0.048512042292302222 0 0.0011910378779763856 0.051469649347191851 0 -0.00015228462724746174 0.054805113679783142 0 -0.00015052540260289711 0.054747891526613857 0 -0.00013688226770655173 0.054780345408598274 0 -0.0001455793999491956 0.054739474992493951 0 -0.00013688226770655173 0.054780345408598274 0 -0.00010012828564906607 0.05479458977513478 0 -0.00015228462724746174 0.054805113679783142 0 -0.00013688226770655173 0.054780345408598274 0 -0.00012018175824310554 0.054838129578612838 0 -0.00013688226770655173 0.054780345408598274 0 -0.00010012828564906607 0.05479458977513478 0 -0.00012018175824310554 0.054838129578612838 0 -6.4029016455324428e-05 0.054861239616521423 0 -6.8058306819464303e-05 0.054874381243705139 0 -5.9957170797125699e-05 0.054880106170098607 0 0.0011910378779763856 0.051469649347191851 0 0.0013272572404276616 0.052129973742408728 0 -6.8058306819464303e-05 0.054874381243705139 0 -5.9957170797125699e-05 0.054880106170098607 0 -6.389155608755231e-05 0.054882472850338433 0 -5.9957170797125699e-05 0.054880106170098607 0 -6.389155608755231e-05 0.054882472850338433 0 -4.9399054044563481e-05 0.054895823434713394 0 -6.389155608755231e-05 0.054882472850338433 0 -0.00012018175824310554 0.054838129578612838 0 -8.6509726793856335e-05 0.054922000775571175 0 -6.389155608755231e-05 0.054882472850338433 0 -8.6509726793856335e-05 0.054922000775571175 0 -4.3237588583175484e-05 0.05492070418575809 0 -0.00010012828564906607 0.05479458977513478 0 -6.389155608755231e-05 0.054882472850338433 0 -0.00012018175824310554 0.054838129578612838 0 -0.00016479135876612406 0.054839020702605282 0 -0.00012018175824310554 0.054838129578612838 0 -8.6509726793856335e-05 0.054922000775571175 0 -0.00016479135876612406 0.054839020702605282 0 -0.00015228462724746174 0.054805113679783142 0 -0.00012018175824310554 0.054838129578612838 0 -0.00016214580153399503 0.054843459374231213 0 -0.00016479135876612406 0.054839020702605282 0 -0.00014318091190497115 0.054839536136729185 0 -0.00012547868919673331 0.0548811714869415 0 -0.00010268596668130741 0.054894818350079866 0 -0.00016214580153399503 0.054843459374231213 0 -0.00014318091190497115 0.054839536136729185 0 -0.00015395417706497681 0.054860221047313744 0 -0.00010268596668130741 0.054894818350079866 0 -6.3443215214849315e-05 0.054920331162168767 0 -0.00014318091190497115 0.054839536136729185 0 -8.0146286231131829e-05 0.05487182773457653 0 -0.00013680153824187783 0.054879402992379471 0 -8.6509726793856335e-05 0.054922000775571175 0 -3.5934470924102812e-05 0.054966367298697652 0 -4.3237588583175484e-05 0.05492070418575809 0 -3.5934470924102812e-05 0.054966367298697652 0 -1.862484131759787e-05 0.054954232012778034 0 -4.3237588583175484e-05 0.05492070418575809 0 -3.5934470924102812e-05 0.054966367298697652 0 -1.862484131759787e-05 0.054954232012778034 0 -4.9204715309446124e-06 0.054990826286889928 0 -1.862484131759787e-05 0.054954232012778034 0 -1.1444521800132499e-05 0.054944771117630374 0 -3.1212872617579647e-05 0.054920754258955727 0 -1.862484131759787e-05 0.054954232012778034 0 -3.1212872617579647e-05 0.054920754258955727 0 -4.3237588583175484e-05 0.05492070418575809 0 -3.1212872617579647e-05 0.054920754258955727 0 -4.3237588583175484e-05 0.05492070418575809 0 -4.9399054044563481e-05 0.054895823434713394 0 -6.389155608755231e-05 0.054882472850338433 0 -4.3237588583175484e-05 0.05492070418575809 0 -4.9399054044563481e-05 0.054895823434713394 0 9.3255678642901281e-09 0.054999970794197182 0 -1.8022149673186176e-06 0.054973396251479567 0 4.0295712353684503e-07 0.054993333540165834 0 -1.8022149673186176e-06 0.054973396251479567 0 -4.9204715309446124e-06 0.054990826286889928 0 4.0295712353684503e-07 0.054993333540165834 0 -1.862484131759787e-05 0.054954232012778034 0 -1.8022149673186176e-06 0.054973396251479567 0 -4.9204715309446124e-06 0.054990826286889928 0 -1.862484131759787e-05 0.054954232012778034 0 -1.1444521800132499e-05 0.054944771117630374 0 -1.8022149673186176e-06 0.054973396251479567 0 -1.1444521800132499e-05 0.054944771117630374 0 -1.8022149673186176e-06 0.054973396251479567 0 7.2377904832998051e-07 0.054962628180799319 0 9.3255678642901281e-09 0.054999970794197182 0 7.2377904832998051e-07 0.054962628180799319 0 6.8896705638291761e-06 0.054967701060276007 0 9.3255678642901281e-09 0.054999970794197182 0 -1.8022149673186176e-06 0.054973396251479567 0 7.2377904832998051e-07 0.054962628180799319 0 9.3255678642901281e-09 0.054999970794197182 0 -4.4834495307473313e-09 0.054999949058845775 0 6.8896705638291761e-06 0.054967701060276007 0 -4.4834495307473313e-09 0.054999949058845775 0 6.8896705638291761e-06 0.054967701060276007 0 7.8407333437998817e-06 0.054986352269369536 0 0.00045368365043531501 0.053936309181622601 0 0.00041441379801960437 0.053753999379162823 0 6.8896705638291761e-06 0.054967701060276007 0 1.8892324886265736e-05 0.054982721109907075 0 7.8407333437998817e-06 0.054986352269369536 0 7.2377904832998051e-07 0.054962628180799319 0 6.8896705638291761e-06 0.054967701060276007 0 -5.9432703704151988e-06 0.054933755082912261 0 -1.1444521800132499e-05 0.054944771117630374 0 7.2377904832998051e-07 0.054962628180799319 0 -5.9432703704151988e-06 0.054933755082912261 0 -5.9432703704151988e-06 0.054933755082912261 0 1.1094759038357512e-06 0.054898953053822447 0 -1.6061683307987098e-05 0.054904650452282024 0 6.8896705638291761e-06 0.054967701060276007 0 -5.9432703704151988e-06 0.054933755082912261 0 1.1094759038357512e-06 0.054898953053822447 0 1.8892324886265736e-05 0.054982721109907075 0 1.7541853804999154e-05 0.054987031016485208 0 7.8407333437998817e-06 0.054986352269369536 0 1.8892324886265736e-05 0.054982721109907075 0 1.7541853804999154e-05 0.054987031016485208 0 2.1863543387230994e-05 0.05498642586148237 0 1.7541853804999154e-05 0.054987031016485208 0 1.1553879815901836e-05 0.054991875213779989 0 2.1524858068164644e-05 0.054991584837425736 0 1.1553879815901836e-05 0.054991875213779989 0 7.8407333437998817e-06 0.054986352269369536 0 3.6950495840108006e-06 0.054995312696389277 0 1.7541853804999154e-05 0.054987031016485208 0 1.1553879815901836e-05 0.054991875213779989 0 7.8407333437998817e-06 0.054986352269369536 0 1.1553879815901836e-05 0.054991875213779989 0 3.6950495840108006e-06 0.054995312696389277 0 7.3428873785421953e-06 0.054998868085478908 0 -4.4834495307473313e-09 0.054999949058845775 0 3.6950495840108006e-06 0.054995312696389277 0 5.4815821720591317e-09 0.055000019615711326 0 -4.4834495307473313e-09 0.054999949058845775 0 7.8407333437998817e-06 0.054986352269369536 0 3.6950495840108006e-06 0.054995312696389277 0 -3.9567895581825181e-05 0.054890520149941675 0 -4.9399054044563481e-05 0.054895823434713394 0 -5.1193546886761316e-05 0.05487756697225038 0 -5.9957170797125699e-05 0.054880106170098607 0 -4.9399054044563481e-05 0.054895823434713394 0 -5.1193546886761316e-05 0.05487756697225038 0 -3.1212872617579647e-05 0.054920754258955727 0 -3.9567895581825181e-05 0.054890520149941675 0 -4.9399054044563481e-05 0.054895823434713394 0 -3.1212872617579647e-05 0.054920754258955727 0 -3.9567895581825181e-05 0.054890520149941675 0 -2.3182807958997432e-05 0.054913682696954791 0 -1.1444521800132499e-05 0.054944771117630374 0 -3.1212872617579647e-05 0.054920754258955727 0 -2.3182807958997432e-05 0.054913682696954791 0 -1.1444521800132499e-05 0.054944771117630374 0 -5.9432703704151988e-06 0.054933755082912261 0 -2.3182807958997432e-05 0.054913682696954791 0 -5.9432703704151988e-06 0.054933755082912261 0 -2.3182807958997432e-05 0.054913682696954791 0 -1.6061683307987098e-05 0.054904650452282024 0 -2.3182807958997432e-05 0.054913682696954791 0 -1.6061683307987098e-05 0.054904650452282024 0 -2.9124159161694991e-05 0.054891880645628686 0 -3.9567895581825181e-05 0.054890520149941675 0 -2.3182807958997432e-05 0.054913682696954791 0 -2.9124159161694991e-05 0.054891880645628686 0 -3.9567895581825181e-05 0.054890520149941675 0 -3.802913819578355e-05 0.054881055199782799 0 -2.9124159161694991e-05 0.054891880645628686 0 -3.802913819578355e-05 0.054881055199782799 0 -2.9124159161694991e-05 0.054891880645628686 0 -1.7759650593616592e-05 0.05487969713951861 0 -1.7759650593616592e-05 0.05487969713951861 0 -4.6272805937723771e-05 0.054837917372905505 0 -0.00010079288081185444 0.054824394925069714 0 0.00046300679727371603 0.052592247942471665 0 0.00027080979328975111 0.052036447366613205 0 -3.802913819578355e-05 0.054881055199782799 0 -1.7759650593616592e-05 0.05487969713951861 0 -4.7294618845814814e-05 0.054863176595424841 0 0.00041441379801960437 0.053753999379162823 0 0.00020946733696089847 0.053102834114081426 0 1.1094759038357512e-06 0.054898953053822447 0 -1.7759650593616592e-05 0.05487969713951861 0 -4.6272805937723771e-05 0.054837917372905505 0 1.1094759038357512e-06 0.054898953053822447 0 -1.6061683307987098e-05 0.054904650452282024 0 -1.7759650593616592e-05 0.05487969713951861 0 -1.6061683307987098e-05 0.054904650452282024 0 -2.9124159161694991e-05 0.054891880645628686 0 -1.7759650593616592e-05 0.05487969713951861 0 1.7541853804999154e-05 0.054987031016485208 0 2.1863543387230994e-05 0.05498642586148237 0 2.1524858068164644e-05 0.054991584837425736 0 1.8892324886265736e-05 0.054982721109907075 0 2.1863543387230994e-05 0.05498642586148237 0 2.5352683782161139e-05 0.054985864802805866 0 0.00022202895953505342 0.053138446323518877 0 0.00020946733696089847 0.053102834114081426 0 -5.8378395452121762e-05 0.054026892015940041 0 -3.5779025215289815e-05 0.053979926991494814 0 2.1863543387230994e-05 0.05498642586148237 0 2.20625057692514e-05 0.054984794878023449 0 2.1524858068164644e-05 0.054991584837425736 0 2.1863543387230994e-05 0.05498642586148237 0 2.20625057692514e-05 0.054984794878023449 0 2.0978047022665267e-05 0.05498422956088745 0 2.20625057692514e-05 0.054984794878023449 0 1.5787674168694614e-05 0.054979652829783822 0 2.8180931845472375e-05 0.05497561790740587 0 2.20625057692514e-05 0.054984794878023449 0 2.0978047022665267e-05 0.05498422956088745 0 1.5787674168694614e-05 0.054979652829783822 0 0.00020946733696089847 0.053102834114081426 0 0.00012310429574347107 0.053147752305706418 0 0.00020946733696089847 0.053102834114081426 0 0.000178105615775324 0.052609478321033 0 0.00039702026452175724 0.052602447211252214 0 0.00022527552178100622 0.052450546259071112 0 3.181765510640319e-05 0.052496258379537954 0 0.00012310429574347107 0.053147752305706418 0 0.000178105615775324 0.052609478321033 0 -6.4029016455324428e-05 0.054861239616521423 0 -4.7294618845814814e-05 0.054863176595424841 0 -5.1193546886761316e-05 0.05487756697225038 0 -4.6272805937723771e-05 0.054837917372905505 0 -7.763634513791357e-05 0.054822621784455412 0 -0.00010079288081185444 0.054824394925069714 0 0.000178105615775324 0.052609478321033 0 0.00027080979328975111 0.052036447366613205 0 -3.802913819578355e-05 0.054881055199782799 0 -4.7294618845814814e-05 0.054863176595424841 0 -5.1193546886761316e-05 0.05487756697225038 0 -3.9567895581825181e-05 0.054890520149941675 0 -3.802913819578355e-05 0.054881055199782799 0 -5.1193546886761316e-05 0.05487756697225038 0 0.000178105615775324 0.052609478321033 0 0.00016249850969197918 0.049975658059138478 0 -0.00081954159268796882 0.054034198742692295 0 -0.00071711164983732001 0.054010336551943677 0 -0.00036893321227136357 0.054440832804842437 0 -3.9116982374438798e-05 0.054866113369631653 0 -1.098278674910229e-05 0.054863079911370405 0 -4.5038369533238351e-05 0.054884773371232223 0 -0.00071711164983732001 0.054010336551943677 0 -0.00036893321227136357 0.054440832804842437 0 3.4095769459510476e-05 0.054232813601309687 0 0.00056011281053436703 0.051410002942686862 0 0.00042402047216891507 0.05144018947540456 0 -0.00015891748185837157 0.051187116303398603 0 0.00012310429574347107 0.053147752305706418 0 0.00024116999030021836 0.053922829203645425 0 0.00012310429574347107 0.053147752305706418 0 -3.5779025215289815e-05 0.053979926991494814 0 -3.9116982374438798e-05 0.054866113369631653 0 -5.2412647431339537e-05 0.054871222765181596 0 -4.5038369533238351e-05 0.054884773371232223 0 -4.5763299154371944e-05 0.054900613313590051 0 -5.6864712367522653e-05 0.054934872735924248 0 -6.1930708918505061e-05 0.054938084971685612 0 -4.5038369533238351e-05 0.054884773371232223 0 -4.5763299154371944e-05 0.054900613313590051 0 -5.6864712367522653e-05 0.054934872735924248 0 -4.5763299154371944e-05 0.054900613313590051 0 -2.7438147888858634e-05 0.054893923867948793 0 -6.1930708918505061e-05 0.054938084971685612 0 -1.098278674910229e-05 0.054863079911370405 0 -4.5763299154371944e-05 0.054900613313590051 0 -2.7438147888858634e-05 0.054893923867948793 0 -1.098278674910229e-05 0.054863079911370405 0 -4.5038369533238351e-05 0.054884773371232223 0 -4.5763299154371944e-05 0.054900613313590051 0 -2.7438147888858634e-05 0.054893923867948793 0 -1.7174872676892601e-05 0.054914751182620535 0 3.5613903119347796e-06 0.054872310529280606 0 -1.098278674910229e-05 0.054863079911370405 0 -2.7438147888858634e-05 0.054893923867948793 0 3.5613903119347796e-06 0.054872310529280606 0 -1.9763003765930417e-07 0.054998840439564906 0 -3.9695826206683511e-05 0.054555474325127265 0 3.6950495840108006e-06 0.054995312696389277 0 5.4815821720591317e-09 0.055000019615711326 0 7.3428873785421953e-06 0.054998868085478908 0 -1.8703192741846319e-09 0.054999994902997777 0 9.2223665376393479e-07 0.054996473427803963 0 5.3674821384673369e-07 0.054999264506100279 0 -3.5779025215289815e-05 0.053979926991494814 0 -3.9695826206683511e-05 0.054555474325127265 0 1.1553879815901836e-05 0.054991875213779989 0 2.1524858068164644e-05 0.054991584837425736 0 7.3428873785421953e-06 0.054998868085478908 0 -5.2412647431339537e-05 0.054871222765181596 0 -4.5038369533238351e-05 0.054884773371232223 0 -5.6864712367522653e-05 0.054934872735924248 0 3.6572218152793408e-06 0.054993610348956688 0 9.2223665376393479e-07 0.054996473427803963 0 5.3674821384673369e-07 0.054999264506100279 0 -3.5779025215289815e-05 0.053979926991494814 0 -0.00011268745091012589 0.054728761846003462 0 -1.8703192741846319e-09 0.054999994902997777 0 5.3674821384673369e-07 0.054999264506100279 0 1.0679321590823142e-09 0.055000000095766832 0 5.3674821384673369e-07 0.054999264506100279 0 1.0679321590823142e-09 0.055000000095766832 0 -8.0551692038304165e-10 0.055000000271509426 0 -0.00011268745091012589 0.054728761846003462 0 -2.6707192421975244e-07 0.054999659391736656 0 -5.6864712367522653e-05 0.054934872735924248 0 -7.0410051370404285e-08 0.054999882680325213 0 -3.928029061113317e-05 0.054957116282380702 0 -5.6864712367522653e-05 0.054934872735924248 0 -3.928029061113317e-05 0.054957116282380702 0 -6.1930708918505061e-05 0.054938084971685612 0 -3.928029061113317e-05 0.054957116282380702 0 -5.1802723133804366e-05 0.054924686962234716 0 -6.1930708918505061e-05 0.054938084971685612 0 -3.928029061113317e-05 0.054957116282380702 0 -5.1802723133804366e-05 0.054924686962234716 0 -1.8678709317297369e-05 0.054959957885065532 0 1.6950948955566317e-09 0.054999952712909701 0 -7.0410051370404285e-08 0.054999882680325213 0 -1.8678709317297369e-05 0.054959957885065532 0 -7.0410051370404285e-08 0.054999882680325213 0 -3.928029061113317e-05 0.054957116282380702 0 -1.8678709317297369e-05 0.054959957885065532 0 -0.00013749787127355153 0.051568392247587455 0 -6.7938381623793682e-05 0.0521385813917465 0 -0.00014805323772130842 0.05492446666346025 0 -6.1930708918505061e-05 0.054938084971685612 0 -0.0001145211594856056 0.05489875350356458 0 -2.7438147888858634e-05 0.054893923867948793 0 -1.7174872676892601e-05 0.054914751182620535 0 -6.1930708918505061e-05 0.054938084971685612 0 -5.1802723133804366e-05 0.054924686962234716 0 -6.1930708918505061e-05 0.054938084971685612 0 -0.0001145211594856056 0.05489875350356458 0 -9.4548082925568759e-05 0.054864776580144825 0 -5.1802723133804366e-05 0.054924686962234716 0 -0.0001145211594856056 0.05489875350356458 0 -0.00016665794664442695 0.054852211295215905 0 -0.0001145211594856056 0.05489875350356458 0 -0.00016885046563104426 0.054889879392073966 0 -0.00014805323772130842 0.05492446666346025 0 -0.0001145211594856056 0.05489875350356458 0 -0.00016885046563104426 0.054889879392073966 0 -0.00079812959020353141 0.053359804608787094 0 -0.0010424780481798675 0.052059745882340878 0 -0.00016665794664442695 0.054852211295215905 0 -0.00016885046563104426 0.054889879392073966 0 -0.00019032529928010114 0.054878853688719566 0 -0.00016885046563104426 0.054889879392073966 0 -0.00018919424908628787 0.054884345514762393 0 -0.00019032529928010114 0.054878853688719566 0 -1.7174872676892601e-05 0.054914751182620535 0 0.00014297543121863422 0.054934119908552508 0 8.4393903808077861e-05 0.054829284528348794 0 -1.7174872676892601e-05 0.054914751182620535 0 3.5613903119347796e-06 0.054872310529280606 0 8.4393903808077861e-05 0.054829284528348794 0 -0.00014805323772130842 0.05492446666346025 0 -0.00016885046563104426 0.054889879392073966 0 -0.00018163007242427823 0.054896287657069907 0 -0.00013749787127355153 0.051568392247587455 0 -0.00053331608879687398 0.049625054490231052 0 -0.00014805323772130842 0.05492446666346025 0 -0.00018163007242427823 0.054896287657069907 0 -0.00019925430680466124 0.054889447281897583 0 -0.00016885046563104426 0.054889879392073966 0 -0.00018163007242427823 0.054896287657069907 0 -0.00018919424908628787 0.054884345514762393 0 -0.00053331608879687398 0.049625054490231052 0 -0.000360518050651143 0.048180828913684123 0 -0.0010424780481798675 0.052059745882340878 0 -0.000360518050651143 0.048180828913684123 0 0.00014297543121863422 0.054934119908552508 0 0.00057373481807638789 0.054820223996182207 0 0.00031030477910799022 0.054712882413664454 0 -0.00018978228007237636 0.054885350190351831 0 -0.00018919424908628787 0.054884345514762393 0 -0.00019917183171001344 0.054867453797348552 0 -0.00053331608879687398 0.049625054490231052 0 -0.00051303819072762841 0.047201248587550683 0 -0.00018919424908628787 0.054884345514762393 0 -0.00019032529928010114 0.054878853688719566 0 -0.00019917183171001344 0.054867453797348552 0 -0.00018163007242427823 0.054896287657069907 0 -0.00018978228007237636 0.054885350190351831 0 -0.00018919424908628787 0.054884345514762393 0 -0.0006016109973584206 0.049775438206722075 0 -0.00053331608879687398 0.049625054490231052 0 0.00010880214798894782 0.05422613885202722 0 3.0369960547806263e-05 0.054183245527377299 0 0.00013070104537328767 0.054148759102399219 0 3.0369960547806263e-05 0.054183245527377299 0 0.00013070104537328767 0.054148759102399219 0 0.00013510320360521518 0.054056069995922273 0 0.0001623124987110785 0.054191715719301169 0 0.00010880214798894782 0.05422613885202722 0 0.00013070104537328767 0.054148759102399219 0 0.0001623124987110785 0.054191715719301169 0 0.00013070104537328767 0.054148759102399219 0 0.00017422522952889919 0.054128690337813139 0 0.00013070104537328767 0.054148759102399219 0 0.00017422522952889919 0.054128690337813139 0 0.00015410098179187293 0.054095650512800512 0 0.0001623124987110785 0.054191715719301169 0 0.00020251880239618693 0.054149724696596346 0 0.00017422522952889919 0.054128690337813139 0 0.00017422522952889919 0.054128690337813139 0 0.00020564400131774501 0.054089382943082812 0 0.00017702785571759399 0.054088836641237974 0 0.00017422522952889919 0.054128690337813139 0 0.00017702785571759399 0.054088836641237974 0 0.00015410098179187293 0.054095650512800512 0 0.00020251880239618693 0.054149724696596346 0 0.00017422522952889919 0.054128690337813139 0 0.00020564400131774501 0.054089382943082812 0 0.00024491955893987525 0.054098580960611181 0 0.00020251880239618693 0.054149724696596346 0 0.00020564400131774501 0.054089382943082812 0 0.00026534235760560855 0.054037114525743703 0 0.00020564400131774501 0.054089382943082812 0 0.00018599836152607044 0.054061403607776573 0 0.00020564400131774501 0.054089382943082812 0 0.00018599836152607044 0.054061403607776573 0 0.00017702785571759399 0.054088836641237974 0 0.00012502358143288769 0.04618900010140406 0 -0.00020196353015859971 0.047151662503592838 0 0.00018599836152607044 0.054061403607776573 0 0.00017702785571759399 0.054088836641237974 0 0.00016382236691705283 0.054061179961674061 0 0.00012502358143288769 0.04618900010140406 0 0.00027022702496421261 0.045361734562444488 0 0.00023148626751388923 0.04589738115779507 0 0.0009984396183416054 0.045922976977280684 0 0.00049342692187783236 0.046961345961915792 0 0.00023148626751388923 0.04589738115779507 0 9.6634504876894154e-05 0.047248783579527241 0 0.00049342692187783236 0.046961345961915792 0 -0.00020196353015859971 0.047151662503592838 0 9.3316833737734869e-05 0.046010498509466473 0 0.0016179970267392906 0.043782038469346161 0 0.0012663991193918264 0.044085384559681369 0 0.0015692928181897422 0.044274640284316338 0 -0.00075347920848816525 0.047720340952013593 0 -0.00038999774187131693 0.047725645059292957 0 -0.00042972442716520759 0.047694213440924851 0 -0.00075347920848816525 0.047720340952013593 0 -0.00038855312426212005 0.047604294387667098 0 -0.00042972442716520759 0.047694213440924851 0 0.00013070104537328767 0.054148759102399219 0 0.00015410098179187293 0.054095650512800512 0 0.00013510320360521518 0.054056069995922273 0 0.00017702785571759399 0.054088836641237974 0 0.00015410098179187293 0.054095650512800512 0 0.00016382236691705283 0.054061179961674061 0 0.00015410098179187293 0.054095650512800512 0 0.00013510320360521518 0.054056069995922273 0 0.000174856404029867 0.05405294734027434 0 -0.00034139723477783011 0.047586803033843973 0 -0.00020196353015859971 0.047151662503592838 0 -0.00038999774187131693 0.047725645059292957 0 -0.00038789268323331458 0.047598473222020245 0 -0.00042972442716520759 0.047694213440924851 0 -0.00038999774187131693 0.047725645059292957 0 -0.00038789268323331458 0.047598473222020245 0 -0.00019503816223279312 0.047580767830209356 0 5.8415721503616864e-05 0.047349544512627038 0 -0.0001161228819176377 0.047342489761681233 0 -0.00021513353338879773 0.047545350679545878 0 -0.000360518050651143 0.048180828913684123 0 9.3316833737734869e-05 0.046010498509466473 0 -0.000360518050651143 0.048180828913684123 0 -0.00020196353015859971 0.047151662503592838 0 -0.00051303819072762841 0.047201248587550683 0 -0.00051734661064760607 0.047218658521218163 0 0.00057373481807638789 0.054820223996182207 0 0.00049309315171423309 0.054638423217730755 0 0.00031030477910799022 0.054712882413664454 0 0.00057373481807638789 0.054820223996182207 0 0.00069056450417584187 0.054569172100722749 0 0.00049309315171423309 0.054638423217730755 0 0.00038672569432364034 0.045155082977028103 0 6.8638890529993079e-05 0.045846879643433404 0 -0.00028604584805557289 0.04535407391523999 0 -0.00051303819072762841 0.047201248587550683 0 0.00030633078084688759 0.046158732232780275 0 -0.00051303819072762841 0.047201248587550683 0 0.00023100807774630686 0.04554664022854131 0 -0.00052148113340591291 0.047095699240828126 0 -0.00060570319902291455 0.047278364508761307 0 0.00020259912238875622 0.047517875613163466 0 0.00030633078084688759 0.046158732232780275 0 0.00044976357108610478 0.045280407404253854 0 0.00030633078084688759 0.046158732232780275 0 0.00048167851278136444 0.048175917137167353 0 0.00069056450417584187 0.054569172100722749 0 0.00049309315171423309 0.054638423217730755 0 0.00039457401292761457 0.054449251519382957 0 0.00049309315171423309 0.054638423217730755 0 0.00039457401292761457 0.054449251519382957 0 0.00031030477910799022 0.054712882413664454 0 0.00090862747966408033 0.043205429208203146 0 0.0007483593524469568 0.043693570962309962 0 0.00060195096326184959 0.042933670114206283 0 -2.3458433902318119e-05 0.043120597539567741 0 0.0018613683352707365 0.045168204439936237 0 0.00025343732640981228 0.04372072707027979 0 0.0013124423054375065 0.044157493969131295 0 0.00079658898975436862 0.044311658872689501 0 0.0007483593524469568 0.043693570962309962 0 0.00084502531243191444 0.043213039654083359 0 0.0010477504497986433 0.044343556629816157 0 0.0012663991193918264 0.044085384559681369 0 0.0012393984445738535 0.044423452753398256 0 0.0007483593524469568 0.043693570962309962 0 0.00027022702496421261 0.045361734562444488 0 0.0012663991193918264 0.044085384559681369 0 0.0012393984445738535 0.044423452753398256 0 0.0015692928181897422 0.044274640284316338 0 0.0007483593524469568 0.043693570962309962 0 0.00038634288903275586 0.044616117270960862 0 -0.00060428106589807695 0.043933322971226312 0 0.0013761379518309228 0.044533883656135503 0 0.0015332129842752136 0.042964083356944661 0 6.8638890529993079e-05 0.045846879643433404 0 -0.00041022879028078228 0.045609202370717999 0 -0.00028604584805557289 0.04535407391523999 0 -0.00038789268323331458 0.047598473222020245 0 -0.00017032630706203945 0.047529511238047641 0 -0.00019503816223279312 0.047580767830209356 0 0.00038634288903275586 0.044616117270960862 0 0.00027022702496421261 0.045361734562444488 0 0.00038634288903275586 0.044616117270960862 0 0.00023100807774630686 0.04554664022854131 0 0.00034025839443079761 0.045991359489832503 0 0.00043526065890887731 0.04503970938589387 0 0.00075165228605029977 0.045146016134514654 0 -0.00034092639386689924 0.045592315603463864 0 0.00035571721146508185 0.045826628979923359 0 0.00091132921095457532 0.044684328272615946 0 0.00023100807774630686 0.04554664022854131 0 9.3316833737734869e-05 0.046010498509466473 0 0.00027022702496421261 0.045361734562444488 0 9.3316833737734869e-05 0.046010498509466473 0 0.00027022702496421261 0.045361734562444488 0 0.00023100807774630686 0.04554664022854131 0 0.00030633078084688759 0.046158732232780275 0 0.00038634288903275586 0.044616117270960862 0 0.0014440403601347592 0.045282602017877552 0 -0.00059175708987627129 0.044275039774071843 0 -0.00072676169733127446 0.045623919897285745 0 0.0014440403601347592 0.045282602017877552 0 0.0010501352484740521 0.046138087572652572 0 -0.00072676169733127446 0.045623919897285745 0 0.0014553943788679954 0.044545685875521622 0 0.00098564638374306246 0.044409175915450079 0 0.0013109159058338775 0.044859956935598071 0 0.00044976357108610478 0.045280407404253854 0 0.0004685771517101655 0.043798374345497278 0 0.00038634288903275586 0.044616117270960862 0 0.0004685771517101655 0.043798374345497278 0 0.00060195096326184959 0.042933670114206283 0 0.0026489261410572351 0.043554030703775476 0 0.0018613683352707365 0.045168204439936237 0 0.00010545263610537278 0.042873706705499753 0 -2.2121722639678166e-05 0.044152294791662397 0 -0.00045747185333175946 0.044027276388771949 0 0.00038634288903275586 0.044616117270960862 0 0.00064087600388356596 0.043356559094918784 0 0.0004685771517101655 0.043798374345497278 0 0.00064087600388356596 0.043356559094918784 0 0.00084502531243191444 0.043213039654083359 0 0.00064087600388356596 0.043356559094918784 0 0.00082704980013451306 0.040962084826753682 0 0.00085124582785547887 0.040964651192797685 0 0.00083687764739633812 0.041010166715380048 0 0.00091999065041125261 0.041855707103617946 0 0.00053739709071525075 0.044656257292139942 0 0.0013467405626548467 0.039807990826461158 0 0.00064087600388356596 0.043356559094918784 0 0.0006182050765278325 0.03879492577482159 0 0.0012626019696687029 0.037737806901051739 0 0.00117449540821116 0.037712945201230384 0 0.00086013614710860119 0.042783701349818397 0 0.00069978948273101784 0.044334480759832408 0 0.00036125686167398559 0.043862224679854664 0 0.00091999065041125261 0.041855707103617946 0 0.0004685771517101655 0.043798374345497278 0 0.0006182050765278325 0.03879492577482159 0 0.0011609569634559076 0.038795453616096084 0 0.0012626019696687029 0.037737806901051739 0 0.0004685771517101655 0.043798374345497278 0 0.00053739709071525075 0.044656257292139942 0 0.00044976357108610478 0.045280407404253854 0 0.00053739709071525075 0.044656257292139942 0 0.00012359394440129766 0.04690040411063387 0 6.6697825921270586e-05 0.04702436417252398 0 0.00051726187392880604 0.047018311461995178 0 0.00024133044281120903 0.048512042292302222 0 0.00053739709071525075 0.044656257292139942 0 0.00058214336046981049 0.047589889333315906 0 6.6697825921270586e-05 0.04702436417252398 0 0.00051726187392880604 0.047018311461995178 0 -0.00052148113340591291 0.047095699240828126 0 0.00020259912238875622 0.047517875613163466 0 0.00024969036174976041 0.047419788559275484 0 0.00044976357108610478 0.045280407404253854 0 0.00031482948104310545 0.047323196799023227 0 0.00058214336046981049 0.047589889333315906 0 0.00051726187392880604 0.047018311461995178 0 0.00090988836210069261 0.047135644951195169 0 0.00048167851278136444 0.048175917137167353 0 0.00015018018485224858 0.049371636910036487 0 0.00031482948104310545 0.047323196799023227 0 0.00015018018485224858 0.049371636910036487 0 0.00020259912238875622 0.047517875613163466 0 0.00024969036174976041 0.047419788559275484 0 0.0010000630236462686 0.047759087899154729 0 9.103238086911506e-05 0.054301998469259066 0 -2.4949574640606923e-05 0.054448879996657443 0 0.00013670053626409695 0.054481376973448008 0 0.00039457401292761457 0.054449251519382957 0 9.103238086911506e-05 0.054301998469259066 0 0.00013670053626409695 0.054481376973448008 0 0.00022741015419950876 0.050348557445079059 0 0.00020641518342965032 0.050425714279613815 0 0.00018514591747738511 0.050419814802355266 0 0.00027080979328975111 0.052036447366613205 0 0.00016249850969197918 0.049975658059138478 0 0.00015018018485224858 0.049371636910036487 0 0.00016249850969197918 0.049975658059138478 0 -0.00036893321227136357 0.054440832804842437 0 3.4095769459510476e-05 0.054232813601309687 0 -2.4949574640606923e-05 0.054448879996657443 0 0.0001140923152926182 0.054254491010541146 0 3.4095769459510476e-05 0.054232813601309687 0 -2.4949574640606923e-05 0.054448879996657443 0 0.00015018018485224858 0.049371636910036487 0 -5.1205569443878961e-05 0.049791937492375635 0 -2.4949574640606923e-05 0.054448879996657443 0 2.0491856101843798e-05 0.054594633704292857 0 0.00013670053626409695 0.054481376973448008 0 -0.00036893321227136357 0.054440832804842437 0 2.0491856101843798e-05 0.054594633704292857 0 8.4393903808077861e-05 0.054829284528348794 0 -1.098278674910229e-05 0.054863079911370405 0 3.5613903119347796e-06 0.054872310529280606 0 8.4393903808077861e-05 0.054829284528348794 0 0.00024116999030021836 0.053922829203645425 0 0.00030328456880837976 0.054168577332898531 0 -0.00036893321227136357 0.054440832804842437 0 -2.4949574640606923e-05 0.054448879996657443 0 2.0491856101843798e-05 0.054594633704292857 0 0.00014297543121863422 0.054934119908552508 0 8.4393903808077861e-05 0.054829284528348794 0 0.00031030477910799022 0.054712882413664454 0 2.0491856101843798e-05 0.054594633704292857 0 8.4393903808077861e-05 0.054829284528348794 0 0.00019140386134425499 0.054612146563470979 0 8.4393903808077861e-05 0.054829284528348794 0 0.00031030477910799022 0.054712882413664454 0 0.00019140386134425499 0.054612146563470979 0 0.00039457401292761457 0.054449251519382957 0 0.00031030477910799022 0.054712882413664454 0 0.00019140386134425499 0.054612146563470979 0 0.00039457401292761457 0.054449251519382957 0 0.00013670053626409695 0.054481376973448008 0 0.00019140386134425499 0.054612146563470979 0 2.0491856101843798e-05 0.054594633704292857 0 0.00013670053626409695 0.054481376973448008 0 0.00019140386134425499 0.054612146563470979 0 -0.0036439031050554981 -0.0084496401499143444 0 -0.003305841187821307 -0.0082398586252516344 0 -0.00335847222656216 -0.0084713570255425738 0 -0.0036439031050554981 -0.0084496401499143444 0 -0.00335847222656216 -0.0084713570255425738 0 -0.0035217996669967412 -0.0086359015166642249 0 -0.0036439031050554981 -0.0084496401499143444 0 -0.0035217996669967412 -0.0086359015166642249 0 -0.0037440681443509788 -0.0086944073637250999 0 -0.0036439031050554981 -0.0084496401499143444 0 -0.0038917055080716035 -0.008604739687986758 0 -0.0039079325730391233 -0.0084298290816448226 0 -0.0036439031050554981 -0.0084496401499143444 0 -0.0038917055080716035 -0.008604739687986758 0 -0.0037440681443509788 -0.0086944073637250999 0 -0.0038917055080716035 -0.008604739687986758 0 -0.0037440681443509788 -0.0086944073637250999 0 -0.0039162080675065464 -0.0087442568129188231 0 -0.0038917055080716035 -0.008604739687986758 0 -0.0039079325730391233 -0.0084298290816448226 0 -0.004010933065579275 -0.0085345148293080875 0 -0.0036439031050554981 -0.0084496401499143444 0 -0.0039079325730391233 -0.0084298290816448226 0 -0.0038529433800449805 -0.0082596053375413609 0 -0.0038529433800449805 -0.0082596053375413609 0 -0.0040652812880729028 -0.0083222010938062228 0 -0.003947057406752036 -0.0080951080157840825 0 -0.0039079325730391233 -0.0084298290816448226 0 -0.0038529433800449805 -0.0082596053375413609 0 -0.0040652812880729028 -0.0083222010938062228 0 -0.0038529433800449805 -0.0082596053375413609 0 -0.0036576770202271839 -0.0081667486474341754 0 -0.003947057406752036 -0.0080951080157840825 0 -0.0036439031050554981 -0.0084496401499143444 0 -0.0036576770202271839 -0.0081667486474341754 0 -0.003305841187821307 -0.0082398586252516344 0 -0.0036439031050554981 -0.0084496401499143444 0 -0.0038529433800449805 -0.0082596053375413609 0 -0.0036576770202271839 -0.0081667486474341754 0 -0.0036576770202271839 -0.0081667486474341754 0 -0.003305841187821307 -0.0082398586252516344 0 -0.0032973602520464545 -0.0079152901301087451 0 -0.003305841187821307 -0.0082398586252516344 0 -0.0029229914850349469 -0.0079969725230811233 0 -0.0032973602520464545 -0.0079152901301087451 0 -0.003305841187821307 -0.0082398586252516344 0 -0.0029229914850349469 -0.0079969725230811233 0 -0.0029298021908370888 -0.0082591954273721329 0 -0.0029229914850349469 -0.0079969725230811233 0 -0.0024159039812449044 -0.0078094409428923805 0 -0.0025990554753856569 -0.0081179995426916198 0 -0.0029298021908370888 -0.0082591954273721329 0 -0.0026462135035742866 -0.0083512398114590457 0 -0.0025990554753856569 -0.0081179995426916198 0 -0.0029229914850349469 -0.0079969725230811233 0 -0.0029298021908370888 -0.0082591954273721329 0 -0.0025990554753856569 -0.0081179995426916198 0 -0.0029298021908370888 -0.0082591954273721329 0 -0.0026462135035742866 -0.0083512398114590457 0 -0.0030617206428342355 -0.0084490282397211916 0 -0.0026462135035742866 -0.0083512398114590457 0 -0.0030617206428342355 -0.0084490282397211916 0 -0.0028004841871331239 -0.0085509676337294158 0 -0.0026462135035742866 -0.0083512398114590457 0 -0.0028004841871331239 -0.0085509676337294158 0 -0.0024551508036522842 -0.0084900492038056195 0 -0.00335847222656216 -0.0084713570255425738 0 -0.0030617206428342355 -0.0084490282397211916 0 -0.0032029880773714265 -0.0087277252308898493 0 -0.003305841187821307 -0.0082398586252516344 0 -0.00335847222656216 -0.0084713570255425738 0 -0.0030617206428342355 -0.0084490282397211916 0 -0.003305841187821307 -0.0082398586252516344 0 -0.0029298021908370888 -0.0082591954273721329 0 -0.0030617206428342355 -0.0084490282397211916 0 -0.00335847222656216 -0.0084713570255425738 0 -0.0032029880773714265 -0.0087277252308898493 0 -0.0035217996669967412 -0.0086359015166642249 0 -0.0030617206428342355 -0.0084490282397211916 0 -0.0032029880773714265 -0.0087277252308898493 0 -0.0028004841871331239 -0.0085509676337294158 0 -0.0032029880773714265 -0.0087277252308898493 0 -0.0028004841871331239 -0.0085509676337294158 0 -0.00278607041082526 -0.0087743511661189412 0 -0.0028004841871331239 -0.0085509676337294158 0 -0.00278607041082526 -0.0087743511661189412 0 -0.0024551508036522842 -0.0084900492038056195 0 -0.00278607041082526 -0.0087743511661189412 0 -0.0031345026590623337 -0.0090352621750216452 0 -0.0027604644017547772 -0.0092065582951697516 0 -0.0032029880773714265 -0.0087277252308898493 0 -0.0031345026590623337 -0.0090352621750216452 0 -0.0035024548518205294 -0.0090466472141854798 0 -0.0032029880773714265 -0.0087277252308898493 0 -0.00278607041082526 -0.0087743511661189412 0 -0.0031345026590623337 -0.0090352621750216452 0 -0.0035024548518205294 -0.0090466472141854798 0 -0.0036217542560418323 -0.0088291014791840299 0 -0.0037947924069183674 -0.0089614494313969215 0 -0.0032029880773714265 -0.0087277252308898493 0 -0.0035024548518205294 -0.0090466472141854798 0 -0.0036217542560418323 -0.0088291014791840299 0 -0.0032029880773714265 -0.0087277252308898493 0 -0.0036217542560418323 -0.0088291014791840299 0 -0.0035217996669967412 -0.0086359015166642249 0 -0.0036217542560418323 -0.0088291014791840299 0 -0.0035217996669967412 -0.0086359015166642249 0 -0.0037440681443509788 -0.0086944073637250999 0 -0.0037440681443509788 -0.0086944073637250999 0 -0.0038117164723554262 -0.0088205729806115525 0 -0.0039162080675065464 -0.0087442568129188231 0 -0.0036217542560418323 -0.0088291014791840299 0 -0.0038117164723554262 -0.0088205729806115525 0 -0.0037947924069183674 -0.0089614494313969215 0 -0.0036217542560418323 -0.0088291014791840299 0 -0.0037440681443509788 -0.0086944073637250999 0 -0.0038117164723554262 -0.0088205729806115525 0 -0.0038117164723554262 -0.0088205729806115525 0 -0.0039162080675065464 -0.0087442568129188231 0 -0.0039441412936552121 -0.0088744723635287223 0 -0.0038117164723554262 -0.0088205729806115525 0 -0.0037947924069183674 -0.0089614494313969215 0 -0.0039441412936552121 -0.0088744723635287223 0 -0.0035024548518205294 -0.0090466472141854798 0 -0.0037947924069183674 -0.0089614494313969215 0 -0.0037990773202957462 -0.0092043654032152953 0 -0.0037947924069183674 -0.0089614494313969215 0 -0.0039570879448595176 -0.0089781502688824275 0 -0.0037990773202957462 -0.0092043654032152953 0 -0.0039570879448595176 -0.0089781502688824275 0 -0.0040695634391067848 -0.0089942211628615248 0 -0.0037990773202957462 -0.0092043654032152953 0 0.0011474573567841831 -0.01378266164196027 0 0.0011048825844943886 -0.013479635628407122 0 0.00065966138997696627 -0.014157970786027426 0 -0.0039570879448595176 -0.0089781502688824275 0 -0.0040320636499423376 -0.0089126073674290276 0 -0.0039441412936552121 -0.0088744723635287223 0 -0.0037947924069183674 -0.0089614494313969215 0 -0.0039570879448595176 -0.0089781502688824275 0 -0.0039441412936552121 -0.0088744723635287223 0 -0.0039570879448595176 -0.0089781502688824275 0 -0.0040320636499423376 -0.0089126073674290276 0 -0.0040414232095727937 -0.0089550810442106995 0 -0.0039570879448595176 -0.0089781502688824275 0 -0.0040414232095727937 -0.0089550810442106995 0 -0.0040695634391067848 -0.0089942211628615248 0 0.0011474573567841831 -0.01378266164196027 0 0.0011048825844943886 -0.013479635628407122 0 -0.00058515239211501908 -0.012678287118349441 0 -0.0040733312418869709 -0.0089448741541232769 0 -0.0040817700443850826 -0.0089235035653010605 0 -0.0040748641236611934 -0.0089261232192277915 0 -0.0020052536597835392 -0.010608359963969098 0 -0.0028023547601472398 -0.010180082120790116 0 -0.0040695634391067848 -0.0089942211628615248 0 -0.0040733312418869709 -0.0089448741541232769 0 -0.0040748641236611934 -0.0089261232192277915 0 0.0012383621283162793 -0.01431748524368682 0 0.00089461561750664009 -0.014465303038571395 0 -0.0040414232095727937 -0.0089550810442106995 0 -0.0040695634391067848 -0.0089942211628615248 0 -0.0040733312418869709 -0.0089448741541232769 0 -0.0040320636499423376 -0.0089126073674290276 0 -0.0040414232095727937 -0.0089550810442106995 0 -0.0040733312418869709 -0.0089448741541232769 0 -0.0040320636499423376 -0.0089126073674290276 0 -0.0040733312418869709 -0.0089448741541232769 0 -0.0040741227651016716 -0.0088903103225578504 0 -0.0040320636499423376 -0.0089126073674290276 0 -0.0040741227651016716 -0.0088903103225578504 0 -0.0040289861586101016 -0.0088198867139110178 0 -0.0040741227651016716 -0.0088903103225578504 0 -0.0040817700443850826 -0.0089235035653010605 0 -0.0040895489766122747 -0.0089217250152078143 0 -0.0040733312418869709 -0.0089448741541232769 0 -0.0040741227651016716 -0.0088903103225578504 0 -0.0040817700443850826 -0.0089235035653010605 0 -0.0040771069779265067 -0.00883355036690525 0 -0.0040895489766122747 -0.0089217250152078143 0 -0.0040916959531630366 -0.0088257897461356712 0 -0.0040741227651016716 -0.0088903103225578504 0 -0.0040771069779265067 -0.00883355036690525 0 -0.0040895489766122747 -0.0089217250152078143 0 -0.0040741227651016716 -0.0088903103225578504 0 -0.0040771069779265067 -0.00883355036690525 0 -0.0040289861586101016 -0.0088198867139110178 0 -0.0040771069779265067 -0.00883355036690525 0 -0.0040289861586101016 -0.0088198867139110178 0 -0.0040752457934411668 -0.0087022878487162756 0 -0.0040289861586101016 -0.0088198867139110178 0 -0.0039162080675065464 -0.0087442568129188231 0 -0.0039441412936552121 -0.0088744723635287223 0 -0.0040289861586101016 -0.0088198867139110178 0 -0.0039162080675065464 -0.0087442568129188231 0 -0.003997653634255925 -0.0086815739234988396 0 -0.0040320636499423376 -0.0089126073674290276 0 -0.0040289861586101016 -0.0088198867139110178 0 -0.0039441412936552121 -0.0088744723635287223 0 -0.0034887419063722386 -0.011974909914958809 0 -0.0009044343175154913 -0.011122752397845732 0 -0.0038761495777103585 -0.0094573355936183028 0 0.00057707848817551777 -0.015049236432590325 0 0.00089461561750664009 -0.014465303038571395 0 -0.0034887419063722386 -0.011974909914958809 0 -0.0009044343175154913 -0.011122752397845732 0 -0.00058515239211501908 -0.012678287118349441 0 0.0011048825844943886 -0.013479635628407122 0 -0.0009044343175154913 -0.011122752397845732 0 -0.00058515239211501908 -0.012678287118349441 0 -0.0040817700443850826 -0.0089235035653010605 0 -0.0040748641236611934 -0.0089261232192277915 0 -0.0040895489766122747 -0.0089217250152078143 0 -0.0040895489766122747 -0.0089217250152078143 0 -0.0040713957423766647 -0.0088979804515146432 0 -0.0040916959531630366 -0.0088257897461356712 0 -0.0040895489766122747 -0.0089217250152078143 0 -0.0040279727276121271 -0.0090521428188553577 0 -0.0040713957423766647 -0.0088979804515146432 0 -0.0040279727276121271 -0.0090521428188553577 0 -0.0040231254818108185 -0.0090352476594772468 0 -0.0040713957423766647 -0.0088979804515146432 0 -0.0040748641236611934 -0.0089261232192277915 0 -0.0040895489766122747 -0.0089217250152078143 0 -0.0040279727276121271 -0.0090521428188553577 0 -0.0040279727276121271 -0.0090521428188553577 0 -0.0040231254818108185 -0.0090352476594772468 0 -0.0038761495777103585 -0.0094573355936183028 0 -0.0040748641236611934 -0.0089261232192277915 0 -0.0040279727276121271 -0.0090521428188553577 0 -0.0038761495777103585 -0.0094573355936183028 0 -0.0040231254818108185 -0.0090352476594772468 0 -0.0038761495777103585 -0.0094573355936183028 0 -0.0041310526437822919 -0.0089594959471056002 0 -0.0028023547601472398 -0.010180082120790116 0 -0.0033591927284403692 -0.0099135082052342303 0 -0.0040231254818108185 -0.0090352476594772468 0 -0.0041076605048882692 -0.0087845349342433269 0 -0.0041310526437822919 -0.0089594959471056002 0 -0.0040231254818108185 -0.0090352476594772468 0 -0.0040713957423766647 -0.0088979804515146432 0 -0.0041076605048882692 -0.0087845349342433269 0 -0.0040713957423766647 -0.0088979804515146432 0 -0.0041321703481816815 -0.008658506584276986 0 -0.0041076605048882692 -0.0087845349342433269 0 -0.0040713957423766647 -0.0088979804515146432 0 -0.0041321703481816815 -0.008658506584276986 0 -0.0041083521761220362 -0.0087044357328130983 0 -0.0040713957423766647 -0.0088979804515146432 0 -0.0040916959531630366 -0.0088257897461356712 0 -0.0041083521761220362 -0.0087044357328130983 0 -0.0041321703481816815 -0.008658506584276986 0 -0.0041076605048882692 -0.0087845349342433269 0 -0.0041718884579017073 -0.0085730501206875923 0 -0.0041321703481816815 -0.008658506584276986 0 -0.0041718884579017073 -0.0085730501206875923 0 -0.004184451494249208 -0.0084734945479038471 0 -0.0041076605048882692 -0.0087845349342433269 0 -0.0041310526437822919 -0.0089594959471056002 0 -0.0041969525262284015 -0.0086820167615931781 0 -0.0041076605048882692 -0.0087845349342433269 0 -0.0041718884579017073 -0.0085730501206875923 0 -0.0041969525262284015 -0.0086820167615931781 0 -0.004010933065579275 -0.0085345148293080875 0 -0.0040752457934411668 -0.0087022878487162756 0 -0.004097120026244714 -0.0085281675017349432 0 -0.004010933065579275 -0.0085345148293080875 0 -0.003997653634255925 -0.0086815739234988396 0 -0.0040752457934411668 -0.0087022878487162756 0 -0.0038917055080716035 -0.008604739687986758 0 -0.004010933065579275 -0.0085345148293080875 0 -0.003997653634255925 -0.0086815739234988396 0 -0.0038917055080716035 -0.008604739687986758 0 -0.0039162080675065464 -0.0087442568129188231 0 -0.003997653634255925 -0.0086815739234988396 0 -0.0040289861586101016 -0.0088198867139110178 0 -0.003997653634255925 -0.0086815739234988396 0 -0.0040752457934411668 -0.0087022878487162756 0 -0.0040771069779265067 -0.00883355036690525 0 -0.0040752457934411668 -0.0087022878487162756 0 -0.0040916959531630366 -0.0088257897461356712 0 -0.0040752457934411668 -0.0087022878487162756 0 -0.0040916959531630366 -0.0088257897461356712 0 -0.0041083521761220362 -0.0087044357328130983 0 -0.0040752457934411668 -0.0087022878487162756 0 -0.0041083521761220362 -0.0087044357328130983 0 -0.004097120026244714 -0.0085281675017349432 0 -0.0041083521761220362 -0.0087044357328130983 0 -0.0041430158687951919 -0.0085482913312296804 0 -0.004097120026244714 -0.0085281675017349432 0 -0.0041321703481816815 -0.008658506584276986 0 -0.0041083521761220362 -0.0087044357328130983 0 -0.0041430158687951919 -0.0085482913312296804 0 -0.0041321703481816815 -0.008658506584276986 0 -0.0041430158687951919 -0.0085482913312296804 0 -0.004184451494249208 -0.0084734945479038471 0 -0.0041430158687951919 -0.0085482913312296804 0 -0.0041775304244765776 -0.0083875139128615859 0 -0.004184451494249208 -0.0084734945479038471 0 -0.0041430158687951919 -0.0085482913312296804 0 -0.004097120026244714 -0.0085281675017349432 0 -0.0041775304244765776 -0.0083875139128615859 0 -0.004097120026244714 -0.0085281675017349432 0 -0.0040652812880729028 -0.0083222010938062228 0 -0.0041775304244765776 -0.0083875139128615859 0 -0.004010933065579275 -0.0085345148293080875 0 -0.004097120026244714 -0.0085281675017349432 0 -0.0040652812880729028 -0.0083222010938062228 0 -0.0039079325730391233 -0.0084298290816448226 0 -0.004010933065579275 -0.0085345148293080875 0 -0.0040652812880729028 -0.0083222010938062228 0 -0.0040652812880729028 -0.0083222010938062228 0 -0.0042259036577228532 -0.0082116013442474836 0 -0.004111900487886175 -0.0081468857867138082 0 -0.0040652812880729028 -0.0083222010938062228 0 -0.0042259036577228532 -0.0082116013442474836 0 -0.0041775304244765776 -0.0083875139128615859 0 -0.0042259036577228532 -0.0082116013442474836 0 -0.0042008766229266635 -0.0079874640672356854 0 -0.004111900487886175 -0.0081468857867138082 0 -0.0041775304244765776 -0.0083875139128615859 0 -0.0042418529050913534 -0.0082989191586713123 0 -0.004184451494249208 -0.0084734945479038471 0 -0.0042259036577228532 -0.0082116013442474836 0 -0.0041775304244765776 -0.0083875139128615859 0 -0.0042418529050913534 -0.0082989191586713123 0 -0.0042418529050913534 -0.0082989191586713123 0 -0.0043458469771832176 -0.0080853426714025643 0 -0.0042717349032439624 -0.0083455495943448067 0 -0.0043458469771832176 -0.0080853426714025643 0 -0.0044433778668724715 -0.0082888420697787707 0 -0.0042717349032439624 -0.0083455495943448067 0 -0.0042418529050913534 -0.0082989191586713123 0 -0.0042117217365775237 -0.0084553639321186518 0 -0.0042717349032439624 -0.0083455495943448067 0 -0.0043458469771832176 -0.0080853426714025643 0 -0.0044845883304524556 -0.0078973795584094866 0 -0.0044433778668724715 -0.0082888420697787707 0 -0.0043458469771832176 -0.0080853426714025643 0 -0.0044845883304524556 -0.0078973795584094866 0 -0.0042008766229266635 -0.0079874640672356854 0 -0.0042259036577228532 -0.0082116013442474836 0 -0.0043458469771832176 -0.0080853426714025643 0 -0.0042008766229266635 -0.0079874640672356854 0 -0.0042259036577228532 -0.0082116013442474836 0 -0.0042418529050913534 -0.0082989191586713123 0 -0.0043458469771832176 -0.0080853426714025643 0 -0.0041718884579017073 -0.0085730501206875923 0 -0.0042117217365775237 -0.0084553639321186518 0 -0.004196771291349221 -0.008554922163287907 0 -0.0041718884579017073 -0.0085730501206875923 0 -0.004196771291349221 -0.008554922163287907 0 -0.0041969525262284015 -0.0086820167615931781 0 -0.0042418529050913534 -0.0082989191586713123 0 -0.004184451494249208 -0.0084734945479038471 0 -0.0042117217365775237 -0.0084553639321186518 0 -0.0041718884579017073 -0.0085730501206875923 0 -0.004184451494249208 -0.0084734945479038471 0 -0.0042117217365775237 -0.0084553639321186518 0 -0.0042117217365775237 -0.0084553639321186518 0 -0.004209112494421398 -0.0085640129655582646 0 -0.0042717349032439624 -0.0083455495943448067 0 -0.0042117217365775237 -0.0084553639321186518 0 -0.004196771291349221 -0.008554922163287907 0 -0.004209112494421398 -0.0085640129655582646 0 -0.004209112494421398 -0.0085640129655582646 0 -0.0042852432217885244 -0.0086551867936473237 0 -0.0041969681213405614 -0.0087298640911915391 0 -0.004209112494421398 -0.0085640129655582646 0 -0.0041969681213405614 -0.0087298640911915391 0 -0.0041407684060644724 -0.0087180047308576154 0 -0.004209112494421398 -0.0085640129655582646 0 -0.0042852432217885244 -0.0086551867936473237 0 -0.0042717349032439624 -0.0083455495943448067 0 -0.0041140169104846337 -0.0088943579041885056 0 -0.0042220563002769206 -0.0087051261387859173 0 -0.0040317009636940031 -0.0087967178681794631 0 -0.0035976478331496936 -0.0094563723941883462 0 -0.0042900517751884078 -0.0092502455479095379 0 -0.0040317009636940031 -0.0087967178681794631 0 -0.0044295574996255959 -0.0087790347819506689 0 -0.0042900517751884078 -0.0092502455479095379 0 -0.0042852432217885244 -0.0086551867936473237 0 -0.0041969681213405614 -0.0087298640911915391 0 -0.0042196901574274278 -0.008881018461807947 0 -0.0041140169104846337 -0.0088943579041885056 0 -0.0038357839592671156 -0.0093612845235816079 0 -0.0044433778668724715 -0.0082888420697787707 0 -0.0044295574996255959 -0.0087790347819506689 0 -0.0048159796400016391 -0.0085899893819033207 0 -0.00511418040772394 -0.0077323429079062984 0 -0.0051669416247965743 -0.0076259255299193683 0 -0.0044845883304524556 -0.0078973795584094866 0 -0.0044433778668724715 -0.0082888420697787707 0 -0.0048159796400016391 -0.0085899893819033207 0 -0.0044433778668724715 -0.0082888420697787707 0 -0.0042717349032439624 -0.0083455495943448067 0 -0.0044295574996255959 -0.0087790347819506689 0 -0.0040317009636940031 -0.0087967178681794631 0 -0.0042717349032439624 -0.0083455495943448067 0 -0.0044295574996255959 -0.0087790347819506689 0 -0.0044295574996255959 -0.0087790347819506689 0 -0.0045948533751911137 -0.0093744025027062677 0 -0.0049218802862183416 -0.0090398145008875105 0 -0.0044295574996255959 -0.0087790347819506689 0 -0.0048159796400016391 -0.0085899893819033207 0 -0.0049218802862183416 -0.0090398145008875105 0 -0.0051669416247965743 -0.0076259255299193683 0 -0.0053172479695159421 -0.007270152415061704 0 -0.0052872445759882085 -0.0055746572953492262 0 -0.0053787105664697132 -0.0042802251411782751 0 -0.0068530009988525481 -0.0047284464039439962 0 -0.0047720816090301129 -0.0068946552906608335 0 -0.0053172479695159421 -0.007270152415061704 0 -0.004482285309660594 -0.0071008641065063108 0 -0.0038213445426172636 -0.0069415884119549218 0 -0.0044689909422820492 -0.0066549306723765172 0 -0.0052872445759882085 -0.0055746572953492262 0 -0.0042483479297197565 -0.0045576603405810875 0 -0.0053787105664697132 -0.0042802251411782751 0 -0.0038213445426172636 -0.0069415884119549218 0 -0.0037400237505607406 -0.0071836596627180144 0 -0.0034918368468942695 -0.0065730716988499291 0 -0.0038213445426172636 -0.0069415884119549218 0 -0.0037400237505607406 -0.0071836596627180144 0 -0.0040113023261812751 -0.0073811457544266318 0 -0.004482285309660594 -0.0071008641065063108 0 -0.0038213445426172636 -0.0069415884119549218 0 -0.0040113023261812751 -0.0073811457544266318 0 -0.0044845883304524556 -0.0078973795584094866 0 -0.004482285309660594 -0.0071008641065063108 0 -0.0040113023261812751 -0.0073811457544266318 0 -0.0044845883304524556 -0.0078973795584094866 0 -0.0040113023261812751 -0.0073811457544266318 0 -0.0039398067456091748 -0.007709395016429782 0 -0.0044845883304524556 -0.0078973795584094866 0 -0.0042008766229266635 -0.0079874640672356854 0 -0.0039398067456091748 -0.007709395016429782 0 -0.0037400237505607406 -0.0071836596627180144 0 -0.0040113023261812751 -0.0073811457544266318 0 -0.0039398067456091748 -0.007709395016429782 0 -0.0037400237505607406 -0.0071836596627180144 0 -0.0039398067456091748 -0.007709395016429782 0 -0.0035074990062873572 -0.007618806463089484 0 -0.0039398067456091748 -0.007709395016429782 0 -0.0037215566667326908 -0.0078939508956657588 0 -0.003947057406752036 -0.0080951080157840825 0 -0.0039398067456091748 -0.007709395016429782 0 -0.0037215566667326908 -0.0078939508956657588 0 -0.0035074990062873572 -0.007618806463089484 0 -0.0036576770202271839 -0.0081667486474341754 0 -0.0037215566667326908 -0.0078939508956657588 0 -0.0032973602520464545 -0.0079152901301087451 0 -0.0036576770202271839 -0.0081667486474341754 0 -0.0037215566667326908 -0.0078939508956657588 0 -0.003947057406752036 -0.0080951080157840825 0 -0.0042008766229266635 -0.0079874640672356854 0 -0.0039398067456091748 -0.007709395016429782 0 -0.003947057406752036 -0.0080951080157840825 0 -0.0040652812880729028 -0.0083222010938062228 0 -0.003947057406752036 -0.0080951080157840825 0 -0.004111900487886175 -0.0081468857867138082 0 -0.0042008766229266635 -0.0079874640672356854 0 -0.003947057406752036 -0.0080951080157840825 0 -0.004111900487886175 -0.0081468857867138082 0 -0.0029229914850349469 -0.0079969725230811233 0 -0.0029085120946181616 -0.0075064260338203962 0 -0.0032973602520464545 -0.0079152901301087451 0 -0.0029229914850349469 -0.0079969725230811233 0 -0.0029085120946181616 -0.0075064260338203962 0 -0.0024159039812449044 -0.0078094409428923805 0 -0.0029085120946181616 -0.0075064260338203962 0 -0.0032973602520464545 -0.0079152901301087451 0 -0.0035074990062873572 -0.007618806463089484 0 -0.0037215566667326908 -0.0078939508956657588 0 -0.0032973602520464545 -0.0079152901301087451 0 -0.0035074990062873572 -0.007618806463089484 0 -0.0029085120946181616 -0.0075064260338203962 0 -0.0035074990062873572 -0.007618806463089484 0 -0.0034918368468942695 -0.0065730716988499291 0 -0.0037400237505607406 -0.0071836596627180144 0 -0.0035074990062873572 -0.007618806463089484 0 -0.0034918368468942695 -0.0065730716988499291 0 -0.0029085120946181616 -0.0075064260338203962 0 -0.0034918368468942695 -0.0065730716988499291 0 -0.0022263516867644046 -0.0066258720634118648 0 -0.0034918368468942695 -0.0065730716988499291 0 -0.0024128419994639983 -0.0055132570658228998 0 -0.0022263516867644046 -0.0066258720634118648 0 -0.0047720816090301129 -0.0068946552906608335 0 -0.0042718381721405883 -0.0069501860885370506 0 -0.0034918368468942695 -0.0065730716988499291 0 -0.0030370586218352882 -0.0044657926347643311 0 -0.0042483479297197565 -0.0045576603405810875 0 -0.0052872445759882085 -0.0055746572953492262 0 -0.0034918368468942695 -0.0065730716988499291 0 -0.0042483479297197565 -0.0045576603405810875 0 -0.0034918368468942695 -0.0065730716988499291 0 -0.0024128419994639983 -0.0055132570658228998 0 -0.0030370586218352882 -0.0044657926347643311 0 -0.0024128419994639983 -0.0055132570658228998 0 -0.0012037807711752944 -0.0055651403504687466 0 -0.0017366072528125292 -0.0033564632702740111 0 -0.0024128419994639983 -0.0055132570658228998 0 -0.0017366072528125292 -0.0033564632702740111 0 -0.0030370586218352882 -0.0044657926347643311 0 -0.0024128419994639983 -0.0055132570658228998 0 -0.0022263516867644046 -0.0066258720634118648 0 -0.0012037807711752944 -0.0055651403504687466 0 -0.0025069209156825508 -0.0023111805047090345 0 -0.0032098594399351719 -0.0016674654555810691 0 -0.0022263516867644046 -0.0066258720634118648 0 -0.0012037807711752944 -0.0055651403504687466 0 -0.0012240744570391653 -0.0068557534814129469 0 -0.0025069209156825508 -0.0023111805047090345 0 -0.0022866222874995275 -0.0026173424539132325 0 -0.001964264161099947 0.00041938258752822338 0 -0.0030454345871114754 -0.0020013820692552343 0 -0.0017366072528125292 -0.0033564632702740111 0 -0.001964264161099947 0.00041938258752822338 0 -0.0061156206119262375 -0.0012382280600783538 0 -0.0030454345871114754 -0.0020013820692552343 0 -0.001964264161099947 0.00041938258752822338 0 -0.0061156206119262375 -0.0012382280600783538 0 -0.0062798030372715379 0.0033824833301054702 0 -0.01219417055585633 0.007698348805583774 0 -0.011735703339079711 0.0068241095316338048 0 -0.0061156206119262375 -0.0012382280600783538 0 -0.0062798030372715379 0.0033824833301054702 0 -0.0092676998102302153 0.0023953981338999644 0 -0.001964264161099947 0.00041938258752822338 0 -0.0062798030372715379 0.0033824833301054702 0 -0.0031868788460504274 0.0040933716059109275 0 -0.0032098594399351719 -0.0016674654555810691 0 -0.0043560606449246425 -0.0012810680195391735 0 -0.0062798030372715379 0.0033824833301054702 0 -0.0031868788460504274 0.0040933716059109275 0 -0.004526311113486255 0.0073345072542702772 0 -0.0062798030372715379 0.0033824833301054702 0 -0.0076420861015023666 0.0061286460289827005 0 -0.0082207257091519367 0.0042234145776705086 0 -0.0062798030372715379 0.0033824833301054702 0 -0.0076420861015023666 0.0061286460289827005 0 -0.004526311113486255 0.0073345072542702772 0 -0.0076420861015023666 0.0061286460289827005 0 -0.004526311113486255 0.0073345072542702772 0 -0.0067172411362200896 0.0081392400240185465 0 -0.0012240744570391653 -0.0068557534814129469 0 -0.0012402325324656052 -0.0076248210417832751 0 -0.0018329687076391818 -0.0077664337349279012 0 -0.0012240744570391653 -0.0068557534814129469 0 -0.0018329687076391818 -0.0077664337349279012 0 -0.0021248240253053025 -0.0073327448314518531 0 -0.0029085120946181616 -0.0075064260338203962 0 -0.0021248240253053025 -0.0073327448314518531 0 -0.0024159039812449044 -0.0078094409428923805 0 -0.0018329687076391818 -0.0077664337349279012 0 -0.0021248240253053025 -0.0073327448314518531 0 -0.0024159039812449044 -0.0078094409428923805 0 -0.0029085120946181616 -0.0075064260338203962 0 -0.0022263516867644046 -0.0066258720634118648 0 -0.0021248240253053025 -0.0073327448314518531 0 -0.0022263516867644046 -0.0066258720634118648 0 -0.0012240744570391653 -0.0068557534814129469 0 -0.0021248240253053025 -0.0073327448314518531 0 -0.0045053598490678113 0.009144508154796397 0 -0.0053399713480447239 0.010063893160103792 0 -0.0061738228091783092 0.0086121884591788926 0 -0.0053399713480447239 0.010063893160103792 0 -0.0065455673229165368 0.010363746447278024 0 -0.0061738228091783092 0.0086121884591788926 0 -0.0077318306129192721 0.0092905977084474425 0 -0.0065455673229165368 0.010363746447278024 0 -0.0084718549093315606 0.011175389597838739 0 -0.0077318306129192721 0.0092905977084474425 0 -0.0065455673229165368 0.010363746447278024 0 -0.0061738228091783092 0.0086121884591788926 0 -0.0065455673229165368 0.010363746447278024 0 -0.0068806279102540269 0.012015808923359732 0 -0.0084718549093315606 0.011175389597838739 0 -0.0065455673229165368 0.010363746447278024 0 -0.0068806279102540269 0.012015808923359732 0 -0.0053619056893425415 0.011554185054018045 0 -0.0053399713480447239 0.010063893160103792 0 -0.0065455673229165368 0.010363746447278024 0 -0.0053619056893425415 0.011554185054018045 0 -0.0068806279102540269 0.012015808923359732 0 -0.0053619056893425415 0.011554185054018045 0 -0.0053479142640562877 0.013794471063886404 0 -0.0053479142640562877 0.013794471063886404 0 -0.0075835774470808474 0.013706489864604031 0 -0.0063038219285698272 0.016599164256211375 0 -0.0068806279102540269 0.012015808923359732 0 -0.0075835774470808474 0.013706489864604031 0 -0.0084718549093315606 0.011175389597838739 0 -0.0068806279102540269 0.012015808923359732 0 -0.0053479142640562877 0.013794471063886404 0 -0.0075835774470808474 0.013706489864604031 0 -0.0075835774470808474 0.013706489864604031 0 -0.011083041298067737 0.013941844695016858 0 -0.0089012423632095338 0.016129024627409744 0 -0.0075835774470808474 0.013706489864604031 0 -0.011083041298067737 0.013941844695016858 0 -0.0084718549093315606 0.011175389597838739 0 -0.011083041298067737 0.013941844695016858 0 -0.0084718549093315606 0.011175389597838739 0 -0.011059236764510436 0.010304805309918558 0 -0.0077318306129192721 0.0092905977084474425 0 -0.0084718549093315606 0.011175389597838739 0 -0.009506218016008176 0.008762789845863728 0 -0.0084718549093315606 0.011175389597838739 0 -0.011059236764510436 0.010304805309918558 0 -0.009506218016008176 0.008762789845863728 0 -0.011083041298067737 0.013941844695016858 0 -0.011059236764510436 0.010304805309918558 0 -0.015380498413843442 0.011071478562812969 0 -0.011059236764510436 0.010304805309918558 0 -0.015380498413843442 0.011071478562812969 0 -0.010984060259636479 0.006315033925527529 0 -0.011083041298067737 0.013941844695016858 0 -0.015380498413843442 0.011071478562812969 0 -0.014953450605565587 0.016246656199640452 0 -0.019323237613702374 0.015324522860085343 0 -0.015380498413843442 0.011071478562812969 0 -0.014953450605565587 0.016246656199640452 0 -0.0062798030372715379 0.0033824833301054702 0 -0.0092676998102302153 0.0023953981338999644 0 -0.0082207257091519367 0.0042234145776705086 0 -0.0092676998102302153 0.0023953981338999644 0 -0.0082207257091519367 0.0042234145776705086 0 -0.0095574574847921007 0.0054435190940558282 0 -0.0076420861015023666 0.0061286460289827005 0 -0.0082207257091519367 0.0042234145776705086 0 -0.0095574574847921007 0.0054435190940558282 0 -0.0076420861015023666 0.0061286460289827005 0 -0.0094346014526591852 0.0073968520493922045 0 -0.0067172411362200896 0.0081392400240185465 0 -0.0076420861015023666 0.0061286460289827005 0 -0.0095574574847921007 0.0054435190940558282 0 -0.0094346014526591852 0.0073968520493922045 0 -0.0094346014526591852 0.0073968520493922045 0 -0.010856484220360134 0.0060829352164567356 0 -0.011259876901715067 0.0083516727414497272 0 -0.0095574574847921007 0.0054435190940558282 0 -0.0094346014526591852 0.0073968520493922045 0 -0.010856484220360134 0.0060829352164567356 0 -0.0077592801453564711 0.0039661765304879748 0 -0.007147509746971736 0.002540816359459326 0 -0.010856484220360134 0.0060829352164567356 0 -0.010199704261211997 0.0056097648619762826 0 -0.01101551014537327 0.0032499555935161764 0 -0.011735703339079711 0.0068241095316338048 0 -0.01128058898791544 0.0063633914374910073 0 -0.0092676998102302153 0.0023953981338999644 0 -0.0095574574847921007 0.0054435190940558282 0 -0.010984060259636479 0.006315033925527529 0 -0.0095574574847921007 0.0054435190940558282 0 -0.010856484220360134 0.0060829352164567356 0 -0.010984060259636479 0.006315033925527529 0 -0.010856484220360134 0.0060829352164567356 0 -0.010984060259636479 0.006315033925527529 0 -0.010199704261211997 0.0056097648619762826 0 -0.011059236764510436 0.010304805309918558 0 -0.009506218016008176 0.008762789845863728 0 -0.010984060259636479 0.006315033925527529 0 -0.009506218016008176 0.008762789845863728 0 -0.010984060259636479 0.006315033925527529 0 -0.0094989111304270308 0.0068379586677186147 0 -0.009506218016008176 0.008762789845863728 0 -0.0094989111304270308 0.0068379586677186147 0 -0.0079995746634519676 0.0076009434535984875 0 -0.0077318306129192721 0.0092905977084474425 0 -0.009506218016008176 0.008762789845863728 0 -0.0079995746634519676 0.0076009434535984875 0 -0.0094989111304270308 0.0068379586677186147 0 -0.0087840455911473436 0.0052640077707559367 0 -0.0079995746634519676 0.0076009434535984875 0 -0.010984060259636479 0.006315033925527529 0 -0.0094989111304270308 0.0068379586677186147 0 -0.010199704261211997 0.0056097648619762826 0 -0.0094989111304270308 0.0068379586677186147 0 -0.010199704261211997 0.0056097648619762826 0 -0.0087840455911473436 0.0052640077707559367 0 -0.0074397002568574854 0.002931630344944793 0 -0.007147509746971736 0.002540816359459326 0 -0.010199704261211997 0.0056097648619762826 0 -0.0087840455911473436 0.0052640077707559367 0 -0.01101551014537327 0.0032499555935161764 0 -0.0087840455911473436 0.0052640077707559367 0 -0.0063741670403347052 0.004484184897585613 0 -0.01101551014537327 0.0032499555935161764 0 -0.0087840455911473436 0.0052640077707559367 0 -0.0063741670403347052 0.004484184897585613 0 -0.0065341123394046206 0.006471263835069783 0 -0.0043854209676209418 0.006322925575221224 0 -0.0063741670403347052 0.004484184897585613 0 -0.0065341123394046206 0.006471263835069783 0 -0.0049642368695038148 0.0077088384733903573 0 -0.0043854209676209418 0.006322925575221224 0 -0.0065341123394046206 0.006471263835069783 0 -0.0087840455911473436 0.0052640077707559367 0 -0.0065341123394046206 0.006471263835069783 0 -0.0079995746634519676 0.0076009434535984875 0 -0.0077318306129192721 0.0092905977084474425 0 -0.0079995746634519676 0.0076009434535984875 0 -0.0061738228091783092 0.0086121884591788926 0 -0.0065341123394046206 0.006471263835069783 0 -0.0079995746634519676 0.0076009434535984875 0 -0.0061738228091783092 0.0086121884591788926 0 -0.0049642368695038148 0.0077088384733903573 0 -0.0045053598490678113 0.009144508154796397 0 -0.0061738228091783092 0.0086121884591788926 0 -0.0049642368695038148 0.0077088384733903573 0 -0.0065341123394046206 0.006471263835069783 0 -0.0061738228091783092 0.0086121884591788926 0 -0.0084517969710051124 0.016281887670064953 0 -0.0096417693753489721 0.01416436446898494 0 -0.0082865532627414869 0.013484122015620832 0 -0.0057638203082315785 0.014699489661166642 0 -0.0084517969710051124 0.016281887670064953 0 -0.0082865532627414869 0.013484122015620832 0 -0.0027716261564583412 0.0033677075392646522 0 -0.0063741670403347052 0.004484184897585613 0 -0.006732559988667443 0.0011672002760997017 0 -0.0063741670403347052 0.004484184897585613 0 -0.006732559988667443 0.0011672002760997017 0 -0.0092425539917631947 0.0011930093768785825 0 -0.0063741670403347052 0.004484184897585613 0 -0.0092425539917631947 0.0011930093768785825 0 -0.01106169276201442 0.0029126885512072574 0 -0.0092425539917631947 0.0011930093768785825 0 -0.010504287927019892 -0.00095403961383169603 0 -0.01106169276201442 0.0029126885512072574 0 -0.006732559988667443 0.0011672002760997017 0 -0.0092425539917631947 0.0011930093768785825 0 -0.010504287927019892 -0.00095403961383169603 0 -0.0065392615249504687 0.007724940737802383 0 -0.0071592079187461286 0.0044449456366869007 0 -0.0084517969710051124 0.016281887670064953 0 -0.011023564969767913 0.014780495453479123 0 -0.0096417693753489721 0.01416436446898494 0 -0.0064653743832955978 -0.0028612427018181131 0 -0.0066577726514369714 -0.0028635446785188626 0 -0.0064996031751947195 -0.0024893172014780591 0 -0.0064653743832955978 -0.0028612427018181131 0 -0.006538415347658596 -0.0028954945846759068 0 -0.0066577726514369714 -0.0028635446785188626 0 -0.0071592079187461286 0.0044449456366869007 0 -0.0072369085574316896 0.0043164104976218757 0 -0.0071592079187461286 0.0044449456366869007 0 -0.007147509746971736 0.002540816359459326 0 -0.0094346014526591852 0.0073968520493922045 0 -0.011259876901715067 0.0083516727414497272 0 -0.0085853125201779523 0.0093168008866388128 0 -0.007147509746971736 0.002540816359459326 0 -0.0067306074374127774 0.00060313216952353034 0 -0.0066577726514369714 -0.0028635446785188626 0 -0.0064996031751947195 -0.0024893172014780591 0 -0.0068461203010446673 -0.002606858227014259 0 -0.0094346014526591852 0.0073968520493922045 0 -0.0085853125201779523 0.0093168008866388128 0 -0.0067172411362200896 0.0081392400240185465 0 -0.0066577726514369714 -0.0028635446785188626 0 -0.0068461203010446673 -0.002606858227014259 0 -0.0069325043875472824 -0.0028611784239722165 0 -0.0066577726514369714 -0.0028635446785188626 0 -0.0069325043875472824 -0.0028611784239722165 0 -0.0068094259837898942 -0.0030243974509526787 0 -0.0069325043875472824 -0.0028611784239722165 0 -0.0068094259837898942 -0.0030243974509526787 0 -0.0070532682262829287 -0.0031013982762741711 0 -0.0066577726514369714 -0.0028635446785188626 0 -0.0068094259837898942 -0.0030243974509526787 0 -0.0066605767926067481 -0.0030898723445293877 0 -0.0068094259837898942 -0.0030243974509526787 0 -0.0067709697984838111 -0.0032067068071768307 0 -0.0066605767926067481 -0.0030898723445293877 0 -0.0068094259837898942 -0.0030243974509526787 0 -0.0067709697984838111 -0.0032067068071768307 0 -0.0070532682262829287 -0.0031013982762741711 0 -0.0058628277121419731 -0.0042305668696640576 0 -0.0060740835379360075 -0.0041296566695717936 0 -0.0067709697984838111 -0.0032067068071768307 0 -0.0067427611064192709 -0.0032782843706945009 0 -0.0067234240376949786 -0.0037037873253650323 0 -0.0067709697984838111 -0.0032067068071768307 0 -0.0070532682262829287 -0.0031013982762741711 0 -0.0067234240376949786 -0.0037037873253650323 0 -0.0067709697984838111 -0.0032067068071768307 0 -0.0066181835431034551 -0.0030697142142120403 0 -0.0067427611064192709 -0.0032782843706945009 0 -0.0067427611064192709 -0.0032782843706945009 0 -0.0065487380018342542 -0.0028638628987153244 0 -0.0069421038102461252 -0.0034655084602657391 0 -0.0065069342860374366 -0.0022712593718484538 0 -0.006371497545104912 -0.0018771729484654423 0 -0.0065487380018342542 -0.0028638628987153244 0 -0.0069231045850398172 -0.0017370881497773653 0 -0.0057285195264648245 -0.00095947979127924824 0 -0.0066181835431034551 -0.0030697142142120403 0 -0.0067427611064192709 -0.0032782843706945009 0 -0.0065487380018342542 -0.0028638628987153244 0 -0.0066181835431034551 -0.0030697142142120403 0 -0.0066254294474308046 -0.0032788241949388806 0 -0.0065487380018342542 -0.0028638628987153244 0 -0.0066181835431034551 -0.0030697142142120403 0 -0.0066605767926067481 -0.0030898723445293877 0 -0.0066254294474308046 -0.0032788241949388806 0 -0.0067709697984838111 -0.0032067068071768307 0 -0.0066181835431034551 -0.0030697142142120403 0 -0.0066605767926067481 -0.0030898723445293877 0 -0.006538415347658596 -0.0028954945846759068 0 -0.0066577726514369714 -0.0028635446785188626 0 -0.0064529844941616328 -0.0030170656849214036 0 -0.0064872634506086546 -0.002862176012900525 0 -0.006538415347658596 -0.0028954945846759068 0 -0.0064529844941616328 -0.0030170656849214036 0 -0.006312724539759622 0.00084252442905481727 0 -0.0075569295259858204 0.0028948909827949225 0 -0.0066577726514369714 -0.0028635446785188626 0 -0.0066605767926067481 -0.0030898723445293877 0 -0.0066254294474308046 -0.0032788241949388806 0 -0.0096417693753489721 0.01416436446898494 0 -0.010792228181313953 0.013163647371979371 0 -0.0082865532627414869 0.013484122015620832 0 -0.0071592079187461286 0.0044449456366869007 0 -0.0075569295259858204 0.0028948909827949225 0 -0.011023564969767913 0.014780495453479123 0 -0.0096417693753489721 0.01416436446898494 0 -0.010792228181313953 0.013163647371979371 0 -0.0075569295259858204 0.0028948909827949225 0 -0.0098946772954560148 0.0071115908173887809 0 -0.0067339067087308956 -0.0030125016468179932 0 -0.0069231045850398172 -0.0017370881497773653 0 -0.0076433115737020475 -0.0016849434772055315 0 -0.0067339067087308956 -0.0030125016468179932 0 -0.0079665337887137363 -0.0017739266839253997 0 -0.0076433115737020475 -0.0016849434772055315 0 -0.0075569295259858204 0.0028948909827949225 0 -0.007207643922149805 0.00043855963418247535 0 -0.0066254294474308046 -0.0032788241949388806 0 -0.0065487380018342542 -0.0028638628987153244 0 -0.0069231045850398172 -0.0017370881497773653 0 -0.0066878734183970804 0.01152905565012924 0 -0.0085945738676101707 0.010967735369071819 0 -0.0082865532627414869 0.013484122015620832 0 -0.0097689159271485502 0.012886878444240154 0 -0.0098946772954560148 0.0071115908173887809 0 -0.0098946772954560148 0.0071115908173887809 0 -0.0098821429860599021 0.0070122722451766394 0 -0.010792228181313953 0.013163647371979371 0 -0.0085945738676101707 0.010967735369071819 0 -0.0082865532627414869 0.013484122015620832 0 -0.0020547398458491107 -0.0085902007544096642 0 -0.0022883191428201828 -0.0083987112411005246 0 -0.0020088361126500949 -0.0082491814677343334 0 -0.0020547398458491107 -0.0085902007544096642 0 -0.0020088361126500949 -0.0082491814677343334 0 -0.0016431408142822928 -0.0081181098246792364 0 -0.0020547398458491107 -0.0085902007544096642 0 -0.0032408978658007926 -0.0082645088965207971 0 -0.0021288471206447829 -0.0080451044981606872 0 -0.0020547398458491107 -0.0085902007544096642 0 -0.0022883191428201828 -0.0083987112411005246 0 -0.0021860924462248042 -0.0083796723602185975 0 -0.0022883191428201828 -0.0083987112411005246 0 -0.0024551508036522842 -0.0084900492038056195 0 -0.0021860924462248042 -0.0083796723602185975 0 -0.0026462135035742866 -0.0083512398114590457 0 -0.0022883191428201828 -0.0083987112411005246 0 -0.0024551508036522842 -0.0084900492038056195 0 -0.0026462135035742866 -0.0083512398114590457 0 -0.0022883191428201828 -0.0083987112411005246 0 -0.0022655787303813898 -0.0081554495195275516 0 -0.0022883191428201828 -0.0083987112411005246 0 -0.0022655787303813898 -0.0081554495195275516 0 -0.0020088361126500949 -0.0082491814677343334 0 -0.0018329687076391818 -0.0077664337349279012 0 -0.0024159039812449044 -0.0078094409428923805 0 -0.0022655787303813898 -0.0081554495195275516 0 -0.0026462135035742866 -0.0083512398114590457 0 -0.0022655787303813898 -0.0081554495195275516 0 -0.0025990554753856569 -0.0081179995426916198 0 -0.0024159039812449044 -0.0078094409428923805 0 -0.0022655787303813898 -0.0081554495195275516 0 -0.0025990554753856569 -0.0081179995426916198 0 -0.0018329687076391818 -0.0077664337349279012 0 -0.0022655787303813898 -0.0081554495195275516 0 -0.0020088361126500949 -0.0082491814677343334 0 -0.0012402325324656052 -0.0076248210417832751 0 -0.0018329687076391818 -0.0077664337349279012 0 -0.0016431408142822928 -0.0081181098246792364 0 -0.0018329687076391818 -0.0077664337349279012 0 -0.0020088361126500949 -0.0082491814677343334 0 -0.0016431408142822928 -0.0081181098246792364 0 -0.0043560606449246425 -0.0012810680195391735 0 -0.0058365963645932595 -0.0024757723087799788 0 -0.0012402325324656052 -0.0076248210417832751 0 -0.0016431408142822928 -0.0081181098246792364 0 -0.0010197538120915027 -0.0083544094792460683 0 -0.0067306074374127774 0.00060313216952353034 0 -0.0058365963645932595 -0.0024757723087799788 0 -0.004526311113486255 0.0073345072542702772 0 -0.0067172411362200896 0.0081392400240185465 0 -0.0057666004085654195 0.010287285853569405 0 -0.0085853125201779523 0.0093168008866388128 0 -0.0067172411362200896 0.0081392400240185465 0 -0.0057666004085654195 0.010287285853569405 0 -0.0068461203010446673 -0.002606858227014259 0 -0.0069325043875472824 -0.0028611784239722165 0 -0.0071815606880523269 -0.0027199257885760597 0 -0.0058365963645932595 -0.0024757723087799788 0 -0.0058628277121419731 -0.0042305668696640576 0 -0.0069325043875472824 -0.0028611784239722165 0 -0.0071815606880523269 -0.0027199257885760597 0 -0.0070532682262829287 -0.0031013982762741711 0 -0.0044516775097591778 -0.0038782148136422352 0 -0.0058365963645932595 -0.0024757723087799788 0 -0.0048415707554284298 -0.0097905985225817411 0 -0.0032408978658007926 -0.0082645088965207971 0 -0.0041409540701643792 -0.0077192533276584608 0 -0.0020547398458491107 -0.0085902007544096642 0 -0.0048415707554284298 -0.0097905985225817411 0 -0.0032408978658007926 -0.0082645088965207971 0 -0.0020547398458491107 -0.0085902007544096642 0 -0.0016431408142822928 -0.0081181098246792364 0 -0.0010197538120915027 -0.0083544094792460683 0 -0.0032408978658007926 -0.0082645088965207971 0 -0.0041409540701643792 -0.0077192533276584608 0 -0.003254695564536374 -0.007336767706535058 0 -0.0041409540701643792 -0.0077192533276584608 0 -0.0060057210988280077 -0.0069270714178311637 0 -0.0036810724037897547 -0.0059954242225654401 0 -0.0041409540701643792 -0.0077192533276584608 0 -0.003254695564536374 -0.007336767706535058 0 -0.0036810724037897547 -0.0059954242225654401 0 -0.0048415707554284298 -0.0097905985225817411 0 -0.0041409540701643792 -0.0077192533276584608 0 -0.0060057210988280077 -0.0069270714178311637 0 -0.0060057210988280077 -0.0069270714178311637 0 -0.0051117303043145519 -0.0051211516930961447 0 -0.0036810724037897547 -0.0059954242225654401 0 -0.0060057210988280077 -0.0069270714178311637 0 -0.0051117303043145519 -0.0051211516930961447 0 -0.0067234240376949786 -0.0037037873253650323 0 -0.003254695564536374 -0.007336767706535058 0 -0.0036810724037897547 -0.0059954242225654401 0 -0.0019388375285506723 -0.005399959240263554 0 -0.0051117303043145519 -0.0051211516930961447 0 -0.0036810724037897547 -0.0059954242225654401 0 -0.0037954979002889416 -0.0044324578216754298 0 -0.0036810724037897547 -0.0059954242225654401 0 -0.0024172633864196933 -0.0053801158964434581 0 -0.0037954979002889416 -0.0044324578216754298 0 -0.0028524671475766328 -0.0072617762173230521 0 -0.0028520325651939325 -0.0073925014800714454 0 -0.003254695564536374 -0.007336767706535058 0 -0.0019388375285506723 -0.005399959240263554 0 -0.0021288471206447829 -0.0080451044981606872 0 -0.0028520325651939325 -0.0073925014800714454 0 -0.0027611616638139901 -0.0075240601715796107 0 -0.0020117392638601861 -0.0088650414196497478 0 -0.0021288471206447829 -0.0080451044981606872 0 -0.0023278835760931339 -0.0085898393578231567 0 -0.0020547398458491107 -0.0085902007544096642 0 -0.0021288471206447829 -0.0080451044981606872 0 -0.0021860924462248042 -0.0083796723602185975 0 -0.0021288471206447829 -0.0080451044981606872 0 -0.0021860924462248042 -0.0083796723602185975 0 -0.0023278835760931339 -0.0085898393578231567 0 -0.0032408978658007926 -0.0082645088965207971 0 -0.003254695564536374 -0.007336767706535058 0 -0.0021288471206447829 -0.0080451044981606872 0 -0.00278607041082526 -0.0087743511661189412 0 -0.0024551508036522842 -0.0084900492038056195 0 -0.0023278835760931339 -0.0085898393578231567 0 -0.0024551508036522842 -0.0084900492038056195 0 -0.0021860924462248042 -0.0083796723602185975 0 -0.0023278835760931339 -0.0085898393578231567 0 -0.00278607041082526 -0.0087743511661189412 0 -0.0023278835760931339 -0.0085898393578231567 0 -0.0027604644017547772 -0.0092065582951697516 0 -0.0020117392638601861 -0.0088650414196497478 0 -0.0023278835760931339 -0.0085898393578231567 0 -0.0027604644017547772 -0.0092065582951697516 0 -0.0028520325651939325 -0.0073925014800714454 0 -0.0027598578058957335 -0.0086618561979427584 0 -0.0029292766329963469 -0.0081947475529157605 0 -0.0028555011023664802 -0.008252245816848372 0 -0.0028526176830451179 -0.008141792036109121 0 -0.0030072175444301385 -0.00830463468988543 0 -0.0029292766329963469 -0.0081947475529157605 0 -0.0028555011023664802 -0.008252245816848372 0 -0.0037852404307375945 -0.0066187040934581947 0 -0.0028409014326620761 -0.009012147685679062 0 -0.0029292766329963469 -0.0081947475529157605 0 -0.0030054142076320948 -0.0080838229038832105 0 -0.0028526176830451179 -0.008141792036109121 0 -0.0025334595674655408 -0.0033839138315257837 0 -0.0034467608792193658 -0.0019652775493645643 0 -0.0025871842481311499 -0.0015670243977540309 0 -0.0029292766329963469 -0.0081947475529157605 0 -0.0030058940000672217 -0.0081954920673142136 0 -0.0030054142076320948 -0.0080838229038832105 0 -0.0032297879124169467 -0.0064805923317058601 0 -0.0037852404307375945 -0.0066187040934581947 0 -0.0028520325651939325 -0.0073925014800714454 0 -0.0032297879124169467 -0.0064805923317058601 0 -0.0024172633864196933 -0.0053801158964434581 0 -0.0025334595674655408 -0.0033839138315257837 0 -0.0037954979002889416 -0.0044324578216754298 0 -0.0030072175444301385 -0.00830463468988543 0 -0.0029292766329963469 -0.0081947475529157605 0 -0.0030058940000672217 -0.0081954920673142136 0 -0.0051117303043145519 -0.0051211516930961447 0 -0.0037954979002889416 -0.0044324578216754298 0 -0.005089400288104614 -0.0037699685193176612 0 -0.0037954979002889416 -0.0044324578216754298 0 -0.005089400288104614 -0.0037699685193176612 0 -0.0039930611201768077 -0.0029846316305391992 0 -0.005089400288104614 -0.0037699685193176612 0 -0.0048900642451871887 -0.0026067058741705345 0 -0.0039930611201768077 -0.0029846316305391992 0 -0.0025334595674655408 -0.0033839138315257837 0 -0.0037954979002889416 -0.0044324578216754298 0 -0.0039930611201768077 -0.0029846316305391992 0 -0.0051117303043145519 -0.0051211516930961447 0 -0.005089400288104614 -0.0037699685193176612 0 -0.0067234240376949786 -0.0037037873253650323 0 -0.005089400288104614 -0.0037699685193176612 0 -0.0058476718539440887 -0.0030038447659583262 0 -0.0067234240376949786 -0.0037037873253650323 0 -0.005089400288104614 -0.0037699685193176612 0 -0.0058476718539440887 -0.0030038447659583262 0 -0.0048900642451871887 -0.0026067058741705345 0 -0.0058476718539440887 -0.0030038447659583262 0 -0.0055401397926330498 -0.002365723500698573 0 -0.0060966402234472195 -0.0022686008276738968 0 -0.0058476718539440887 -0.0030038447659583262 0 -0.0055401397926330498 -0.002365723500698573 0 -0.0048900642451871887 -0.0026067058741705345 0 -0.0055401397926330498 -0.002365723500698573 0 -0.0048900642451871887 -0.0026067058741705345 0 -0.0051450621916651392 -0.0016595362713484529 0 -0.0055401397926330498 -0.002365723500698573 0 -0.0056580622761160946 -0.0017492104208625269 0 -0.0051450621916651392 -0.0016595362713484529 0 -0.0048900642451871887 -0.0026067058741705345 0 -0.0044173199659154625 -0.0019853633414630596 0 -0.0051450621916651392 -0.0016595362713484529 0 -0.0055401397926330498 -0.002365723500698573 0 -0.0056580622761160946 -0.0017492104208625269 0 -0.0060966402234472195 -0.0022686008276738968 0 -0.0056580622761160946 -0.0017492104208625269 0 -0.0060347685362763439 -0.0014353526606203167 0 -0.0060966402234472195 -0.0022686008276738968 0 -0.0025334595674655408 -0.0033839138315257837 0 -0.0039930611201768077 -0.0029846316305391992 0 -0.0034467608792193658 -0.0019652775493645643 0 -0.0048900642451871887 -0.0026067058741705345 0 -0.0039930611201768077 -0.0029846316305391992 0 -0.0044173199659154625 -0.0019853633414630596 0 -0.0044173199659154625 -0.0019853633414630596 0 -0.0034467608792193658 -0.0019652775493645643 0 -0.0043397074485326563 -0.0012193128513225148 0 -0.0039930611201768077 -0.0029846316305391992 0 -0.0044173199659154625 -0.0019853633414630596 0 -0.0034467608792193658 -0.0019652775493645643 0 -0.0034467608792193658 -0.0019652775493645643 0 -0.0043397074485326563 -0.0012193128513225148 0 -0.0042721850299546815 -0.0010462598543379477 0 -0.0043577200122627557 -0.0046485415516892047 0 -0.0037852404307375945 -0.0066187040934581947 0 -0.0034467608792193658 -0.0019652775493645643 0 -0.0042721850299546815 -0.0010462598543379477 0 -0.0025871842481311499 -0.0015670243977540309 0 -0.0047964893972927899 -0.0014272555217768514 0 -0.0043397074485326563 -0.0012193128513225148 0 -0.0052962438926765325 -0.00085106104522272819 0 -0.0044173199659154625 -0.0019853633414630596 0 -0.0047964893972927899 -0.0014272555217768514 0 -0.0043397074485326563 -0.0012193128513225148 0 -0.0043397074485326563 -0.0012193128513225148 0 -0.0042784637751365137 -0.0010504356596862737 0 -0.0052962438926765325 -0.00085106104522272819 0 -0.0044173199659154625 -0.0019853633414630596 0 -0.0047964893972927899 -0.0014272555217768514 0 -0.0051450621916651392 -0.0016595362713484529 0 -0.004352524042290847 -0.0046292221974215753 0 -0.0043577200122627557 -0.0046485415516892047 0 -0.0049673167656176607 -0.00092009069071767049 0 -0.0052962438926765325 -0.00085106104522272819 0 -0.0052820710988301803 -0.00031125345840600347 0 -0.0043577200122627557 -0.0046485415516892047 0 -0.0045884191889712959 -0.0044163776845336598 0 -0.0056580622761160946 -0.0017492104208625269 0 -0.0060347685362763439 -0.0014353526606203167 0 -0.0052962438926765325 -0.00085106104522272819 0 -0.0056580622761160946 -0.0017492104208625269 0 -0.0051450621916651392 -0.0016595362713484529 0 -0.0052962438926765325 -0.00085106104522272819 0 -0.0047964893972927899 -0.0014272555217768514 0 -0.0051450621916651392 -0.0016595362713484529 0 -0.0052962438926765325 -0.00085106104522272819 0 -0.0060347685362763439 -0.0014353526606203167 0 -0.0052962438926765325 -0.00085106104522272819 0 -0.006024718477204761 -0.00039645655808599268 0 -0.0058128107308521824 -0.00032482451226423643 0 -0.0056722848253330134 -1.2965435653069062e-05 0 -0.0052820710988301803 -0.00031125345840600347 0 -0.006024718477204761 -0.00039645655808599268 0 -0.005458323135288815 0.00038600992272338596 0 -0.0052962438926765325 -0.00085106104522272819 0 -0.0052820710988301803 -0.00031125345840600347 0 -0.006024718477204761 -0.00039645655808599268 0 -0.0043577200122627557 -0.0046485415516892047 0 -0.0043982068384262676 -0.0028992303339451077 0 -0.0048842369453934512 -0.0052129119727882004 0 -0.0043695501976578396 -0.0045660485083081096 0 -0.0046198891518204359 -0.0044764482709817579 0 -0.0049673167656176607 -0.00092009069071767049 0 -0.0052820710988301803 -0.00031125345840600347 0 -0.0048598803106918 0.00012380894480972863 0 -0.0063800541131434733 -0.0098884031890576415 0 -0.0043635551653653983 -0.011816073028990435 0 -0.0035285507801810119 -0.010050543187177815 0 -0.0043635551653653983 -0.011816073028990435 0 -0.0062082426440401772 -0.012722513324205303 0 -0.0034659343842407615 -0.013498725223145313 0 -0.0063800541131434733 -0.0098884031890576415 0 -0.0043635551653653983 -0.011816073028990435 0 -0.0062082426440401772 -0.012722513324205303 0 -0.00460297990870268 -0.0064187222137072888 0 -0.0037852404307375945 -0.0066187040934581947 0 -0.0048842369453934512 -0.0052129119727882004 0 -0.0043695501976578396 -0.0045660485083081096 0 -0.0043852948248507377 -0.0053909405616045167 0 -0.0090052461925123461 -0.00043595000949403961 0 -0.0082612645120829341 0.00052364843163470295 0 -0.0079126945161400002 -0.0008101095752582173 0 -0.0082612645120829341 0.00052364843163470295 0 -0.0079126945161400002 -0.0008101095752582173 0 -0.0072312281502301097 -0.00044804406045979866 0 -0.0090052461925123461 -0.00043595000949403961 0 -0.0080215278418139507 -0.0017585729473606013 0 -0.0079126945161400002 -0.0008101095752582173 0 -0.009645240451589673 0.0045394537761293515 0 -0.0098946772954560148 0.0071115908173887809 0 -0.0076433115737020475 -0.0016849434772055315 0 -0.0079126945161400002 -0.0008101095752582173 0 -0.0072489250823959414 -0.0011271291075659934 0 -0.0080215278418139507 -0.0017585729473606013 0 -0.0076433115737020475 -0.0016849434772055315 0 -0.0079126945161400002 -0.0008101095752582173 0 -0.0079126945161400002 -0.0008101095752582173 0 -0.0072312281502301097 -0.00044804406045979866 0 -0.0072489250823959414 -0.0011271291075659934 0 -0.0069231045850398172 -0.0017370881497773653 0 -0.0076433115737020475 -0.0016849434772055315 0 -0.0072489250823959414 -0.0011271291075659934 0 -0.0069231045850398172 -0.0017370881497773653 0 -0.0072489250823959414 -0.0011271291075659934 0 -0.0065432287062941142 -0.000889882923370433 0 -0.0072312281502301097 -0.00044804406045979866 0 -0.0072489250823959414 -0.0011271291075659934 0 -0.0065432287062941142 -0.000889882923370433 0 -0.0072312281502301097 -0.00044804406045979866 0 -0.0065432287062941142 -0.000889882923370433 0 -0.0060211473989279299 5.3713517427113931e-05 0 -0.0066573719203658344 0.0048275812398504096 0 -0.0062822439205011214 0.0034398649744036259 0 -0.0062534274230084137 0.00023985137618247673 0 -0.0060211473989279299 5.3713517427113931e-05 0 -0.0060879567547017536 0.00032663305772798526 0 -0.0082612645120829341 0.00052364843163470295 0 -0.0072312281502301097 -0.00044804406045979866 0 -0.0060211473989279299 5.3713517427113931e-05 0 -0.0060211473989279299 5.3713517427113931e-05 0 -0.0057285195264648245 -0.00095947979127924824 0 -0.0055832560633765297 0.00016210320820537325 0 -0.006371497545104912 -0.0018771729484654423 0 -0.0060977072078813614 -0.0010574691093695352 0 -0.0065432287062941142 -0.000889882923370433 0 -0.0060211473989279299 5.3713517427113931e-05 0 -0.0057285195264648245 -0.00095947979127924824 0 -0.0069231045850398172 -0.0017370881497773653 0 -0.0065432287062941142 -0.000889882923370433 0 -0.0057285195264648245 -0.00095947979127924824 0 -0.0067427611064192709 -0.0032782843706945009 0 -0.0069421038102461252 -0.0034655084602657391 0 -0.0067234240376949786 -0.0037037873253650323 0 -0.0069421038102461252 -0.0034655084602657391 0 -0.0067234240376949786 -0.0037037873253650323 0 -0.0065765960390579293 -0.0029730748450317625 0 -0.0058476718539440887 -0.0030038447659583262 0 -0.0067234240376949786 -0.0037037873253650323 0 -0.0065765960390579293 -0.0029730748450317625 0 -0.0069421038102461252 -0.0034655084602657391 0 -0.0065765960390579293 -0.0029730748450317625 0 -0.0068717603743605679 -0.0020355430734136518 0 -0.0065765960390579293 -0.0029730748450317625 0 -0.0068717603743605679 -0.0020355430734136518 0 -0.0060966402234472195 -0.0022686008276738968 0 -0.0058476718539440887 -0.0030038447659583262 0 -0.0065765960390579293 -0.0029730748450317625 0 -0.0060966402234472195 -0.0022686008276738968 0 -0.0060347685362763439 -0.0014353526606203167 0 -0.0068717603743605679 -0.0020355430734136518 0 -0.0060966402234472195 -0.0022686008276738968 0 -0.0060347685362763439 -0.0014353526606203167 0 -0.0068717603743605679 -0.0020355430734136518 0 -0.006024718477204761 -0.00039645655808599268 0 -0.0055832560633765297 0.00016210320820537325 0 -0.0055858306902714936 0.0003695797031312451 0 -0.0058156045308364367 0.00033592560768986983 0 -0.0060977072078813614 -0.0010574691093695352 0 -0.0058128107308521824 -0.00032482451226423643 0 -0.0055858306902714936 0.0003695797031312451 0 -0.0057288202065496532 0.00042853796890536858 0 -0.0058156045308364367 0.00033592560768986983 0 -0.0055858306902714936 0.0003695797031312451 0 -0.0057288202065496532 0.00042853796890536858 0 -0.0056034488444589806 0.00042710541659968649 0 -0.0057288202065496532 0.00042853796890536858 0 -0.0058156045308364367 0.00033592560768986983 0 -0.0060150647948578814 0.00052642690164306542 0 -0.0060211473989279299 5.3713517427113931e-05 0 -0.0055832560633765297 0.00016210320820537325 0 -0.0058156045308364367 0.00033592560768986983 0 -0.0060211473989279299 5.3713517427113931e-05 0 -0.0058156045308364367 0.00033592560768986983 0 -0.0060879567547017536 0.00032663305772798526 0 -0.0058156045308364367 0.00033592560768986983 0 -0.0060879567547017536 0.00032663305772798526 0 -0.0060150647948578814 0.00052642690164306542 0 -0.0060879567547017536 0.00032663305772798526 0 -0.0060150647948578814 0.00052642690164306542 0 -0.0062830719398545062 0.00048855305386649197 0 -0.0061745937041565828 0.00046823388697385426 0 -0.0062830719398545062 0.00048855305386649197 0 -0.0063287878086769073 0.00063823580121733945 0 -0.005998311421938283 0.00045708188055601306 0 -0.0061004954887564867 0.00042974741178846608 0 -0.0062534274230084137 0.00023985137618247673 0 -0.0060879567547017536 0.00032663305772798526 0 -0.0062830719398545062 0.00048855305386649197 0 -0.0063676618613457683 0.00045393682795112834 0 -0.0062534274230084137 0.00023985137618247673 0 -0.0062830719398545062 0.00048855305386649197 0 -0.0064835610910326386 0.00065923050230767193 0 -0.0063287878086769073 0.00063823580121733945 0 -0.0061817476781992125 0.00065842335339944046 0 -0.0063490860052996274 0.00067422808940923763 0 -0.0062830719398545062 0.00048855305386649197 0 -0.0063287878086769073 0.00063823580121733945 0 -0.0061745937041565828 0.00046823388697385426 0 -0.0063287878086769073 0.00063823580121733945 0 -0.0061817476781992125 0.00065842335339944046 0 -0.0061817476781992125 0.00065842335339944046 0 -0.0058622994819524507 0.00043829461279364692 0 -0.0057340157275570722 0.00066443369028339313 0 -0.005998311421938283 0.00045708188055601306 0 -0.0057778399016848092 0.00051257530658854321 0 -0.0057288202065496532 0.00042853796890536858 0 -0.0060150647948578814 0.00052642690164306542 0 -0.0057400402546480631 0.00054060287289500611 0 -0.0061745937041565828 0.00046823388697385426 0 -0.0061817476781992125 0.00065842335339944046 0 -0.0058622994819524507 0.00043829461279364692 0 -0.0057400402546480631 0.00054060287289500611 0 -0.0056034488444589806 0.00042710541659968649 0 -0.0055037109656469446 0.00055175118630907587 0 -0.0057288202065496532 0.00042853796890536858 0 -0.0057400402546480631 0.00054060287289500611 0 -0.0056034488444589806 0.00042710541659968649 0 -0.0057340157275570722 0.00066443369028339313 0 -0.005429255405937276 0.00054079792112820039 0 -0.005358933073440506 0.00083743038663677751 0 -0.0058622994819524507 0.00043829461279364692 0 -0.0057340157275570722 0.00066443369028339313 0 -0.005429255405937276 0.00054079792112820039 0 -0.0057778399016848092 0.00051257530658854321 0 -0.0055350894107898379 0.00058224337902119559 0 -0.0057340157275570722 0.00066443369028339313 0 -0.0057051281669478777 0.00097942085680116403 0 -0.005358933073440506 0.00083743038663677751 0 -0.0054459799519893 0.0011777897482384255 0 -0.005494631788443307 0.0016678913107990789 0 -0.005313851402902023 0.0012218392917151019 0 -0.0054459799519893 0.0011777897482384255 0 -0.0057051281669478777 0.00097942085680116403 0 -0.005494631788443307 0.0016678913107990789 0 -0.0054459799519893 0.0011777897482384255 0 -0.0057051281669478777 0.00097942085680116403 0 -0.005358933073440506 0.00083743038663677751 0 -0.0057051281669478777 0.00097942085680116403 0 -0.0064533515106132257 0.00094836475780607596 0 -0.0059987366246369023 0.0018467510979412532 0 -0.0057051281669478777 0.00097942085680116403 0 -0.0059987366246369023 0.0018467510979412532 0 -0.005494631788443307 0.0016678913107990789 0 -0.0061817476781992125 0.00065842335339944046 0 -0.0057340157275570722 0.00066443369028339313 0 -0.0057051281669478777 0.00097942085680116403 0 -0.0061817476781992125 0.00065842335339944046 0 -0.0057051281669478777 0.00097942085680116403 0 -0.0064533515106132257 0.00094836475780607596 0 -0.0082182230904765795 0.0013206054050466031 0 -0.0064533515106132257 0.00094836475780607596 0 -0.0072509168240816567 0.0022683673998924901 0 -0.0082182230904765795 0.0013206054050466031 0 -0.0081354594198551067 -0.00063522333325561004 0 -0.0064533515106132257 0.00094836475780607596 0 -0.0064835610910326386 0.00065923050230767193 0 -0.0061817476781992125 0.00065842335339944046 0 -0.0064533515106132257 0.00094836475780607596 0 -0.010481279568308109 0.0075659889589705341 0 -0.010072402461701376 0.0051826064518890776 0 -0.0049999079444226916 0.0005579180464941497 0 -0.0048598803106918 0.00012380894480972863 0 -0.0050436130601434386 0.00050234816829278336 0 -0.0050436130601434386 0.00050234816829278336 0 -0.0051129167558132431 0.00060689525203305912 0 -0.0050305532943643828 0.00057033155528193739 0 -0.0049999079444226916 0.0005579180464941497 0 -0.0050436130601434386 0.00050234816829278336 0 -0.0050305532943643828 0.00057033155528193739 0 -0.0047243895958267853 -0.0030849961800585319 0 -0.0047249043079206536 -0.0029579441619817597 0 -0.0045306996755898306 -0.0079417488990107966 0 -0.0044281924107213103 -0.0039617070261813367 0 -0.002728465992185999 -0.0066395441331047926 0 -0.0070211809201337766 -0.0057579381385098709 0 -0.0045306996755898306 -0.0079417488990107966 0 -0.0044281924107213103 -0.0039617070261813367 0 -0.0063800541131434733 -0.0098884031890576415 0 -0.0045306996755898306 -0.0079417488990107966 0 -0.0035285507801810119 -0.010050543187177815 0 -0.0047243895958267853 -0.0030849961800585319 0 -0.0043982068384262676 -0.0028992303339451077 0 -0.0043695501976578396 -0.0045660485083081096 0 -0.0043598986017883293 -0.0037319012062249049 0 -0.0046198891518204359 -0.0044764482709817579 0 -0.00460297990870268 -0.0064187222137072888 0 -0.0047243895958267853 -0.0030849961800585319 0 -0.0063800541131434733 -0.0098884031890576415 0 -0.0070211809201337766 -0.0057579381385098709 0 -0.0045306996755898306 -0.0079417488990107966 0 -0.0052820710988301803 -0.00031125345840600347 0 -0.0048598803106918 0.00012380894480972863 0 -0.005458323135288815 0.00038600992272338596 0 -0.0048598803106918 0.00012380894480972863 0 -0.005458323135288815 0.00038600992272338596 0 -0.005219714877837847 0.00047189859936768298 0 -0.0048598803106918 0.00012380894480972863 0 -0.005219714877837847 0.00047189859936768298 0 -0.0050436130601434386 0.00050234816829278336 0 -0.0056034488444589806 0.00042710541659968649 0 -0.005458323135288815 0.00038600992272338596 0 -0.0055037109656469446 0.00055175118630907587 0 -0.0055858306902714936 0.0003695797031312451 0 -0.0056034488444589806 0.00042710541659968649 0 -0.005458323135288815 0.00038600992272338596 0 -0.0055350894107898379 0.00058224337902119559 0 -0.0053979763452846052 0.00062800714352242472 0 -0.0055037109656469446 0.00055175118630907587 0 -0.005219714877837847 0.00047189859936768298 0 -0.0051129167558132431 0.00060689525203305912 0 -0.005458323135288815 0.00038600992272338596 0 -0.0055037109656469446 0.00055175118630907587 0 -0.005219714877837847 0.00047189859936768298 0 -0.005219714877837847 0.00047189859936768298 0 -0.0050436130601434386 0.00050234816829278336 0 -0.0051129167558132431 0.00060689525203305912 0 -0.0051129167558132431 0.00060689525203305912 0 -0.0051852834355606654 0.0008288975347057186 0 -0.0050370262853135965 0.00048065346617423484 0 -0.0051129167558132431 0.00060689525203305912 0 -0.005358933073440506 0.00083743038663677751 0 -0.0051852834355606654 0.0008288975347057186 0 -0.005429255405937276 0.00054079792112820039 0 -0.0051129167558132431 0.00060689525203305912 0 -0.005358933073440506 0.00083743038663677751 0 -0.005358933073440506 0.00083743038663677751 0 -0.0051852834355606654 0.0008288975347057186 0 -0.005313851402902023 0.0012218392917151019 0 -0.0054459799519893 0.0011777897482384255 0 -0.005358933073440506 0.00083743038663677751 0 -0.005313851402902023 0.0012218392917151019 0 -0.0051852834355606654 0.0008288975347057186 0 -0.005313851402902023 0.0012218392917151019 0 -0.0052158572749522823 0.0012614420908480461 0 -0.0051852834355606654 0.0008288975347057186 0 -0.0051304982364803152 0.00081176163366326578 0 -0.0052158572749522823 0.0012614420908480461 0 -0.0051852834355606654 0.0008288975347057186 0 -0.0051304982364803152 0.00081176163366326578 0 -0.0050370262853135965 0.00048065346617423484 0 -0.0051304982364803152 0.00081176163366326578 0 -0.0050341336527864955 -0.00022328045449738812 0 -0.0050314665278869226 0.0010914447286414746 0 -0.0051304982364803152 0.00081176163366326578 0 -0.0050370262853135965 0.00048065346617423484 0 -0.0050341336527864955 -0.00022328045449738812 0 -0.0050853821396442426 0.00075339620778315823 0 -0.0050305532943643828 0.00057033155528193739 0 -0.0050341336527864955 -0.00022328045449738812 0 -0.0051129167558132431 0.00060689525203305912 0 -0.0050370262853135965 0.00048065346617423484 0 -0.0050305532943643828 0.00057033155528193739 0 -0.0047243895958267853 -0.0030849961800585319 0 -0.0046112489998319265 -0.0018600590334995669 0 -0.0050370262853135965 0.00048065346617423484 0 -0.0050305532943643828 0.00057033155528193739 0 -0.0050341336527864955 -0.00022328045449738812 0 -0.0070211809201337766 -0.0057579381385098709 0 -0.0044281924107213103 -0.0039617070261813367 0 -0.0050341336527864955 -0.00022328045449738812 0 -0.0044281924107213103 -0.0039617070261813367 0 -0.0050341336527864955 -0.00022328045449738812 0 -0.0022114928323702173 -0.0013454550842334828 0 -0.0050341336527864955 -0.00022328045449738812 0 -0.0022114928323702173 -0.0013454550842334828 0 -0.0037673238771921023 0.00063882627048364395 0 -0.0024743732443206655 -0.0057372617409774344 0 -0.0018289514574323996 -0.0051154651578785883 0 -0.0024602965250758954 -0.0045922237760524101 0 -0.0020884716701622353 -0.0033618988264175788 0 -0.0018350385254283779 -0.0012249549039729385 0 -0.0022114928323702173 -0.0013454550842334828 0 -0.0027339280541076954 0.0017045854289923213 0 -0.0037673238771921023 0.00063882627048364395 0 -0.0024743732443206655 -0.0057372617409774344 0 -0.0018289514574323996 -0.0051154651578785883 0 -0.001814866240860863 -0.005702098925612898 0 -0.0011842293227636118 -0.0055531932110259837 0 -0.001814866240860863 -0.005702098925612898 0 -0.0017569366524626282 -0.0062905552560494037 0 -0.0018289514574323996 -0.0051154651578785883 0 -0.0011842293227636118 -0.0055531932110259837 0 -0.0011550126185097473 -0.0047691607997283779 0 -0.0018289514574323996 -0.0051154651578785883 0 -0.0011842293227636118 -0.0055531932110259837 0 -0.001814866240860863 -0.005702098925612898 0 -0.0017569366524626282 -0.0062905552560494037 0 -0.00074315990135306691 -0.0062686720087781105 0 -0.0010188398419628559 -0.0076279447128477377 0 -0.0011842293227636118 -0.0055531932110259837 0 -0.0017569366524626282 -0.0062905552560494037 0 -0.00074315990135306691 -0.0062686720087781105 0 -0.0044281924107213103 -0.0039617070261813367 0 -0.0022114928323702173 -0.0013454550842334828 0 -0.002728465992185999 -0.0066395441331047926 0 -0.0020884716701622353 -0.0033618988264175788 0 -0.0021779303570657882 -0.0045664880452444346 0 -0.0024743732443206655 -0.0057372617409774344 0 -0.001814866240860863 -0.005702098925612898 0 -0.0017569366524626282 -0.0062905552560494037 0 -0.0024743732443206655 -0.0057372617409774344 0 -0.0017569366524626282 -0.0062905552560494037 0 -0.002728465992185999 -0.0066395441331047926 0 0.00021651643603171162 -0.0053898694699268347 0 0.00014962772520390246 -0.0060934270470816591 0 0.0005969929731777739 -0.0057144548051929894 0 0.00021651643603171162 -0.0053898694699268347 0 -0.00042594166367772312 -0.005716081768716773 0 -0.00051740203283781323 -0.0050897603961877922 0 0.00021651643603171162 -0.0053898694699268347 0 -0.00042594166367772312 -0.005716081768716773 0 0.00014962772520390246 -0.0060934270470816591 0 -0.0011842293227636118 -0.0055531932110259837 0 -0.00051740203283781323 -0.0050897603961877922 0 -0.0011550126185097473 -0.0047691607997283779 0 -0.0011842293227636118 -0.0055531932110259837 0 -0.00042594166367772312 -0.005716081768716773 0 -0.00051740203283781323 -0.0050897603961877922 0 -0.0011842293227636118 -0.0055531932110259837 0 -0.00042594166367772312 -0.005716081768716773 0 -0.00074315990135306691 -0.0062686720087781105 0 -0.00031987909036709577 -0.0067683356379153337 0 -0.00074315990135306691 -0.0062686720087781105 0 0.00014962772520390246 -0.0060934270470816591 0 -0.00042594166367772312 -0.005716081768716773 0 -0.00074315990135306691 -0.0062686720087781105 0 0.00014962772520390246 -0.0060934270470816591 0 -0.00031987909036709577 -0.0067683356379153337 0 -0.00074315990135306691 -0.0062686720087781105 0 -0.0010188398419628559 -0.0076279447128477377 0 0.00014962772520390246 -0.0060934270470816591 0 0.00027066656539863343 -0.0071557266617621905 0 0.0016489290089063452 -0.0068696805660236823 0 -0.00031987909036709577 -0.0067683356379153337 0 0.00014962772520390246 -0.0060934270470816591 0 0.00027066656539863343 -0.0071557266617621905 0 0.00014962772520390246 -0.0060934270470816591 0 0.00070569872985410678 -0.0060918058550984509 0 0.0005969929731777739 -0.0057144548051929894 0 0.002173347291108321 -0.0084059528791419896 0 0.0013331734725313313 -0.0072643267177182162 0 0.00064015429414164722 -0.0085225582538009971 0 0.0013331734725313313 -0.0072643267177182162 0 -0.0010188398419628559 -0.0076279447128477377 0 0.00064015429414164722 -0.0085225582538009971 0 0.0008221407863967207 -0.0075300730893255756 0 0.00011111579998036866 -0.0076208404319930466 0 -0.00031987909036709577 -0.0067683356379153337 0 0.00027066656539863343 -0.0071557266617621905 0 -0.0010188398419628559 -0.0076279447128477377 0 -0.0010188398419628559 -0.0076279447128477377 0 0.0001443336601373772 -0.010187761362188602 0 0.00064015429414164722 -0.0085225582538009971 0 -0.0010188398419628559 -0.0076279447128477377 0 0.0001443336601373772 -0.010187761362188602 0 -0.0013614785062717948 -0.010180986949164529 0 0.002173347291108321 -0.0084059528791419896 0 0.0001443336601373772 -0.010187761362188602 0 0.00064015429414164722 -0.0085225582538009971 0 0.0010428871734178178 -0.0085952784620409398 0 0.00061671984434547478 -0.0091260349316023143 0 0.00076610774653172861 -0.010135687884326441 0 0.0001443336601373772 -0.010187761362188602 0 0.00089758164596214483 -0.010904325412612308 0 -0.0017569366524626282 -0.0062905552560494037 0 -0.002728465992185999 -0.0066395441331047926 0 -0.0020656988197440668 -0.0083508088967689451 0 -0.0045306996755898306 -0.0079417488990107966 0 -0.002728465992185999 -0.0066395441331047926 0 -0.0020656988197440668 -0.0083508088967689451 0 -0.0017569366524626282 -0.0062905552560494037 0 -0.0010188398419628559 -0.0076279447128477377 0 -0.0020656988197440668 -0.0083508088967689451 0 -0.0010188398419628559 -0.0076279447128477377 0 -0.0020656988197440668 -0.0083508088967689451 0 -0.0013614785062717948 -0.010180986949164529 0 -0.0045306996755898306 -0.0079417488990107966 0 -0.0020656988197440668 -0.0083508088967689451 0 -0.0035285507801810119 -0.010050543187177815 0 -0.0020656988197440668 -0.0083508088967689451 0 -0.0035285507801810119 -0.010050543187177815 0 -0.0013614785062717948 -0.010180986949164529 0 -0.0043635551653653983 -0.011816073028990435 0 -0.0035285507801810119 -0.010050543187177815 0 -0.0024892890846889603 -0.011768876338674822 0 -0.0035285507801810119 -0.010050543187177815 0 -0.0024892890846889603 -0.011768876338674822 0 -0.0013614785062717948 -0.010180986949164529 0 -0.0043635551653653983 -0.011816073028990435 0 -0.0024892890846889603 -0.011768876338674822 0 -0.0034659343842407615 -0.013498725223145313 0 -0.0024892890846889603 -0.011768876338674822 0 -0.0011225458623096327 -0.011902428680217372 0 -0.0013496028568823037 -0.012968730842102438 0 -0.0024892890846889603 -0.011768876338674822 0 -0.0011225458623096327 -0.011902428680217372 0 -0.0013614785062717948 -0.010180986949164529 0 -0.0011225458623096327 -0.011902428680217372 0 -0.0013614785062717948 -0.010180986949164529 0 0.00011246710614068503 -0.011514811435973219 0 0.0001443336601373772 -0.010187761362188602 0 -0.0013614785062717948 -0.010180986949164529 0 0.00011246710614068503 -0.011514811435973219 0 0.0001443336601373772 -0.010187761362188602 0 0.00011246710614068503 -0.011514811435973219 0 0.00089758164596214483 -0.010904325412612308 0 0.00011246710614068503 -0.011514811435973219 0 0.0010925271076447668 -0.01206628565233662 0 0.00089758164596214483 -0.010904325412612308 0 0.00011246710614068503 -0.011514811435973219 0 0.00056354571921007283 -0.012734767891169955 0 0.0010925271076447668 -0.01206628565233662 0 0.00011246710614068503 -0.011514811435973219 0 -0.0003649144483850372 -0.012747191991926659 0 0.00056354571921007283 -0.012734767891169955 0 -0.0011225458623096327 -0.011902428680217372 0 0.00011246710614068503 -0.011514811435973219 0 -0.0003649144483850372 -0.012747191991926659 0 -0.0011225458623096327 -0.011902428680217372 0 -0.0003649144483850372 -0.012747191991926659 0 -0.0013496028568823037 -0.012968730842102438 0 -0.0003649144483850372 -0.012747191991926659 0 0.00022579855388301593 -0.013464203665151339 0 -0.00079811471753071643 -0.01385618792198094 0 -0.0003649144483850372 -0.012747191991926659 0 -0.00079811471753071643 -0.01385618792198094 0 -0.0013496028568823037 -0.012968730842102438 0 -0.0010675455725993107 -0.014003753717754872 0 -0.00079811471753071643 -0.01385618792198094 0 -0.0013496028568823037 -0.012968730842102438 0 -0.0003649144483850372 -0.012747191991926659 0 0.00056354571921007283 -0.012734767891169955 0 0.00022579855388301593 -0.013464203665151339 0 0.00056354571921007283 -0.012734767891169955 0 0.00022579855388301593 -0.013464203665151339 0 0.00094334554970520459 -0.013693009009849037 0 0.00022579855388301593 -0.013464203665151339 0 0.00065966138997696627 -0.014157970786027426 0 0.00094334554970520459 -0.013693009009849037 0 -0.0017944783039242668 -0.010615015093291378 0 -0.0024040161277361864 -0.0097981788738625026 0 0.00065966138997696627 -0.014157970786027426 0 -0.0010292238216413965 -0.013970425376943138 0 -0.00079811471753071643 -0.01385618792198094 0 -0.0035024548518205294 -0.0090466472141854798 0 -0.0037990773202957462 -0.0092043654032152953 0 -0.0033622429936687004 -0.0094122093692788344 0 0.00022579855388301593 -0.013464203665151339 0 0.00065966138997696627 -0.014157970786027426 0 -0.00079811471753071643 -0.01385618792198094 0 -0.0024040161277361864 -0.0097981788738625026 0 -0.0023969871911758887 -0.0098196778892934624 0 -0.0031345026590623337 -0.0090352621750216452 0 -0.0033622429936687004 -0.0094122093692788344 0 -0.0027604644017547772 -0.0092065582951697516 0 -0.0024040161277361864 -0.0097981788738625026 0 -0.0027598578058957335 -0.0086618561979427584 0 -0.0031345026590623337 -0.0090352621750216452 0 -0.0035024548518205294 -0.0090466472141854798 0 -0.0033622429936687004 -0.0094122093692788344 0 -0.0027003003928151104 -0.008200354741536995 0 -0.0028555011023664802 -0.008252245816848372 0 -0.0028526176830451179 -0.008141792036109121 0 -0.0024892890846889603 -0.011768876338674822 0 -0.0034659343842407615 -0.013498725223145313 0 -0.0013496028568823037 -0.012968730842102438 0 -0.0010675455725993107 -0.014003753717754872 0 -0.0034659343842407615 -0.013498725223145313 0 -0.0013496028568823037 -0.012968730842102438 0 -0.0024040161277361864 -0.0097981788738625026 0 -0.0028409014326620761 -0.009012147685679062 0 0.0020963957624231229 -0.013771540252362923 0 0.0036170605793078487 -0.01308313204941956 0 0.0027581691248138793 -0.012683145746353914 0 0.0023448991604311199 -0.014097015509249773 0 0.0028120790529759855 -0.014058832062004662 0 0.0020963957624231229 -0.013771540252362923 0 0.001968982832707107 -0.014331974896056024 0 0.0016534088957987035 -0.013992538729532095 0 0.0020999689741403576 -0.015016373854163163 0 0.0020204140362561325 -0.014853433563780187 0 0.0021539626175615229 -0.015460724630280144 0 0.0020963957624231229 -0.013771540252362923 0 0.0020999689741403576 -0.015016373854163163 0 0.0020204140362561325 -0.014853433563780187 0 0.0019120237596734143 -0.014800975797110807 0 0.0020068195191889873 -0.014596524087080277 0 0.0020204140362561325 -0.014853433563780187 0 0.0020931034783929609 -0.016009833036070814 0 0.0020204140362561325 -0.014853433563780187 0 0.0021539626175615229 -0.015460724630280144 0 0.00057707848817551777 -0.015049236432590325 0 0.0010365051697681761 -0.015267663049795929 0 0.0020068195191889873 -0.014596524087080277 0 0.0020204140362561325 -0.014853433563780187 0 0.001968982832707107 -0.014331974896056024 0 0.0020963957624231229 -0.013771540252362923 0 0.0020204140362561325 -0.014853433563780187 0 0.001968982832707107 -0.014331974896056024 0 0.0020068195191889873 -0.014596524087080277 0 0.001968982832707107 -0.014331974896056024 0 0.0016534088957987035 -0.013992538729532095 0 0.0011474573567841831 -0.01378266164196027 0 0.0020068195191889873 -0.014596524087080277 0 0.0014978426087899851 -0.014029272147115253 0 0.0020068195191889873 -0.014596524087080277 0 0.0014978426087899851 -0.014029272147115253 0 0.0016534088957987035 -0.013992538729532095 0 0.0011474573567841831 -0.01378266164196027 0 0.0014978426087899851 -0.014029272147115253 0 0.0012393506645960017 -0.01379555412236718 0 0.0014978426087899851 -0.014029272147115253 0 0.0016534088957987035 -0.013992538729532095 0 0.0012393506645960017 -0.01379555412236718 0 0.0016534088957987035 -0.013992538729532095 0 0.0012393506645960017 -0.01379555412236718 0 0.0012621971354277309 -0.013370602539574688 0 0.0011474573567841831 -0.01378266164196027 0 0.00065966138997696627 -0.014157970786027426 0 0.00094334554970520459 -0.013693009009849037 0 -0.0020052536597835392 -0.010608359963969098 0 -0.0017944783039242668 -0.010615015093291378 0 0.0011474573567841831 -0.01378266164196027 0 0.0012393506645960017 -0.01379555412236718 0 0.00094334554970520459 -0.013693009009849037 0 0.00056354571921007283 -0.012734767891169955 0 0.00094334554970520459 -0.013693009009849037 0 0.0012621971354277309 -0.013370602539574688 0 0.0012393506645960017 -0.01379555412236718 0 0.00094334554970520459 -0.013693009009849037 0 0.0012621971354277309 -0.013370602539574688 0 0.0020963957624231229 -0.013771540252362923 0 0.0012621971354277309 -0.013370602539574688 0 0.0018679300894247658 -0.012533853603334125 0 0.0020963957624231229 -0.013771540252362923 0 0.0016534088957987035 -0.013992538729532095 0 0.0012621971354277309 -0.013370602539574688 0 0.0012621971354277309 -0.013370602539574688 0 0.0018679300894247658 -0.012533853603334125 0 0.0010925271076447668 -0.01206628565233662 0 0.0018679300894247658 -0.012533853603334125 0 0.0010925271076447668 -0.01206628565233662 0 0.0016717229420785385 -0.011465181558017909 0 0.00056354571921007283 -0.012734767891169955 0 0.0012621971354277309 -0.013370602539574688 0 0.0010925271076447668 -0.01206628565233662 0 0.0010925271076447668 -0.01206628565233662 0 0.00089758164596214483 -0.010904325412612308 0 0.0016717229420785385 -0.011465181558017909 0 0.00089758164596214483 -0.010904325412612308 0 0.0016717229420785385 -0.011465181558017909 0 0.0015833953412323714 -0.010546475982537504 0 0.0018679300894247658 -0.012533853603334125 0 0.0016717229420785385 -0.011465181558017909 0 0.0026708978528924613 -0.011829412945194703 0 0.0016717229420785385 -0.011465181558017909 0 0.0026708978528924613 -0.011829412945194703 0 0.0023067312912216035 -0.010999531036475952 0 0.0026708978528924613 -0.011829412945194703 0 0.0030344156929286909 -0.011076225376787922 0 0.0023067312912216035 -0.010999531036475952 0 0.0020963957624231229 -0.013771540252362923 0 0.0018679300894247658 -0.012533853603334125 0 0.0027581691248138793 -0.012683145746353914 0 0.0018679300894247658 -0.012533853603334125 0 0.0026708978528924613 -0.011829412945194703 0 0.0027581691248138793 -0.012683145746353914 0 0.0026708978528924613 -0.011829412945194703 0 0.0027581691248138793 -0.012683145746353914 0 0.0034319935258306481 -0.012302156443366095 0 0.0036170605793078487 -0.01308313204941956 0 0.0034319935258306481 -0.012302156443366095 0 0.0041311223159861115 -0.012181208509766029 0 0.0036170605793078487 -0.01308313204941956 0 0.0027581691248138793 -0.012683145746353914 0 0.0034319935258306481 -0.012302156443366095 0 0.0034319935258306481 -0.012302156443366095 0 0.0034784702115218547 -0.01163767942312304 0 0.0041311223159861115 -0.012181208509766029 0 0.0026708978528924613 -0.011829412945194703 0 0.0034319935258306481 -0.012302156443366095 0 0.0034784702115218547 -0.01163767942312304 0 0.0026708978528924613 -0.011829412945194703 0 0.0034784702115218547 -0.01163767942312304 0 0.0030344156929286909 -0.011076225376787922 0 0.0034784702115218547 -0.01163767942312304 0 0.0030344156929286909 -0.011076225376787922 0 0.0038801540392182929 -0.010830742110961643 0 0.0024593709466383001 -0.0085170692817028819 0 0.0029129050464121327 -0.0084156996577559456 0 0.0030119315250712536 -0.0088139237935222665 0 0.0030344156929286909 -0.011076225376787922 0 0.002606025121538322 -0.010121196868571849 0 0.0038801540392182929 -0.010830742110961643 0 0.002640827368872601 -0.0089556382667854706 0 0.0035446928555889893 -0.0098787749578052465 0 0.0031577917618477026 -0.0086341939597275839 0 0.0035446928555889893 -0.0098787749578052465 0 0.0030344156929286909 -0.011076225376787922 0 0.0023067312912216035 -0.010999531036475952 0 0.002606025121538322 -0.010121196868571849 0 0.0024593709466383001 -0.0085170692817028819 0 0.0026398715143322133 -0.008265685245624101 0 0.0023732118901686979 -0.0081108376092019988 0 0.0026934637793899728 -0.0089874167903945031 0 0.0023588374671295598 -0.0075982431323253202 0 0.0036758156863094821 -0.0085074138159638522 0 0.0029129050464121327 -0.0084156996577559456 0 0.0026398715143322133 -0.008265685245624101 0 0.0028143054559048612 -0.0080192037075538947 0 0.0024593709466383001 -0.0085170692817028819 0 0.0029129050464121327 -0.0084156996577559456 0 0.0026398715143322133 -0.008265685245624101 0 0.0031577917618477026 -0.0086341939597275839 0 0.0028624705859500383 -0.0073811342740853873 0 0.00076610774653172861 -0.010135687884326441 0 0.00089758164596214483 -0.010904325412612308 0 0.0015833953412323714 -0.010546475982537504 0 0.0016717229420785385 -0.011465181558017909 0 0.0023067312912216035 -0.010999531036475952 0 0.0015833953412323714 -0.010546475982537504 0 0.0023067312912216035 -0.010999531036475952 0 0.002606025121538322 -0.010121196868571849 0 0.0015833953412323714 -0.010546475982537504 0 0.002640827368872601 -0.0089556382667854706 0 0.0014963164539997507 -0.0075985633010756939 0 0.0024593709466383001 -0.0085170692817028819 0 0.0018861538803302072 -0.0082103365264664472 0 0.0019317026432387069 -0.0082010729426865697 0 0.002606025121538322 -0.010121196868571849 0 0.0015833953412323714 -0.010546475982537504 0 0.0014328090069904962 -0.0094904095265955033 0 0.0024593709466383001 -0.0085170692817028819 0 0.0019317026432387069 -0.0082010729426865697 0 0.0023732118901686979 -0.0081108376092019988 0 0.0008221407863967207 -0.0075300730893255756 0 0.0014963164539997507 -0.0075985633010756939 0 0.002173347291108321 -0.0084059528791419896 0 0.0013331734725313313 -0.0072643267177182162 0 0.0038966169822300923 -0.0067267178018827695 0 0.00076610774653172861 -0.010135687884326441 0 0.0015833953412323714 -0.010546475982537504 0 0.0014328090069904962 -0.0094904095265955033 0 0.0010428871734178178 -0.0085952784620409398 0 0.0014963164539997507 -0.0075985633010756939 0 0.00014962772520390246 -0.0060934270470816591 0 0.0010778156093772776 -0.006553170328400435 0 0.00070569872985410678 -0.0060918058550984509 0 0.00072667892278089165 -0.0069892867034222822 0 0.0014963164539997507 -0.0075985633010756939 0 0.0010778156093772776 -0.006553170328400435 0 0.00070569872985410678 -0.0060918058550984509 0 0.0010937109145754424 -0.0063282674232610714 0 0.00070569872985410678 -0.0060918058550984509 0 0.00098415195695827429 -0.006048249501589672 0 0.00094540186330523211 -0.0057799221785423249 0 0.00070569872985410678 -0.0060918058550984509 0 0.0010937109145754424 -0.0063282674232610714 0 0.00098415195695827429 -0.006048249501589672 0 0.0011728342061071446 -0.00653405970231979 0 0.0016451492062645725 -0.0061126311332902186 0 0.0018495177705754782 -0.0063897515956585441 0 0.0015810953752202019 -0.0075189509347609864 0 0.0021872776875123878 -0.0074270911282018374 0 0.0010937109145754424 -0.0063282674232610714 0 0.00098415195695827429 -0.006048249501589672 0 0.0013090697720077112 -0.0059287536546235248 0 0.0010937109145754424 -0.0063282674232610714 0 0.0016397247684469239 -0.0061040714877318054 0 0.0013090697720077112 -0.0059287536546235248 0 0.0010937109145754424 -0.0063282674232610714 0 0.0011490997341466532 -0.0065378892437405129 0 0.0016397247684469239 -0.0061040714877318054 0 0.0010778156093772776 -0.006553170328400435 0 0.0010937109145754424 -0.0063282674232610714 0 0.0011490997341466532 -0.0065378892437405129 0 0.0014963164539997507 -0.0075985633010756939 0 0.0015810953752202019 -0.0075189509347609864 0 0.0015810953752202019 -0.0075189509347609864 0 0.0018927983368623353 -0.0068750008540863885 0 0.0016397247684469239 -0.0061040714877318054 0 0.0013090697720077112 -0.0059287536546235248 0 0.0017189517880283509 -0.0057110474302254199 0 0.001505020427863544 -0.0054715276289839755 0 0.0013090697720077112 -0.0059287536546235248 0 0.0017189517880283509 -0.0057110474302254199 0 0.001505020427863544 -0.0054715276289839755 0 0.0011840541264169092 -0.0056180584614341396 0 0.0013090697720077112 -0.0059287536546235248 0 0.001505020427863544 -0.0054715276289839755 0 0.0011840541264169092 -0.0056180584614341396 0 0.00091979448956103671 -0.0052718100642085708 0 0.0011840541264169092 -0.0056180584614341396 0 0.0013090697720077112 -0.0059287536546235248 0 0.00094540186330523211 -0.0057799221785423249 0 0.00021651643603171162 -0.0053898694699268347 0 0.0005969929731777739 -0.0057144548051929894 0 0.00091979448956103671 -0.0052718100642085708 0 0.00098415195695827429 -0.006048249501589672 0 0.0013090697720077112 -0.0059287536546235248 0 0.00094540186330523211 -0.0057799221785423249 0 0.00094540186330523211 -0.0057799221785423249 0 0.0005969929731777739 -0.0057144548051929894 0 0.00091979448956103671 -0.0052718100642085708 0 0.0011840541264169092 -0.0056180584614341396 0 0.00094540186330523211 -0.0057799221785423249 0 0.00091979448956103671 -0.0052718100642085708 0 0.00070569872985410678 -0.0060918058550984509 0 0.00094540186330523211 -0.0057799221785423249 0 0.0005969929731777739 -0.0057144548051929894 0 0.0026398715143322133 -0.008265685245624101 0 0.0028143054559048612 -0.0080192037075538947 0 0.0023732118901686979 -0.0081108376092019988 0 0.002528199465212867 -0.0062466420573624708 0 0.0018495177705754782 -0.0063897515956585441 0 0.0020156002037878943 -0.0060520044079883052 0 0.0028624705859500383 -0.0073811342740853873 0 0.0021872776875123878 -0.0074270911282018374 0 0.0016451492062645725 -0.0061126311332902186 0 0.0018495177705754782 -0.0063897515956585441 0 0.0020156002037878943 -0.0060520044079883052 0 0.002528199465212867 -0.0062466420573624708 0 0.0020156002037878943 -0.0060520044079883052 0 0.0021193662356070262 -0.0056889019144505375 0 0.0016397247684469239 -0.0061040714877318054 0 0.0017189517880283509 -0.0057110474302254199 0 0.0021193662356070262 -0.0056889019144505375 0 0.0016451492062645725 -0.0061126311332902186 0 0.0020156002037878943 -0.0060520044079883052 0 0.0021193662356070262 -0.0056889019144505375 0 0.0018927983368623353 -0.0068750008540863885 0 0.0020453951902988377 -0.0066271120543472378 0 0.001505020427863544 -0.0054715276289839755 0 0.0017189517880283509 -0.0057110474302254199 0 0.0019394104482404262 -0.0052836062436805407 0 0.0017189517880283509 -0.0057110474302254199 0 0.0021193662356070262 -0.0056889019144505375 0 0.0019394104482404262 -0.0052836062436805407 0 0.0021193662356070262 -0.0056889019144505375 0 0.0023325742158576681 -0.0054770757664995067 0 0.0019394104482404262 -0.0052836062436805407 0 0.0027057204253474261 -0.0074994377949068212 0 0.0024100850288395663 -0.0061409654775036269 0 0.0034198256644208712 -0.0062915082611642555 0 0.002528199465212867 -0.0062466420573624708 0 0.0021193662356070262 -0.0056889019144505375 0 0.0023325742158576681 -0.0054770757664995067 0 0.0028624705859500383 -0.0073811342740853873 0 0.0025306898099644111 -0.0061549561160869617 0 0.0024100850288395663 -0.0061409654775036269 0 0.0029902073666095408 -0.0054150648078857581 0 0.0034198256644208712 -0.0062915082611642555 0 0.0024100850288395663 -0.0061409654775036269 0 0.0029902073666095408 -0.0054150648078857581 0 0.0022043270026310697 -0.0047734423336450579 0 0.0025306898099644111 -0.0061549561160869617 0 0.0023993281437105865 -0.0056342445976130954 0 0.0019394104482404262 -0.0052836062436805407 0 0.0022043270026310697 -0.0047734423336450579 0 0.0014218104984615302 -0.0049792397817757491 0 0.0023325742158576681 -0.0054770757664995067 0 0.0019394104482404262 -0.0052836062436805407 0 0.0022043270026310697 -0.0047734423336450579 0 0.0022043270026310697 -0.0047734423336450579 0 0.0015625916918697612 -0.0038262253036979144 0 0.0013838277303650913 -0.0044509292926275092 0 0.0029902073666095408 -0.0054150648078857581 0 0.0022043270026310697 -0.0047734423336450579 0 0.0031617134071722105 -0.0046179810201110736 0 0.0022043270026310697 -0.0047734423336450579 0 0.0031617134071722105 -0.0046179810201110736 0 0.0028361010675087119 -0.0039958586344576328 0 0.0028361010675087119 -0.0039958586344576328 0 0.0021782573903591528 -0.0034908266958802369 0 0.0030638992524928215 -0.0032053785878325609 0 0.0028361010675087119 -0.0039958586344576328 0 0.0030638992524928215 -0.0032053785878325609 0 0.0035932451415038678 -0.0039202028945894132 0 0.0031617134071722105 -0.0046179810201110736 0 0.0028361010675087119 -0.0039958586344576328 0 0.0035932451415038678 -0.0039202028945894132 0 0.0022043270026310697 -0.0047734423336450579 0 0.0028361010675087119 -0.0039958586344576328 0 0.0021782573903591528 -0.0034908266958802369 0 0.0022043270026310697 -0.0047734423336450579 0 0.0021782573903591528 -0.0034908266958802369 0 0.0015625916918697612 -0.0038262253036979144 0 0.0021782573903591528 -0.0034908266958802369 0 0.0015625916918697612 -0.0038262253036979144 0 0.001388613713925268 -0.002443686341951406 0 0.0021782573903591528 -0.0034908266958802369 0 0.0024579194592461123 -0.0026071423540792635 0 0.001388613713925268 -0.002443686341951406 0 0.0021782573903591528 -0.0034908266958802369 0 0.0030638992524928215 -0.0032053785878325609 0 0.0024579194592461123 -0.0026071423540792635 0 0.00075242182478238862 -0.0028235743396500547 0 0.00077185456591177153 -0.0029281279920131673 0 0.000215954451085083 -0.0026338706613600322 0 0.00075242182478238862 -0.0028235743396500547 0 0.0010156054408797862 -0.003100282521831762 0 0.00092153546639259264 -0.0025032918712322104 0 0.00075242182478238862 -0.0028235743396500547 0 0.00077185456591177153 -0.0029281279920131673 0 0.0010156054408797862 -0.003100282521831762 0 0.0010846541293610362 -0.00066443820344257924 0 0.00096702385834380176 2.7419120443649841e-05 0 0.00075242182478238862 -0.0028235743396500547 0 0.00050855050514626355 -0.0025399015166712425 0 0.00063779892157852353 -0.0024047967382135075 0 0.00075242182478238862 -0.0028235743396500547 0 0.00092153546639259264 -0.0025032918712322104 0 0.00059339759176046383 -0.0024059220935668873 0 0.00096510144186421579 -0.0034810221745316208 0 0.0011612421857149322 -0.0030164816067416995 0 0.0010156054408797862 -0.003100282521831762 0 0.001388613713925268 -0.002443686341951406 0 0.00092153546639259264 -0.0025032918712322104 0 0.0015625916918697612 -0.0038262253036979144 0 0.00092350838531177269 -0.0036387095328189122 0 0.001388613713925268 -0.002443686341951406 0 0.0015625916918697612 -0.0038262253036979144 0 0.00092350838531177269 -0.0036387095328189122 0 0.0013838277303650913 -0.0044509292926275092 0 0.00096510144186421579 -0.0034810221745316208 0 0.00063196704124800652 -0.0042916761280206561 0 0.0010156054408797862 -0.003100282521831762 0 0.00047903338570138751 -0.0034043229457771185 0 0.00064498824709486246 -0.0041344786344536281 0 0.00077185456591177153 -0.0029281279920131673 0 0.00047903338570138751 -0.0034043229457771185 0 0.00013013607649358094 -0.0030032423053447084 0 0.00077185456591177153 -0.0029281279920131673 0 0.0010156054408797862 -0.003100282521831762 0 0.00047903338570138751 -0.0034043229457771185 0 0.00092350838531177269 -0.0036387095328189122 0 0.00059646885385177646 -0.0046328106010788943 0 0.0013838277303650913 -0.0044509292926275092 0 0.0022043270026310697 -0.0047734423336450579 0 0.0013838277303650913 -0.0044509292926275092 0 0.0014218104984615302 -0.0049792397817757491 0 0.00059646885385177646 -0.0046328106010788943 0 0.0013838277303650913 -0.0044509292926275092 0 0.0014218104984615302 -0.0049792397817757491 0 0.001505020427863544 -0.0054715276289839755 0 0.0014218104984615302 -0.0049792397817757491 0 0.00091979448956103671 -0.0052718100642085708 0 0.001505020427863544 -0.0054715276289839755 0 0.0019394104482404262 -0.0052836062436805407 0 0.0014218104984615302 -0.0049792397817757491 0 0.00059646885385177646 -0.0046328106010788943 0 0.0014218104984615302 -0.0049792397817757491 0 0.00091979448956103671 -0.0052718100642085708 0 0.00021651643603171162 -0.0053898694699268347 0 0.00059646885385177646 -0.0046328106010788943 0 0.00091979448956103671 -0.0052718100642085708 0 0.00021651643603171162 -0.0053898694699268347 0 0.00064498824709486246 -0.0041344786344536281 0 -4.8825084460069575e-05 -0.004604055483165061 0 0.00043032192515580196 -0.0047779588902151782 0 0.00063196704124800652 -0.0042916761280206561 0 0.00021651643603171162 -0.0053898694699268347 0 -4.8825084460069575e-05 -0.004604055483165061 0 -0.00051740203283781323 -0.0050897603961877922 0 -0.00051740203283781323 -0.0050897603961877922 0 -0.000571756771931112 -0.0044239703233893042 0 -0.0011550126185097473 -0.0047691607997283779 0 -0.000571756771931112 -0.0044239703233893042 0 -0.0011550126185097473 -0.0047691607997283779 0 -0.0010986835775990205 -0.0041689171362938142 0 -4.8825084460069575e-05 -0.004604055483165061 0 -0.00051740203283781323 -0.0050897603961877922 0 -0.000571756771931112 -0.0044239703233893042 0 -0.000571756771931112 -0.0044239703233893042 0 -0.00065447805589104017 -0.0038537530023654886 0 -4.7232141909403219e-05 -0.0039608543725882031 0 -0.000571756771931112 -0.0044239703233893042 0 -0.00065447805589104017 -0.0038537530023654886 0 -0.0010986835775990205 -0.0041689171362938142 0 -0.00065447805589104017 -0.0038537530023654886 0 -0.0010986835775990205 -0.0041689171362938142 0 -0.0013110950990704656 -0.0035734748117122023 0 -0.00065447805589104017 -0.0038537530023654886 0 -4.7232141909403219e-05 -0.0039608543725882031 0 -0.00017229786609423064 -0.003403303141245137 0 0.00047903338570138751 -0.0034043229457771185 0 0.00064498824709486246 -0.0041344786344536281 0 -4.7232141909403219e-05 -0.0039608543725882031 0 0.00064498824709486246 -0.0041344786344536281 0 -4.8825084460069575e-05 -0.004604055483165061 0 -4.7232141909403219e-05 -0.0039608543725882031 0 -4.8825084460069575e-05 -0.004604055483165061 0 -0.000571756771931112 -0.0044239703233893042 0 -4.7232141909403219e-05 -0.0039608543725882031 0 -0.0018289514574323996 -0.0051154651578785883 0 -0.0024602965250758954 -0.0045922237760524101 0 -0.0017295016749723478 -0.0043339551581080818 0 -0.0018289514574323996 -0.0051154651578785883 0 -0.0017295016749723478 -0.0043339551581080818 0 -0.0011550126185097473 -0.0047691607997283779 0 -0.0017295016749723478 -0.0043339551581080818 0 -0.0011550126185097473 -0.0047691607997283779 0 -0.0010986835775990205 -0.0041689171362938142 0 -0.0017295016749723478 -0.0043339551581080818 0 -0.0019276171244412598 -0.0036494469808726819 0 -0.0012764068672460945 -0.0033326588428451275 0 -0.0017295016749723478 -0.0043339551581080818 0 -0.0010986835775990205 -0.0041689171362938142 0 -0.0013110950990704656 -0.0035734748117122023 0 -0.0014399905395198632 -0.0029332549318249568 0 -0.0011886683615078583 -0.0022425534225652194 0 -0.0027339280541076954 0.0017045854289923213 0 -0.0027808530220333736 0.0039797968539780201 0 -0.0037775845663588869 0.002303379541485379 0 -0.0024602965250758954 -0.0045922237760524101 0 -0.0019276171244412598 -0.0036494469808726819 0 -0.0025047094892907931 -0.0032447574996268412 0 -0.0018350385254283779 -0.0012249549039729385 0 -0.001240686453754244 0.001736834188000083 0 -0.0024602965250758954 -0.0045922237760524101 0 -0.0017295016749723478 -0.0043339551581080818 0 -0.0019276171244412598 -0.0036494469808726819 0 -0.001240686453754244 0.001736834188000083 0 -0.00028673260360914107 0.00453511672196892 0 -0.00061539695822518229 0.0022006371819852377 0 -0.00035231815005045346 0.0023438747401369397 0 -0.00062102924673997952 0.0026577341092299677 0 -0.0019276171244412598 -0.0036494469808726819 0 -0.0025047094892907931 -0.0032447574996268412 0 -0.0016816614396077702 -0.0027797660784035822 0 -0.001240686453754244 0.001736834188000083 0 -0.00097815497223776356 0.00065902707161966416 0 -0.0016816614396077702 -0.0027797660784035822 0 -0.0012764068672460945 -0.0033326588428451275 0 -0.00083409102161097887 -0.0023120201903430132 0 -0.0011886683615078583 -0.0022425534225652194 0 -0.00041371310291288596 -7.014866468378385e-05 0 -0.0019276171244412598 -0.0036494469808726819 0 -0.0016816614396077702 -0.0027797660784035822 0 -0.0012764068672460945 -0.0033326588428451275 0 -0.00097815497223776356 0.00065902707161966416 0 -0.00041371310291288596 -7.014866468378385e-05 0 -0.00031050431215031983 0.0026338227052728944 0 -9.0157646308476069e-05 0.0024862216146571137 0 3.125397552447261e-05 0.0027652810182603573 0 -0.00035231815005045346 0.0023438747401369397 0 -0.00031050431215031983 0.0026338227052728944 0 -9.0157646308476069e-05 0.0024862216146571137 0 0.002768011778135761 0.005341754254768522 0 0.0027410552701341404 0.0075669524973970914 0 0.0019832767444898014 0.0069596420243767986 0 -0.00035231815005045346 0.0023438747401369397 0 -0.00031050431215031983 0.0026338227052728944 0 -0.00062102924673997952 0.0026577341092299677 0 0.00013013607649358094 -0.0030032423053447084 0 -0.00017229786609423064 -0.003403303141245137 0 -0.00036589868375052145 -0.0029950571375946112 0 0.00047903338570138751 -0.0034043229457771185 0 0.00013013607649358094 -0.0030032423053447084 0 -0.00017229786609423064 -0.003403303141245137 0 0.00047903338570138751 -0.0034043229457771185 0 -4.7232141909403219e-05 -0.0039608543725882031 0 -0.00017229786609423064 -0.003403303141245137 0 -0.00065447805589104017 -0.0038537530023654886 0 -0.00017229786609423064 -0.003403303141245137 0 -0.00072821900609565274 -0.0033641614858108816 0 -0.0013110950990704656 -0.0035734748117122023 0 -0.00072821900609565274 -0.0033641614858108816 0 -0.0009391026962621028 -0.002808591794095898 0 -0.00065447805589104017 -0.0038537530023654886 0 -0.0013110950990704656 -0.0035734748117122023 0 -0.00072821900609565274 -0.0033641614858108816 0 -0.00072821900609565274 -0.0033641614858108816 0 -0.00036589868375052145 -0.0029950571375946112 0 -0.0009391026962621028 -0.002808591794095898 0 -0.00017229786609423064 -0.003403303141245137 0 -0.00072821900609565274 -0.0033641614858108816 0 -0.00036589868375052145 -0.0029950571375946112 0 -0.00036589868375052145 -0.0029950571375946112 0 -0.0009391026962621028 -0.002808591794095898 0 -0.00011859654670505001 -0.0023875190170535724 0 -0.00041371310291288596 -7.014866468378385e-05 0 0.00047789144505396209 0.0002061214720238572 0 0.00060330946435277759 0.00050332176446085284 0 -6.8731912643055736e-05 0.00013985254202121365 0 0.00035176986332028032 -7.7322489569690671e-05 0 -0.00041371310291288596 -7.014866468378385e-05 0 0.00026204059884883159 0.0013573903948000197 0 0.00047789144505396209 0.0002061214720238572 0 0.00026204059884883159 0.0013573903948000197 0 0.00075242182478238862 -0.0028235743396500547 0 0.000215954451085083 -0.0026338706613600322 0 0.00050855050514626355 -0.0025399015166712425 0 0.00077185456591177153 -0.0029281279920131673 0 0.00013013607649358094 -0.0030032423053447084 0 -0.00011859654670505001 -0.0023875190170535724 0 0.00047789144505396209 0.0002061214720238572 0 0.00078554668015128634 0.00030200462727901912 0 0.00090188841069497607 -0.00051217919640266613 0 0.00047789144505396209 0.0002061214720238572 0 0.00013013607649358094 -0.0030032423053447084 0 -0.00036589868375052145 -0.0029950571375946112 0 -0.00011859654670505001 -0.0023875190170535724 0 0.000215954451085083 -0.0026338706613600322 0 0.00050855050514626355 -0.0025399015166712425 0 0.00044818424127278795 -0.0025084475672361066 0 0.00079093776244262902 0.00029261860138216295 0 0.00078554668015128634 0.00030200462727901912 0 0.00078554668015128634 0.00030200462727901912 0 0.00038446352765439466 0.0014624776012544705 0 0.00064393209455645333 0.00086012809241441883 0 0.00078451178377143284 0.00078884727342072006 0 0.00060533656683299758 0.00076550982913345888 0 0.00050855050514626355 -0.0025399015166712425 0 0.00044617052283920842 -0.0025073296544643043 0 0.00063779892157852353 -0.0024047967382135075 0 0.00041572557143817974 0.0010857572400816092 0 0.00016029381234704558 0.00094667579628618847 0 0.00066534861597746843 0.00068850376492708687 0 0.00078554668015128634 0.00030200462727901912 0 0.00096702385834380176 2.7419120443649841e-05 0 0.00064393209455645333 0.00086012809241441883 0 0.00058689246093863675 0.00082928309248157231 0 0.00060533656683299758 0.00076550982913345888 0 0.00038446352765439466 0.0014624776012544705 0 0.00016568122056271077 0.0032099137400923611 0 0.00041572557143817974 0.0010857572400816092 0 0.00076064007725097442 0.00090818269379146601 0 0.00066534861597746843 0.00068850376492708687 0 0.00080080731342931262 0.0029033585475485004 0 0.00093136921063836291 0.0032043341655439432 0 2.835030882572313e-05 0.0033078578452981787 0 0.00026204059884883159 0.0013573903948000197 0 0.00038446352765439466 0.0014624776012544705 0 0.00051282919547552131 -2.3137143253855822e-05 0 9.97338570298065e-05 0.0009154498528603734 0 -0.00063346523702567182 0.00055843624302939808 0 0.00051282919547552131 -2.3137143253855822e-05 0 9.97338570298065e-05 0.0009154498528603734 0 0.0011368271990176983 0.0014127703201253568 0 0.00078451178377143284 0.00078884727342072006 0 0.00069100582305126588 0.00057227517033909896 0 0.00060533656683299758 0.00076550982913345888 0 0.00065989988979978347 0.00057741999158822529 0 0.00069100582305126588 0.00057227517033909896 0 0.00060533656683299758 0.00076550982913345888 0 0.00099857684272354323 0.00049796144777544237 0 0.00097684013958280786 -1.130983665284864e-05 0 0.00038446352765439466 0.0014624776012544705 0 0.00082208431413213843 0.00069823119487944266 0 -0.00062102924673997952 0.0026577341092299677 0 -0.00029650577525838659 0.0029400998755066657 0 -0.00062717335607452584 0.0031169413692896373 0 -0.00028673260360914107 0.00453511672196892 0 -1.2868064522344935e-05 0.0057748377546409102 0 0.0027410552701341404 0.0075669524973970914 0 0.0023750032715955643 0.0086435337529849401 0 0.0027038552155140127 0.0097468683373702278 0 -0.00031050431215031983 0.0026338227052728944 0 -0.00062102924673997952 0.0026577341092299677 0 -0.00029650577525838659 0.0029400998755066657 0 7.9684915835229869e-05 0.0035061239612766831 0 -1.2868064522344935e-05 0.0057748377546409102 0 0.00040985412089249585 0.0071460164702262449 0 0.00024380227483490098 0.006431293352139063 0 -0.00031050431215031983 0.0026338227052728944 0 3.125397552447261e-05 0.0027652810182603573 0 -0.00029650577525838659 0.0029400998755066657 0 0.00093136921063836291 0.0032043341655439432 0 2.835030882572313e-05 0.0033078578452981787 0 9.1458289224262559e-05 0.0036414931220063837 0 0.00026204059884883159 0.0013573903948000197 0 7.9684915835229869e-05 0.0035061239612766831 0 2.835030882572313e-05 0.0033078578452981787 0 9.1458289224262559e-05 0.0036414931220063837 0 -0.00074682876803897969 0.0037132667818198166 0 9.97338570298065e-05 0.0009154498528603734 0 -0.00063346523702567182 0.00055843624302939808 0 -0.00062008301181846353 0.0017149289522792402 0 -0.00063346523702567182 0.00055843624302939808 0 -0.0012541539194405472 0.0015612508217209096 0 -0.00062008301181846353 0.0017149289522792402 0 0.00016568122056271077 0.0032099137400923611 0 -3.526361058313559e-05 0.0054848813299611231 0 9.1458289224262559e-05 0.0036414931220063837 0 -0.00075143027063386252 0.0040797022333957499 0 -0.00074682876803897969 0.0037132667818198166 0 -0.00063346523702567182 0.00055843624302939808 0 -0.0018053140328716365 0.0011483246828417068 0 -0.0012541539194405472 0.0015612508217209096 0 0.00013718585332927484 0.0058131393106080516 0 7.1176103472253698e-05 0.0058469979034869559 0 0.00013746739802937661 0.0059635163066803264 0 -3.526361058313559e-05 0.0054848813299611231 0 -1.2868064522344935e-05 0.0057748377546409102 0 9.094962699240816e-05 0.0062715788404486801 0 0.00024380227483490098 0.006431293352139063 0 9.094962699240816e-05 0.0062715788404486801 0 -3.526361058313559e-05 0.0054848813299611231 0 0.0023750032715955643 0.0086435337529849401 0 0.0023677864169542838 0.0099186911769254711 0 0.0027038552155140127 0.0097468683373702278 0 7.1176103472253698e-05 0.0058469979034869559 0 0.00013746739802937661 0.0059635163066803264 0 6.9574822164553121e-05 0.0059986051771629524 0 0.00024380227483490098 0.006431293352139063 0 -1.2868064522344935e-05 0.0057748377546409102 0 -0.0020181498444681025 0.0012735726647124166 0 -0.0018280506095911869 0.0019685896900730445 0 -0.0020707008231052306 0.0028515407474250637 0 9.094962699240816e-05 0.0062715788404486801 0 -0.0002410579175929831 0.0079378878011923289 0 -3.526361058313559e-05 0.0054848813299611231 0 -0.00015089398952398207 0.0045644679161593073 0 -0.0018053140328716365 0.0011483246828417068 0 -0.0018280506095911869 0.0019685896900730445 0 -0.0012541539194405472 0.0015612508217209096 0 -0.0020181498444681025 0.0012735726647124166 0 -0.0017986671015886211 0.0011633395011326044 0 -0.0018280506095911869 0.0019685896900730445 0 -0.0018280506095911869 0.0019685896900730445 0 -0.0012541539194405472 0.0015612508217209096 0 -0.001285334697001527 0.0024437452662058193 0 -0.0012541539194405472 0.0015612508217209096 0 -0.00062008301181846353 0.0017149289522792402 0 -0.001285334697001527 0.0024437452662058193 0 -0.00051989595055226595 0.0031355237134046161 0 -0.001285334697001527 0.0024437452662058193 0 -0.0013090504257438791 0.0034882556367072802 0 -0.00062008301181846353 0.0017149289522792402 0 -0.00051989595055226595 0.0031355237134046161 0 0.00021962852752542236 0.0027408986259520214 0 -0.00062008301181846353 0.0017149289522792402 0 -0.00051989595055226595 0.0031355237134046161 0 -0.001285334697001527 0.0024437452662058193 0 -0.001285334697001527 0.0024437452662058193 0 -0.0020707008231052306 0.0028515407474250637 0 -0.0013090504257438791 0.0034882556367072802 0 -0.0018280506095911869 0.0019685896900730445 0 -0.001285334697001527 0.0024437452662058193 0 -0.0020707008231052306 0.0028515407474250637 0 0.0012994993644524506 0.0016861152394693859 0 0.00060649088894122207 0.0020793439619645458 0 0.00096634941675567026 0.0027918981041365563 0 0.00084519155830325564 -0.00041446442814067631 0 0.0015483515758671293 0.0012671659487418091 0 0.0016851642540049211 0.00010179329347592433 0 0.00095371165528542791 0.00087341679006793459 0 0.0007863877588577215 0.0020401235518186438 0 0.00095371165528542791 0.00087341679006793459 0 0.0013797751502285344 0.0015706639297414587 0 0.00084519155830325564 -0.00041446442814067631 0 0.0010044470744441675 -0.00094661872714531855 0 0.0016851642540049211 0.00010179329347592433 0 0.00095371165528542791 0.00087341679006793459 0 0.00099857684272354323 0.00049796144777544237 0 0.00075004818748368809 -1.2526829968940749e-05 0 0.00037359388947897439 0.0012730332907699411 0 0.0012437683294635438 0.0011256367126781569 0 0.00095371165528542791 0.00087341679006793459 0 0.00082208431413213843 0.00069823119487944266 0 0.0012994993644524506 0.0016861152394693859 0 0.0011812089536743006 0.0014076828697751353 0 0.00060649088894122207 0.0020793439619645458 0 0.00099857684272354323 0.00049796144777544237 0 0.00082208431413213843 0.00069823119487944266 0 -0.00062008301181846353 0.0017149289522792402 0 0.00060649088894122207 0.0020793439619645458 0 0.00021962852752542236 0.0027408986259520214 0 -0.00062008301181846353 0.0017149289522792402 0 0.0011812089536743006 0.0014076828697751353 0 0.00060649088894122207 0.0020793439619645458 0 9.97338570298065e-05 0.0009154498528603734 0 -0.00062008301181846353 0.0017149289522792402 0 0.0011368271990176983 0.0014127703201253568 0 0.00013910072131122775 0.0010391288376701423 0 0.00082208431413213843 0.00069823119487944266 0 0.00021962852752542236 0.0027408986259520214 0 0.00096634941675567026 0.0027918981041365563 0 0.00068691181309557113 0.0038348563437925784 0 0.00060649088894122207 0.0020793439619645458 0 0.00021962852752542236 0.0027408986259520214 0 0.00096634941675567026 0.0027918981041365563 0 0.0014479867568271622 0.0009672160510328365 0 0.001057349566999195 0.0022897398363346338 0 0.0019530347131340158 0.0021325223795205378 0 0.001057349566999195 0.0022897398363346338 0 0.0019530347131340158 0.0021325223795205378 0 0.0016161558433854686 0.0031190654208250864 0 0.0015483515758671293 0.0012671659487418091 0 0.0029301113146548686 0.0017876957029067037 0 0.0024218479161481747 0.0031328111503951374 0 0.0013797751502285344 0.0015706639297414587 0 0.0016072675291917147 0.0020035701669562089 0 0.0029301113146548686 0.0017876957029067037 0 0.0024425078837130776 0.00081091582206941617 0 0.0038168925386588997 0.00095738900720431788 0 0.0015483515758671293 0.0012671659487418091 0 0.0024425078837130776 0.00081091582206941617 0 0.0016851642540049211 0.00010179329347592433 0 0.0015483515758671293 0.0012671659487418091 0 0.0029301113146548686 0.0017876957029067037 0 0.0024425078837130776 0.00081091582206941617 0 0.0024425078837130776 0.00081091582206941617 0 0.0016851642540049211 0.00010179329347592433 0 0.002593020274957994 -0.00018716344023509717 0 0.0010044470744441675 -0.00094661872714531855 0 0.002593020274957994 -0.00018716344023509717 0 0.0038230843239582127 -0.0014287006933308844 0 0.0024425078837130776 0.00081091582206941617 0 0.002593020274957994 -0.00018716344023509717 0 0.0038168925386588997 0.00095738900720431788 0 0.0010044470744441675 -0.00094661872714531855 0 0.0016851642540049211 0.00010179329347592433 0 0.002593020274957994 -0.00018716344023509717 0 0.002593020274957994 -0.00018716344023509717 0 0.004465887230664242 -0.00019808064011944945 0 0.0038168925386588997 0.00095738900720431788 0 0.002593020274957994 -0.00018716344023509717 0 0.004465887230664242 -0.00019808064011944945 0 0.0038230843239582127 -0.0014287006933308844 0 0.004465887230664242 -0.00019808064011944945 0 0.0056483119849972232 -0.00081993226120970686 0 0.0038230843239582127 -0.0014287006933308844 0 0.004465887230664242 -0.00019808064011944945 0 0.0038168925386588997 0.00095738900720431788 0 0.0048876427059514728 0.00072040658968653977 0 0.0038168925386588997 0.00095738900720431788 0 0.0048868302890351855 0.0016353291697001489 0 0.0048876427059514728 0.00072040658968653977 0 0.0029301113146548686 0.0017876957029067037 0 0.0038168925386588997 0.00095738900720431788 0 0.0040624400711649035 0.0020851630787528338 0 0.0038168925386588997 0.00095738900720431788 0 0.0040624400711649035 0.0020851630787528338 0 0.0048868302890351855 0.0016353291697001489 0 0.0040624400711649035 0.0020851630787528338 0 0.0048868302890351855 0.0016353291697001489 0 0.0050203666989366898 0.0023888717940363305 0 0.0048868302890351855 0.0016353291697001489 0 0.0055046077289875725 0.0020289968680678788 0 0.0050203666989366898 0.0023888717940363305 0 0.0048868302890351855 0.0016353291697001489 0 0.0055046077289875725 0.0020289968680678788 0 0.0055500900348278669 0.0012903189304391412 0 0.0055046077289875725 0.0020289968680678788 0 0.0060304705763494573 0.0023019550414356544 0 0.0055500900348278669 0.0012903189304391412 0 0.0060304705763494573 0.0023019550414356544 0 0.0055500900348278669 0.0012903189304391412 0 0.006040389416638911 0.00048938313840681262 0 0.0055500900348278669 0.0012903189304391412 0 0.006040389416638911 0.00048938313840681262 0 0.0055683360491220807 0.00017495258332075279 0 0.0055500900348278669 0.0012903189304391412 0 0.0048876427059514728 0.00072040658968653977 0 0.0055683360491220807 0.00017495258332075279 0 0.0048868302890351855 0.0016353291697001489 0 0.0055500900348278669 0.0012903189304391412 0 0.0048876427059514728 0.00072040658968653977 0 0.0060304705763494573 0.0023019550414356544 0 0.006040389416638911 0.00048938313840681262 0 0.0069767210022521576 -0.00092199802812045837 0 0.0070870936909853107 -0.0011460610375689923 0 0.0070151902054536005 -0.001010212344511786 0 0.0069767210022521576 -0.00092199802812045837 0 0.0064579441827840997 9.2052932968367227e-05 0 0.0066306124006708525 -0.00026251267332531034 0 0.0069826271319347547 -0.0011347309918716257 0 0.0070190922983200989 -0.0011002414778574486 0 0.0069878031736465267 -0.0010826169314256111 0 0.0069826271319347547 -0.0011347309918716257 0 0.007021274834138014 -0.0011471819117160962 0 0.0069825057673415245 -0.0011744152036901935 0 0.0069826271319347547 -0.0011347309918716257 0 0.007021274834138014 -0.0011471819117160962 0 0.0070190922983200989 -0.0011002414778574486 0 0.0070870936909853107 -0.0011460610375689923 0 0.0070190922983200989 -0.0011002414778574486 0 0.0070151902054536005 -0.001010212344511786 0 0.0070870936909853107 -0.0011460610375689923 0 0.007021274834138014 -0.0011471819117160962 0 0.0070190922983200989 -0.0011002414778574486 0 0.0070190922983200989 -0.0011002414778574486 0 0.0070151902054536005 -0.001010212344511786 0 0.0069878031736465267 -0.0010826169314256111 0 0.0070151902054536005 -0.001010212344511786 0 0.0069878031736465267 -0.0010826169314256111 0 0.0069758659543206741 -0.0010450964172609841 0 0.0070151902054536005 -0.001010212344511786 0 0.0070332256921551142 -0.0009034824762845018 0 0.0069767210022521576 -0.00092199802812045837 0 0.0070151902054536005 -0.001010212344511786 0 0.0069941449757917953 -0.00099030301403628244 0 0.0069758659543206741 -0.0010450964172609841 0 0.0070151902054536005 -0.001010212344511786 0 0.0069941449757917953 -0.00099030301403628244 0 0.0070332256921551142 -0.0009034824762845018 0 0.006040389416638911 0.00048938313840681262 0 0.0069767210022521576 -0.00092199802812045837 0 0.0061462426215711059 -0.00037062104151035485 0 0.0069767210022521576 -0.00092199802812045837 0 0.006355416805448451 -0.00096686616852267979 0 0.0061462426215711059 -0.00037062104151035485 0 0.004465887230664242 -0.00019808064011944945 0 0.0048876427059514728 0.00072040658968653977 0 0.0055683360491220807 0.00017495258332075279 0 0.004465887230664242 -0.00019808064011944945 0 0.0055683360491220807 0.00017495258332075279 0 0.0056483119849972232 -0.00081993226120970686 0 0.0055683360491220807 0.00017495258332075279 0 0.0061462426215711059 -0.00037062104151035485 0 0.0056483119849972232 -0.00081993226120970686 0 0.006040389416638911 0.00048938313840681262 0 0.0055683360491220807 0.00017495258332075279 0 0.0061462426215711059 -0.00037062104151035485 0 0.006355416805448451 -0.00096686616852267979 0 0.0061462426215711059 -0.00037062104151035485 0 0.0056483119849972232 -0.00081993226120970686 0 0.0025389125373311916 -0.0016336173817251456 0 0.001388613713925268 -0.002443686341951406 0 0.00130462772696652 -0.0014722325275470837 0 0.0043607001281616847 -0.0013413240010998184 0 0.0026767676740483207 -0.00069070301984801839 0 0.0056483119849972232 -0.00081993226120970686 0 0.0065286666360253051 -0.0018111088479394275 0 0.0038230843239582127 -0.0014287006933308844 0 0.006355416805448451 -0.00096686616852267979 0 0.0056483119849972232 -0.00081993226120970686 0 0.0065286666360253051 -0.0018111088479394275 0 0.0025389125373311916 -0.0016336173817251456 0 0.0031277104771832791 -0.0023401381569384586 0 0.0038941705953090453 -0.0018342974377352893 0 0.0069767210022521576 -0.00092199802812045837 0 0.0065286666360253051 -0.0018111088479394275 0 0.0081348701377265947 -0.0019295369433797302 0 0.0069767210022521576 -0.00092199802812045837 0 0.006355416805448451 -0.00096686616852267979 0 0.0065286666360253051 -0.0018111088479394275 0 0.0030638992524928215 -0.0032053785878325609 0 0.0024579194592461123 -0.0026071423540792635 0 0.0031277104771832791 -0.0023401381569384586 0 0.0025389125373311916 -0.0016336173817251456 0 0.0024579194592461123 -0.0026071423540792635 0 0.0031277104771832791 -0.0023401381569384586 0 0.0025389125373311916 -0.0016336173817251456 0 0.0024579194592461123 -0.0026071423540792635 0 0.001388613713925268 -0.002443686341951406 0 0.001388613713925268 -0.002443686341951406 0 0.00094124554471704193 -0.0020217850991780181 0 0.00130462772696652 -0.0014722325275470837 0 0.001388613713925268 -0.002443686341951406 0 0.00092153546639259264 -0.0025032918712322104 0 0.00094124554471704193 -0.0020217850991780181 0 0.00092153546639259264 -0.0025032918712322104 0 0.00059339759176046383 -0.0024059220935668873 0 0.00049670825761549404 -0.0021401807619179504 0 0.00096702385834380176 2.7419120443649841e-05 0 0.00097684013958280786 -1.130983665284864e-05 0 0.00049670825761549404 -0.0021401807619179504 0 0.00094124554471704193 -0.0020217850991780181 0 0.00074063714554597506 -0.0017427970246615731 0 0.00092153546639259264 -0.0025032918712322104 0 0.00049670825761549404 -0.0021401807619179504 0 0.00094124554471704193 -0.0020217850991780181 0 0.00023683894149780369 -0.0013224115143400802 0 0.00049670825761549404 -0.0021401807619179504 0 0.00074063714554597506 -0.0017427970246615731 0 0.00023683894149780369 -0.0013224115143400802 0 0.00074063714554597506 -0.0017427970246615731 0 0.00130462772696652 -0.0014722325275470837 0 0.00094124554471704193 -0.0020217850991780181 0 0.00074063714554597506 -0.0017427970246615731 0 0.00130462772696652 -0.0014722325275470837 0 0.00099857684272354323 0.00049796144777544237 0 0.0026767676740483207 -0.00069070301984801839 0 -0.0085150162239824544 0.0048735653375753798 0 -0.0075820992682773519 0.0063014588623826273 0 -0.0071410468419440386 0.0048476717935628235 0 -0.0075820992682773519 0.0063014588623826273 0 -0.0063349015402040841 0.0063216216300508955 0 -0.0071410468419440386 0.0048476717935628235 0 -0.0063349015402040841 0.0063216216300508955 0 -0.0056395645559634104 0.0047811042387153006 0 -0.0044677871754832598 0.006785346630481204 0 -0.0063349015402040841 0.0063216216300508955 0 -0.0056395645559634104 0.0047811042387153006 0 -0.0071410468419440386 0.0048476717935628235 0 -0.0056395645559634104 0.0047811042387153006 0 -0.0071410468419440386 0.0048476717935628235 0 -0.0067044929489156677 0.0034202264926422388 0 -0.0056395645559634104 0.0047811042387153006 0 -0.0067044929489156677 0.0034202264926422388 0 -0.005571031709017701 0.0027795988513164621 0 -0.0085150162239824544 0.0048735653375753798 0 -0.0071410468419440386 0.0048476717935628235 0 -0.0079025685037577061 0.0035997317416166753 0 -0.0071410468419440386 0.0048476717935628235 0 -0.0079025685037577061 0.0035997317416166753 0 -0.0067044929489156677 0.0034202264926422388 0 -0.0079025685037577061 0.0035997317416166753 0 -0.0072509168240816567 0.0022683673998924901 0 -0.0067044929489156677 0.0034202264926422388 0 -0.0084600661266631023 0.00267317935944335 0 -0.0079025685037577061 0.0035997317416166753 0 -0.0072509168240816567 0.0022683673998924901 0 -0.0072509168240816567 0.0022683673998924901 0 -0.0059987366246369023 0.0018467510979412532 0 -0.0067044929489156677 0.0034202264926422388 0 -0.0064533515106132257 0.00094836475780607596 0 -0.0072509168240816567 0.0022683673998924901 0 -0.0059987366246369023 0.0018467510979412532 0 -0.0059987366246369023 0.0018467510979412532 0 -0.0067044929489156677 0.0034202264926422388 0 -0.005571031709017701 0.0027795988513164621 0 -0.005571031709017701 0.0027795988513164621 0 -0.005494631788443307 0.0016678913107990789 0 -0.0054309160200758282 0.0020273060465463822 0 -0.0047952684107189824 0.0030324255222978552 0 -0.0041522083108871477 0.0031955658456241584 0 -0.0059987366246369023 0.0018467510979412532 0 -0.005571031709017701 0.0027795988513164621 0 -0.005494631788443307 0.0016678913107990789 0 -0.005494631788443307 0.0016678913107990789 0 -0.0054309160200758282 0.0020273060465463822 0 -0.0053246291740869601 0.0016171274387387882 0 -0.0028699204803364431 0.0032060307641564611 0 -0.0037858033466837966 0.0048747881494410426 0 -0.0018702026557536103 0.0048604833526108898 0 -0.005571031709017701 0.0027795988513164621 0 -0.0028699204803364431 0.0032060307641564611 0 -0.0037858033466837966 0.0048747881494410426 0 -0.0056395645559634104 0.0047811042387153006 0 -0.005571031709017701 0.0027795988513164621 0 -0.0037858033466837966 0.0048747881494410426 0 -0.0056395645559634104 0.0047811042387153006 0 -0.0037858033466837966 0.0048747881494410426 0 -0.0044677871754832598 0.006785346630481204 0 -0.0037858033466837966 0.0048747881494410426 0 -0.0025906986906701025 0.0062097080940222097 0 -0.0018702026557536103 0.0048604833526108898 0 -0.0037858033466837966 0.0048747881494410426 0 -0.0025906986906701025 0.0062097080940222097 0 -0.0044677871754832598 0.006785346630481204 0 -0.0013257019870773971 0.0060308441784072677 0 -0.00016688288662114871 0.0051500085236168116 0 -0.0018702026557536103 0.0048604833526108898 0 -0.0025906986906701025 0.0062097080940222097 0 -0.0013257019870773971 0.0060308441784072677 0 -0.0018702026557536103 0.0048604833526108898 0 -0.0025906986906701025 0.0062097080940222097 0 -0.0013257019870773971 0.0060308441784072677 0 -0.0017184064892767331 0.0069613032824293103 0 -0.0013257019870773971 0.0060308441784072677 0 -0.00024315301191043371 0.0066964655365734658 0 -0.00016688288662114871 0.0051500085236168116 0 -0.0013257019870773971 0.0060308441784072677 0 -0.00024315301191043371 0.0066964655365734658 0 -0.0017184064892767331 0.0069613032824293103 0 -0.000590787658826779 0.007371602360887102 0 0.00068490952561553735 0.005991442189788373 0 9.9117233592348067e-05 0.0075963230827977403 0 -0.0010923889701053139 0.0068658834516591898 0 -0.00088490036259824352 0.0058027469314602901 0 -0.00024315301191043371 0.0066964655365734658 0 -0.00016688288662114871 0.0051500085236168116 0 0.0013631809089349643 0.0049667247627710118 0 -0.0029234335173412914 0.0036988794440958894 0 -0.0013215447553651554 0.0047157137308115465 0 -0.00016688288662114871 0.0051500085236168116 0 -0.00055876576750181267 0.0036464446358049074 0 0.0013631809089349643 0.0049667247627710118 0 -0.00055876576750181267 0.0036464446358049074 0 0.0017078424752326705 0.0040282748254963493 0 0.0013631809089349643 0.0049667247627710118 0 -0.0028699204803364431 0.0032060307641564611 0 -0.00055876576750181267 0.0036464446358049074 0 -0.0018702026557536103 0.0048604833526108898 0 -0.00016688288662114871 0.0051500085236168116 0 -0.00055876576750181267 0.0036464446358049074 0 -0.0018702026557536103 0.0048604833526108898 0 -0.0041522083108871477 0.0031955658456241584 0 -0.0029234335173412914 0.0036988794440958894 0 -0.0054309160200758282 0.0020273060465463822 0 -0.0052494619533719885 0.0017550219889993425 0 -0.0053246291740869601 0.0016171274387387882 0 -0.0053246291740869601 0.0016171274387387882 0 -0.005313851402902023 0.0012218392917151019 0 -0.0052158572749522823 0.0012614420908480461 0 -0.005494631788443307 0.0016678913107990789 0 -0.0053246291740869601 0.0016171274387387882 0 -0.005313851402902023 0.0012218392917151019 0 -0.0053246291740869601 0.0016171274387387882 0 -0.0052158572749522823 0.0012614420908480461 0 -0.00516497282602962 0.001524403251692836 0 -0.0051304982364803152 0.00081176163366326578 0 -0.0052158572749522823 0.0012614420908480461 0 -0.005112552524347151 0.0012911019937650711 0 -0.0052158572749522823 0.0012614420908480461 0 -0.005112552524347151 0.0012911019937650711 0 -0.00516497282602962 0.001524403251692836 0 -0.0052494619533719885 0.0017550219889993425 0 -0.0050183774860192362 0.0016266199531968634 0 -0.0049543209765500838 0.0017630719315919069 0 -0.0052494619533719885 0.0017550219889993425 0 -0.0053246291740869601 0.0016171274387387882 0 -0.00516497282602962 0.001524403251692836 0 -0.005112552524347151 0.0012911019937650711 0 -0.00516497282602962 0.001524403251692836 0 -0.004994375611364418 0.0014687182502647754 0 -0.0052494619533719885 0.0017550219889993425 0 -0.00516497282602962 0.001524403251692836 0 -0.0050183774860192362 0.0016266199531968634 0 -0.0050183774860192362 0.0016266199531968634 0 -0.0048669540219488652 0.0015464224706694316 0 -0.0049543209765500838 0.0017630719315919069 0 0.00066986179204774423 0.0042027062308615205 0 0.00080721607445058733 0.0056131936070130317 0 0.00018629128381405841 0.0055129610870819747 0 -0.0014549733178252173 0.0025471281992711591 0 -0.0013215447553651554 0.0047157137308115465 0 -0.0048130927144702761 0.0015767389531041265 0 -0.004994375611364418 0.0014687182502647754 0 -0.0046781546896431199 0.0013373414975309211 0 -0.0014549733178252173 0.0025471281992711591 0 -0.0017805097302074514 0.002393108054655326 0 -0.0050183774860192362 0.0016266199531968634 0 -0.0048669540219488652 0.0015464224706694316 0 -0.004994375611364418 0.0014687182502647754 0 -0.00516497282602962 0.001524403251692836 0 -0.0050183774860192362 0.0016266199531968634 0 -0.004994375611364418 0.0014687182502647754 0 -0.0050341336527864955 -0.00022328045449738812 0 -0.0050314665278869226 0.0010914447286414746 0 -0.0046781546896431199 0.0013373414975309211 0 -0.005112552524347151 0.0012911019937650711 0 -0.004994375611364418 0.0014687182502647754 0 -0.0050314665278869226 0.0010914447286414746 0 -0.0014549733178252173 0.0025471281992711591 0 -0.0016851143279162407 0.0025199162710055146 0 -0.004994375611364418 0.0014687182502647754 0 -0.0050314665278869226 0.0010914447286414746 0 -0.0046781546896431199 0.0013373414975309211 0 -0.0051304982364803152 0.00081176163366326578 0 -0.005112552524347151 0.0012911019937650711 0 -0.0050314665278869226 0.0010914447286414746 0 -0.0027339280541076954 0.0017045854289923213 0 -0.0037673238771921023 0.00063882627048364395 0 -0.0037775845663588869 0.002303379541485379 0 -0.0037673238771921023 0.00063882627048364395 0 -0.0046781546896431199 0.0013373414975309211 0 -0.0037775845663588869 0.002303379541485379 0 -0.0050341336527864955 -0.00022328045449738812 0 -0.0037673238771921023 0.00063882627048364395 0 -0.0046781546896431199 0.0013373414975309211 0 -0.0027808530220333736 0.0039797968539780201 0 -0.0051503925242789694 0.0027271818679193822 0 -0.0037775845663588869 0.002303379541485379 0 0.002768011778135761 0.005341754254768522 0 0.00066986179204774423 0.0042027062308615205 0 0.0014952788169014446 0.0054771817104623871 0 -0.001240686453754244 0.001736834188000083 0 -0.0014549733178252173 0.0025471281992711591 0 -0.0051503925242789694 0.0027271818679193822 0 -0.0046781546896431199 0.0013373414975309211 0 -0.0037775845663588869 0.002303379541485379 0 0.00066986179204774423 0.0042027062308615205 0 0.0014952788169014446 0.0054771817104623871 0 0.00080721607445058733 0.0056131936070130317 0 0.002768011778135761 0.005341754254768522 0 0.0015029275890527769 0.0063698249625801957 0 0.0014952788169014446 0.0054771817104623871 0 0.002768011778135761 0.005341754254768522 0 0.0015029275890527769 0.0063698249625801957 0 0.0019832767444898014 0.0069596420243767986 0 0.0015029275890527769 0.0063698249625801957 0 0.0010984204296109838 0.0060372687755182401 0 0.0014952788169014446 0.0054771817104623871 0 0.0010079310229835596 0.0065204277463119789 0 0.0015029275890527769 0.0063698249625801957 0 0.0010984204296109838 0.0060372687755182401 0 0.0010984204296109838 0.0060372687755182401 0 0.0014952788169014446 0.0054771817104623871 0 0.00080721607445058733 0.0056131936070130317 0 -0.0011779145144979191 0.0047492374368415542 0 -0.0013215447553651554 0.0047157137308115465 0 0.00080721607445058733 0.0056131936070130317 0 0.00019377880094886835 0.0055164935502006957 0 0.00044245878406634577 0.0058640229199819734 0 0.00019377880094886835 0.0055164935502006957 0 0.00010582963053131849 0.0061265706670405509 0 0.00044245878406634577 0.0058640229199819734 0 0.00019377880094886835 0.0055164935502006957 0 0.00010582963053131849 0.0061265706670405509 0 -0.00012070452824570757 0.0063715446402771098 0 -0.0013215447553651554 0.0047157137308115465 0 -0.00088490036259824352 0.0058027469314602901 0 0.00010582963053131849 0.0061265706670405509 0 -0.0001201774599030798 0.0063727387045910237 0 0.00028223270610582918 0.0064843873916007513 0 -0.00087638269408905477 0.0058010955811863777 0 -0.00088490036259824352 0.0058027469314602901 0 0.0010984204296109838 0.0060372687755182401 0 0.00080721607445058733 0.0056131936070130317 0 0.00067955140293304254 0.006204331298356916 0 0.00080721607445058733 0.0056131936070130317 0 0.00044245878406634577 0.0058640229199819734 0 0.00067955140293304254 0.006204331298356916 0 0.00010582963053131849 0.0061265706670405509 0 0.00044245878406634577 0.0058640229199819734 0 0.00067955140293304254 0.006204331298356916 0 0.00028223270610582918 0.0064843873916007513 0 0.00067955140293304254 0.006204331298356916 0 0.00058293965991146541 0.0067927117124058503 0 0.00010582963053131849 0.0061265706670405509 0 0.00028223270610582918 0.0064843873916007513 0 0.00067955140293304254 0.006204331298356916 0 0.0010079310229835596 0.0065204277463119789 0 0.0010984204296109838 0.0060372687755182401 0 0.00067955140293304254 0.006204331298356916 0 0.0010079310229835596 0.0065204277463119789 0 0.00067955140293304254 0.006204331298356916 0 0.00058293965991146541 0.0067927117124058503 0 0.00058293965991146541 0.0067927117124058503 0 0.00038681560417497908 0.0073385824794941412 0 0.0011138198699933014 0.0072476984900856078 0 -0.0001201774599030798 0.0063727387045910237 0 -0.000151142850446528 0.0074000189334585001 0 -0.00078559994361525852 0.0082025919359386291 0 -0.00088490036259824352 0.0058027469314602901 0 -0.00098520061832328113 0.0077510702452427823 0 0.0010079310229835596 0.0065204277463119789 0 0.00058293965991146541 0.0067927117124058503 0 0.0011138198699933014 0.0072476984900856078 0 0.00028223270610582918 0.0064843873916007513 0 0.00058293965991146541 0.0067927117124058503 0 0.00018831577933606542 0.006881231692438667 0 0.00058293965991146541 0.0067927117124058503 0 0.00018831577933606542 0.006881231692438667 0 0.00038681560417497908 0.0073385824794941412 0 -0.0001201774599030798 0.0063727387045910237 0 0.00018831577933606542 0.006881231692438667 0 -0.000151142850446528 0.0074000189334585001 0 -0.0001201774599030798 0.0063727387045910237 0 0.00028223270610582918 0.0064843873916007513 0 0.00018831577933606542 0.006881231692438667 0 0.00018831577933606542 0.006881231692438667 0 -0.000151142850446528 0.0074000189334585001 0 0.00038681560417497908 0.0073385824794941412 0 -0.000151142850446528 0.0074000189334585001 0 -0.00024119869511322621 0.0079400524114293953 0 -0.00078559994361525852 0.0082025919359386291 0 -0.000151142850446528 0.0074000189334585001 0 9.0091888789796225e-05 0.0078107607038030279 0 0.00038681560417497908 0.0073385824794941412 0 -0.000151142850446528 0.0074000189334585001 0 9.0091888789796225e-05 0.0078107607038030279 0 -0.00024119869511322621 0.0079400524114293953 0 0.00056650345441228004 0.0079694233934472641 0 0.0011315595771259322 0.0079668167682403843 0 0.0011138198699933014 0.0072476984900856078 0 0.00038681560417497908 0.0073385824794941412 0 0.00056650345441228004 0.0079694233934472641 0 0.0011138198699933014 0.0072476984900856078 0 9.0091888789796225e-05 0.0078107607038030279 0 0.00038681560417497908 0.0073385824794941412 0 0.00056650345441228004 0.0079694233934472641 0 0.0019832767444898014 0.0069596420243767986 0 0.0011138198699933014 0.0072476984900856078 0 0.001755990179032466 0.0079948735187967464 0 0.0011315595771259322 0.0079668167682403843 0 0.0011138198699933014 0.0072476984900856078 0 0.001755990179032466 0.0079948735187967464 0 0.0027410552701341404 0.0075669524973970914 0 0.0019832767444898014 0.0069596420243767986 0 0.001755990179032466 0.0079948735187967464 0 0.0010079310229835596 0.0065204277463119789 0 0.0015029275890527769 0.0063698249625801957 0 0.0011138198699933014 0.0072476984900856078 0 0.0015029275890527769 0.0063698249625801957 0 0.0019832767444898014 0.0069596420243767986 0 0.0011138198699933014 0.0072476984900856078 0 0.0015643832794779422 0.0088919783159372955 0 0.0010781127829479408 0.0085207119401634734 0 0.00096287368421108053 0.0091140368620940045 0 0.0015643832794779422 0.0088919783159372955 0 0.00096287368421108053 0.0091140368620940045 0 0.001297231824559843 0.0096029101885156572 0 0.0015643832794779422 0.0088919783159372955 0 0.0019336700027617426 0.0093781772749611109 0 0.001297231824559843 0.0096029101885156572 0 0.0023750032715955643 0.0086435337529849401 0 0.0023816039727086631 0.0099547463122862234 0 0.0019336700027617426 0.0093781772749611109 0 0.0023750032715955643 0.0086435337529849401 0 0.0015643832794779422 0.0088919783159372955 0 0.0019336700027617426 0.0093781772749611109 0 0.0023750032715955643 0.0086435337529849401 0 0.0015643832794779422 0.0088919783159372955 0 0.001755990179032466 0.0079948735187967464 0 0.0027410552701341404 0.0075669524973970914 0 0.0023750032715955643 0.0086435337529849401 0 0.001755990179032466 0.0079948735187967464 0 0.0015643832794779422 0.0088919783159372955 0 0.001755990179032466 0.0079948735187967464 0 0.0010781127829479408 0.0085207119401634734 0 0.0011315595771259322 0.0079668167682403843 0 0.001755990179032466 0.0079948735187967464 0 0.0010781127829479408 0.0085207119401634734 0 0.00056650345441228004 0.0079694233934472641 0 0.0011315595771259322 0.0079668167682403843 0 0.0010781127829479408 0.0085207119401634734 0 0.00056650345441228004 0.0079694233934472641 0 0.0010781127829479408 0.0085207119401634734 0 0.00056494277573929217 0.0087440720725956347 0 0.00056650345441228004 0.0079694233934472641 0 -0.00011099778867483497 0.0084076074460057281 0 0.00056494277573929217 0.0087440720725956347 0 -0.00024119869511322621 0.0079400524114293953 0 -0.00011099778867483497 0.0084076074460057281 0 -0.00078559994361525852 0.0082025919359386291 0 9.0091888789796225e-05 0.0078107607038030279 0 0.00056650345441228004 0.0079694233934472641 0 -0.00011099778867483497 0.0084076074460057281 0 9.0091888789796225e-05 0.0078107607038030279 0 -0.00024119869511322621 0.0079400524114293953 0 -0.00011099778867483497 0.0084076074460057281 0 0.00056494277573929217 0.0087440720725956347 0 0.00096287368421108053 0.0091140368620940045 0 0.00034393233674619394 0.0096054593645691511 0 -0.00011099778867483497 0.0084076074460057281 0 0.00056494277573929217 0.0087440720725956347 0 0.00034393233674619394 0.0096054593645691511 0 0.0010781127829479408 0.0085207119401634734 0 0.00056494277573929217 0.0087440720725956347 0 0.00096287368421108053 0.0091140368620940045 0 0.00034393233674619394 0.0096054593645691511 0 -0.00041991906915204221 0.010317559431280014 0 0.0010579954115730586 0.010646855817139931 0 0.00096287368421108053 0.0091140368620940045 0 0.00034393233674619394 0.0096054593645691511 0 0.001297231824559843 0.0096029101885156572 0 -0.00011099778867483497 0.0084076074460057281 0 0.00034393233674619394 0.0096054593645691511 0 -0.00041991906915204221 0.010317559431280014 0 0.00034393233674619394 0.0096054593645691511 0 0.0010579954115730586 0.010646855817139931 0 0.001297231824559843 0.0096029101885156572 0 -0.00041991906915204221 0.010317559431280014 0 0.0010579954115730586 0.010646855817139931 0 -0.00025070202941121386 0.011338426889887039 0 0.0010579954115730586 0.010646855817139931 0 0.0016673930071142975 0.0098960181826492095 0 0.001297231824559843 0.0096029101885156572 0 0.0019336700027617426 0.0093781772749611109 0 0.0016673930071142975 0.0098960181826492095 0 0.001297231824559843 0.0096029101885156572 0 0.0023816039727086631 0.0099547463122862234 0 0.0019336700027617426 0.0093781772749611109 0 0.0016673930071142975 0.0098960181826492095 0 0.00024380227483490098 0.006431293352139063 0 -4.1227969428016489e-05 0.0077214191742923091 0 0.0022999477601353393 0.010711433783204289 0 0.0022994766337396766 0.0099813341506290818 0 0.0010195987591419666 0.010657308967693933 0 0.0023816039727086631 0.0099547463122862234 0 0.0010579954115730586 0.010646855817139931 0 0.0016673930071142975 0.0098960181826492095 0 9.094962699240816e-05 0.0062715788404486801 0 -0.00087889714219877815 0.0091942679488267297 0 0.0011217518129480939 0.011379446571880163 0 0.00062346043573279625 0.012205169224272094 0 -0.00023694793963219317 0.012094632260154057 0 0.0022999477601353393 0.010711433783204289 0 0.0010195987591419666 0.010657308967693933 0 0.00035791351094700976 0.011734110111886985 0 0.0011217518129480939 0.011379446571880163 0 0.0011146545459954455 0.013009228068645124 0 0.00062346043573279625 0.012205169224272094 0 0.00062346043573279625 0.012205169224272094 0 0.00010521217720634157 0.012746971440476698 0 -0.00023694793963219317 0.012094632260154057 0 0.0011146545459954455 0.013009228068645124 0 0.00062346043573279625 0.012205169224272094 0 0.00010521217720634157 0.012746971440476698 0 0.0011146545459954455 0.013009228068645124 0 0.00010521217720634157 0.012746971440476698 0 -0.00035356924218079704 0.013550536338100791 0 -0.00064775070804333501 0.012922061128533724 0 -0.0010607352262968176 0.013478494474980916 0 -0.00035356924218079704 0.013550536338100791 0 -0.00064775070804333501 0.012922061128533724 0 0.00010521217720634157 0.012746971440476698 0 -0.00035356924218079704 0.013550536338100791 0 -0.00064775070804333501 0.012922061128533724 0 0.00010521217720634157 0.012746971440476698 0 -0.00023694793963219317 0.012094632260154057 0 0.00035791351094700976 0.011734110111886985 0 -0.00025070202941121386 0.011338426889887039 0 -0.00092064797192528941 0.011775270507245847 0 -4.1227969428016489e-05 0.0077214191742923091 0 -0.00030275011866178186 0.008211667438094216 0 0.0010195987591419666 0.010657308967693933 0 0.00035791351094700976 0.011734110111886985 0 -0.00025070202941121386 0.011338426889887039 0 -0.00041991906915204221 0.010317559431280014 0 -0.00025070202941121386 0.011338426889887039 0 -0.0010215676378579918 0.011077627513634447 0 -0.0010215676378579918 0.011077627513634447 0 -0.0020506595597868647 0.012124539876025223 0 -0.001415120313415692 0.010046326353260868 0 -0.00025070202941121386 0.011338426889887039 0 -0.0010215676378579918 0.011077627513634447 0 -0.00092064797192528941 0.011775270507245847 0 0.00035791351094700976 0.011734110111886985 0 -0.00092064797192528941 0.011775270507245847 0 -0.0015723503906857354 0.01272251762971782 0 -0.001708189773166439 0.010749910617322628 0 -0.0013777654906462732 0.0097570417288547016 0 -0.0010215676378579918 0.011077627513634447 0 -0.00092064797192528941 0.011775270507245847 0 -0.0020506595597868647 0.012124539876025223 0 -0.00092064797192528941 0.011775270507245847 0 -0.0015723503906857354 0.01272251762971782 0 -0.0020506595597868647 0.012124539876025223 0 -0.00087889714219877815 0.0091942679488267297 0 -0.0014735895682241201 0.010181566782427574 0 -0.00064775070804333501 0.012922061128533724 0 -0.00023694793963219317 0.012094632260154057 0 -0.0015723503906857354 0.01272251762971782 0 -0.00064775070804333501 0.012922061128533724 0 -0.0015723503906857354 0.01272251762971782 0 -0.0010607352262968176 0.013478494474980916 0 -0.0023709966732514201 0.012988389084052455 0 -0.0025032132766706059 0.01185822680413562 0 -0.0034784834713088141 0.013119585811721651 0 -0.0015723503906857354 0.01272251762971782 0 -0.0023709966732514201 0.012988389084052455 0 -0.00173448982770632 0.013932828232398673 0 -0.0023709966732514201 0.012988389084052455 0 -0.0025032132766706059 0.01185822680413562 0 -0.0020506595597868647 0.012124539876025223 0 -0.0015723503906857354 0.01272251762971782 0 -0.0023709966732514201 0.012988389084052455 0 -0.0020506595597868647 0.012124539876025223 0 -0.0022821887719352632 0.01118401554010112 0 -0.0013777654906462732 0.0097570417288547016 0 -0.0025032132766706059 0.01185822680413562 0 -0.0020506595597868647 0.012124539876025223 0 -0.0015015512235881151 0.010650267046227388 0 -0.0017476012971217355 0.010782722793366353 0 -0.0018937035817588811 0.0087665058833585573 0 -0.00048775417606878853 0.009225005709351048 0 -0.00011099778867483497 0.0084076074460057281 0 -0.00041991906915204221 0.010317559431280014 0 -0.001415120313415692 0.010046326353260868 0 -0.00041991906915204221 0.010317559431280014 0 -0.0010215676378579918 0.011077627513634447 0 -0.001415120313415692 0.010046326353260868 0 -0.00095598581792255685 0.0092850928157632174 0 -0.0013777654906462732 0.0097570417288547016 0 -0.00011099778867483497 0.0084076074460057281 0 -0.0014594887419417163 0.010029989656187599 0 -0.00078559994361525852 0.0082025919359386291 0 -0.000590787658826779 0.007371602360887102 0 -0.00048775417606878853 0.009225005709351048 0 9.9117233592348067e-05 0.0075963230827977403 0 -0.0013777654906462732 0.0097570417288547016 0 -0.00098520061832328113 0.0077510702452427823 0 -0.00024315301191043371 0.0066964655365734658 0 -0.00183696745123379 0.0083756312258687141 0 -0.0017184064892767331 0.0069613032824293103 0 -0.0010923889701053139 0.0068658834516591898 0 -0.0020962304860063568 0.0083602547793146225 0 -0.000590787658826779 0.007371602360887102 0 -0.0018937035817588811 0.0087665058833585573 0 -0.00048775417606878853 0.009225005709351048 0 -0.00183696745123379 0.0083756312258687141 0 -0.0017184064892767331 0.0069613032824293103 0 -0.002590870772308487 0.0074737225303702498 0 -0.0025906986906701025 0.0062097080940222097 0 -0.002590870772308487 0.0074737225303702498 0 -0.0044677871754832598 0.006785346630481204 0 -0.00183696745123379 0.0083756312258687141 0 -0.002590870772308487 0.0074737225303702498 0 -0.0036260676485108901 0.0080089280842833444 0 -0.002590870772308487 0.0074737225303702498 0 -0.0044677871754832598 0.006785346630481204 0 -0.0036260676485108901 0.0080089280842833444 0 -0.0025906986906701025 0.0062097080940222097 0 -0.0017184064892767331 0.0069613032824293103 0 -0.002590870772308487 0.0074737225303702498 0 -0.0044677871754832598 0.006785346630481204 0 -0.0036260676485108901 0.0080089280842833444 0 -0.0050370984586088014 0.0086145490184763619 0 -0.0050370984586088014 0.0086145490184763619 0 -0.0033117417604297309 0.0099994526645959553 0 -0.0054741603732767615 0.010219993322473255 0 -0.0036260676485108901 0.0080089280842833444 0 -0.0050370984586088014 0.0086145490184763619 0 -0.0033117417604297309 0.0099994526645959553 0 -0.0017476012971217355 0.010782722793366353 0 -0.0018937035817588811 0.0087665058833585573 0 -0.0032467309830255275 0.010192920138383811 0 -0.00183696745123379 0.0083756312258687141 0 -0.0036260676485108901 0.0080089280842833444 0 -0.0033117417604297309 0.0099994526645959553 0 -0.0020962304860063568 0.0083602547793146225 0 -0.0032185982511425404 0.0097603488534147229 0 -0.0017476012971217355 0.010782722793366353 0 -0.003174035184524901 0.011272692482306328 0 -0.0032467309830255275 0.010192920138383811 0 -0.0022821887719352632 0.01118401554010112 0 -0.0032350887062559306 0.012496656347949272 0 -0.0017476012971217355 0.010782722793366353 0 -0.003174035184524901 0.011272692482306328 0 -0.0030522001179623809 0.012453747226589564 0 -0.0030522001179623809 0.012453747226589564 0 -0.0046993435262573154 0.011671174438520213 0 -0.0051992974157653044 0.01298881250602575 0 -0.003174035184524901 0.011272692482306328 0 -0.0030522001179623809 0.012453747226589564 0 -0.0046993435262573154 0.011671174438520213 0 -0.0033117417604297309 0.0099994526645959553 0 -0.0046993435262573154 0.011671174438520213 0 -0.0054741603732767615 0.010219993322473255 0 -0.0032185982511425404 0.0097603488534147229 0 -0.0038525290399044946 0.010501328362669636 0 -0.003174035184524901 0.011272692482306328 0 -0.0032467309830255275 0.010192920138383811 0 -0.0046993435262573154 0.011671174438520213 0 -0.0054741603732767615 0.010219993322473255 0 -0.0061971161646461013 0.012009761173138544 0 -0.0073066680660887695 0.010592919855227293 0 -0.0046993435262573154 0.011671174438520213 0 -0.0061971161646461013 0.012009761173138544 0 -0.0051992974157653044 0.01298881250602575 0 -0.0046993435262573154 0.011671174438520213 0 -0.0054741603732767615 0.010219993322473255 0 -0.0061971161646461013 0.012009761173138544 0 -0.0080375856729262996 0.012705434971885246 0 -0.0061971161646461013 0.012009761173138544 0 -0.0073066680660887695 0.010592919855227293 0 -0.0054741603732767615 0.010219993322473255 0 -0.0073066680660887695 0.010592919855227293 0 -0.0066030315678589279 0.0089450712297829589 0 -0.0081591101026890853 0.0089867417373359106 0 -0.0066030315678589279 0.0089450712297829589 0 -0.0073888440749873751 0.0076583611595910815 0 -0.0081591101026890853 0.0089867417373359106 0 -0.0073066680660887695 0.010592919855227293 0 -0.0066030315678589279 0.0089450712297829589 0 -0.0050370984586088014 0.0086145490184763619 0 -0.0066030315678589279 0.0089450712297829589 0 -0.0060302409418097605 0.0076635076726545934 0 -0.0050370984586088014 0.0086145490184763619 0 -0.0054741603732767615 0.010219993322473255 0 -0.0066030315678589279 0.0089450712297829589 0 -0.0063349015402040841 0.0063216216300508955 0 -0.0044677871754832598 0.006785346630481204 0 -0.0060302409418097605 0.0076635076726545934 0 -0.0044677871754832598 0.006785346630481204 0 -0.0050370984586088014 0.0086145490184763619 0 -0.0060302409418097605 0.0076635076726545934 0 -0.0075820992682773519 0.0063014588623826273 0 -0.0063349015402040841 0.0063216216300508955 0 -0.0073888440749873751 0.0076583611595910815 0 -0.0063349015402040841 0.0063216216300508955 0 -0.0060302409418097605 0.0076635076726545934 0 -0.0073888440749873751 0.0076583611595910815 0 -0.0085820174183760048 0.0074445836881346459 0 -0.0075820992682773519 0.0063014588623826273 0 -0.0073888440749873751 0.0076583611595910815 0 -0.0066030315678589279 0.0089450712297829589 0 -0.0060302409418097605 0.0076635076726545934 0 -0.0073888440749873751 0.0076583611595910815 0 -0.0062361144504034178 0.020168976525948724 0 -0.0040659600143190637 0.018581311332880983 0 -0.0063898545962327215 0.017655062920559444 0 -0.0062361144504034178 0.020168976525948724 0 -0.0040659600143190637 0.018581311332880983 0 -0.0036803366574921018 0.020557016035176033 0 -0.0040659600143190637 0.018581311332880983 0 -0.0015176978253275126 0.017594732324022238 0 -0.0025494006407711369 0.019423593288641981 0 -0.0040659600143190637 0.018581311332880983 0 -0.0025494006407711369 0.019423593288641981 0 -0.0036803366574921018 0.020557016035176033 0 -0.0025494006407711369 0.019423593288641981 0 -0.0023090284434230789 0.02061749774214083 0 -0.0036803366574921018 0.020557016035176033 0 -0.004918438153361987 0.015975365073233598 0 -0.0030404271659215279 0.016650592830912619 0 -0.0040659600143190637 0.018581311332880983 0 -0.0042097685510543168 0.016316120589699872 0 -0.0015176978253275126 0.017594732324022238 0 -0.0077244849295857523 0.014998428643262632 0 -0.0063898545962327215 0.017655062920559444 0 -0.0042097685510543168 0.016316120589699872 0 -0.0040659600143190637 0.018581311332880983 0 -0.0063898545962327215 0.017655062920559444 0 -0.0042097685510543168 0.016316120589699872 0 -0.0077244849295857523 0.014998428643262632 0 -0.0063748246144779506 0.013800825064110447 0 -0.0059140568125101113 0.015451832605264436 0 -0.0060244053148724537 0.015581588646069934 0 -0.004918438153361987 0.015975365073233598 0 -0.0080375856729262996 0.012705434971885246 0 -0.0061971161646461013 0.012009761173138544 0 -0.0063748246144779506 0.013800825064110447 0 -0.0080375856729262996 0.012705434971885246 0 -0.0077244849295857523 0.014998428643262632 0 -0.0063748246144779506 0.013800825064110447 0 -0.0061971161646461013 0.012009761173138544 0 -0.0063748246144779506 0.013800825064110447 0 -0.0051992974157653044 0.01298881250602575 0 -0.0063748246144779506 0.013800825064110447 0 -0.0051992974157653044 0.01298881250602575 0 -0.0044957478593804943 0.014240753911119534 0 -0.0063748246144779506 0.013800825064110447 0 -0.0059140568125101113 0.015451832605264436 0 -0.0044957478593804943 0.014240753911119534 0 -0.0044957478593804943 0.014240753911119534 0 -0.0032734237235417609 0.015174084323710724 0 -0.00419230550542326 0.015945596091925796 0 -0.0059140568125101113 0.015451832605264436 0 -0.0044957478593804943 0.014240753911119534 0 -0.00419230550542326 0.015945596091925796 0 -0.0032350887062559306 0.012496656347949272 0 -0.0037811793906583446 0.013201048353691748 0 -0.0030522001179623809 0.012453747226589564 0 -0.0051992974157653044 0.01298881250602575 0 -0.0044957478593804943 0.014240753911119534 0 -0.0023709966732514201 0.012988389084052455 0 -0.0034784834713088141 0.013119585811721651 0 -0.0028633477752396412 0.014091398462237959 0 -0.0034784834713088141 0.013119585811721651 0 -0.0044957478593804943 0.014240753911119534 0 -0.0028633477752396412 0.014091398462237959 0 -0.0028633477752396412 0.014091398462237959 0 -0.0032734237235417609 0.015174084323710724 0 -0.0021993361529108919 0.015151629574134363 0 -0.0044957478593804943 0.014240753911119534 0 -0.0028633477752396412 0.014091398462237959 0 -0.0032734237235417609 0.015174084323710724 0 -0.0030404271659215279 0.016650592830912619 0 -0.0013681875150686109 0.017230342121370357 0 -0.0032734237235417609 0.015174084323710724 0 -0.00419230550542326 0.015945596091925796 0 -0.0026778381342647309 0.016438711179728442 0 -0.0015176978253275126 0.017594732324022238 0 -0.0025494006407711369 0.019423593288641981 0 -0.0012298055950594263 0.019693653216839409 0 -0.0025494006407711369 0.019423593288641981 0 -0.0012298055950594263 0.019693653216839409 0 -0.0023090284434230789 0.02061749774214083 0 -0.0013681875150686109 0.017230342121370357 0 -0.0013424118907028953 0.019119208516981873 0 -0.0015176978253275126 0.017594732324022238 0 -0.0012298055950594263 0.019693653216839409 0 0.00089408894391839085 0.018610471537238854 0 -0.0012298055950594263 0.019693653216839409 0 0.00089408894391839085 0.018610471537238854 0 -0.00033006179231440992 0.021200014360867523 0 5.3525022451053684e-05 0.016776858486415799 0 0.00039181647486899343 0.017592441650217599 0 -0.00082742592244094526 0.018242099209483224 0 -0.0013681875150686109 0.017230342121370357 0 -0.00087532547519497358 0.017197327105608475 0 5.3525022451053684e-05 0.016776858486415799 0 0.00036879058919740053 0.01727688760574432 0 0.00039181647486899343 0.017592441650217599 0 0.00036879058919740053 0.01727688760574432 0 -0.00010279804729524154 0.016977707892257343 0 0.00015047561149824986 0.017102519138109045 0 -0.00087532547519497358 0.017197327105608475 0 -0.00063063124702988644 0.017218437304895994 0 -0.0013878256121194392 0.016655906116408097 0 -0.00126290214365943 0.015671384827087249 0 -0.00032412272494819743 0.016175589108634977 0 -0.0025602554985594567 0.016255124814191408 0 -0.0013878256121194392 0.016655906116408097 0 -0.00126290214365943 0.015671384827087249 0 -0.0032734237235417609 0.015174084323710724 0 -0.0026778381342647309 0.016438711179728442 0 -0.0021993361529108919 0.015151629574134363 0 -0.0013681875150686109 0.017230342121370357 0 -0.0013754182618764298 0.015873700949057011 0 -0.0025602554985594567 0.016255124814191408 0 -0.00126290214365943 0.015671384827087249 0 -0.0021302932970019297 0.015111494060891418 0 -0.0028633477752396412 0.014091398462237959 0 -0.0021993361529108919 0.015151629574134363 0 -0.00173448982770632 0.013932828232398673 0 -0.0013754182618764298 0.015873700949057011 0 -0.0013050453259451696 0.015278724536190638 0 -0.0023709966732514201 0.012988389084052455 0 -0.0028633477752396412 0.014091398462237959 0 -0.00173448982770632 0.013932828232398673 0 -0.0015723503906857354 0.01272251762971782 0 -0.00173448982770632 0.013932828232398673 0 -0.0010607352262968176 0.013478494474980916 0 -0.00173448982770632 0.013932828232398673 0 -0.0010607352262968176 0.013478494474980916 0 -0.0008960398385983874 0.014462020152403972 0 -0.0021302932970019297 0.015111494060891418 0 -0.00173448982770632 0.013932828232398673 0 -0.0008960398385983874 0.014462020152403972 0 -0.00126290214365943 0.015671384827087249 0 -0.0008960398385983874 0.014462020152403972 0 -0.00010313949439206794 0.015334336789554873 0 -0.00126290214365943 0.015671384827087249 0 -0.0021302932970019297 0.015111494060891418 0 -0.0008960398385983874 0.014462020152403972 0 -0.0008960398385983874 0.014462020152403972 0 0.00012056754880158347 0.014442175825606552 0 -0.00010313949439206794 0.015334336789554873 0 -0.0008960398385983874 0.014462020152403972 0 0.00012056754880158347 0.014442175825606552 0 -0.00035356924218079704 0.013550536338100791 0 -0.0010607352262968176 0.013478494474980916 0 -0.0008960398385983874 0.014462020152403972 0 -0.00035356924218079704 0.013550536338100791 0 0.0011146545459954455 0.013009228068645124 0 0.00012056754880158347 0.014442175825606552 0 -0.00035356924218079704 0.013550536338100791 0 0.0011146545459954455 0.013009228068645124 0 0.00012056754880158347 0.014442175825606552 0 0.0010393053422953914 0.014674638402092701 0 0.00012056754880158347 0.014442175825606552 0 -0.00010313949439206794 0.015334336789554873 0 0.0010393053422953914 0.014674638402092701 0 -0.00010313949439206794 0.015334336789554873 0 0.0010393053422953914 0.014674638402092701 0 0.00074756832275563677 0.01626987055416616 0 -0.00010313949439206794 0.015334336789554873 0 -0.00032412272494819743 0.016175589108634977 0 0.00074756832275563677 0.01626987055416616 0 -0.00126290214365943 0.015671384827087249 0 -0.00010313949439206794 0.015334336789554873 0 -0.00032412272494819743 0.016175589108634977 0 -0.00032412272494819743 0.016175589108634977 0 -0.00010279804729524154 0.016977707892257343 0 0.00074756832275563677 0.01626987055416616 0 -0.0013878256121194392 0.016655906116408097 0 -0.00032412272494819743 0.016175589108634977 0 -0.00010279804729524154 0.016977707892257343 0 -0.00010279804729524154 0.016977707892257343 0 0.00074756832275563677 0.01626987055416616 0 0.00017915483906896066 0.017011142504523721 0 -0.00010279804729524154 0.016977707892257343 0 7.361083554294082e-05 0.016969751292630987 0 0.00017915483906896066 0.017011142504523721 0 -0.00010279804729524154 0.016977707892257343 0 7.361083554294082e-05 0.016969751292630987 0 0.00015047561149824986 0.017102519138109045 0 7.361083554294082e-05 0.016969751292630987 0 0.0001906220970935556 0.016869581021411902 0 0.00015047561149824986 0.017102519138109045 0 7.361083554294082e-05 0.016969751292630987 0 0.00033679107140582442 0.016425323019056807 0 0.0001906220970935556 0.016869581021411902 0 7.361083554294082e-05 0.016969751292630987 0 0.00017915483906896066 0.017011142504523721 0 -0.00034484219844353368 0.016608862801181901 0 0.00015946855015533493 0.015545459969443098 0 0.00033679107140582442 0.016425323019056807 0 -0.00034484219844353368 0.016608862801181901 0 7.361083554294082e-05 0.016969751292630987 0 0.00033679107140582442 0.016425323019056807 0 -0.00034484219844353368 0.016608862801181901 0 0.00015946855015533493 0.015545459969443098 0 1.0964772857380082e-06 0.01575844478083999 0 -1.9361113350079114e-06 0.013751387426112142 0 0.00015946855015533493 0.015545459969443098 0 -0.00034484219844353368 0.016608862801181901 0 -1.9361113350079114e-06 0.013751387426112142 0 1.0964772857380082e-06 0.01575844478083999 0 0.00033679107140582442 0.016425323019056807 0 2.1604531751509075e-07 0.017761586658611068 0 0.00015946855015533493 0.015545459969443098 0 1.0964772857380082e-06 0.01575844478083999 0 0.00033679107140582442 0.016425323019056807 0 0.00033679107140582442 0.016425323019056807 0 8.5146330083651277e-05 0.016825074621546348 0 0.0001906220970935556 0.016869581021411902 0 8.5146330083651277e-05 0.016825074621546348 0 2.1604531751509075e-07 0.017761586658611068 0 -2.4794067018562497e-05 0.017048489484890586 0 -1.2087162342884387e-07 0.017770076460884372 0 5.4798680365065826e-05 0.019377964065863926 0 0.00033679107140582442 0.016425323019056807 0 8.5146330083651277e-05 0.016825074621546348 0 2.1604531751509075e-07 0.017761586658611068 0 -1.168859709965402e-06 0.017768308745009471 0 1.1699660473118981e-06 0.020481844289566051 0 6.7740318478038617e-05 0.020692043913501559 0 1.1699660473118981e-06 0.020481844289566051 0 6.7740318478038617e-05 0.020692043913501559 0 8.4252660564845125e-05 0.021233426766211174 0 8.5146330083651277e-05 0.016825074621546348 0 -2.4794067018562497e-05 0.017048489484890586 0 0.00015068004869907715 0.016934236482558675 0 8.5146330083651277e-05 0.016825074621546348 0 0.00015068004869907715 0.016934236482558675 0 0.00020056951448832425 0.017008479861061711 0 0.00015068004869907715 0.016934236482558675 0 0.00020056951448832425 0.017008479861061711 0 0.00033613472520193299 0.017041514590475385 0 8.5146330083651277e-05 0.016825074621546348 0 0.00020056951448832425 0.017008479861061711 0 0.0001906220970935556 0.016869581021411902 0 0.00020056951448832425 0.017008479861061711 0 0.0001906220970935556 0.016869581021411902 0 0.00015047561149824986 0.017102519138109045 0 0.00036879058919740053 0.01727688760574432 0 0.00015047561149824986 0.017102519138109045 0 0.00039181647486899343 0.017592441650217599 0 0.00020056951448832425 0.017008479861061711 0 0.00015047561149824986 0.017102519138109045 0 0.00039181647486899343 0.017592441650217599 0 0.00020056951448832425 0.017008479861061711 0 0.00039181647486899343 0.017592441650217599 0 0.00033613472520193299 0.017041514590475385 0 0.00034094969179282664 0.0193015712832517 0 0.0001920743096439404 0.019806637384442931 0 0.00039181647486899343 0.017592441650217599 0 -0.00082742592244094526 0.018242099209483224 0 0.00021064564750033148 0.020767768736010259 0 -0.0012298055950594263 0.019693653216839409 0 -0.00033006179231440992 0.021200014360867523 0 -0.0014079849843710609 0.021007184746494392 0 -0.0012298055950594263 0.019693653216839409 0 -0.0014079849843710609 0.021007184746494392 0 -0.0023090284434230789 0.02061749774214083 0 -0.0014079849843710609 0.021007184746494392 0 -0.0023090284434230789 0.02061749774214083 0 -0.0019817454213092618 0.021650709867563685 0 -0.0019817454213092618 0.021650709867563685 0 -0.0023602142766654577 0.022382864903744863 0 -0.0028210238247864581 0.021742086808175031 0 -0.0023090284434230789 0.02061749774214083 0 -0.0019817454213092618 0.021650709867563685 0 -0.0028210238247864581 0.021742086808175031 0 -0.00033006179231440992 0.021200014360867523 0 -0.0014079849843710609 0.021007184746494392 0 -0.001424255002543476 0.021793029152271576 0 -0.0014079849843710609 0.021007184746494392 0 -0.0019817454213092618 0.021650709867563685 0 -0.001424255002543476 0.021793029152271576 0 -0.001424255002543476 0.021793029152271576 0 -0.0018853552352520141 0.022246615276571003 0 -0.0016216882884810813 0.022580912829509248 0 -0.0019817454213092618 0.021650709867563685 0 -0.001424255002543476 0.021793029152271576 0 -0.0018853552352520141 0.022246615276571003 0 -0.0019817454213092618 0.021650709867563685 0 -0.0018853552352520141 0.022246615276571003 0 -0.0023602142766654577 0.022382864903744863 0 -0.0018853552352520141 0.022246615276571003 0 -0.0023602142766654577 0.022382864903744863 0 -0.002218138802914704 0.022646825338854603 0 -0.0018853552352520141 0.022246615276571003 0 -0.002218138802914704 0.022646825338854603 0 -0.0016216882884810813 0.022580912829509248 0 -0.00082742592244094526 0.018242099209483224 0 -0.0016216882884810813 0.022580912829509248 0 0.00021064564750033148 0.020767768736010259 0 -0.00033006179231440992 0.021200014360867523 0 -0.001424255002543476 0.021793029152271576 0 -0.0016216882884810813 0.022580912829509248 0 0.0001920743096439404 0.019806637384442931 0 -0.0001909622455051901 0.021085395889242693 0 -0.0013424118907028953 0.019119208516981873 0 -0.0015651143462339261 0.020236574960448908 0 -0.0016216882884810813 0.022580912829509248 0 0.00021064564750033148 0.020767768736010259 0 -0.0010289024244679438 0.023587785122342921 0 0.00015068004869907715 0.016934236482558675 0 0.00033613472520193299 0.017041514590475385 0 0.00021660032464826572 0.016927826482953153 0 -2.4794067018562497e-05 0.017048489484890586 0 0.00015068004869907715 0.016934236482558675 0 0.00021660032464826572 0.016927826482953153 0 5.4798680365065826e-05 0.019377964065863926 0 -0.0001909622455051901 0.021085395889242693 0 -8.155625083877788e-05 0.020784213351594902 0 8.4252660564845125e-05 0.021233426766211174 0 -1.1675885903293619e-06 0.02319062791264365 0 6.7740318478038617e-05 0.020692043913501559 0 -8.155625083877788e-05 0.020784213351594902 0 8.4252660564845125e-05 0.021233426766211174 0 1.1699660473118981e-06 0.020481844289566051 0 8.4252660564845125e-05 0.021233426766211174 0 -1.1675885903293619e-06 0.02319062791264365 0 -4.1862794723193925e-06 0.023201342379797214 0 -0.00069076364244976358 0.025892544447899072 0 -0.001105966855118691 0.02711758072673293 0 -0.0001909622455051901 0.021085395889242693 0 -1.3676419074727999e-06 0.02319274617449717 0 -0.001818898614153928 0.026257552217168745 0 -4.1862794723193925e-06 0.023201342379797214 0 -0.00069076364244976358 0.025892544447899072 0 -0.00032295176634341709 0.025856979859097851 0 -0.001818898614153928 0.026257552217168745 0 -0.00069076364244976358 0.025892544447899072 0 -0.00084066921457421457 0.021739062640069827 0 -0.0001909622455051901 0.021085395889242693 0 -0.002218138802914704 0.022646825338854603 0 -0.0016216882884810813 0.022580912829509248 0 -0.0010289024244679438 0.023587785122342921 0 -0.00032295176634341709 0.025856979859097851 0 -0.00069076364244976358 0.025892544447899072 0 -0.001105966855118691 0.02711758072673293 0 -0.00032295176634341709 0.025856979859097851 0 -0.001105966855118691 0.02711758072673293 0 -0.0020548376179663451 0.02486400078190933 0 -0.001105966855118691 0.02711758072673293 0 -0.00035928981473101903 0.028818388502234196 0 -0.001002313397965566 0.030741960321128907 0 -4.1862794723193925e-06 0.023201342379797214 0 -0.001105966855118691 0.02711758072673293 0 -0.00030841305450554158 0.027317159839796636 0 -4.1862794723193925e-06 0.023201342379797214 0 4.2910275418467074e-07 0.026416618424478622 0 -0.00030841305450554158 0.027317159839796636 0 0.00017145528404805441 0.029269535490619947 0 4.2910275418467074e-07 0.026416618424478622 0 -0.00030841305450554158 0.027317159839796636 0 0.00017145528404805441 0.029269535490619947 0 -0.00035928981473101903 0.028818388502234196 0 -7.9591640819250722e-05 0.030292359628196316 0 0.00017145528404805441 0.029269535490619947 0 -0.00030841305450554158 0.027317159839796636 0 -0.00035928981473101903 0.028818388502234196 0 -0.001105966855118691 0.02711758072673293 0 -0.00030841305450554158 0.027317159839796636 0 -0.00035928981473101903 0.028818388502234196 0 -0.00035928981473101903 0.028818388502234196 0 -7.9591640819250722e-05 0.030292359628196316 0 -0.001002313397965566 0.030741960321128907 0 -7.9591640819250722e-05 0.030292359628196316 0 -0.001002313397965566 0.030741960321128907 0 -0.00029200425659571061 0.031227258796431207 0 -0.001105966855118691 0.02711758072673293 0 -0.0045768884134381278 0.022886945458048487 0 -0.0020548376179663451 0.02486400078190933 0 -0.0027472369765653378 0.027304965867173132 0 -0.0031973059094304659 0.02700680348513743 0 -0.00084066921457421457 0.021739062640069827 0 -0.0013182158330876249 0.021753360646542513 0 -0.0023602142766654577 0.022382864903744863 0 -0.002218138802914704 0.022646825338854603 0 -0.003004666345357856 0.023054623129218119 0 -0.00032295176634341709 0.025856979859097851 0 -0.0020548376179663451 0.02486400078190933 0 -0.003004666345357856 0.023054623129218119 0 -0.0023602142766654577 0.022382864903744863 0 -0.003004666345357856 0.023054623129218119 0 -0.0028210238247864581 0.021742086808175031 0 -0.0045768884134381278 0.022886945458048487 0 -0.0020548376179663451 0.02486400078190933 0 -0.003004666345357856 0.023054623129218119 0 -0.0045768884134381278 0.022886945458048487 0 -0.003004666345357856 0.023054623129218119 0 -0.0040959512109443683 0.021630809214606736 0 -0.003004666345357856 0.023054623129218119 0 -0.0040959512109443683 0.021630809214606736 0 -0.0028210238247864581 0.021742086808175031 0 -0.0040959512109443683 0.021630809214606736 0 -0.0028210238247864581 0.021742086808175031 0 -0.0036803366574921018 0.020557016035176033 0 -0.0023090284434230789 0.02061749774214083 0 -0.0028210238247864581 0.021742086808175031 0 -0.0036803366574921018 0.020557016035176033 0 -0.0062361144504034178 0.020168976525948724 0 -0.0040959512109443683 0.021630809214606736 0 -0.0036803366574921018 0.020557016035176033 0 -0.00025757042411876912 0.03217423802005933 0 -0.001002313397965566 0.030741960321128907 0 -0.00029200425659571061 0.031227258796431207 0 -0.0062361144504034178 0.020168976525948724 0 -0.0045768884134381278 0.022886945458048487 0 -0.0040959512109443683 0.021630809214606736 0 -0.0040457607277957844 0.026623846992864856 0 -0.0031973059094304659 0.02700680348513743 0 0.0055121914147317807 0.0010637811798828148 0 0.0053688864694706444 0.00034294872922454136 0 0.0054303370939676066 0.0019831439779315796 0 0.0055121914147317807 0.0010637811798828148 0 0.0057034025826224379 0.00040145584866999425 0 0.0055193587771462625 0.00190477129564559 0 0.0042474537097672007 0.0036019375375991344 0 0.0047795307259820875 0.0032174838126135495 0 0.003788293026501216 0.005595533484526456 0 0.0037024009727993296 0.0067093878386959033 0 0.0048102792905509503 0.004888305413246757 0 0.0032980796745636608 0.0061617292369016132 0 0.003788293026501216 0.005595533484526456 0 0.0037024009727993296 0.0067093878386959033 0 0.0055121914147317807 0.0010637811798828148 0 0.0057034025826224379 0.00040145584866999425 0 0.0055559192982981599 0.00047129992595721211 0 0.003788293026501216 0.005595533484526456 0 0.0033747884533330921 0.0050807761531052008 0 0.0039984858364087257 0.0049050822138248318 0 0.0032980796745636608 0.0061617292369016132 0 0.003788293026501216 0.005595533484526456 0 0.0031901373572768999 0.0056519245365012141 0 0.003788293026501216 0.005595533484526456 0 0.0031901373572768999 0.0056519245365012141 0 0.0033747884533330921 0.0050807761531052008 0 0.0031901373572768999 0.0056519245365012141 0 0.0033747884533330921 0.0050807761531052008 0 0.0026330124503568426 0.00518568310687453 0 0.0031901373572768999 0.0056519245365012141 0 0.002688475828404575 0.0062260222344991123 0 0.0026330124503568426 0.00518568310687453 0 0.002688475828404575 0.0062260222344991123 0 0.0026330124503568426 0.00518568310687453 0 0.0019341043372382678 0.0057629912442544564 0 0.002688475828404575 0.0062260222344991123 0 0.0019341043372382678 0.0057629912442544564 0 0.0017332900975118163 0.0068986368639695301 0 0.0032980796745636608 0.0061617292369016132 0 0.0031901373572768999 0.0056519245365012141 0 0.002688475828404575 0.0062260222344991123 0 0.0032980796745636608 0.0061617292369016132 0 0.002688475828404575 0.0062260222344991123 0 0.0031003092498899068 0.0065748009790503048 0 0.0031003092498899068 0.0065748009790503048 0 0.0027221882610648116 0.0071959618707927503 0 0.0037024009727993296 0.0067093878386959033 0 0.002688475828404575 0.0062260222344991123 0 0.0031003092498899068 0.0065748009790503048 0 0.0027221882610648116 0.0071959618707927503 0 0.0027221882610648116 0.0071959618707927503 0 0.0037024009727993296 0.0067093878386959033 0 0.0027015183374200905 0.0083024495871555099 0 0.002688475828404575 0.0062260222344991123 0 0.0027221882610648116 0.0071959618707927503 0 0.0017332900975118163 0.0068986368639695301 0 0.0027221882610648116 0.0071959618707927503 0 0.0017332900975118163 0.0068986368639695301 0 0.0018692932070572136 0.0077798768750469245 0 0.0056174237495185009 0.00030919482327290226 0 0.0055798293043962666 0.00022041087395924581 0 0.0056100782396480992 0.00017579624775577188 0 0.0057034025826224379 0.00040145584866999425 0 0.0056174237495185009 0.00030919482327290226 0 0.0056100782396480992 0.00017579624775577188 0 0.0042474537097672007 0.0036019375375991344 0 0.0033651519986121581 0.0042202930678175337 0 0.0032980796745636608 0.0061617292369016132 0 0.0031003092498899068 0.0065748009790503048 0 0.0037024009727993296 0.0067093878386959033 0 0.0055121914147317807 0.0010637811798828148 0 0.0055559192982981599 0.00047129992595721211 0 0.0053688864694706444 0.00034294872922454136 0 0.0057034025826224379 0.00040145584866999425 0 0.0055559192982981599 0.00047129992595721211 0 0.0056174237495185009 0.00030919482327290226 0 0.0061317588809192448 -0.00018411211823121483 0 0.006146563674781641 -0.00019137298527894636 0 0.0055559192982981599 0.00047129992595721211 0 0.0056174237495185009 0.00030919482327290226 0 0.0053688864694706444 0.00034294872922454136 0 0.0056174237495185009 0.00030919482327290226 0 0.0055589651925779474 0.00024002064515821748 0 0.0055637532074285902 0.00022924731910310681 0 0.0056174237495185009 0.00030919482327290226 0 0.0055637532074285902 0.00022924731910310681 0 0.0055798293043962666 0.00022041087395924581 0 0.0055637532074285902 0.00022924731910310681 0 0.0055798293043962666 0.00022041087395924581 0 0.005567627214354904 0.00019533464658991095 0 0.0055589651925779474 0.00024002064515821748 0 0.0055750745344071732 0.0001435944606904312 0 0.005618808688447322 -0.00014751523895764371 0 0.006146563674781641 -0.00019137298527894636 0 0.0064445558249896021 -0.00057232582696351507 0 0.0055798293043962666 0.00022041087395924581 0 0.005567627214354904 0.00019533464658991095 0 0.0055739024448386394 0.00018887451177615605 0 0.0055637532074285902 0.00022924731910310681 0 0.005567627214354904 0.00019533464658991095 0 0.0055750745344071732 0.0001435944606904312 0 0.0055765736332859415 0.00016460219274410162 0 0.0055739024448386394 0.00018887451177615605 0 0.0055921272238449978 0.00012645606148077248 0 0.005567627214354904 0.00019533464658991095 0 0.0055765736332859415 0.00016460219274410162 0 0.0055750745344071732 0.0001435944606904312 0 0.005567627214354904 0.00019533464658991095 0 0.0055765736332859415 0.00016460219274410162 0 0.0055739024448386394 0.00018887451177615605 0 0.0055921272238449978 0.00012645606148077248 0 0.0056231005346471154 0.00013078957664291874 0 0.0056032155981296317 0.00017746956300412057 0 0.0055739024448386394 0.00018887451177615605 0 0.0055921272238449978 0.00012645606148077248 0 0.0056032155981296317 0.00017746956300412057 0 0.0055765736332859415 0.00016460219274410162 0 0.0055921272238449978 0.00012645606148077248 0 0.0055750745344071732 0.0001435944606904312 0 0.0055921272238449978 0.00012645606148077248 0 0.0055750745344071732 0.0001435944606904312 0 0.005618808688447322 -0.00014751523895764371 0 0.0055589651925779474 0.00024002064515821748 0 0.0055637532074285902 0.00022924731910310681 0 0.0055750745344071732 0.0001435944606904312 0 0.0056729859826977307 0.00015312705554198624 0 0.0056509047382649362 4.7064241520499701e-05 0 0.0058418137565125084 -6.4340134817640081e-05 0 0.0055921272238449978 0.00012645606148077248 0 0.0056231005346471154 0.00013078957664291874 0 0.0056509047382649362 4.7064241520499701e-05 0 0.0056729859826977307 0.00015312705554198624 0 0.0056231005346471154 0.00013078957664291874 0 0.0056032155981296317 0.00017746956300412057 0 0.0056729859826977307 0.00015312705554198624 0 0.0056231005346471154 0.00013078957664291874 0 0.0056509047382649362 4.7064241520499701e-05 0 0.0055921272238449978 0.00012645606148077248 0 0.0056509047382649362 4.7064241520499701e-05 0 0.005618808688447322 -0.00014751523895764371 0 0.0056509047382649362 4.7064241520499701e-05 0 0.005618808688447322 -0.00014751523895764371 0 0.0058418137565125084 -6.4340134817640081e-05 0 0.0070187240370496321 -0.0013343473340500479 0 0.0070522760158265099 -0.0013032791251127026 0 0.0070336947111689415 -0.0012642012235557826 0 0.0070187240370496321 -0.0013343473340500479 0 0.0069719019753965925 -0.0012729006449005869 0 0.0070336947111689415 -0.0012642012235557826 0 0.0071037124913180868 -0.0013601320303643577 0 0.0070187240370496321 -0.0013343473340500479 0 0.0070522760158265099 -0.0013032791251127026 0 0.0071037124913180868 -0.0013601320303643577 0 0.0070522760158265099 -0.0013032791251127026 0 0.0070776130179479252 -0.0012686675613397182 0 0.006146563674781641 -0.00019137298527894636 0 0.0062934633775416282 5.136912786236508e-05 0 0.0055121914147317807 0.0010637811798828148 0 0.0054303370939676066 0.0019831439779315796 0 0.0055193587771462625 0.00190477129564559 0 0.0054303370939676066 0.0019831439779315796 0 0.0055193587771462625 0.00190477129564559 0 0.0058769585342245646 0.0022849591763966473 0 0.0047795307259820875 0.0032174838126135495 0 0.0050589412671772169 0.0028842729337493181 0 0.0070522760158265099 -0.0013032791251127026 0 0.0070776130179479252 -0.0012686675613397182 0 0.0070336947111689415 -0.0012642012235557826 0 0.0070776130179479252 -0.0012686675613397182 0 0.0070336947111689415 -0.0012642012235557826 0 0.0070510659601046586 -0.0012105463372032888 0 0.0069719019753965925 -0.0012729006449005869 0 0.0070336947111689415 -0.0012642012235557826 0 0.0069789090102690453 -0.0012403995774949101 0 0.0070336947111689415 -0.0012642012235557826 0 0.0069789090102690453 -0.0012403995774949101 0 0.0070149393902207884 -0.0012236878629521256 0 0.0070336947111689415 -0.0012642012235557826 0 0.0070149393902207884 -0.0012236878629521256 0 0.0070510659601046586 -0.0012105463372032888 0 0.0069789090102690453 -0.0012403995774949101 0 0.0069867907700175372 -0.0012060639525969538 0 0.0070149393902207884 -0.0012236878629521256 0 0.0069867907700175372 -0.0012060639525969538 0 0.0070251907338081381 -0.0011963379814528151 0 0.0070149393902207884 -0.0012236878629521256 0 0.0070251907338081381 -0.0011963379814528151 0 0.0070510659601046586 -0.0012105463372032888 0 0.0070434719598599692 -0.001172196020793805 0 0.0070251907338081381 -0.0011963379814528151 0 0.0070149393902207884 -0.0012236878629521256 0 0.0070510659601046586 -0.0012105463372032888 0 0.0070870936909853107 -0.0011460610375689923 0 0.007021274834138014 -0.0011471819117160962 0 0.0070434719598599692 -0.001172196020793805 0 0.0070870936909853107 -0.0011460610375689923 0 0.0070510659601046586 -0.0012105463372032888 0 0.0070434719598599692 -0.001172196020793805 0 0.007021274834138014 -0.0011471819117160962 0 0.0070434719598599692 -0.001172196020793805 0 0.0070111214632415392 -0.0011781455217574513 0 0.0070251907338081381 -0.0011963379814528151 0 0.0070434719598599692 -0.001172196020793805 0 0.0070111214632415392 -0.0011781455217574513 0 0.0069867907700175372 -0.0012060639525969538 0 0.0070251907338081381 -0.0011963379814528151 0 0.0070111214632415392 -0.0011781455217574513 0 0.007021274834138014 -0.0011471819117160962 0 0.0070111214632415392 -0.0011781455217574513 0 0.0069825057673415245 -0.0011744152036901935 0 0.0069867907700175372 -0.0012060639525969538 0 0.0070111214632415392 -0.0011781455217574513 0 0.0069825057673415245 -0.0011744152036901935 0 0.0070870936909853107 -0.0011460610375689923 0 0.0070776130179479252 -0.0012686675613397182 0 0.0070510659601046586 -0.0012105463372032888 0 0.0048102792905509503 0.004888305413246757 0 0.0048984127759008006 0.0032800601360964102 0 0.0058769585342245646 0.0022849591763966473 0 0.0060304705763494573 0.0023019550414356544 0 0.0054303370939676066 0.0019831439779315796 0 0.0058769585342245646 0.0022849591763966473 0 0.0064579441827840997 9.2052932968367227e-05 0 0.0062934633775416282 5.136912786236508e-05 0 0.0055046077289875725 0.0020289968680678788 0 0.0060304705763494573 0.0023019550414356544 0 0.0058769585342245646 0.0022849591763966473 0 0.0055046077289875725 0.0020289968680678788 0 0.0058769585342245646 0.0022849591763966473 0 0.0050203666989366898 0.0023888717940363305 0 0.0048984127759008006 0.0032800601360964102 0 0.0058769585342245646 0.0022849591763966473 0 0.0050203666989366898 0.0023888717940363305 0 0.0040624400711649035 0.0020851630787528338 0 0.0050203666989366898 0.0023888717940363305 0 0.0042758394491099741 0.0029986461217165082 0 0.0040624400711649035 0.0020851630787528338 0 0.0034267400152893199 0.002722072213944539 0 0.0042758394491099741 0.0029986461217165082 0 0.0029301113146548686 0.0017876957029067037 0 0.0040624400711649035 0.0020851630787528338 0 0.0034267400152893199 0.002722072213944539 0 0.0034267400152893199 0.002722072213944539 0 0.0034293654947608141 0.0036052533583181895 0 0.0042758394491099741 0.0029986461217165082 0 0.0034293654947608141 0.0036052533583181895 0 0.0042758394491099741 0.0029986461217165082 0 0.0044405671429542919 0.0039845292978192689 0 0.0048984127759008006 0.0032800601360964102 0 0.0042758394491099741 0.0029986461217165082 0 0.0044405671429542919 0.0039845292978192689 0 0.0048984127759008006 0.0032800601360964102 0 0.0050203666989366898 0.0023888717940363305 0 0.0042758394491099741 0.0029986461217165082 0 0.0048102792905509503 0.004888305413246757 0 0.0048984127759008006 0.0032800601360964102 0 0.0044405671429542919 0.0039845292978192689 0 0.0044405671429542919 0.0039845292978192689 0 0.0036998631789595302 0.0043927222010999639 0 0.0042957591787892045 0.0045484621266550108 0 0.0034293654947608141 0.0036052533583181895 0 0.0044405671429542919 0.0039845292978192689 0 0.0036998631789595302 0.0043927222010999639 0 0.0036998631789595302 0.0043927222010999639 0 0.0033747884533330921 0.0050807761531052008 0 0.0039984858364087257 0.0049050822138248318 0 0.0036998631789595302 0.0043927222010999639 0 0.0039984858364087257 0.0049050822138248318 0 0.0042957591787892045 0.0045484621266550108 0 0.0048102792905509503 0.004888305413246757 0 0.0044405671429542919 0.0039845292978192689 0 0.0042957591787892045 0.0045484621266550108 0 0.003788293026501216 0.005595533484526456 0 0.0048102792905509503 0.004888305413246757 0 0.0039984858364087257 0.0049050822138248318 0 0.0048102792905509503 0.004888305413246757 0 0.0039984858364087257 0.0049050822138248318 0 0.0042957591787892045 0.0045484621266550108 0 0.0026330124503568426 0.00518568310687453 0 0.0018726033444203534 0.0043332809760419418 0 0.0019341043372382678 0.0057629912442544564 0 0.0026330124503568426 0.00518568310687453 0 0.0027559335520041164 0.0041794498920814886 0 0.0018726033444203534 0.0043332809760419418 0 0.0033747884533330921 0.0050807761531052008 0 0.0026330124503568426 0.00518568310687453 0 0.0027559335520041164 0.0041794498920814886 0 0.0036998631789595302 0.0043927222010999639 0 0.0033747884533330921 0.0050807761531052008 0 0.0027559335520041164 0.0041794498920814886 0 0.0034293654947608141 0.0036052533583181895 0 0.0036998631789595302 0.0043927222010999639 0 0.0027559335520041164 0.0041794498920814886 0 0.0027559335520041164 0.0041794498920814886 0 0.0024218479161481747 0.0031328111503951374 0 0.0018726033444203534 0.0043332809760419418 0 0.0019530347131340158 0.0021325223795205378 0 0.0024218479161481747 0.0031328111503951374 0 0.0016161558433854686 0.0031190654208250864 0 0.0034293654947608141 0.0036052533583181895 0 0.0027559335520041164 0.0041794498920814886 0 0.0024218479161481747 0.0031328111503951374 0 0.0034267400152893199 0.002722072213944539 0 0.0034293654947608141 0.0036052533583181895 0 0.0024218479161481747 0.0031328111503951374 0 0.0029301113146548686 0.0017876957029067037 0 0.0034267400152893199 0.002722072213944539 0 0.0024218479161481747 0.0031328111503951374 0 0.001057349566999195 0.0022897398363346338 0 0.0016161558433854686 0.0031190654208250864 0 0.00068691181309557113 0.0038348563437925784 0 0.0016161558433854686 0.0031190654208250864 0 0.00068691181309557113 0.0038348563437925784 0 0.0018726033444203534 0.0043332809760419418 0 0.0024218479161481747 0.0031328111503951374 0 0.0016161558433854686 0.0031190654208250864 0 0.0018726033444203534 0.0043332809760419418 0 -0.00051989595055226595 0.0031355237134046161 0 0.00021962852752542236 0.0027408986259520214 0 0.00068691181309557113 0.0038348563437925784 0 0.0007863877588577215 0.0020401235518186438 0 0.00068318487178403286 0.0025806452330644869 0 0.00034530266461840179 0.0048483554887212609 0 -0.00053776956723711829 0.0044972119391069112 0 0.00011279270794688392 0.0058716346560574433 0 0.00068691181309557113 0.0038348563437925784 0 0.00034530266461840179 0.0048483554887212609 0 0.0011748849938137721 0.0053767570957390333 0 0.00068691181309557113 0.0038348563437925784 0 0.00034530266461840179 0.0048483554887212609 0 -0.00053776956723711829 0.0044972119391069112 0 0.00068691181309557113 0.0038348563437925784 0 0.0018726033444203534 0.0043332809760419418 0 0.0011748849938137721 0.0053767570957390333 0 0.0018726033444203534 0.0043332809760419418 0 0.0019341043372382678 0.0057629912442544564 0 0.0011748849938137721 0.0053767570957390333 0 -0.0020707008231052306 0.0028515407474250637 0 -0.0013090504257438791 0.0034882556367072802 0 -0.0021366689480532548 0.0045757803722200037 0 -0.0002410579175929831 0.0079378878011923289 0 -0.00042554112471345596 0.0095625501392163897 0 -0.0013090504257438791 0.0034882556367072802 0 -0.00053776956723711829 0.0044972119391069112 0 -0.0021366689480532548 0.0045757803722200037 0 -0.00051989595055226595 0.0031355237134046161 0 0.00068691181309557113 0.0038348563437925784 0 -0.00053776956723711829 0.0044972119391069112 0 -0.00051989595055226595 0.0031355237134046161 0 -0.0013090504257438791 0.0034882556367072802 0 -0.00053776956723711829 0.0044972119391069112 0 -0.00053776956723711829 0.0044972119391069112 0 -0.0021366689480532548 0.0045757803722200037 0 -0.00106643487690134 0.0057424958169538251 0 -0.0020995034454090568 0.0064855940541571804 0 -0.00106643487690134 0.0057424958169538251 0 -0.00068611100125379263 0.0073195593828153521 0 -0.00042554112471345596 0.0095625501392163897 0 -0.00052978064150717939 0.011076284160816203 0 -0.0021366689480532548 0.0045757803722200037 0 -0.0020995034454090568 0.0064855940541571804 0 -0.00106643487690134 0.0057424958169538251 0 -0.00053776956723711829 0.0044972119391069112 0 -0.00106643487690134 0.0057424958169538251 0 0.00011279270794688392 0.0058716346560574433 0 -0.00106643487690134 0.0057424958169538251 0 -0.00068611100125379263 0.0073195593828153521 0 0.00011279270794688392 0.0058716346560574433 0 -0.0020995034454090568 0.0064855940541571804 0 -0.00068611100125379263 0.0073195593828153521 0 -0.0018579674824635922 0.008356819243997754 0 -0.00052978064150717939 0.011076284160816203 0 -0.0005418704739672183 0.012273176082434473 0 0.0010708209658348107 0.006357824868716307 0 0.0019341043372382678 0.0057629912442544564 0 0.0017332900975118163 0.0068986368639695301 0 0.0010708209658348107 0.006357824868716307 0 0.0019341043372382678 0.0057629912442544564 0 0.0011748849938137721 0.0053767570957390333 0 0.0010708209658348107 0.006357824868716307 0 0.0011748849938137721 0.0053767570957390333 0 0.00011279270794688392 0.0058716346560574433 0 0.00034530266461840179 0.0048483554887212609 0 0.0011748849938137721 0.0053767570957390333 0 0.00011279270794688392 0.0058716346560574433 0 0.0010708209658348107 0.006357824868716307 0 0.00011279270794688392 0.0058716346560574433 0 0.00058903164498053735 0.0071458946671647903 0 -0.00068611100125379263 0.0073195593828153521 0 0.00011279270794688392 0.0058716346560574433 0 0.00058903164498053735 0.0071458946671647903 0 -0.00068611100125379263 0.0073195593828153521 0 0.00058903164498053735 0.0071458946671647903 0 0.00024189799654945871 0.0084739654656912598 0 0.00058903164498053735 0.0071458946671647903 0 0.0017332900975118163 0.0068986368639695301 0 0.0010997396077902146 0.0077903480325779905 0 0.0010708209658348107 0.006357824868716307 0 0.00058903164498053735 0.0071458946671647903 0 0.0017332900975118163 0.0068986368639695301 0 0.0017332900975118163 0.0068986368639695301 0 0.0018692932070572136 0.0077798768750469245 0 0.0010997396077902146 0.0077903480325779905 0 0.0018692932070572136 0.0077798768750469245 0 0.0012059984260947702 0.0085689571148034258 0 0.0010997396077902146 0.0077903480325779905 0 0.00058903164498053735 0.0071458946671647903 0 0.0010997396077902146 0.0077903480325779905 0 0.00024189799654945871 0.0084739654656912598 0 0.0012059984260947702 0.0085689571148034258 0 0.0010997396077902146 0.0077903480325779905 0 0.00024189799654945871 0.0084739654656912598 0 0.0012059984260947702 0.0085689571148034258 0 0.00024189799654945871 0.0084739654656912598 0 0.0006743856505656736 0.0094843413557071949 0 0.00024189799654945871 0.0084739654656912598 0 0.0006743856505656736 0.0094843413557071949 0 0.00020609415340267431 0.010070863597014605 0 0.0006743856505656736 0.0094843413557071949 0 0.0011942974111477417 0.0093128391642262141 0 0.00083609303066923093 0.0098535636277201945 0 0.0012059984260947702 0.0085689571148034258 0 0.0011942974111477417 0.0093128391642262141 0 0.0027015183374200905 0.0083024495871555099 0 0.0011942974111477417 0.0093128391642262141 0 0.00083609303066923093 0.0098535636277201945 0 0.0016509566104609601 0.0097259690136599943 0 0.0012059984260947702 0.0085689571148034258 0 0.0006743856505656736 0.0094843413557071949 0 0.0011942974111477417 0.0093128391642262141 0 -0.00068611100125379263 0.0073195593828153521 0 -0.0018579674824635922 0.008356819243997754 0 -0.00059720889223175246 0.0092412637508100682 0 -0.00068611100125379263 0.0073195593828153521 0 0.00024189799654945871 0.0084739654656912598 0 -0.00059720889223175246 0.0092412637508100682 0 0.00024189799654945871 0.0084739654656912598 0 -0.00059720889223175246 0.0092412637508100682 0 0.00020609415340267431 0.010070863597014605 0 -0.0005418704739672183 0.012273176082434473 0 -0.00038268014531025622 0.013075952632429557 0 -0.0018579674824635922 0.008356819243997754 0 -0.00059720889223175246 0.0092412637508100682 0 -0.0014860273966060208 0.010245467368801723 0 -0.00059720889223175246 0.0092412637508100682 0 -0.0014860273966060208 0.010245467368801723 0 -5.9987129700965009e-05 0.011007297115173649 0 -0.00059720889223175246 0.0092412637508100682 0 -5.9987129700965009e-05 0.011007297115173649 0 0.00020609415340267431 0.010070863597014605 0 -5.9987129700965009e-05 0.011007297115173649 0 0.00020609415340267431 0.010070863597014605 0 0.00032575043093261547 0.010329314936628683 0 -5.9987129700965009e-05 0.011007297115173649 0 1.7718766949964177e-06 0.011061072184207852 0 0.00032575043093261547 0.010329314936628683 0 -0.0014860273966060208 0.010245467368801723 0 -5.9987129700965009e-05 0.011007297115173649 0 -3.608148145467194e-06 0.01374337358344666 0 -5.9987129700965009e-05 0.011007297115173649 0 1.7718766949964177e-06 0.011061072184207852 0 -3.608148145467194e-06 0.01374337358344666 0 -0.00038268014531025622 0.013075952632429557 0 -8.2224616163860926e-07 0.01374718548407295 0 0.00083609303066923093 0.0098535636277201945 0 0.00047756966046668943 0.0099787797864640138 0 0.00033827668576940625 0.0098810699034230214 0 0.00047756966046668943 0.0099787797864640138 0 0.00032306174838897989 0.0097102273654916943 0 0.00033827668576940625 0.0098810699034230214 0 0.00071718560689899499 0.0072501474829743577 0 0.0017044943675578292 0.0056051055851891116 0 8.1577111566274349e-07 0.0062507624347881551 0 0.00011820183796186539 0.0058852123871262043 0 0.00025296320499114416 0.0058475324137249743 0 0.00083609303066923093 0.0098535636277201945 0 0.00033827668576940625 0.0098810699034230214 0 0.00096789098350510559 0.0098417487160605364 0 0.0015291693593185766 0.0057916443104277827 0 0.0017044943675578292 0.0056051055851891116 0 0.0006743856505656736 0.0094843413557071949 0 0.00083609303066923093 0.0098535636277201945 0 0.00047756966046668943 0.0099787797864640138 0 0.0006743856505656736 0.0094843413557071949 0 0.00020609415340267431 0.010070863597014605 0 0.00047756966046668943 0.0099787797864640138 0 0.00020609415340267431 0.010070863597014605 0 0.00047756966046668943 0.0099787797864640138 0 0.00032575043093261547 0.010329314936628683 0 1.7718766949964177e-06 0.011061072184207852 0 0.00032575043093261547 0.010329314936628683 0 -5.7891378658222878e-08 0.0083776047737380236 0 0.00032306174838897989 0.0097102273654916943 0 0.00032575043093261547 0.010329314936628683 0 -5.7891378658222878e-08 0.0083776047737380236 0 0.00047756966046668943 0.0099787797864640138 0 0.00032306174838897989 0.0097102273654916943 0 0.00032575043093261547 0.010329314936628683 0 1.37008619518496e-06 0.008372098217427246 0 0.00071718560689899499 0.0072501474829743577 0 -1.9065519859435192e-06 0.008370772747372187 0 8.1577111566274349e-07 0.0062507624347881551 0 1.8289562611465547e-06 0.0060582159828201235 0 0.00032306174838897989 0.0097102273654916943 0 -5.7891378658222878e-08 0.0083776047737380236 0 0.00033827668576940625 0.0098810699034230214 0 8.1577111566274349e-07 0.0062507624347881551 0 1.8289562611465547e-06 0.0060582159828201235 0 0.00011820183796186539 0.0058852123871262043 0 1.8289562611465547e-06 0.0060582159828201235 0 0.00014525366462337709 0.0055141262066466194 0 0.00011820183796186539 0.0058852123871262043 0 1.8289562611465547e-06 0.0060582159828201235 0 -1.6984210819825121e-06 0.0037483947584129843 0 0.00014525366462337709 0.0055141262066466194 0 -1.6984210819825121e-06 0.0037483947584129843 0 0.00014525366462337709 0.0055141262066466194 0 -0.0004936871581212531 0.005295249931160869 0 0.00014525366462337709 0.0055141262066466194 0 -0.00021919311152454582 0.0062594237423149813 0 -0.0004936871581212531 0.005295249931160869 0 0.00014525366462337709 0.0055141262066466194 0 0.00025296320499114416 0.0058475324137249743 0 -0.00021919311152454582 0.0062594237423149813 0 0.00014525366462337709 0.0055141262066466194 0 0.00011820183796186539 0.0058852123871262043 0 0.00025296320499114416 0.0058475324137249743 0 0.0055781445442441742 0.00021372818416012188 0 0.0055862566263481057 0.00019271633792659556 0 0.0056100782396480992 0.00017579624775577188 0 0.0017044943675578292 0.0056051055851891116 0 0.0025839221020938384 0.0032786289933631769 0 0.0011942974111477417 0.0093128391642262141 0 0.0016509566104609601 0.0097259690136599943 0 0.0027015183374200905 0.0083024495871555099 0 0.0017044943675578292 0.0056051055851891116 0 0.0033651519986121581 0.0042202930678175337 0 0.0055798293043962666 0.00022041087395924581 0 0.0055816599412704332 0.00019627521342067904 0 0.0056100782396480992 0.00017579624775577188 0 0.0055862566263481057 0.00019271633792659556 0 0.0055816599412704332 0.00019627521342067904 0 0.0056100782396480992 0.00017579624775577188 0 0.0055862566263481057 0.00019271633792659556 0 0.0055816599412704332 0.00019627521342067904 0 0.0055881306027208092 0.00019208332691830518 0 0.0055798293043962666 0.00022041087395924581 0 0.0055739024448386394 0.00018887451177615605 0 0.0055816599412704332 0.00019627521342067904 0 0.0018692932070572136 0.0077798768750469245 0 0.0012059984260947702 0.0085689571148034258 0 0.0027015183374200905 0.0083024495871555099 0 0.0027221882610648116 0.0071959618707927503 0 0.0018692932070572136 0.0077798768750469245 0 0.0027015183374200905 0.0083024495871555099 0 0.0056729859826977307 0.00015312705554198624 0 0.0056305717443959971 0.00037264680864455775 0 0.006057699708395918 0.00018744888922708213 0 0.0056729859826977307 0.00015312705554198624 0 0.005623779466038187 0.00020583422647660243 0 0.0056032155981296317 0.00017746956300412057 0 0.0034428796357713438 0.00085289866368306883 0 0.0033171044524798973 0.0010312877554978065 0 0.0055739024448386394 0.00018887451177615605 0 0.0056032155981296317 0.00017746956300412057 0 0.0055881306027208092 0.00019208332691830518 0 0.0055862566263481057 0.00019271633792659556 0 0.005623779466038187 0.00020583422647660243 0 0.0055881306027208092 0.00019208332691830518 0 0.0025839221020938384 0.0032786289933631769 0 0.0033171044524798973 0.0010312877554978065 0 0.005623779466038187 0.00020583422647660243 0 0.0056032155981296317 0.00017746956300412057 0 0.0055881306027208092 0.00019208332691830518 0 0.0055739024448386394 0.00018887451177615605 0 0.0055816599412704332 0.00019627521342067904 0 0.0055881306027208092 0.00019208332691830518 0 -0.00021919311152454582 0.0062594237423149813 0 -0.0013708408568827381 0.0067848334060732936 0 -0.0012185985417750937 0.0057438062786782252 0 0.0033171044524798973 0.0010312877554978065 0 0.0014580274890227064 0.0020325704722634614 0 0.0026127067948018201 -0.0017698509311902635 0 0.0025119133569073394 -0.0012602623685504222 0 0.0028989902743723514 -0.0014867590859009559 0 0.0025119133569073394 -0.0012602623685504222 0 0.0027696265049159644 -0.0011135734405959673 0 0.0028989902743723514 -0.0014867590859009559 0 0.0025119133569073394 -0.0012602623685504222 0 0.0027696265049159644 -0.0011135734405959673 0 0.0024097055908815627 -0.00073952592942842397 0 0.0014580274890227064 0.0020325704722634614 0 0.00020060496088110581 0.0022252700289819645 0 -0.0012185985417750937 0.0057438062786782252 0 -0.0004936871581212531 0.005295249931160869 0 -0.0011811264494383232 0.0041863189078260917 0 -0.00021919311152454582 0.0062594237423149813 0 -0.0012185985417750937 0.0057438062786782252 0 -0.0004936871581212531 0.005295249931160869 0 -1.6984210819825121e-06 0.0037483947584129843 0 -0.0004936871581212531 0.005295249931160869 0 -0.0011811264494383232 0.0041863189078260917 0 0.00020060496088110581 0.0022252700289819645 0 2.9753605076216226e-06 0.0021604723600389501 0 8.1944082561867171e-08 0.0037392360294400016 0 0.00020060496088110581 0.0022252700289819645 0 3.8771802347545926e-10 0.0037428708241945071 0 7.0640812874209983e-08 0.0020954679114698806 0 1.433316441778344e-10 0.0021608405267277706 0 0.0027696265049159644 -0.0011135734405959673 0 0.0024097055908815627 -0.00073952592942842397 0 0.0028873886054232522 -0.00085275041024162473 0 0.00020060496088110581 0.0022252700289819645 0 0.0017035559735268024 -0.00020406113716203044 0 -3.8536233242172861e-05 0.0018551286218547252 0 -6.1901028821265797e-07 0.0021568413855130243 0 -2.4115047735278429e-06 -0.00076904757011139529 0 -6.1901028821265797e-07 0.0021568413855130243 0 -2.4115047735278429e-06 -0.00076904757011139529 0 4.1956627776331564e-07 -0.0010215681897740429 0 0.0017035559735268024 -0.00020406113716203044 0 0.0021882843801984127 -0.002119449160482084 0 -2.4115047735278429e-06 -0.00076904757011139529 0 4.1956627776331564e-07 -0.0010215681897740429 0 1.1669608562194818e-05 -0.0026362459380497995 0 -6.3980072774481554e-07 -0.0010246436208842715 0 2.0809867643127125e-07 -0.0039730504758702613 0 -6.3918359462849156e-05 -0.0040966677565072432 0 2.3591029033388005e-07 -0.0010260766829701643 0 0.00031303803687685137 -0.0022714915104424405 0 4.1956627776331564e-07 -0.0010215681897740429 0 1.1669608562194818e-05 -0.0026362459380497995 0 0.00011622408911981681 -0.0026933972755503097 0 0.0033565551132357127 -0.00096910410668002195 0 0.0031345486588556211 -0.001221713591178609 0 0.0034472608533898655 -0.0013461637354089773 0 0.0028873886054232522 -0.00085275041024162473 0 0.0033565551132357127 -0.00096910410668002195 0 0.0031345486588556211 -0.001221713591178609 0 0.0027696265049159644 -0.0011135734405959673 0 0.0028873886054232522 -0.00085275041024162473 0 0.0031345486588556211 -0.001221713591178609 0 0.0027696265049159644 -0.0011135734405959673 0 0.0031345486588556211 -0.001221713591178609 0 0.0028989902743723514 -0.0014867590859009559 0 0.00015010570046979226 -0.0051042801678872355 0 2.0809867643127125e-07 -0.0039730504758702613 0 1.1477439970299859e-06 -0.0069205979018682837 0 0.00015010570046979226 -0.0051042801678872355 0 0.0003367907625994299 -0.0058446648041399684 0 1.1477439970299859e-06 -0.0069205979018682837 0 0.00011622408911981681 -0.0026933972755503097 0 0.00035698345280386391 -0.0055988403159968735 0 0.0003367907625994299 -0.0058446648041399684 0 1.1669608562194818e-05 -0.0026362459380497995 0 0.00011622408911981681 -0.0026933972755503097 0 0.00035698345280386391 -0.0055988403159968735 0 0.00031303803687685137 -0.0022714915104424405 0 0.00041019779524560402 -0.0028474785331676334 0 0.00015010570046979226 -0.0051042801678872355 0 -6.3918359462849156e-05 -0.0040966677565072432 0 0.0003367907625994299 -0.0058446648041399684 0 0.00015010570046979226 -0.0051042801678872355 0 2.0809867643127125e-07 -0.0039730504758702613 0 -6.3918359462849156e-05 -0.0040966677565072432 0 0.0038280384745132999 -0.0010873058572276177 0 0.0036940387634025315 -0.0014403480406499538 0 0.0034472608533898655 -0.0013461637354089773 0 0.0021882843801984127 -0.002119449160482084 0 0.00241987466491124 -0.0040367315030869237 0 0.0033565551132357127 -0.00096910410668002195 0 0.0038280384745132999 -0.0010873058572276177 0 0.0034472608533898655 -0.0013461637354089773 0 0.0038280384745132999 -0.0010873058572276177 0 0.0039470507929186991 -0.0015852177342970939 0 0.0042938478195168467 -0.0012041525599433413 0 0.00035698345280386391 -0.0055988403159968735 0 0.0003367907625994299 -0.0058446648041399684 0 -0.00013325854197466342 -0.0065372553877659934 0 0.00241987466491124 -0.0040367315030869237 0 0.0027425587877033986 -0.0063462756450283634 0 0.0038280384745132999 -0.0010873058572276177 0 0.0039470507929186991 -0.0015852177342970939 0 0.0036940387634025315 -0.0014403480406499538 0 0.0039470507929186991 -0.0015852177342970939 0 0.0036940387634025315 -0.0014403480406499538 0 0.0035208041152232092 -0.001668393172644636 0 0.0036940387634025315 -0.0014403480406499538 0 0.0034472608533898655 -0.0013461637354089773 0 0.0035208041152232092 -0.001668393172644636 0 0.0045290924852827204 -0.0015657030543631564 0 0.0046614904134238298 -0.0016942917087323015 0 0.0039470507929186991 -0.0015852177342970939 0 0.0035208041152232092 -0.001668393172644636 0 0.0035944831503794076 -0.0019810933262759912 0 0.0046614904134238298 -0.0016942917087323015 0 0.0050671028714829678 -0.0020271375140654274 0 0.0035153510476586898 -0.0016409221277564137 0 0.0035868299372844845 -0.0019419655664879869 0 0.0033606773335573773 -0.0018394129910364544 0 0.007022439930374106 -0.0040731133015132273 0 0.0076228177365831457 -0.0034211344376593729 0 0.0070420764042328152 -0.0032232291764930274 0 0.0048215539324706755 -0.003258751723695432 0 0.0050671028714829678 -0.0020271375140654274 0 0.007022439930374106 -0.0040731133015132273 0 0.0070420764042328152 -0.0032232291764930274 0 0.006505632537945164 -0.0034451772153180284 0 0.0031345486588556211 -0.001221713591178609 0 0.0028989902743723514 -0.0014867590859009559 0 0.0032306758873037762 -0.0015808358040706534 0 0.0031345486588556211 -0.001221713591178609 0 0.0034472608533898655 -0.0013461637354089773 0 0.0032306758873037762 -0.0015808358040706534 0 0.0034472608533898655 -0.0013461637354089773 0 0.0035153510476586898 -0.0016409221277564137 0 0.0032306758873037762 -0.0015808358040706534 0 0.0032306758873037762 -0.0015808358040706534 0 0.0033606773335573773 -0.0018394129910364544 0 0.0030192656924005901 -0.0019495138756003871 0 0.0035153510476586898 -0.0016409221277564137 0 0.0032306758873037762 -0.0015808358040706534 0 0.0033606773335573773 -0.0018394129910364544 0 0.0028989902743723514 -0.0014867590859009559 0 0.0032306758873037762 -0.0015808358040706534 0 0.0030192656924005901 -0.0019495138756003871 0 0.0026127067948018201 -0.0017698509311902635 0 0.0028989902743723514 -0.0014867590859009559 0 0.0030192656924005901 -0.0019495138756003871 0 0.0033171044524798973 0.0010312877554978065 0 0.0044649321184718604 -0.0004276099805568399 0 0.0056729859826977307 0.00015312705554198624 0 0.006057699708395918 0.00018744888922708213 0 0.0058418137565125084 -6.4340134817640081e-05 0 0.006057699708395918 0.00018744888922708213 0 0.0061515418414855748 -0.00020264476664048732 0 0.0058418137565125084 -6.4340134817640081e-05 0 0.0064445558249896021 -0.00057232582696351507 0 0.0066393712224118552 -0.00079858990059384878 0 0.0070187240370496321 -0.0013343473340500479 0 0.0069719019753965925 -0.0012729006449005869 0 0.0069043942805074934 -0.0012853076333517435 0 0.0061515418414855748 -0.00020264476664048732 0 0.0058418137565125084 -6.4340134817640081e-05 0 0.0061023557127634787 -0.00061115550778313721 0 0.005618808688447322 -0.00014751523895764371 0 0.0058418137565125084 -6.4340134817640081e-05 0 0.0061023557127634787 -0.00061115550778313721 0 0.0061023557127634787 -0.00061115550778313721 0 0.0064278357891465144 -0.00048705258615711414 0 0.0068707728676218102 -0.001129376319165532 0 0.0064278357891465144 -0.00048705258615711414 0 0.006763969883733221 -0.00056901590471690206 0 0.0068707728676218102 -0.001129376319165532 0 0.0061515418414855748 -0.00020264476664048732 0 0.0064278357891465144 -0.00048705258615711414 0 0.0065296911980368445 -0.00017185076559480676 0 0.0061515418414855748 -0.00020264476664048732 0 0.0061023557127634787 -0.00061115550778313721 0 0.0064278357891465144 -0.00048705258615711414 0 0.0064278357891465144 -0.00048705258615711414 0 0.0066139850738623444 -0.00038110521733699233 0 0.006763969883733221 -0.00056901590471690206 0 0.0064278357891465144 -0.00048705258615711414 0 0.0066139850738623444 -0.00038110521733699233 0 0.0065296911980368445 -0.00017185076559480676 0 0.0066139850738623444 -0.00038110521733699233 0 0.0065296911980368445 -0.00017185076559480676 0 0.006744517367534072 -0.0002992583834287743 0 0.0065296911980368445 -0.00017185076559480676 0 0.0066414267177826681 -4.5864971809264422e-05 0 0.006744517367534072 -0.0002992583834287743 0 0.0033606773335573773 -0.0018394129910364544 0 0.0030192656924005901 -0.0019495138756003871 0 0.0034219024782853732 -0.0021260119034675002 0 0.006057699708395918 0.00018744888922708213 0 0.0061515418414855748 -0.00020264476664048732 0 0.0065296911980368445 -0.00017185076559480676 0 0.0044649321184718604 -0.0004276099805568399 0 0.0051854951638777803 -0.0015257734562045928 0 0.006057699708395918 0.00018744888922708213 0 0.0065296911980368445 -0.00017185076559480676 0 0.0066209938663469451 -7.0387682468993159e-05 0 0.0052344653149097899 -0.0014726948712905409 0 0.0051854951638777803 -0.0015257734562045928 0 0.0035868299372844845 -0.0019419655664879869 0 0.0033606773335573773 -0.0018394129910364544 0 0.0034219024782853732 -0.0021260119034675002 0 0.0052746209069009752 -0.0016108546829049092 0 0.0053415669143567282 -0.0015363431754288751 0 0.0052493721941993966 -0.0014957193773503749 0 0.0076228177365831457 -0.0034211344376593729 0 0.007518043127003337 -0.0029222127664081266 0 0.0070420764042328152 -0.0032232291764930274 0 0.0050671028714829678 -0.0020271375140654274 0 0.0051854951638777803 -0.0015257734562045928 0 0.0050671028714829678 -0.0020271375140654274 0 0.0057279844554472227 -0.0019729391465544239 0 0.0066414267177826681 -4.5864971809264422e-05 0 0.0070636186606128316 -0.00024357032005188292 0 0.006744517367534072 -0.0002992583834287743 0 0.0051854951638777803 -0.0015257734562045928 0 0.0057279844554472227 -0.0019729391465544239 0 0.007518043127003337 -0.0029222127664081266 0 0.0070420764042328152 -0.0032232291764930274 0 0.0070559936002826708 -0.0027075971324326698 0 0.0070420764042328152 -0.0032232291764930274 0 0.0070559936002826708 -0.0027075971324326698 0 0.0066501255214353842 -0.0027037453284093835 0 0.0074823739222369271 -0.002895123404486429 0 0.0070559936002826708 -0.0027075971324326698 0 0.0072971126897378932 -0.0021837356407918319 0 0.0070559936002826708 -0.0027075971324326698 0 0.0069401696864027492 -0.0023480631086791903 0 0.0066501255214353842 -0.0027037453284093835 0 0.0057279844554472227 -0.0019729391465544239 0 0.0061247041790963601 -0.0021595316853038975 0 0.0070559936002826708 -0.0027075971324326698 0 0.0069401696864027492 -0.0023480631086791903 0 0.0072971126897378932 -0.0021837356407918319 0 0.0057279844554472227 -0.0019729391465544239 0 0.0062153976722371411 -0.0017921729009089447 0 0.0070636186606128316 -0.00024357032005188292 0 0.0069529287099829107 -0.00075124419523420834 0 0.0071230066268117174 -0.0010518566299925166 0 0.0070636186606128316 -0.00024357032005188292 0 0.006763969883733221 -0.00056901590471690206 0 0.006744517367534072 -0.0002992583834287743 0 0.0070636186606128316 -0.00024357032005188292 0 0.006763969883733221 -0.00056901590471690206 0 0.0069529287099829107 -0.00075124419523420834 0 0.0066139850738623444 -0.00038110521733699233 0 0.006763969883733221 -0.00056901590471690206 0 0.006744517367534072 -0.0002992583834287743 0 0.006763969883733221 -0.00056901590471690206 0 0.0069529287099829107 -0.00075124419523420834 0 0.0068707728676218102 -0.001129376319165532 0 0.0071230066268117174 -0.0010518566299925166 0 0.0069533559429683428 -0.0014896860027845858 0 0.0069107287420102177 -0.0013364671406879735 0 0.0069529287099829107 -0.00075124419523420834 0 0.0068707728676218102 -0.001129376319165532 0 0.0071230066268117174 -0.0010518566299925166 0 0.0068707728676218102 -0.001129376319165532 0 0.0071230066268117174 -0.0010518566299925166 0 0.0069107287420102177 -0.0013364671406879735 0 0.0068707728676218102 -0.001129376319165532 0 0.0069107287420102177 -0.0013364671406879735 0 0.006875536433545484 -0.0012664233660398352 0 0.0062153976722371411 -0.0017921729009089447 0 0.0063401391534106954 -0.0017166056017480871 0 0.0072971126897378932 -0.0021837356407918319 0 0.006897484324318845 -0.0019800540353125048 0 0.0069533559429683428 -0.0014896860027845858 0 0.0069401696864027492 -0.0023480631086791903 0 0.006897484324318845 -0.0019800540353125048 0 0.0066628793010490893 -0.0021586355840090264 0 0.0069401696864027492 -0.0023480631086791903 0 0.0072971126897378932 -0.0021837356407918319 0 0.006897484324318845 -0.0019800540353125048 0 0.0069533559429683428 -0.0014896860027845858 0 0.0066710821864538914 -0.0017313245625657956 0 0.0067284935898791675 -0.0014398680764908737 0 0.006897484324318845 -0.0019800540353125048 0 0.0069533559429683428 -0.0014896860027845858 0 0.0066710821864538914 -0.0017313245625657956 0 0.0069107287420102177 -0.0013364671406879735 0 0.0068906675408450134 -0.0013008245045328228 0 0.006875536433545484 -0.0012664233660398352 0 0.0069533559429683428 -0.0014896860027845858 0 0.0069107287420102177 -0.0013364671406879735 0 0.006896142493328314 -0.0013815387141705273 0 0.0069107287420102177 -0.0013364671406879735 0 0.0068906675408450134 -0.0013008245045328228 0 0.006896142493328314 -0.0013815387141705273 0 0.0068906675408450134 -0.0013008245045328228 0 0.006888455592158396 -0.0012530920929767991 0 0.0069016139131282961 -0.0012432282114414929 0 0.0068906675408450134 -0.0013008245045328228 0 0.006875536433545484 -0.0012664233660398352 0 0.006888455592158396 -0.0012530920929767991 0 0.006875536433545484 -0.0012664233660398352 0 0.006888455592158396 -0.0012530920929767991 0 0.0068774492205471629 -0.0012296332246509579 0 0.006888455592158396 -0.0012530920929767991 0 0.0069086244029702287 -0.001230198577045096 0 0.0068774492205471629 -0.0012296332246509579 0 0.006888455592158396 -0.0012530920929767991 0 0.0069147291008221298 -0.0012168196306291163 0 0.0069086244029702287 -0.001230198577045096 0 0.006888455592158396 -0.0012530920929767991 0 0.0069147291008221298 -0.0012168196306291163 0 0.0069016139131282961 -0.0012432282114414929 0 0.0069147291008221298 -0.0012168196306291163 0 0.0069455133448690053 -0.0012034919467499476 0 0.0069086244029702287 -0.001230198577045096 0 0.0069147291008221298 -0.0012168196306291163 0 0.0069455133448690053 -0.0012034919467499476 0 0.006945611297357465 -0.0011762509360137006 0 0.0069825057673415245 -0.0011744152036901935 0 0.0069455133448690053 -0.0012034919467499476 0 0.006945611297357465 -0.0011762509360137006 0 0.0069867907700175372 -0.0012060639525969538 0 0.0069825057673415245 -0.0011744152036901935 0 0.0069455133448690053 -0.0012034919467499476 0 0.0069867907700175372 -0.0012060639525969538 0 0.0069455133448690053 -0.0012034919467499476 0 0.0069426311224558513 -0.001225660053828593 0 0.0069789090102690453 -0.0012403995774949101 0 0.0069867907700175372 -0.0012060639525969538 0 0.0069426311224558513 -0.001225660053828593 0 0.0069426311224558513 -0.001225660053828593 0 0.0069086244029702287 -0.001230198577045096 0 0.0069265286918515617 -0.0012449039120435198 0 0.0069455133448690053 -0.0012034919467499476 0 0.0069426311224558513 -0.001225660053828593 0 0.0069086244029702287 -0.001230198577045096 0 0.0069086244029702287 -0.001230198577045096 0 0.0069265286918515617 -0.0012449039120435198 0 0.0068774492205471629 -0.0012296332246509579 0 0.0069789090102690453 -0.0012403995774949101 0 0.0069426311224558513 -0.001225660053828593 0 0.0069265286918515617 -0.0012449039120435198 0 0.0069719019753965925 -0.0012729006449005869 0 0.0069789090102690453 -0.0012403995774949101 0 0.0069265286918515617 -0.0012449039120435198 0 0.0069719019753965925 -0.0012729006449005869 0 0.0069043942805074934 -0.0012853076333517435 0 0.0069265286918515617 -0.0012449039120435198 0 0.0069043942805074934 -0.0012853076333517435 0 0.0069265286918515617 -0.0012449039120435198 0 0.0068774492205471629 -0.0012296332246509579 0 0.0069043942805074934 -0.0012853076333517435 0 0.0068707728676218102 -0.001129376319165532 0 0.0068774492205471629 -0.0012296332246509579 0 0.0066393712224118552 -0.00079858990059384878 0 0.0067842805372669316 -0.00090295321593916007 0 0.0068707728676218102 -0.001129376319165532 0 0.006875536433545484 -0.0012664233660398352 0 0.0068774492205471629 -0.0012296332246509579 0 0.005886432963316166 -0.0024751428509567704 0 0.0063173996153066516 -0.0028341829776943888 0 0.0056257748523577053 -0.0030148386401633838 0 0.0054696715740933759 -0.0025096641823134009 0 0.0056257748523577053 -0.0030148386401633838 0 0.005046779189371354 -0.0026869246402506392 0 0.0054696715740933759 -0.0025096641823134009 0 0.005886432963316166 -0.0024751428509567704 0 0.0056257748523577053 -0.0030148386401633838 0 0.0054696715740933759 -0.0025096641823134009 0 0.005886432963316166 -0.0024751428509567704 0 0.0055405429806640429 -0.0020436208396971056 0 0.005886432963316166 -0.0024751428509567704 0 0.005937960694808498 -0.0020606631882395185 0 0.0055405429806640429 -0.0020436208396971056 0 0.0063805022590071392 -0.0020794969760563301 0 0.006279089883558275 -0.0025307142714913423 0 0.005886432963316166 -0.0024751428509567704 0 0.0064482222410129309 -0.0022761998146374296 0 0.0063173996153066516 -0.0028341829776943888 0 0.005886432963316166 -0.0024751428509567704 0 0.0064482222410129309 -0.0022761998146374296 0 0.005937960694808498 -0.0020606631882395185 0 0.0064567447421282021 -0.0015640977605040996 0 0.0066710821864538914 -0.0017313245625657956 0 0.0067284935898791675 -0.0014398680764908737 0 0.0064567447421282021 -0.0015640977605040996 0 0.0066710821864538914 -0.0017313245625657956 0 0.0062050873539139812 -0.0021336238193838727 0 0.0066710821864538914 -0.0017313245625657956 0 0.0066628793010490893 -0.0021586355840090264 0 0.0062050873539139812 -0.0021336238193838727 0 0.006897484324318845 -0.0019800540353125048 0 0.0066710821864538914 -0.0017313245625657956 0 0.0066628793010490893 -0.0021586355840090264 0 0.006279089883558275 -0.0025307142714913423 0 0.006177668481466024 -0.0030227613331000273 0 0.0063173996153066516 -0.0028341829776943888 0 0.0061720409648596299 -0.0033483583845733125 0 0.0056257748523577053 -0.0030148386401633838 0 0.0066628793010490893 -0.0021586355840090264 0 0.0062050873539139812 -0.0021336238193838727 0 0.0066501255214353842 -0.0027037453284093835 0 0.0062050873539139812 -0.0021336238193838727 0 0.0066501255214353842 -0.0027037453284093835 0 0.0060558192665869067 -0.0029522974354105713 0 0.0069401696864027492 -0.0023480631086791903 0 0.0066628793010490893 -0.0021586355840090264 0 0.0066501255214353842 -0.0027037453284093835 0 0.0066501255214353842 -0.0027037453284093835 0 0.0060558192665869067 -0.0029522974354105713 0 0.006505632537945164 -0.0034451772153180284 0 0.0070420764042328152 -0.0032232291764930274 0 0.0066501255214353842 -0.0027037453284093835 0 0.006505632537945164 -0.0034451772153180284 0 0.006177668481466024 -0.0030227613331000273 0 0.0061274706396424053 -0.0032942796506619854 0 0.0060558192665869067 -0.0029522974354105713 0 0.006505632537945164 -0.0034451772153180284 0 0.0060305551106876907 -0.0037954969756565922 0 0.0061720409648596299 -0.0033483583845733125 0 0.0057116066394047975 -0.0034640492569858309 0 0.0060305551106876907 -0.0037954969756565922 0 0.0061720409648596299 -0.0033483583845733125 0 0.0057116066394047975 -0.0034640492569858309 0 0.0056257748523577053 -0.0030148386401633838 0 0.0064223834143942258 -0.006562441229891699 0 0.0044339398524016992 -0.011506465215739604 0 0.0057116066394047975 -0.0034640492569858309 0 0.0056257748523577053 -0.0030148386401633838 0 0.0052445563743753493 -0.003558605364006308 0 0.0057116066394047975 -0.0034640492569858309 0 0.0055311200488938608 -0.0039144797715288003 0 0.0052445563743753493 -0.003558605364006308 0 0.0055311200488938608 -0.0039144797715288003 0 0.0051937572484441067 -0.0040313667275946241 0 0.0051579827082045273 -0.0035459035368666119 0 0.0034652222057517555 -0.0089343375057548899 0 0.0044339398524016992 -0.011506465215739604 0 0.0057116066394047975 -0.0034640492569858309 0 0.0055311200488938608 -0.0039144797715288003 0 0.0060305551106876907 -0.0037954969756565922 0 0.0055311200488938608 -0.0039144797715288003 0 0.0060305551106876907 -0.0037954969756565922 0 0.0058504262654751763 -0.0044631371414415102 0 0.0019882640683696658 -0.011872895052967347 0 0.0025332329095722672 -0.0091275307485886841 0 0.0055311200488938608 -0.0039144797715288003 0 0.0053021829637764448 -0.0043580419817379982 0 0.0058504262654751763 -0.0044631371414415102 0 0.0055311200488938608 -0.0039144797715288003 0 0.0051937572484441067 -0.0040313667275946241 0 0.0053021829637764448 -0.0043580419817379982 0 0.007022439930374106 -0.0040731133015132273 0 0.006505632537945164 -0.0034451772153180284 0 0.0064703400592024708 -0.0040263388137459525 0 0.006505632537945164 -0.0034451772153180284 0 0.0060305551106876907 -0.0037954969756565922 0 0.0064703400592024708 -0.0040263388137459525 0 0.0060305551106876907 -0.0037954969756565922 0 0.0064703400592024708 -0.0040263388137459525 0 0.0058504262654751763 -0.0044631371414415102 0 0.0064703400592024708 -0.0040263388137459525 0 0.0064822252974382159 -0.0046231293743869981 0 0.0058504262654751763 -0.0044631371414415102 0 0.0048215539324706755 -0.003258751723695432 0 0.0027425587877033986 -0.0063462756450283634 0 0.007022439930374106 -0.0040731133015132273 0 0.0064703400592024708 -0.0040263388137459525 0 0.0064822252974382159 -0.0046231293743869981 0 0.0003367907625994299 -0.0058446648041399684 0 -0.00013325854197466342 -0.0065372553877659934 0 -5.4488900833250042e-06 -0.0078214296922132897 0 -0.0030789020694967262 -0.013335129979137808 0 -0.00056835974754204828 -0.012452303711364892 0 -0.00020886304633452405 -0.013613233039692129 0 0.0027425587877033986 -0.0063462756450283634 0 0.0025332329095722672 -0.0091275307485886841 0 0.0027425587877033986 -0.0063462756450283634 0 0.00067918526904391335 -0.0086380592178603183 0 -2.2776565597380828e-06 -0.0098703096503209332 0 -0.00014594349285402275 -0.010176319359906568 0 -5.4488900833250042e-06 -0.0078214296922132897 0 -0.0030789020694967262 -0.013335129979137808 0 -0.00056835974754204828 -0.012452303711364892 0 -0.00014594349285402275 -0.010176319359906568 0 -0.00013325854197466342 -0.0065372553877659934 0 -0.00014594349285402275 -0.010176319359906568 0 -5.4488900833250042e-06 -0.0078214296922132897 0 -2.2776565597380828e-06 -0.0098703096503209332 0 1.1477439970299859e-06 -0.0069205979018682837 0 -5.4488900833250042e-06 -0.0078214296922132897 0 0.0003367907625994299 -0.0058446648041399684 0 1.1477439970299859e-06 -0.0069205979018682837 0 -5.4488900833250042e-06 -0.0078214296922132897 0 0.0005709235660970182 -0.014300914777662899 0 0.00018206711179162777 -0.012741558991933412 0 0.00031507329555357708 -0.01405451728192009 0 0.0005709235660970182 -0.014300914777662899 0 -0.00020886304633452405 -0.013613233039692129 0 0.00018206711179162777 -0.012741558991933412 0 -0.00056835974754204828 -0.012452303711364892 0 -0.00020886304633452405 -0.013613233039692129 0 0.00018206711179162777 -0.012741558991933412 0 -2.2776565597380828e-06 -0.0098703096503209332 0 -0.00014594349285402275 -0.010176319359906568 0 1.3966753816742834e-06 -0.012819702986332693 0 -0.00014594349285402275 -0.010176319359906568 0 0.00018206711179162777 -0.012741558991933412 0 1.3966753816742834e-06 -0.012819702986332693 0 -0.00056835974754204828 -0.012452303711364892 0 -0.00014594349285402275 -0.010176319359906568 0 0.00018206711179162777 -0.012741558991933412 0 0.00018206711179162777 -0.012741558991933412 0 1.3966753816742834e-06 -0.012819702986332693 0 0.00031507329555357708 -0.01405451728192009 0 1.3966753816742834e-06 -0.012819702986332693 0 0.00031507329555357708 -0.01405451728192009 0 1.2329488099741222e-07 -0.015767878290988184 0 0.00031507329555357708 -0.01405451728192009 0 0.00025565205465434836 -0.015240567692590322 0 1.2329488099741222e-07 -0.015767878290988184 0 0.0005709235660970182 -0.014300914777662899 0 0.00031507329555357708 -0.01405451728192009 0 0.00025565205465434836 -0.015240567692590322 0 0.0005709235660970182 -0.014300914777662899 0 0.00025565205465434836 -0.015240567692590322 0 2.4172649308548861e-05 -0.014476128177394096 0 -0.0001330965828331115 -0.017138924247942042 0 0.00023355065188998938 -0.018512327906683609 0 -0.0012503954581668171 -0.018968049049596314 0 -9.5024289028404282e-05 -0.016378883916773394 0 0.00024577255206911509 -0.015723562915015105 0 0.00025565205465434836 -0.015240567692590322 0 -0.0001330965828331115 -0.017138924247942042 0 2.4172649308548861e-05 -0.014476128177394096 0 0.00025565205465434836 -0.015240567692590322 0 1.2329488099741222e-07 -0.015767878290988184 0 -0.0001330965828331115 -0.017138924247942042 0 -0.0001330965828331115 -0.017138924247942042 0 1.5981914689580504e-07 -0.018715912189495316 0 0.000181310622835826 -0.019284053993918554 0 1.2329488099741222e-07 -0.015767878290988184 0 -0.0001330965828331115 -0.017138924247942042 0 1.5981914689580504e-07 -0.018715912189495316 0 -0.0001330965828331115 -0.017138924247942042 0 0.000181310622835826 -0.019284053993918554 0 0.00034373660706571999 -0.019003032591427466 0 1.5981914689580504e-07 -0.018715912189495316 0 0.000181310622835826 -0.019284053993918554 0 7.1808692229750619e-07 -0.021664943186656228 0 0.000181310622835826 -0.019284053993918554 0 0.00034373660706571999 -0.019003032591427466 0 8.5064786000766044e-05 -0.020186890614070314 0 -0.00049726006575212436 -0.024427797888851306 0 -0.00027189001118077175 -0.025166233642030474 0 0.00034373660706571999 -0.019003032591427466 0 0.0002288001108927141 -0.018769899879349346 0 9.7547149525328825e-05 -0.018896314579921247 0 0.00034373660706571999 -0.019003032591427466 0 0.00033518884721988798 -0.018735868893232373 0 0.00023355065188998938 -0.018512327906683609 0 0.00034373660706571999 -0.019003032591427466 0 0.00033518884721988798 -0.018735868893232373 0 0.00036096572960348785 -0.018752398076707998 0 0.00034373660706571999 -0.019003032591427466 0 0.0002288001108927141 -0.018769899879349346 0 0.00036096572960348785 -0.018752398076707998 0 -0.0001330965828331115 -0.017138924247942042 0 0.00034373660706571999 -0.019003032591427466 0 0.00023355065188998938 -0.018512327906683609 0 0.00043607930179294043 -0.020571358880915082 0 0.00056321212585216821 -0.024819919753355565 0 0.00023355065188998938 -0.018512327906683609 0 -0.00025462344519206907 -0.019137952320578008 0 -0.0012503954581668171 -0.018968049049596314 0 -0.00025462344519206907 -0.019137952320578008 0 0.00030650669825783633 -0.018815527279189271 0 0.00035081968958165013 -0.019071376418691135 0 0.00033518884721988798 -0.018735868893232373 0 0.00023355065188998938 -0.018512327906683609 0 0.00030650669825783633 -0.018815527279189271 0 0.00023355065188998938 -0.018512327906683609 0 -0.00025462344519206907 -0.019137952320578008 0 0.00030650669825783633 -0.018815527279189271 0 0.00045919626463970478 -0.018731026362154162 0 0.00036096572960348785 -0.018752398076707998 0 0.00035081968958165013 -0.019071376418691135 0 -0.00018261443770837131 -0.025487323023101954 0 -0.00013360165761307482 -0.025383535089454255 0 0.00033518884721988798 -0.018735868893232373 0 0.00036096572960348785 -0.018752398076707998 0 0.00030650669825783633 -0.018815527279189271 0 0.00036096572960348785 -0.018752398076707998 0 0.00030650669825783633 -0.018815527279189271 0 0.00035081968958165013 -0.019071376418691135 0 -0.00018261443770837131 -0.025487323023101954 0 0.00056321212585216821 -0.024819919753355565 0 -9.21348669071584e-05 -0.027190393170189332 0 -0.00040550616261126379 -0.026710451494148624 0 -0.00098762619364368867 -0.02694954144307074 0 -9.21348669071584e-05 -0.027190393170189332 0 -0.00040550616261126379 -0.026710451494148624 0 0.00042087285549882687 -0.026730391413213928 0 0.00053193110586065111 -0.027277909434459978 0 0.00042087285549882687 -0.026730391413213928 0 0.00088383644767327978 -0.026871078789165219 0 0.00053193110586065111 -0.027277909434459978 0 -2.5701406734539729e-05 -0.027152289221895363 0 0.00042087285549882687 -0.026730391413213928 0 0.00056321212585216821 -0.024819919753355565 0 0.00021811469765115318 -0.025351566529221159 0 0.00042087285549882687 -0.026730391413213928 0 0.00088383644767327978 -0.026871078789165219 0 0.0005927217156517495 -0.02636137340094151 0 0.00088383644767327978 -0.026871078789165219 0 0.0011537504675233781 -0.02652661135794137 0 0.0005927217156517495 -0.02636137340094151 0 0.00088383644767327978 -0.026871078789165219 0 0.0014521390729472969 -0.026876711273203874 0 0.0011183541870225643 -0.027396601302968331 0 0.00088383644767327978 -0.026871078789165219 0 0.0014521390729472969 -0.026876711273203874 0 0.0011537504675233781 -0.02652661135794137 0 0.0051937572484441067 -0.0040313667275946241 0 0.0049358027611632578 -0.0038916761959630129 0 0.0051579827082045273 -0.0035459035368666119 0 0.0014521390729472969 -0.026876711273203874 0 0.0017820912008858854 -0.026346360338893274 0 0.0011537504675233781 -0.02652661135794137 0 0.0022952138225356055 -0.014010681414347834 0 0.0044339398524016992 -0.011506465215739604 0 0.0051937572484441067 -0.0040313667275946241 0 0.0049358027611632578 -0.0038916761959630129 0 0.0047057662656847755 -0.0042596336277880027 0 0.0019882640683696658 -0.011872895052967347 0 0.00024577255206911509 -0.015723562915015105 0 0.0051937572484441067 -0.0040313667275946241 0 0.0053021829637764448 -0.0043580419817379982 0 0.0047057662656847755 -0.0042596336277880027 0 0.0022952138225356055 -0.014010681414347834 0 0.00024577255206911509 -0.015723562915015105 0 0.00043607930179294043 -0.020571358880915082 0 0.00024577255206911509 -0.015723562915015105 0 0.00053193110586065111 -0.027277909434459978 0 0.00088383644767327978 -0.026871078789165219 0 0.0011183541870225643 -0.027396601302968331 0 -0.00071710916896788152 -0.029094699173883968 0 -0.0003474286821136969 -0.029448519808463521 0 -0.00055576156737547483 -0.029669067876981717 0 -0.0016560452688727555 -0.030914381509019435 0 0.00034962415466419778 -0.030711754149482278 0 -0.00055576156737547483 -0.029669067876981717 0 -0.002584465166430999 -0.029358564061834659 0 -0.0016560452688727555 -0.030914381509019435 0 -0.00055576156737547483 -0.029669067876981717 0 -3.0793577637097889e-06 -0.027079750090775609 0 -0.002584465166430999 -0.029358564061834659 0 -5.0649149316345618e-07 -0.027074992442987004 0 -0.00056100492590026947 -0.027435235723038423 0 -1.0021263604951303e-08 -0.024619664808297935 0 3.8964898131995467e-05 -0.025024049975445158 0 -0.00037906368160266191 -0.024960463533439139 0 9.2909894911435329e-09 -0.027069608804296905 0 -1.0021263604951303e-08 -0.024619664808297935 0 3.8964898131995467e-05 -0.025024049975445158 0 -0.0032689652077716818 -0.030592763738444682 0 -0.0043617271262076139 -0.031069446960905446 0 -0.0016560452688727555 -0.030914381509019435 0 -0.002584465166430999 -0.029358564061834659 0 -0.0032689652077716818 -0.030592763738444682 0 -0.004519893596842111 -0.031077233430760368 0 -0.002584465166430999 -0.029358564061834659 0 -0.0032689652077716818 -0.030592763738444682 0 -0.0016560452688727555 -0.030914381509019435 0 -0.00056100492590026947 -0.027435235723038423 0 -0.00030643935281398862 -0.027468220345134551 0 -0.00037906368160266191 -0.024960463533439139 0 -0.00071007287479107396 -0.025274779681390386 0 -0.00039795170021973128 -0.02540772560672102 0 3.8964898131995467e-05 -0.025024049975445158 0 -0.00037906368160266191 -0.024960463533439139 0 -0.00039795170021973128 -0.02540772560672102 0 -2.0406413091350762e-06 -0.024611186512128614 0 -0.00031598936626335046 -0.021347412297479555 0 7.1808692229750619e-07 -0.021664943186656228 0 6.6774641159214314e-07 -0.024613203013031739 0 0.00024263389898656609 -0.024283742143594206 0 -0.00031598936626335046 -0.021347412297479555 0 7.1808692229750619e-07 -0.021664943186656228 0 8.5064786000766044e-05 -0.020186890614070314 0 0.000181310622835826 -0.019284053993918554 0 7.1808692229750619e-07 -0.021664943186656228 0 8.5064786000766044e-05 -0.020186890614070314 0 -0.00031598936626335046 -0.021347412297479555 0 8.5064786000766044e-05 -0.020186890614070314 0 -4.065414379609107e-05 -0.019664864150136574 0 0.00034373660706571999 -0.019003032591427466 0 8.5064786000766044e-05 -0.020186890614070314 0 -4.065414379609107e-05 -0.019664864150136574 0 0.00024263389898656609 -0.024283742143594206 0 -0.00027189001118077175 -0.025166233642030474 0 -0.00027189001118077175 -0.025166233642030474 0 -0.00030643935281398862 -0.027468220345134551 0 -0.00018261443770837131 -0.025487323023101954 0 -0.00027189001118077175 -0.025166233642030474 0 -0.00029807810234323861 -0.030624661145170429 0 -0.00015642374277317257 -0.030692619047019268 0 -7.227167210542096e-05 -0.030615308221901751 0 -0.00029807810234323861 -0.030624661145170429 0 -0.00043003948112535262 -0.030741626365882263 0 -0.00015795690255170314 -0.030821243695154585 0 -0.00029807810234323861 -0.030624661145170429 0 -0.00015642374277317257 -0.030692619047019268 0 -0.00015795690255170314 -0.030821243695154585 0 2.5544957783103057e-05 -0.026593832481068912 0 -0.00017657213612475484 -0.026784604139943904 0 -0.00055120240120064919 -0.02662894294117402 0 -0.00018261443770837131 -0.025487323023101954 0 -0.00030643935281398862 -0.027468220345134551 0 0.00056321212585216821 -0.024819919753355565 0 -0.00012779162012214746 -0.027019060014495788 0 -0.00015795690255170314 -0.030821243695154585 0 -3.7225341462455415e-05 -0.030770619997541455 0 0.00010199435716170147 -0.030901840265600496 0 -0.00012779162012214746 -0.027019060014495788 0 -0.00056241924324173034 -0.028045174873974642 0 -0.00098762619364368867 -0.02694954144307074 0 -0.001629073322987732 -0.026790387864705466 0 -0.0013866732250068649 -0.026316058124738678 0 2.1747688982685967e-05 -0.030731802237112183 0 -3.7225341462455415e-05 -0.030770619997541455 0 -6.3460051617854677e-05 -0.030688514220111877 0 2.1747688982685967e-05 -0.030731802237112183 0 -3.7225341462455415e-05 -0.030770619997541455 0 7.1004800970191729e-05 -0.030790831815553088 0 -0.00015642374277317257 -0.030692619047019268 0 -3.7225341462455415e-05 -0.030770619997541455 0 -6.3460051617854677e-05 -0.030688514220111877 0 -0.00015642374277317257 -0.030692619047019268 0 -0.00015795690255170314 -0.030821243695154585 0 -3.7225341462455415e-05 -0.030770619997541455 0 -0.00015642374277317257 -0.030692619047019268 0 -6.3460051617854677e-05 -0.030688514220111877 0 -7.9257512171906032e-05 -0.030633978336542019 0 -0.00046282018599534387 -0.027741190310147951 0 -0.00030643935281398862 -0.027468220345134551 0 -6.3460051617854677e-05 -0.030688514220111877 0 -7.9257512171906032e-05 -0.030633978336542019 0 -6.295206555147266e-05 -0.030632814361034124 0 -0.00030643935281398862 -0.027468220345134551 0 -0.00038011008315843963 -0.027730611687477775 0 -0.0032689652077716818 -0.030592763738444682 0 -0.004519893596842111 -0.031077233430760368 0 -0.0043617271262076139 -0.031069446960905446 0 2.1747688982685967e-05 -0.030731802237112183 0 -6.3460051617854677e-05 -0.030688514220111877 0 -6.295206555147266e-05 -0.030632814361034124 0 -0.00038011008315843963 -0.027730611687477775 0 0.00038895591627139119 -0.029468008220855765 0 -0.00019666302677846472 -0.030706855834113696 0 9.9666439759698577e-05 -0.030831799178598462 0 8.3216160810817513e-05 -0.030707826535812482 0 2.1747688982685967e-05 -0.030731802237112183 0 -6.295206555147266e-05 -0.030632814361034124 0 0.0001988119616147928 -0.030777947050704021 0 2.1747688982685967e-05 -0.030731802237112183 0 7.1004800970191729e-05 -0.030790831815553088 0 0.0001988119616147928 -0.030777947050704021 0 -0.00038011008315843963 -0.027730611687477775 0 -0.00071710916896788152 -0.029094699173883968 0 -3.7225341462455415e-05 -0.030770619997541455 0 7.1004800970191729e-05 -0.030790831815553088 0 0.00010199435716170147 -0.030901840265600496 0 7.1004800970191729e-05 -0.030790831815553088 0 0.00010199435716170147 -0.030901840265600496 0 0.0001988119616147928 -0.030777947050704021 0 -0.00056241924324173034 -0.028045174873974642 0 -0.00084163110593624775 -0.028575232185952492 0 0.00010199435716170147 -0.030901840265600496 0 0.0001988119616147928 -0.030777947050704021 0 0.00032530636097170807 -0.030975057093137918 0 9.9666439759698577e-05 -0.030831799178598462 0 8.3216160810817513e-05 -0.030707826535812482 0 0.00034962415466419778 -0.030711754149482278 0 -0.0018463471947843576 -0.02631699774963666 0 -0.0019118407351015627 -0.026032954267346361 0 -0.0021842339622645192 -0.026244073799882868 0 -0.0018463471947843576 -0.02631699774963666 0 -0.0016415552457549343 -0.026061888078847271 0 -0.0019118407351015627 -0.026032954267346361 0 -0.0018463471947843576 -0.02631699774963666 0 -0.0021692445668144269 -0.026689794059286003 0 -0.0021842339622645192 -0.026244073799882868 0 -0.001629073322987732 -0.026790387864705466 0 -0.0018463471947843576 -0.02631699774963666 0 -0.0021692445668144269 -0.026689794059286003 0 -0.001629073322987732 -0.026790387864705466 0 -0.0018463471947843576 -0.02631699774963666 0 -0.0013866732250068649 -0.026316058124738678 0 -0.0018463471947843576 -0.02631699774963666 0 -0.0016415552457549343 -0.026061888078847271 0 -0.0013866732250068649 -0.026316058124738678 0 -0.0016415552457549343 -0.026061888078847271 0 -0.0013866732250068649 -0.026316058124738678 0 -0.0013101250083386903 -0.025953292336613795 0 -0.0013866732250068649 -0.026316058124738678 0 -0.00075921177324892179 -0.026093487881676217 0 -0.0013101250083386903 -0.025953292336613795 0 -0.00098762619364368867 -0.02694954144307074 0 -0.0013866732250068649 -0.026316058124738678 0 -0.00075921177324892179 -0.026093487881676217 0 -0.00040550616261126379 -0.026710451494148624 0 -0.00098762619364368867 -0.02694954144307074 0 -0.00075921177324892179 -0.026093487881676217 0 -0.00063244152963082647 -0.025026413889935248 0 -0.00087011525332617164 -0.024505235705478259 0 -0.00075921177324892179 -0.026093487881676217 0 -0.0010018065267846839 -0.0252408428968664 0 -0.0004870616807615867 -0.025265119889859008 0 -0.00075921177324892179 -0.026093487881676217 0 -0.0010018065267846839 -0.0252408428968664 0 -0.001680928028098683 -0.025375400658948152 0 -0.0010018065267846839 -0.0252408428968664 0 -0.00078775377488291226 -0.024830274819048898 0 -0.0004870616807615867 -0.025265119889859008 0 -0.0010018065267846839 -0.0252408428968664 0 -0.00078775377488291226 -0.024830274819048898 0 -0.0014137317263854937 -0.02486716918669862 0 0.00031239557014883502 -0.017963536598911319 0 0.0018393038138860703 -0.014513443477792199 0 0.0015848794669126682 -0.015350975246624756 0 0.0019887994828384453 -0.015273163591334571 0 0.0016706629231199178 -0.014988881730802575 0 0.0015848794669126682 -0.015350975246624756 0 0.0013993499251635855 -0.015116579247904617 0 0.0016706629231199178 -0.014988881730802575 0 -0.00078775377488291226 -0.024830274819048898 0 -0.0011652805560912302 -0.02445212651261745 0 -0.00038253802965569584 -0.024322025281253944 0 -0.00078775377488291226 -0.024830274819048898 0 -0.0011652805560912302 -0.02445212651261745 0 -0.0014137317263854937 -0.02486716918669862 0 0.00031239557014883502 -0.017963536598911319 0 -0.00070194440307233996 -0.020761948413789231 0 0.0011761820997230547 -0.015433566756107799 0 0.001127433685560536 -0.014989320815706132 0 0.0013993499251635855 -0.015116579247904617 0 -0.0011652805560912302 -0.02445212651261745 0 -0.0014137317263854937 -0.02486716918669862 0 -0.0019672340031725763 -0.024591109456584694 0 0.0015848794669126682 -0.015350975246624756 0 0.0011761820997230547 -0.015433566756107799 0 0.0013993499251635855 -0.015116579247904617 0 -0.0019481140461324127 -0.024759906099068262 0 -0.0014137317263854937 -0.02486716918669862 0 -0.0019672340031725763 -0.024591109456584694 0 -0.0019481140461324127 -0.024759906099068262 0 -0.0014137317263854937 -0.02486716918669862 0 -0.001680928028098683 -0.025375400658948152 0 -0.0010018065267846839 -0.0252408428968664 0 -0.0014137317263854937 -0.02486716918669862 0 -0.001680928028098683 -0.025375400658948152 0 -0.0016415552457549343 -0.026061888078847271 0 -0.0017425825310739744 -0.025747659392936013 0 -0.0019118407351015627 -0.026032954267346361 0 -0.0019481140461324127 -0.024759906099068262 0 -0.001680928028098683 -0.025375400658948152 0 -0.0025542723143683302 -0.024696046176861101 0 -0.0016415552457549343 -0.026061888078847271 0 -0.0013101250083386903 -0.025953292336613795 0 -0.0017425825310739744 -0.025747659392936013 0 -0.00087011525332617164 -0.024505235705478259 0 -0.0013024103924254367 -0.022918665000876876 0 -0.00070194440307233996 -0.020761948413789231 0 -0.0013024103924254367 -0.022918665000876876 0 -0.00070194440307233996 -0.020761948413789231 0 0.00049018578184230408 -0.01761554824696656 0 -0.0019481140461324127 -0.024759906099068262 0 -0.0019673038941869325 -0.024592516993923005 0 -0.0025542723143683302 -0.024696046176861101 0 -0.0015866357474430195 -0.022912591165157214 0 -0.001506659531531538 -0.023040579197265411 0 -0.001547836744190555 -0.023211335419645637 0 -0.0015866357474430195 -0.022912591165157214 0 -0.001506659531531538 -0.023040579197265411 0 -0.0013722620944230865 -0.022871628528582391 0 -0.00070156075689283102 -0.020851270470836916 0 -0.00070194440307233996 -0.020761948413789231 0 -0.0012820460204140721 -0.023122756173260327 0 -0.0010536316330975201 -0.023175076959766075 0 -0.0011369413419442455 -0.023201771779733593 0 -0.00095961372365205668 -0.023170701231673019 0 -0.00096319337249085608 -0.023332340024622603 0 -0.001506659531531538 -0.023040579197265411 0 -0.0013722620944230865 -0.022871628528582391 0 -0.0010507410837440681 -0.023114356145180596 0 -0.0013024103924254367 -0.022918665000876876 0 -0.0010536316330975201 -0.023175076959766075 0 -0.0019118407351015627 -0.026032954267346361 0 -0.0021842339622645192 -0.026244073799882868 0 -0.002146148692148513 -0.025886794572765229 0 -0.0013024103924254367 -0.022918665000876876 0 -0.0015299693034839044 -0.024116636631708384 0 -0.0017425825310739744 -0.025747659392936013 0 -0.0019118407351015627 -0.026032954267346361 0 -0.002146148692148513 -0.025886794572765229 0 0.0012203019269674902 -0.025705525823929359 0 0.00076031732135036921 -0.02572612175238867 0 0.0010294211356951376 -0.026115413844931712 0 0.00076031732135036921 -0.02572612175238867 0 0.0010294211356951376 -0.026115413844931712 0 0.00058180186302879779 -0.025956940116545337 0 0.0012203019269674902 -0.025705525823929359 0 0.00076031732135036921 -0.02572612175238867 0 0.00064998215003847298 -0.025248913075183243 0 0.0056257748523577053 -0.0030148386401633838 0 0.0049137891680177568 -0.0031875648337182363 0 0.0052818247744092182 -0.0036200110715577461 0 0.0012203019269674902 -0.025705525823929359 0 0.0017820912008858854 -0.026346360338893274 0 0.0010294211356951376 -0.026115413844931712 0 0.0017820912008858854 -0.026346360338893274 0 0.0011537504675233781 -0.02652661135794137 0 0.0010294211356951376 -0.026115413844931712 0 0.0041944942175749711 -0.012712187301620886 0 0.0044339398524016992 -0.011506465215739604 0 0.0010294211356951376 -0.026115413844931712 0 0.0005927217156517495 -0.02636137340094151 0 0.00058180186302879779 -0.025956940116545337 0 0.0011537504675233781 -0.02652661135794137 0 0.0010294211356951376 -0.026115413844931712 0 0.0005927217156517495 -0.02636137340094151 0 0.0005927217156517495 -0.02636137340094151 0 -9.493510745960145e-05 -0.026314568868333579 0 0.00023495157123532698 -0.025987916765100674 0 0.00042087285549882687 -0.026730391413213928 0 0.0005927217156517495 -0.02636137340094151 0 -9.493510745960145e-05 -0.026314568868333579 0 0.0005927217156517495 -0.02636137340094151 0 0.00058180186302879779 -0.025956940116545337 0 0.00023495157123532698 -0.025987916765100674 0 -0.00040550616261126379 -0.026710451494148624 0 0.00042087285549882687 -0.026730391413213928 0 -9.493510745960145e-05 -0.026314568868333579 0 -0.00040550616261126379 -0.026710451494148624 0 -0.00075921177324892179 -0.026093487881676217 0 -9.493510745960145e-05 -0.026314568868333579 0 -0.00075921177324892179 -0.026093487881676217 0 -9.493510745960145e-05 -0.026314568868333579 0 -9.9424805775071072e-05 -0.025649151990665565 0 -0.00075921177324892179 -0.026093487881676217 0 -9.9424805775071072e-05 -0.025649151990665565 0 -0.0004870616807615867 -0.025265119889859008 0 -9.493510745960145e-05 -0.026314568868333579 0 -9.9424805775071072e-05 -0.025649151990665565 0 0.00023495157123532698 -0.025987916765100674 0 0.00076031732135036921 -0.02572612175238867 0 0.00058180186302879779 -0.025956940116545337 0 0.00037361045510706149 -0.025634864204782178 0 0.00058180186302879779 -0.025956940116545337 0 0.00023495157123532698 -0.025987916765100674 0 0.00037361045510706149 -0.025634864204782178 0 -9.9424805775071072e-05 -0.025649151990665565 0 0.00023495157123532698 -0.025987916765100674 0 0.00037361045510706149 -0.025634864204782178 0 -9.9424805775071072e-05 -0.025649151990665565 0 0.00037361045510706149 -0.025634864204782178 0 0.00019318367555641992 -0.025294160333410816 0 0.00037361045510706149 -0.025634864204782178 0 0.00019318367555641992 -0.025294160333410816 0 0.00064998215003847298 -0.025248913075183243 0 0.00076031732135036921 -0.02572612175238867 0 0.00037361045510706149 -0.025634864204782178 0 0.00064998215003847298 -0.025248913075183243 0 0.0027931860056426921 -0.018603660588303209 0 0.0030243618149481469 -0.019803724151785211 0 0.00019318367555641992 -0.025294160333410816 0 0.00015159923730408465 -0.024830323786749244 0 -0.00010858898440812004 -0.025159486278241414 0 0.00019318367555641992 -0.025294160333410816 0 0.00015159923730408465 -0.024830323786749244 0 0.00064998215003847298 -0.025248913075183243 0 -9.2985668295036187e-06 -0.024617809143489711 0 0.00059409669742823182 -0.024881561838171501 0 0.00064998215003847298 -0.025248913075183243 0 -0.0004870616807615867 -0.025265119889859008 0 -0.00010858898440812004 -0.025159486278241414 0 -0.00029982418935660236 -0.024838629420819689 0 -9.9424805775071072e-05 -0.025649151990665565 0 -0.0004870616807615867 -0.025265119889859008 0 -0.00010858898440812004 -0.025159486278241414 0 -9.9424805775071072e-05 -0.025649151990665565 0 0.00019318367555641992 -0.025294160333410816 0 -0.00010858898440812004 -0.025159486278241414 0 0.00015159923730408465 -0.024830323786749244 0 -0.00010858898440812004 -0.025159486278241414 0 -0.00029982418935660236 -0.024838629420819689 0 -0.00078775377488291226 -0.024830274819048898 0 -0.0004870616807615867 -0.025265119889859008 0 -0.00029982418935660236 -0.024838629420819689 0 -0.00078775377488291226 -0.024830274819048898 0 -0.00029982418935660236 -0.024838629420819689 0 -0.00038253802965569584 -0.024322025281253944 0 0.0027931860056426921 -0.018603660588303209 0 0.0018393038138860703 -0.014513443477792199 0 0.00015159923730408465 -0.024830323786749244 0 -0.00029982418935660236 -0.024838629420819689 0 -0.00038253802965569584 -0.024322025281253944 0 -9.2985668295036187e-06 -0.024617809143489711 0 -0.00022110666069867743 -0.023853588031963181 0 -0.00072117423560178395 -0.023936813727487002 0 0.0035166180401227801 -0.01048919744029706 0 0.0018393038138860703 -0.014513443477792199 0 0.0024708694853594979 -0.010437078895466851 0 0.0024886294452522327 -0.010435489342745937 0 0.0024824861766010102 -0.010449545914270683 0 0.0037316674002285293 -0.0093622487676124043 0 0.0031070763507234883 -0.0090133418271560687 0 0.0038335192041358637 -0.0085328268743695146 0 0.0034096930510176364 -0.0086107782151128749 0 0.0043740644100577625 -0.0091363539247601034 0 0.0035166180401227801 -0.01048919744029706 0 0.0031070763507234883 -0.0090133418271560687 0 0.0045469182061116655 -0.0027714826618099311 0 0.004188818626897405 -0.0023784202217952575 0 0.0044329746287591273 -0.0024307091082054061 0 0.0042824455087812196 -0.0023585398256365945 0 0.0044329746287591273 -0.0024307091082054061 0 0.0048771804153213017 -0.0022053868629114139 0 0.0037820075796822523 -0.012245624982163281 0 0.0035166180401227801 -0.01048919744029706 0 -9.2985668295036187e-06 -0.024617809143489711 0 0.00059409669742823182 -0.024881561838171501 0 -0.00022110666069867743 -0.023853588031963181 0 0.0045469182061116655 -0.0027714826618099311 0 0.0044329746287591273 -0.0024307091082054061 0 0.0047347708894712381 -0.0025070081070328021 0 0.004188818626897405 -0.0023784202217952575 0 0.0042885578908479632 -0.002358734578094844 0 0.0044329746287591273 -0.0024307091082054061 0 0.0037316674002285293 -0.0093622487676124043 0 0.003598575480469103 -0.0091333657544199302 0 0.0035166180401227801 -0.01048919744029706 0 0.0037316674002285293 -0.0093622487676124043 0 0.0047347708894712381 -0.0025070081070328021 0 0.005046779189371354 -0.0026869246402506392 0 0.0048771804153213017 -0.0022053868629114139 0 0.0044329746287591273 -0.0024307091082054061 0 0.0047347708894712381 -0.0025070081070328021 0 0.0048771804153213017 -0.0022053868629114139 0 0.0037316674002285293 -0.0093622487676124043 0 0.005276418284337267 -0.0059308484983418902 0 0.0045469182061116655 -0.0027714826618099311 0 0.0047347708894712381 -0.0025070081070328021 0 0.005046779189371354 -0.0026869246402506392 0 0.0049137891680177568 -0.0031875648337182363 0 0.0045469182061116655 -0.0027714826618099311 0 0.005046779189371354 -0.0026869246402506392 0 0.0012203019269674902 -0.025705525823929359 0 0.00059409669742823182 -0.024881561838171501 0 0.00064998215003847298 -0.025248913075183243 0 0.0041944942175749711 -0.012712187301620886 0 0.0037820075796822523 -0.012245624982163281 0 0.0056257748523577053 -0.0030148386401633838 0 0.0049137891680177568 -0.0031875648337182363 0 0.005046779189371354 -0.0026869246402506392 0 0.0054696715740933759 -0.0025096641823134009 0 0.0048771804153213017 -0.0022053868629114139 0 0.0055405429806640429 -0.0020436208396971056 0 0.0054696715740933759 -0.0025096641823134009 0 0.005046779189371354 -0.0026869246402506392 0 0.0048771804153213017 -0.0022053868629114139 0 0.005339270443986968 -0.0019102216552777036 0 0.005247467230273758 -0.0021090131649712548 0 0.0055405429806640429 -0.0020436208396971056 0 0.005276418284337267 -0.0059308484983418902 0 0.0056171915296076014 -0.0049897277949594084 0 0.005339270443986968 -0.0019102216552777036 0 0.0053894426963999875 -0.0017199279672485402 0 0.005611636410184734 -0.0017534567929464197 0 0.005339270443986968 -0.0019102216552777036 0 0.0053894426963999875 -0.0017199279672485402 0 0.0051686218171033103 -0.001821205851411378 0 0.005339270443986968 -0.0019102216552777036 0 0.0051686218171033103 -0.001821205851411378 0 0.0051395580860599133 -0.0019789033563899204 0 0.0051686218171033103 -0.001821205851411378 0 0.0050435751101946544 -0.0018310467944568417 0 0.0051951730330048801 -0.0016720141525414154 0 0.0051686218171033103 -0.001821205851411378 0 0.0051395580860599133 -0.0019789033563899204 0 0.0050604060421549427 -0.0019187191219526827 0 0.005339270443986968 -0.0019102216552777036 0 0.0051395580860599133 -0.0019789033563899204 0 0.005247467230273758 -0.0021090131649712548 0 0.0049656885627315612 -0.0021771010376436823 0 0.0051395580860599133 -0.0019789033563899204 0 0.005247467230273758 -0.0021090131649712548 0 0.0049656885627315612 -0.0021771010376436823 0 0.0051395580860599133 -0.0019789033563899204 0 0.0049877652278124945 -0.0020067829668746059 0 0.0049656885627315612 -0.0021771010376436823 0 0.0049877652278124945 -0.0020067829668746059 0 0.0049190064325152034 -0.0020852462488197116 0 0.0051395580860599133 -0.0019789033563899204 0 0.0049877652278124945 -0.0020067829668746059 0 0.0050604060421549427 -0.0019187191219526827 0 0.0024886294452522327 -0.010435489342745937 0 0.0024824861766010102 -0.010449545914270683 0 0.0025136407758975781 -0.010457365235096645 0 0.0031070763507234883 -0.0090133418271560687 0 0.0024779882704057989 -0.0092428797798449931 0 0.0031070763507234883 -0.0090133418271560687 0 0.0027466129210730653 -0.0079771386717678132 0 0.0049656885627315612 -0.0021771010376436823 0 0.0049190064325152034 -0.0020852462488197116 0 0.004867587508650937 -0.0021187251650422682 0 0.0049190064325152034 -0.0020852462488197116 0 0.004867587508650937 -0.0021187251650422682 0 0.0048667489078467506 -0.0020386686802412353 0 0.0049877652278124945 -0.0020067829668746059 0 0.0049190064325152034 -0.0020852462488197116 0 0.0048667489078467506 -0.0020386686802412353 0 0.0049877652278124945 -0.0020067829668746059 0 0.0048667489078467506 -0.0020386686802412353 0 0.0048843738291987479 -0.0019559586926431801 0 0.0048667489078467506 -0.0020386686802412353 0 0.0048228535865974002 -0.0019854858597207949 0 0.0048843738291987479 -0.0019559586926431801 0 0.0048667489078467506 -0.0020386686802412353 0 0.0048228535865974002 -0.0019854858597207949 0 0.0047856939053063062 -0.0020396383283442614 0 0.004867587508650937 -0.0021187251650422682 0 0.0048667489078467506 -0.0020386686802412353 0 0.0047856939053063062 -0.0020396383283442614 0 0.0048228535865974002 -0.0019854858597207949 0 0.0048843738291987479 -0.0019559586926431801 0 0.0048040222150961967 -0.0019163036137958176 0 0.0048228535865974002 -0.0019854858597207949 0 0.0048040222150961967 -0.0019163036137958176 0 0.0047433584393146702 -0.0019803512067281372 0 0.0048843738291987479 -0.0019559586926431801 0 0.0049166317909575168 -0.0018691649145739083 0 0.0049761902641947305 -0.0019210894800294532 0 0.0048843738291987479 -0.0019559586926431801 0 0.0049166317909575168 -0.0018691649145739083 0 0.0048040222150961967 -0.0019163036137958176 0 0.0048040222150961967 -0.0019163036137958176 0 0.004851749260133033 -0.0018277281412997235 0 0.0047618983393327577 -0.0018286300964418731 0 0.0049166317909575168 -0.0018691649145739083 0 0.0048040222150961967 -0.0019163036137958176 0 0.004851749260133033 -0.0018277281412997235 0 0.0050604060421549427 -0.0019187191219526827 0 0.0049761902641947305 -0.0019210894800294532 0 0.0050435751101946544 -0.0018310467944568417 0 0.0049877652278124945 -0.0020067829668746059 0 0.0048843738291987479 -0.0019559586926431801 0 0.0049761902641947305 -0.0019210894800294532 0 0.0049877652278124945 -0.0020067829668746059 0 0.0050604060421549427 -0.0019187191219526827 0 0.0049761902641947305 -0.0019210894800294532 0 0.0049166317909575168 -0.0018691649145739083 0 0.0050435751101946544 -0.0018310467944568417 0 0.0049469718090297465 -0.0017610894677290642 0 0.0049166317909575168 -0.0018691649145739083 0 0.0049761902641947305 -0.0019210894800294532 0 0.0050435751101946544 -0.0018310467944568417 0 0.0051686218171033103 -0.001821205851411378 0 0.0050604060421549427 -0.0019187191219526827 0 0.0050435751101946544 -0.0018310467944568417 0 0.0050435751101946544 -0.0018310467944568417 0 0.0049469718090297465 -0.0017610894677290642 0 0.0050509830103400606 -0.0016560223635430729 0 0.0050435751101946544 -0.0018310467944568417 0 0.0050509830103400606 -0.0016560223635430729 0 0.0051951730330048801 -0.0016720141525414154 0 0.0049469718090297465 -0.0017610894677290642 0 0.0050509830103400606 -0.0016560223635430729 0 0.004945968547347376 -0.0016574871002118954 0 0.004851749260133033 -0.0018277281412997235 0 0.004836269424201815 -0.0017384572717363523 0 0.0047618983393327577 -0.0018286300964418731 0 0.0049166317909575168 -0.0018691649145739083 0 0.0049469718090297465 -0.0017610894677290642 0 0.004851749260133033 -0.0018277281412997235 0 0.0049469718090297465 -0.0017610894677290642 0 0.004851749260133033 -0.0018277281412997235 0 0.004836269424201815 -0.0017384572717363523 0 0.0049469718090297465 -0.0017610894677290642 0 0.004836269424201815 -0.0017384572717363523 0 0.004945968547347376 -0.0016574871002118954 0 0.004945968547347376 -0.0016574871002118954 0 0.0048220114330650337 -0.0016169337260399936 0 0.0050294043621191891 -0.0015476326807423949 0 0.004836269424201815 -0.0017384572717363523 0 0.004945968547347376 -0.0016574871002118954 0 0.0048220114330650337 -0.0016169337260399936 0 0.0050509830103400606 -0.0016560223635430729 0 0.0050294043621191891 -0.0015476326807423949 0 0.0051675782550778772 -0.0014972707710104664 0 0.0050509830103400606 -0.0016560223635430729 0 0.004945968547347376 -0.0016574871002118954 0 0.0050294043621191891 -0.0015476326807423949 0 0.0051675782550778772 -0.0014972707710104664 0 0.0051237940616767636 -0.0012914118743794967 0 0.0055486874623088467 -0.0012585876977216439 0 0.0050294043621191891 -0.0015476326807423949 0 0.0051675782550778772 -0.0014972707710104664 0 0.0051267722725986901 -0.0014667854720166221 0 0.0059313369970056366 -0.0072315460860131724 0 0.0062874293185193227 -0.0090414553974656076 0 0.0053838255965450747 -0.0015298529040855893 0 0.0055486874623088467 -0.0012585876977216439 0 0.0056438678776179153 -0.0014899732635778387 0 0.0051675782550778772 -0.0014972707710104664 0 0.0053838255965450747 -0.0015298529040855893 0 0.0055486874623088467 -0.0012585876977216439 0 0.0053894426963999875 -0.0017199279672485402 0 0.0053838255965450747 -0.0015298529040855893 0 0.0056438678776179153 -0.0014899732635778387 0 0.0053894426963999875 -0.0017199279672485402 0 0.0053838255965450747 -0.0015298529040855893 0 0.0051951730330048801 -0.0016720141525414154 0 0.0051675782550778772 -0.0014972707710104664 0 0.0053838255965450747 -0.0015298529040855893 0 0.0051951730330048801 -0.0016720141525414154 0 0.0050509830103400606 -0.0016560223635430729 0 0.0051675782550778772 -0.0014972707710104664 0 0.0051951730330048801 -0.0016720141525414154 0 0.0053894426963999875 -0.0017199279672485402 0 0.0051686218171033103 -0.001821205851411378 0 0.0051951730330048801 -0.0016720141525414154 0 -0.0012954512130799861 -0.023413509422142164 0 -0.0015070439280402551 -0.023481350207973713 0 -0.0012459812509967735 -0.023625526651585588 0 -0.0012954512130799861 -0.023413509422142164 0 -0.0012459812509967735 -0.023625526651585588 0 -0.0010739144287893203 -0.023422286836709275 0 -0.001506659531531538 -0.023040579197265411 0 -0.0013171076181781184 -0.023188909197797765 0 -0.0010983284211386133 -0.023136571285594296 0 -0.0013171076181781184 -0.023188909197797765 0 -0.0010739144287893203 -0.023422286836709275 0 -0.0010983284211386133 -0.023136571285594296 0 -0.0012954512130799861 -0.023413509422142164 0 -0.0013171076181781184 -0.023188909197797765 0 -0.0010739144287893203 -0.023422286836709275 0 -0.0012954512130799861 -0.023413509422142164 0 -0.0013171076181781184 -0.023188909197797765 0 -0.0014159574172774351 -0.023306116861366695 0 -0.0014159574172774351 -0.023306116861366695 0 -0.0014464408150534622 -0.023187770471173673 0 -0.001547836744190555 -0.023211335419645637 0 -0.0013171076181781184 -0.023188909197797765 0 -0.0014159574172774351 -0.023306116861366695 0 -0.0014464408150534622 -0.023187770471173673 0 -0.001506659531531538 -0.023040579197265411 0 -0.0013171076181781184 -0.023188909197797765 0 -0.0014464408150534622 -0.023187770471173673 0 -0.001506659531531538 -0.023040579197265411 0 -0.0014464408150534622 -0.023187770471173673 0 -0.001547836744190555 -0.023211335419645637 0 0.001127433685560536 -0.014989320815706132 0 0.0010788548228614114 -0.014542110919211237 0 0.0013517901755333258 -0.01469683628189441 0 -0.0014159574172774351 -0.023306116861366695 0 -0.001547836744190555 -0.023211335419645637 0 -0.0015070439280402551 -0.023481350207973713 0 0.00049018578184230408 -0.01761554824696656 0 0.001707946764307273 -0.012274215561710621 0 -0.0012954512130799861 -0.023413509422142164 0 -0.0014159574172774351 -0.023306116861366695 0 -0.0015070439280402551 -0.023481350207973713 0 0.004471253763775448 -0.0019499751699877572 0 0.0045125913932188904 -0.0019491884574260601 0 0.0045310585667969212 -0.0018766735236405206 0 0.0045125913932188904 -0.0019491884574260601 0 0.0045983980961466627 -0.0019128685173396254 0 0.0045310585667969212 -0.0018766735236405206 0 0.0045125913932188904 -0.0019491884574260601 0 0.0045983980961466627 -0.0019128685173396254 0 0.0045749132927091441 -0.0019888536058270739 0 0.004471253763775448 -0.0019499751699877572 0 0.0045125913932188904 -0.0019491884574260601 0 0.0045897832880346986 -0.002063700967509807 0 0.0045983980961466627 -0.0019128685173396254 0 0.0045749132927091441 -0.0019888536058270739 0 0.0046627579394287431 -0.0019687969303177457 0 0.0016987602243806472 -0.0098521032574833359 0 0.0019182549550023147 -0.010534839903870542 0 0.001707946764307273 -0.012274215561710621 0 0.0019182549550023147 -0.010534839903870542 0 0.001127433685560536 -0.014989320815706132 0 0.0013517901755333258 -0.01469683628189441 0 0.0013993499251635855 -0.015116579247904617 0 0.0013517901755333258 -0.01469683628189441 0 0.0013993499251635855 -0.015116579247904617 0 0.0016706629231199178 -0.014988881730802575 0 0.0019182549550023147 -0.010534839903870542 0 0.0024779882704057989 -0.0092428797798449931 0 0.0019182549550023147 -0.010534839903870542 0 0.0019708964347229575 -0.012607103321646797 0 0.0048918156458876766 -0.0021911815960252963 0 0.0047058862471256492 -0.002055066799835492 0 0.0047856939053063062 -0.0020396383283442614 0 0.0024824861766010102 -0.010449545914270683 0 0.0025112111184910123 -0.010462346121969217 0 0.0025136407758975781 -0.010457365235096645 0 0.0025295024704254532 -0.010468526173524463 0 0.0025112111184910123 -0.010462346121969217 0 0.0025136407758975781 -0.010457365235096645 0 0.0018393038138860703 -0.014513443477792199 0 0.0019708964347229575 -0.012607103321646797 0 0.0047058862471256492 -0.002055066799835492 0 0.0047856939053063062 -0.0020396383283442614 0 0.0047433584393146702 -0.0019803512067281372 0 0.0048228535865974002 -0.0019854858597207949 0 0.0047856939053063062 -0.0020396383283442614 0 0.0047433584393146702 -0.0019803512067281372 0 0.0048040222150961967 -0.0019163036137958176 0 0.0047433584393146702 -0.0019803512067281372 0 0.004698813655381954 -0.0019122890690145102 0 0.0045749132927091441 -0.0019888536058270739 0 0.0047058862471256492 -0.002055066799835492 0 0.0046627579394287431 -0.0019687969303177457 0 0.0047433584393146702 -0.0019803512067281372 0 0.0046627579394287431 -0.0019687969303177457 0 0.004698813655381954 -0.0019122890690145102 0 0.0047058862471256492 -0.002055066799835492 0 0.0047433584393146702 -0.0019803512067281372 0 0.0046627579394287431 -0.0019687969303177457 0 0.0045983980961466627 -0.0019128685173396254 0 0.0046627579394287431 -0.0019687969303177457 0 0.004698813655381954 -0.0019122890690145102 0 0.0045983980961466627 -0.0019128685173396254 0 0.004698813655381954 -0.0019122890690145102 0 0.0046772478473115489 -0.0018437056259019333 0 0.0048040222150961967 -0.0019163036137958176 0 0.004698813655381954 -0.0019122890690145102 0 0.0047618983393327577 -0.0018286300964418731 0 0.0047618983393327577 -0.0018286300964418731 0 0.0046772478473115489 -0.0018437056259019333 0 0.0047104987444106248 -0.001766167270672088 0 0.004698813655381954 -0.0019122890690145102 0 0.0047618983393327577 -0.0018286300964418731 0 0.0046772478473115489 -0.0018437056259019333 0 0.0046772478473115489 -0.0018437056259019333 0 0.0047104987444106248 -0.001766167270672088 0 0.0046017420543632854 -0.0018188521899625673 0 0.004836269424201815 -0.0017384572717363523 0 0.0047618983393327577 -0.0018286300964418731 0 0.0047104987444106248 -0.001766167270672088 0 0.0048220114330650337 -0.0016169337260399936 0 0.0047104987444106248 -0.001766167270672088 0 0.0045828778813716275 -0.0017258712294926932 0 0.004836269424201815 -0.0017384572717363523 0 0.0048220114330650337 -0.0016169337260399936 0 0.0047104987444106248 -0.001766167270672088 0 0.0045828778813716275 -0.0017258712294926932 0 0.0044446362682897976 -0.0017757296012331594 0 0.0044660392986650647 -0.0016724266231107605 0 0.0045828778813716275 -0.0017258712294926932 0 0.004539313008745164 -0.0017957465756810033 0 0.0044446362682897976 -0.0017757296012331594 0 0.0045828778813716275 -0.0017258712294926932 0 0.004539313008745164 -0.0017957465756810033 0 0.0046017420543632854 -0.0018188521899625673 0 0.004539313008745164 -0.0017957465756810033 0 0.0046017420543632854 -0.0018188521899625673 0 0.0045310585667969212 -0.0018766735236405206 0 0.0047104987444106248 -0.001766167270672088 0 0.0045828778813716275 -0.0017258712294926932 0 0.0046017420543632854 -0.0018188521899625673 0 0.0045983980961466627 -0.0019128685173396254 0 0.0046772478473115489 -0.0018437056259019333 0 0.0046017420543632854 -0.0018188521899625673 0 0.0045983980961466627 -0.0019128685173396254 0 0.0046017420543632854 -0.0018188521899625673 0 0.0045310585667969212 -0.0018766735236405206 0 0.004471253763775448 -0.0019499751699877572 0 0.0045310585667969212 -0.0018766735236405206 0 0.0044446362682897976 -0.0017757296012331594 0 0.001707946764307273 -0.012274215561710621 0 0.0025189169359654136 -0.0055743974829040362 0 0.005201948103781706 -0.0088491976250167585 0 0.0047812894312427578 -0.0052566802962638534 0 0.0024767926739664953 -0.0073467872578724166 0 0.001707946764307273 -0.012274215561710621 0 0.00084122543458980752 -0.01558490776893796 0 0.004539313008745164 -0.0017957465756810033 0 0.0045310585667969212 -0.0018766735236405206 0 0.0044446362682897976 -0.0017757296012331594 0 0.0025189169359654136 -0.0055743974829040362 0 0.0027564159938191436 -0.0037840215914376149 0 0.0047812894312427578 -0.0052566802962638534 0 0.002260126891777152 -0.0052578636101147675 0 0.0032053313408676723 -0.0032470799437675055 0 0.002260126891777152 -0.0052578636101147675 0 0.0015107877890418574 -0.0033202833627488629 0 0.0032053313408676723 -0.0032470799437675055 0 0.0047812894312427578 -0.0052566802962638534 0 0.002260126891777152 -0.0052578636101147675 0 0.0024767926739664953 -0.0073467872578724166 0 0.002260126891777152 -0.0052578636101147675 0 0.0024767926739664953 -0.0073467872578724166 0 -0.00024907540880064283 -0.0058653464875937636 0 0.0037499930334034246 -0.028847891863668977 0 0.0036293154829396147 -0.029024281770222107 0 0.0015880599399346401 -0.028487716551467986 0 0.0036213388809112719 -0.046338622706046745 0 0.0035714327987691821 -0.046559460397669582 0 0.0036760854082330775 -0.046449847830542436 0 0.0027769584427052639 -0.026402556761182444 0 0.0017945431985694248 -0.034272472735205353 0 0.0036213388809112719 -0.046338622706046745 0 0.0036760854082330775 -0.046449847830542436 0 0.0037955263515630808 -0.046337599754313188 0 0.00060686051890319068 -0.038385705627814001 0 0.0017945431985694248 -0.034272472735205353 0 0.0027769584427052639 -0.026402556761182444 0 0.0031895917234907494 -0.025553620145088243 0 0.0033159600135513993 -0.0010101821724447342 0 0.0032053313408676723 -0.0032470799437675055 0 0.0042671912088898386 -0.0016748630579967603 0 0.0033159600135513993 -0.0010101821724447342 0 0.0015107877890418574 -0.0033202833627488629 0 0.0032053313408676723 -0.0032470799437675055 0 0.0031895917234907494 -0.025553620145088243 0 0.0028791015167061672 -0.019584610946223227 0 0.0023819109600701307 -0.025752207439238881 0 0.0020837199616468684 -0.02617559891308139 0 0.0017151174406551126 -0.025769221749008125 0 0.0044446362682897976 -0.0017757296012331594 0 0.0042671912088898386 -0.0016748630579967603 0 0.0044660392986650647 -0.0016724266231107605 0 0.0047812894312427578 -0.0052566802962638534 0 0.0032053313408676723 -0.0032470799437675055 0 0.0042671912088898386 -0.0016748630579967603 0 0.0042671912088898386 -0.0016748630579967603 0 0.0044660392986650647 -0.0016724266231107605 0 0.0043237019397267106 -0.001361389549167494 0 0.0044767950719611441 -0.020399003012976764 0 0.0046306908229930546 -0.02042004216023386 0 0.0047331346671730425 -0.020040148074418222 0 0.0046306908229930546 -0.02042004216023386 0 0.0048789961466533501 -0.020215692293842475 0 0.0047331346671730425 -0.020040148074418222 0 0.0034311668027072074 -0.023936880861960469 0 0.0043182784569828769 -0.023081557204378725 0 0.0027769584427052639 -0.026402556761182444 0 0.0032789203500519426 -0.030325549230536566 0 0.0033159600135513993 -0.0010101821724447342 0 0.0042671912088898386 -0.0016748630579967603 0 0.0043237019397267106 -0.001361389549167494 0 0.0015231681132655726 -0.024022797077172874 0 0.0011778289125225427 -0.024527051282314728 0 0.0041263264556446761 -0.02446460120618385 0 0.0031895917234907494 -0.025553620145088243 0 0.0034311668027072074 -0.023936880861960469 0 0.0027769584427052639 -0.026402556761182444 0 0.0034311668027072074 -0.023936880861960469 0 0.0049143510681017638 -0.020374527735371226 0 0.0050938347177786622 -0.020451518083568206 0 0.0052151335123613255 -0.020359112732289155 0 0.0046020817252758724 -0.020401522271333041 0 0.0049143510681017638 -0.020374527735371226 0 0.0050938347177786622 -0.020451518083568206 0 0.0034311668027072074 -0.023936880861960469 0 0.0041612667934404352 -0.01648078502800273 0 0.0043182784569828769 -0.023081557204378725 0 0.0045878137701133859 -0.02281471202039392 0 0.0050642896113570167 -0.020228573269980968 0 0.0049304360881040135 -0.020397740854539416 0 0.0052151335123613255 -0.020359112732289155 0 0.0046306908229930546 -0.02042004216023386 0 0.0048789961466533501 -0.020215692293842475 0 0.0049304360881040135 -0.020397740854539416 0 0.0048789961466533501 -0.020215692293842475 0 0.0050642896113570167 -0.020228573269980968 0 0.0049304360881040135 -0.020397740854539416 0 0.0045828778813716275 -0.0017258712294926932 0 0.0044660392986650647 -0.0016724266231107605 0 0.0046837013180921596 -0.0015227878297023017 0 0.0044660392986650647 -0.0016724266231107605 0 0.0043237019397267106 -0.001361389549167494 0 0.0046837013180921596 -0.0015227878297023017 0 0.0050938347177786622 -0.020451518083568206 0 0.0052151335123613255 -0.020359112732289155 0 0.005534449972448759 -0.020477584140654242 0 0.0048220114330650337 -0.0016169337260399936 0 0.0046837013180921596 -0.0015227878297023017 0 0.0049039721948983114 -0.0014940930154660294 0 0.0048220114330650337 -0.0016169337260399936 0 0.0045828778813716275 -0.0017258712294926932 0 0.0046837013180921596 -0.0015227878297023017 0 0.0041612667934404352 -0.01648078502800273 0 0.0051069276411852072 -0.012341315104971559 0 0.0050642896113570167 -0.020228573269980968 0 0.0052151335123613255 -0.020359112732289155 0 0.0052558605209149572 -0.020149901102567709 0 0.0052151335123613255 -0.020359112732289155 0 0.0052558605209149572 -0.020149901102567709 0 0.0054322356262397568 -0.020241759679126902 0 0.0052558605209149572 -0.020149901102567709 0 0.0052772642506259404 -0.019895051680658395 0 0.0054995063883285841 -0.02003537489118646 0 0.0050642896113570167 -0.020228573269980968 0 0.0052558605209149572 -0.020149901102567709 0 0.00503457250919231 -0.020042912542146851 0 0.0052558605209149572 -0.020149901102567709 0 0.0052772642506259404 -0.019895051680658395 0 0.00503457250919231 -0.020042912542146851 0 0.0053857699661347298 -0.029838237582661603 0 0.0076685205103944852 -0.02349513515832044 0 0.0052772642506259404 -0.019895051680658395 0 0.0049785621523868147 -0.019706681335375967 0 0.0053651336634929041 -0.019616665864295654 0 0.0052772642506259404 -0.019895051680658395 0 0.0049785621523868147 -0.019706681335375967 0 0.00503457250919231 -0.020042912542146851 0 0.0053857699661347298 -0.029838237582661603 0 0.0032789203500519426 -0.030325549230536566 0 0.0043906091206581911 -0.045946917577832459 0 0.0039522074736218771 -0.046128452130198373 0 0.0036254147886420952 -0.04657601684929516 0 0.0043906091206581911 -0.045946917577832459 0 0.0041165990933373425 -0.045983229328882436 0 0.0039522074736218771 -0.046128452130198373 0 0.0045137266050506017 -0.045947162611138105 0 0.0041165990933373425 -0.045983229328882436 0 0.0044032598889854214 -0.045368699504203407 0 0.0053857699661347298 -0.029838237582661603 0 0.0051664059224000424 -0.030137045735111469 0 0.0049785621523868147 -0.019706681335375967 0 0.00503457250919231 -0.020042912542146851 0 0.0047331346671730425 -0.020040148074418222 0 0.0048789961466533501 -0.020215692293842475 0 0.00503457250919231 -0.020042912542146851 0 0.0047331346671730425 -0.020040148074418222 0 0.0048789961466533501 -0.020215692293842475 0 0.0050642896113570167 -0.020228573269980968 0 0.00503457250919231 -0.020042912542146851 0 0.0036213388809112719 -0.046338622706046745 0 0.0036254147886420952 -0.04657601684929516 0 0.0035714327987691821 -0.046559460397669582 0 0.0035714327987691821 -0.046559460397669582 0 0.0034878862838036155 -0.046293411958468193 0 0.0032041098060180779 -0.046444911307494771 0 0.0035714327987691821 -0.046559460397669582 0 0.0036251891769028448 -0.046386796160524102 0 0.0034878862838036155 -0.046293411958468193 0 0.0036254147886420952 -0.04657601684929516 0 0.0036251891769028448 -0.046386796160524102 0 0.0037405644832368872 -0.046270308506175542 0 0.0039522074736218771 -0.046128452130198373 0 0.0036254147886420952 -0.04657601684929516 0 0.0037405644832368872 -0.046270308506175542 0 0.0036254147886420952 -0.04657601684929516 0 0.0035714327987691821 -0.046559460397669582 0 0.0036251891769028448 -0.046386796160524102 0 0.0036251891769028448 -0.046386796160524102 0 0.0037405644832368872 -0.046270308506175542 0 0.0036368820601741765 -0.046151842121489046 0 0.0036368820601741765 -0.046151842121489046 0 0.0037759073600505595 -0.046002569634551752 0 0.0034381041565168377 -0.046008892244012063 0 0.0037405644832368872 -0.046270308506175542 0 0.0036368820601741765 -0.046151842121489046 0 0.0037759073600505595 -0.046002569634551752 0 0.0039522074736218771 -0.046128452130198373 0 0.0037405644832368872 -0.046270308506175542 0 0.0037759073600505595 -0.046002569634551752 0 0.0041165990933373425 -0.045983229328882436 0 0.0039522074736218771 -0.046128452130198373 0 0.0037759073600505595 -0.046002569634551752 0 0.0037759073600505595 -0.046002569634551752 0 0.0035454012193956172 -0.045677213226376218 0 0.0039032929884852442 -0.045652768387805368 0 0.0041165990933373425 -0.045983229328882436 0 0.0037759073600505595 -0.046002569634551752 0 0.0039032929884852442 -0.045652768387805368 0 0.0031978252511868756 -0.045722061553529349 0 0.0034381041565168377 -0.046008892244012063 0 0.0035454012193956172 -0.045677213226376218 0 0.0037759073600505595 -0.046002569634551752 0 0.0034381041565168377 -0.046008892244012063 0 0.0035454012193956172 -0.045677213226376218 0 0.0034381041565168377 -0.046008892244012063 0 0.0034878862838036155 -0.046293411958468193 0 0.0032198054133800811 -0.046188625363095946 0 0.0036368820601741765 -0.046151842121489046 0 0.0034381041565168377 -0.046008892244012063 0 0.0034878862838036155 -0.046293411958468193 0 0.0036251891769028448 -0.046386796160524102 0 0.0036368820601741765 -0.046151842121489046 0 0.0034878862838036155 -0.046293411958468193 0 0.0034878862838036155 -0.046293411958468193 0 0.0032198054133800811 -0.046188625363095946 0 0.0032041098060180779 -0.046444911307494771 0 0.0032198054133800811 -0.046188625363095946 0 0.0028030549109115403 -0.04636681121422391 0 0.0032041098060180779 -0.046444911307494771 0 0.0034381041565168377 -0.046008892244012063 0 0.0032198054133800811 -0.046188625363095946 0 0.0029779524318813387 -0.045973802530727338 0 0.0032198054133800811 -0.046188625363095946 0 0.0029779524318813387 -0.045973802530727338 0 0.0028030549109115403 -0.04636681121422391 0 0.0031978252511868756 -0.045722061553529349 0 0.0029779524318813387 -0.045973802530727338 0 0.0027951239651550007 -0.045532224350065965 0 0.0031978252511868756 -0.045722061553529349 0 0.0034381041565168377 -0.046008892244012063 0 0.0029779524318813387 -0.045973802530727338 0 0.0029779524318813387 -0.045973802530727338 0 0.0023088579032551067 -0.045960287771101178 0 0.0027951239651550007 -0.045532224350065965 0 0.0029779524318813387 -0.045973802530727338 0 0.0028030549109115403 -0.04636681121422391 0 0.0023088579032551067 -0.045960287771101178 0 0.0028030549109115403 -0.04636681121422391 0 0.0023586036556595292 -0.046653539216362221 0 0.0023088579032551067 -0.045960287771101178 0 0.0028030549109115403 -0.04636681121422391 0 0.0028502671914149387 -0.047035290861455574 0 0.0023586036556595292 -0.046653539216362221 0 0.0028502671914149387 -0.047035290861455574 0 0.0022128519060611671 -0.047430801514052462 0 0.0023586036556595292 -0.046653539216362221 0 0.0028030549109115403 -0.04636681121422391 0 0.0032041098060180779 -0.046444911307494771 0 0.0028502671914149387 -0.047035290861455574 0 0.0035714327987691821 -0.046559460397669582 0 0.0032041098060180779 -0.046444911307494771 0 0.0028502671914149387 -0.047035290861455574 0 0.00045077949510242759 -0.039517824693288649 0 0.00060686051890319068 -0.038385705627814001 0 0.013374369293297527 -0.0049958489496121283 0 0.014748750108764669 -0.0054383708282806694 0 0.013996941910903948 -0.0064037299755659461 0 0.013374369293297527 -0.0049958489496121283 0 0.014443540755702096 -0.0040898101364468453 0 0.014748750108764669 -0.0054383708282806694 0 0.0062874293185193227 -0.0090414553974656076 0 0.0082761373002074989 -0.0051485020556637203 0 0.013374369293297527 -0.0049958489496121283 0 0.014443540755702096 -0.0040898101364468453 0 0.012644297509952968 -0.0037704229095749317 0 0.0062874293185193227 -0.0090414553974656076 0 0.008504688845618006 -0.012336859534406287 0 0.0062874293185193227 -0.0090414553974656076 0 0.0051069276411852072 -0.012341315104971559 0 0.0050294043621191891 -0.0015476326807423949 0 0.0051267722725986901 -0.0014667854720166221 0 0.0049039721948983114 -0.0014940930154660294 0 0.0059347148606547538 -0.020510228555774532 0 0.005534449972448759 -0.020477584140654242 0 0.0058688235165060389 -0.020202446684458805 0 0.0048220114330650337 -0.0016169337260399936 0 0.0050294043621191891 -0.0015476326807423949 0 0.0049039721948983114 -0.0014940930154660294 0 0.005534449972448759 -0.020477584140654242 0 0.0054322356262397568 -0.020241759679126902 0 0.0056340341016280519 -0.020172280838796356 0 0.0052151335123613255 -0.020359112732289155 0 0.005534449972448759 -0.020477584140654242 0 0.0054322356262397568 -0.020241759679126902 0 0.0054322356262397568 -0.020241759679126902 0 0.0056340341016280519 -0.020172280838796356 0 0.0054995063883285841 -0.02003537489118646 0 0.005534449972448759 -0.020477584140654242 0 0.0058688235165060389 -0.020202446684458805 0 0.0056340341016280519 -0.020172280838796356 0 0.0058688235165060389 -0.020202446684458805 0 0.0056340341016280519 -0.020172280838796356 0 0.0058089290511006177 -0.01987389350381363 0 0.0056340341016280519 -0.020172280838796356 0 0.0054995063883285841 -0.02003537489118646 0 0.0058089290511006177 -0.01987389350381363 0 0.008504688845618006 -0.012336859534406287 0 0.0097378565348202988 -0.014146423088133688 0 0.0054995063883285841 -0.02003537489118646 0 0.0055550896253016247 -0.019802230618060124 0 0.0058089290511006177 -0.01987389350381363 0 0.0052772642506259404 -0.019895051680658395 0 0.0054995063883285841 -0.02003537489118646 0 0.0055550896253016247 -0.019802230618060124 0 0.0052558605209149572 -0.020149901102567709 0 0.0054322356262397568 -0.020241759679126902 0 0.0054995063883285841 -0.02003537489118646 0 0.0052772642506259404 -0.019895051680658395 0 0.0055550896253016247 -0.019802230618060124 0 0.0053651336634929041 -0.019616665864295654 0 0.0055550896253016247 -0.019802230618060124 0 0.0057451468843682301 -0.019528933076265638 0 0.0053651336634929041 -0.019616665864295654 0 0.0097378565348202988 -0.014146423088133688 0 0.010904802734876108 -0.017236844590250003 0 0.015073315227580372 -0.0067893813132312375 0 0.014390364255499371 -0.0075128158439058419 0 0.015408154332488251 -0.0081823395551588341 0 0.0055550896253016247 -0.019802230618060124 0 0.0058089290511006177 -0.01987389350381363 0 0.0057451468843682301 -0.019528933076265638 0 0.015073315227580372 -0.0067893813132312375 0 0.014390364255499371 -0.0075128158439058419 0 0.013996941910903948 -0.0064037299755659461 0 0.014390364255499371 -0.0075128158439058419 0 0.013996941910903948 -0.0064037299755659461 0 0.013582748856552761 -0.0074538982180923198 0 0.014748750108764669 -0.0054383708282806694 0 0.015073315227580372 -0.0067893813132312375 0 0.013996941910903948 -0.0064037299755659461 0 0.013374369293297527 -0.0049958489496121283 0 0.013996941910903948 -0.0064037299755659461 0 0.012663018340149993 -0.0061450325317426845 0 0.013996941910903948 -0.0064037299755659461 0 0.013582748856552761 -0.0074538982180923198 0 0.012663018340149993 -0.0061450325317426845 0 0.012524724697366154 -0.0066190404982752445 0 0.01191206891073157 -0.005915403753383338 0 0.013582748856552761 -0.0074538982180923198 0 0.012480764861058893 -0.0056088313565890819 0 0.012288708595842631 -0.0078279273192365696 0 0.010802862766855296 -0.0072294241451082925 0 0.012480764861058893 -0.0056088313565890819 0 0.012288708595842631 -0.0078279273192365696 0 0.010802862766855296 -0.0072294241451082925 0 0.0094669128057018204 -0.0073793304365811531 0 0.0095837551820558593 -0.00840239875835605 0 0.010802862766855296 -0.0072294241451082925 0 0.0096760678263933392 -0.0064589480840283979 0 0.0094669128057018204 -0.0073793304365811531 0 0.010802862766855296 -0.0072294241451082925 0 0.010921115061563716 -0.0054980757309364831 0 0.0096760678263933392 -0.0064589480840283979 0 0.010921115061563716 -0.0054980757309364831 0 0.0096471995060856807 -0.0053206996786054461 0 0.0096760678263933392 -0.0064589480840283979 0 0.010921115061563716 -0.0054980757309364831 0 0.010126478476091145 -0.0045037009030725337 0 0.0096471995060856807 -0.0053206996786054461 0 0.010802862766855296 -0.0072294241451082925 0 0.010921115061563716 -0.0054980757309364831 0 0.012480764861058893 -0.0056088313565890819 0 0.01191206891073157 -0.005915403753383338 0 0.010530626477907251 -0.0046128778468480132 0 0.013374369293297527 -0.0049958489496121283 0 0.012663018340149993 -0.0061450325317426845 0 0.011740687056722664 -0.0048075184898152138 0 0.010921115061563716 -0.0054980757309364831 0 0.012480764861058893 -0.0056088313565890819 0 0.011247163076645307 -0.0037964517735763034 0 0.010921115061563716 -0.0054980757309364831 0 0.011247163076645307 -0.0037964517735763034 0 0.010126478476091145 -0.0045037009030725337 0 0.011247163076645307 -0.0037964517735763034 0 0.010126478476091145 -0.0045037009030725337 0 0.0095375375281203378 -0.0035598549433265569 0 0.011247163076645307 -0.0037964517735763034 0 0.0095375375281203378 -0.0035598549433265569 0 0.010037490119583161 -0.002065284769547013 0 0.010530626477907251 -0.0046128778468480132 0 0.0082325247977284213 -0.0028920914623370461 0 0.011740687056722664 -0.0048075184898152138 0 0.012644297509952968 -0.0037704229095749317 0 0.010820747450948165 -0.0034544579755699414 0 0.013374369293297527 -0.0049958489496121283 0 0.011740687056722664 -0.0048075184898152138 0 0.012644297509952968 -0.0037704229095749317 0 0.0084806754139670863 -0.0029533164580332243 0 0.0070640306915318394 -0.0033275303685123409 0 0.0077451044089461279 -0.0017098192446780829 0 0.0084806754139670863 -0.0029533164580332243 0 0.0080399497790570439 -0.0041034994959909905 0 0.0070640306915318394 -0.0033275303685123409 0 0.0084806754139670863 -0.0029533164580332243 0 0.0095375375281203378 -0.0035598549433265569 0 0.0080399497790570439 -0.0041034994959909905 0 0.0084806754139670863 -0.0029533164580332243 0 0.0095375375281203378 -0.0035598549433265569 0 0.010037490119583161 -0.002065284769547013 0 0.0095375375281203378 -0.0035598549433265569 0 0.0089594691737852391 -0.0046774840552285136 0 0.0080399497790570439 -0.0041034994959909905 0 0.010126478476091145 -0.0045037009030725337 0 0.0095375375281203378 -0.0035598549433265569 0 0.0089594691737852391 -0.0046774840552285136 0 0.010126478476091145 -0.0045037009030725337 0 0.0089594691737852391 -0.0046774840552285136 0 0.0096471995060856807 -0.0053206996786054461 0 0.0089594691737852391 -0.0046774840552285136 0 0.0080399497790570439 -0.0041034994959909905 0 0.0081354724898783492 -0.005105922968195742 0 0.0080399497790570439 -0.0041034994959909905 0 0.0072349966732446914 -0.0042421407833089899 0 0.0070640306915318394 -0.0033275303685123409 0 0.0080399497790570439 -0.0041034994959909905 0 0.0072349966732446914 -0.0042421407833089899 0 0.0073639272264996274 -0.0049331605392305142 0 0.0080399497790570439 -0.0041034994959909905 0 0.0073639272264996274 -0.0049331605392305142 0 0.0081354724898783492 -0.005105922968195742 0 0.0073639272264996274 -0.0049331605392305142 0 0.0077956124669058451 -0.0054239537734669966 0 0.0075283230793252625 -0.0058240761773263533 0 0.0070058254339537378 -0.0059718357654936129 0 0.0072768098849183907 -0.005643799998107114 0 0.0085263703100210524 -0.007052059212803035 0 0.0073639272264996274 -0.0049331605392305142 0 0.0077956124669058451 -0.0054239537734669966 0 0.0081354724898783492 -0.005105922968195742 0 0.0077956124669058451 -0.0054239537734669966 0 0.0081533883551693498 -0.005829762278199261 0 0.0075283230793252625 -0.0058240761773263533 0 0.0077956124669058451 -0.0054239537734669966 0 0.0081354724898783492 -0.005105922968195742 0 0.0081533883551693498 -0.005829762278199261 0 0.0081354724898783492 -0.005105922968195742 0 0.0081533883551693498 -0.005829762278199261 0 0.0088137839100843104 -0.0057424607537604946 0 0.0081533883551693498 -0.005829762278199261 0 0.0075283230793252625 -0.0058240761773263533 0 0.0085263703100210524 -0.007052059212803035 0 0.0089594691737852391 -0.0046774840552285136 0 0.0096471995060856807 -0.0053206996786054461 0 0.0088137839100843104 -0.0057424607537604946 0 0.0089594691737852391 -0.0046774840552285136 0 0.0081354724898783492 -0.005105922968195742 0 0.0088137839100843104 -0.0057424607537604946 0 0.0081533883551693498 -0.005829762278199261 0 0.0088137839100843104 -0.0057424607537604946 0 0.0085263703100210524 -0.007052059212803035 0 0.0096471995060856807 -0.0053206996786054461 0 0.0088137839100843104 -0.0057424607537604946 0 0.0096760678263933392 -0.0064589480840283979 0 0.0096760678263933392 -0.0064589480840283979 0 0.0085263703100210524 -0.007052059212803035 0 0.0094669128057018204 -0.0073793304365811531 0 0.0088137839100843104 -0.0057424607537604946 0 0.0096760678263933392 -0.0064589480840283979 0 0.0085263703100210524 -0.007052059212803035 0 0.0085263703100210524 -0.007052059212803035 0 0.0079534199016433778 -0.0076834686918723707 0 0.0087183978059683295 -0.0078747021992829017 0 0.0085263703100210524 -0.007052059212803035 0 0.0094669128057018204 -0.0073793304365811531 0 0.0087183978059683295 -0.0078747021992829017 0 0.0070058254339537378 -0.0059718357654936129 0 0.0085263703100210524 -0.007052059212803035 0 0.0079534199016433778 -0.0076834686918723707 0 0.0070013486135756878 -0.0058739305369903475 0 0.0079534199016433778 -0.0076834686918723707 0 0.0068348561279743302 -0.0071031521436703098 0 0.0069811955807056215 -0.0055678388500990869 0 0.0073324760874026 -0.0062472948663125898 0 0.0072204573816994242 -0.0053676708101363232 0 0.007655760319058934 -0.0058847851602346277 0 0.0079534199016433778 -0.0076834686918723707 0 0.0068348561279743302 -0.0071031521436703098 0 0.0071155819130026667 -0.0079044789163873596 0 0.0060547224903588692 -0.0064860135572852567 0 0.0060668872837398311 -0.0076128724231157487 0 0.0043688724280424116 -0.0065515833908947286 0 0.0068348561279743302 -0.0071031521436703098 0 0.0060547224903588692 -0.0064860135572852567 0 0.0060668872837398311 -0.0076128724231157487 0 0.0068348561279743302 -0.0071031521436703098 0 0.0060668872837398311 -0.0076128724231157487 0 0.0071155819130026667 -0.0079044789163873596 0 0.0070013486135756878 -0.0058739305369903475 0 0.0068348561279743302 -0.0071031521436703098 0 0.0060547224903588692 -0.0064860135572852567 0 0.0060668872837398311 -0.0076128724231157487 0 0.0043688724280424116 -0.0065515833908947286 0 0.0053891196006941103 -0.0088006546826824884 0 0.0060547224903588692 -0.0064860135572852567 0 0.0043688724280424116 -0.0065515833908947286 0 0.0057369703169307716 -0.0054081216548853631 0 0.0048542834078371642 -0.0063828323504543242 0 0.0050056416427694426 -0.005433104291806384 0 0.0052353220149614259 -0.0053413176506389749 0 0.0047661327318544279 -0.0042962046902457638 0 0.0052119292579622181 -0.0041151969165740205 0 0.0043688724280424116 -0.0065515833908947286 0 0.0057369703169307716 -0.0054081216548853631 0 0.0052119292579622181 -0.0041151969165740205 0 0.0070058254339537378 -0.0059718357654936129 0 0.0072768098849183907 -0.005643799998107114 0 0.006037895794275056 -0.0042457821456635359 0 0.0069811955807056215 -0.0055678388500990869 0 0.0064029224311751556 -0.0043670893811583282 0 0.0070013486135756878 -0.0058739305369903475 0 0.0057369703169307716 -0.0054081216548853631 0 0.006043507153637189 -0.0042008358224537874 0 0.0072204573816994242 -0.0053676708101363232 0 0.0064029224311751556 -0.0043670893811583282 0 0.0073639272264996274 -0.0049331605392305142 0 0.0075283230793252625 -0.0058240761773263533 0 0.0064754068622309494 -0.0046054447131097104 0 0.0070013486135756878 -0.0058739305369903475 0 0.0060547224903588692 -0.0064860135572852567 0 0.0057369703169307716 -0.0054081216548853631 0 0.0037706326805545145 -0.0053363251236677369 0 0.0044390898987682293 -0.0061219018097670242 0 0.0034198256644208712 -0.0062915082611642555 0 0.0029902073666095408 -0.0054150648078857581 0 0.0037706326805545145 -0.0053363251236677369 0 0.0034198256644208712 -0.0062915082611642555 0 0.0029902073666095408 -0.0054150648078857581 0 0.0031617134071722105 -0.0046179810201110736 0 0.0037706326805545145 -0.0053363251236677369 0 0.0052353220149614259 -0.0053413176506389749 0 0.0037706326805545145 -0.0053363251236677369 0 0.0044390898987682293 -0.0061219018097670242 0 0.0052353220149614259 -0.0053413176506389749 0 0.0037706326805545145 -0.0053363251236677369 0 0.0041384580265834249 -0.0045375490479170229 0 0.0052353220149614259 -0.0053413176506389749 0 0.0041384580265834249 -0.0045375490479170229 0 0.0047661327318544279 -0.0042962046902457638 0 0.0031617134071722105 -0.0046179810201110736 0 0.0037706326805545145 -0.0053363251236677369 0 0.0041384580265834249 -0.0045375490479170229 0 0.0031617134071722105 -0.0046179810201110736 0 0.0041384580265834249 -0.0045375490479170229 0 0.0035932451415038678 -0.0039202028945894132 0 0.0035932451415038678 -0.0039202028945894132 0 0.0043220380851653282 -0.0038160399927727267 0 0.0037740280553349077 -0.0033552651569787591 0 0.0041384580265834249 -0.0045375490479170229 0 0.0043220380851653282 -0.0038160399927727267 0 0.0047661327318544279 -0.0042962046902457638 0 0.0041384580265834249 -0.0045375490479170229 0 0.0035932451415038678 -0.0039202028945894132 0 0.0043220380851653282 -0.0038160399927727267 0 0.0043220380851653282 -0.0038160399927727267 0 0.0047661327318544279 -0.0042962046902457638 0 0.0049132777886751961 -0.0036447476551805615 0 0.0043220380851653282 -0.0038160399927727267 0 0.0042561929773345681 -0.0030612189482928181 0 0.0049132777886751961 -0.0036447476551805615 0 0.0042561929773345681 -0.0030612189482928181 0 0.0049132777886751961 -0.0036447476551805615 0 0.0048691833749689925 -0.00291237961443567 0 0.0043220380851653282 -0.0038160399927727267 0 0.0042561929773345681 -0.0030612189482928181 0 0.0037740280553349077 -0.0033552651569787591 0 0.0030638992524928215 -0.0032053785878325609 0 0.0031277104771832791 -0.0023401381569384586 0 0.0036514380451901991 -0.0027894478680602847 0 0.0042561929773345681 -0.0030612189482928181 0 0.0037740280553349077 -0.0033552651569787591 0 0.0036514380451901991 -0.0027894478680602847 0 0.0030638992524928215 -0.0032053785878325609 0 0.0037740280553349077 -0.0033552651569787591 0 0.0036514380451901991 -0.0027894478680602847 0 0.0030638992524928215 -0.0032053785878325609 0 0.0035932451415038678 -0.0039202028945894132 0 0.0037740280553349077 -0.0033552651569787591 0 0.0064029224311751556 -0.0043670893811583282 0 0.0058465859530584677 -0.0033843254219250315 0 0.0072349966732446914 -0.0042421407833089899 0 0.0064754068622309494 -0.0046054447131097104 0 0.0070640306915318394 -0.0033275303685123409 0 0.0072349966732446914 -0.0042421407833089899 0 0.0073639272264996274 -0.0049331605392305142 0 0.0064754068622309494 -0.0046054447131097104 0 0.0057369703169307716 -0.0054081216548853631 0 0.006043507153637189 -0.0042008358224537874 0 0.0052119292579622181 -0.0041151969165740205 0 0.006043507153637189 -0.0042008358224537874 0 0.0049132777886751961 -0.0036447476551805615 0 0.0048691833749689925 -0.00291237961443567 0 0.006043507153637189 -0.0042008358224537874 0 0.0052119292579622181 -0.0041151969165740205 0 0.0049132777886751961 -0.0036447476551805615 0 0.0047661327318544279 -0.0042962046902457638 0 0.0052119292579622181 -0.0041151969165740205 0 0.0049132777886751961 -0.0036447476551805615 0 0.0064029224311751556 -0.0043670893811583282 0 0.0054226246169574418 -0.0026907274455460965 0 0.0064319516008705512 -0.004403319600400038 0 0.0056772321637730541 -0.0030659819717112524 0 0.0049309130554001986 -0.0027158910407821244 0 0.0056772321637730541 -0.0030659819717112524 0 0.0049309130554001986 -0.0027158910407821244 0 0.0049217563482352889 -0.0017284100532125579 0 0.0056817240797130157 -0.0031476865164876645 0 0.0063277008441007809 -0.0023526843789885882 0 0.0056400327997819695 -0.0022183016004432526 0 0.0064754068622309494 -0.0046054447131097104 0 0.0056817240797130157 -0.0031476865164876645 0 0.0070640306915318394 -0.0033275303685123409 0 0.0070640306915318394 -0.0033275303685123409 0 0.0063277008441007809 -0.0023526843789885882 0 0.0077451044089461279 -0.0017098192446780829 0 0.0056817240797130157 -0.0031476865164876645 0 0.0070640306915318394 -0.0033275303685123409 0 0.0063277008441007809 -0.0023526843789885882 0 0.0063277008441007809 -0.0023526843789885882 0 0.0055211548746976671 -0.0013724697482844332 0 0.0077451044089461279 -0.0017098192446780829 0 0.0061912697798418284 -0.0016733978654198014 0 0.0071227388327659751 -0.0020372408122220943 0 0.0063277008441007809 -0.0023526843789885882 0 0.0056400327997819695 -0.0022183016004432526 0 0.0055211548746976671 -0.0013724697482844332 0 0.0056817240797130157 -0.0031476865164876645 0 0.0056400327997819695 -0.0022183016004432526 0 0.0049217563482352889 -0.0017284100532125579 0 0.0058465859530584677 -0.0033843254219250315 0 0.0055444943258879907 -0.0028472526275804045 0 0.0056400327997819695 -0.0022183016004432526 0 0.0049217563482352889 -0.0017284100532125579 0 0.0055211548746976671 -0.0013724697482844332 0 0.0068565466736375371 -0.0010861128682264679 0 0.0068985756887480765 -0.0011585428092247144 0 0.0068255413316065904 -0.0012749727092772178 0 0.0068565466736375371 -0.0010861128682264679 0 0.0066913560295188326 -0.0012130375844117834 0 0.0065893390447665122 -0.0010314507786362145 0 0.0068565466736375371 -0.0010861128682264679 0 0.0066913560295188326 -0.0012130375844117834 0 0.0068255413316065904 -0.0012749727092772178 0 0.0031277104771832791 -0.0023401381569384586 0 0.0036514380451901991 -0.0027894478680602847 0 0.0038941705953090453 -0.0018342974377352893 0 0.0042561929773345681 -0.0030612189482928181 0 0.0036514380451901991 -0.0027894478680602847 0 0.0038941705953090453 -0.0018342974377352893 0 0.0054226246169574418 -0.0026907274455460965 0 0.0055165676313839009 -0.0016599334773480087 0 0.0042561929773345681 -0.0030612189482928181 0 0.0048691833749689925 -0.00291237961443567 0 0.0038941705953090453 -0.0018342974377352893 0 0.0049217563482352889 -0.0017284100532125579 0 0.0055211548746976671 -0.0013724697482844332 0 0.0034291457205482398 -0.0010319870914908039 0 0.0049309130554001986 -0.0027158910407821244 0 0.0049217563482352889 -0.0017284100532125579 0 0.0034291457205482398 -0.0010319870914908039 0 0.0061912697798418284 -0.0016733978654198014 0 0.0055165676313839009 -0.0016599334773480087 0 0.0069404803520659829 -0.00108303501457184 0 0.0068985756887480765 -0.0011585428092247144 0 0.0069303164516765318 -0.0011240563127933052 0 0.0068565466736375371 -0.0010861128682264679 0 0.0069404803520659829 -0.00108303501457184 0 0.0068985756887480765 -0.0011585428092247144 0 0.0043607001281616847 -0.0013413240010998184 0 0.0055165676313839009 -0.0016599334773480087 0 0.006207633741421332 -0.0017744571322367015 0 0.0055165676313839009 -0.0016599334773480087 0 0.0070332256921551142 -0.0009034824762845018 0 0.0069767210022521576 -0.00092199802812045837 0 0.0081348701377265947 -0.0019295369433797302 0 0.0070332256921551142 -0.0009034824762845018 0 0.0069404803520659829 -0.00108303501457184 0 0.0069649409962928418 -0.0010278528687009438 0 0.0069404803520659829 -0.00108303501457184 0 0.0069649409962928418 -0.0010278528687009438 0 0.0069303164516765318 -0.0011240563127933052 0 0.0069758659543206741 -0.0010450964172609841 0 0.0069649409962928418 -0.0010278528687009438 0 0.0069492065071793249 -0.0010930190512096413 0 0.0069941449757917953 -0.00099030301403628244 0 0.0069758659543206741 -0.0010450964172609841 0 0.0069649409962928418 -0.0010278528687009438 0 0.0069941449757917953 -0.00099030301403628244 0 0.0070332256921551142 -0.0009034824762845018 0 0.0069649409962928418 -0.0010278528687009438 0 0.0069649409962928418 -0.0010278528687009438 0 0.0069492065071793249 -0.0010930190512096413 0 0.0069303164516765318 -0.0011240563127933052 0 0.0068985756887480765 -0.0011585428092247144 0 0.0069303164516765318 -0.0011240563127933052 0 0.0069025611002010278 -0.0012509606438078971 0 0.0068906675408450134 -0.0013008245045328228 0 0.0069025611002010278 -0.0012509606438078971 0 0.0069016139131282961 -0.0012432282114414929 0 0.0069025611002010278 -0.0012509606438078971 0 0.0069016139131282961 -0.0012432282114414929 0 0.0069237612951773041 -0.0011775390279513747 0 0.0069147291008221298 -0.0012168196306291163 0 0.0069016139131282961 -0.0012432282114414929 0 0.0069237612951773041 -0.0011775390279513747 0 0.0069303164516765318 -0.0011240563127933052 0 0.0069025611002010278 -0.0012509606438078971 0 0.0069237612951773041 -0.0011775390279513747 0 0.0069492065071793249 -0.0010930190512096413 0 0.0069237612951773041 -0.0011775390279513747 0 0.0069576278958518737 -0.0011193483137585123 0 0.0069492065071793249 -0.0010930190512096413 0 0.0069303164516765318 -0.0011240563127933052 0 0.0069237612951773041 -0.0011775390279513747 0 0.0069237612951773041 -0.0011775390279513747 0 0.006945611297357465 -0.0011762509360137006 0 0.0069576278958518737 -0.0011193483137585123 0 0.0069147291008221298 -0.0012168196306291163 0 0.0069237612951773041 -0.0011775390279513747 0 0.006945611297357465 -0.0011762509360137006 0 0.0069826271319347547 -0.0011347309918716257 0 0.0069825057673415245 -0.0011744152036901935 0 0.006945611297357465 -0.0011762509360137006 0 0.0069826271319347547 -0.0011347309918716257 0 0.006945611297357465 -0.0011762509360137006 0 0.0069576278958518737 -0.0011193483137585123 0 0.0069826271319347547 -0.0011347309918716257 0 0.0069878031736465267 -0.0010826169314256111 0 0.0069576278958518737 -0.0011193483137585123 0 0.0069878031736465267 -0.0010826169314256111 0 0.0069758659543206741 -0.0010450964172609841 0 0.0069576278958518737 -0.0011193483137585123 0 0.0069758659543206741 -0.0010450964172609841 0 0.0069492065071793249 -0.0010930190512096413 0 0.0069576278958518737 -0.0011193483137585123 0 0.0068255413316065904 -0.0012749727092772178 0 0.0067284935898791675 -0.0014398680764908737 0 0.0066697538788553301 -0.0013892003463307032 0 0.0066913560295188326 -0.0012130375844117834 0 0.0068255413316065904 -0.0012749727092772178 0 0.0066697538788553301 -0.0013892003463307032 0 0.0068985756887480765 -0.0011585428092247144 0 0.0069025611002010278 -0.0012509606438078971 0 0.0068255413316065904 -0.0012749727092772178 0 0.0069025611002010278 -0.0012509606438078971 0 0.0068255413316065904 -0.0012749727092772178 0 0.006896142493328314 -0.0013815387141705273 0 0.0068906675408450134 -0.0013008245045328228 0 0.0069025611002010278 -0.0012509606438078971 0 0.006896142493328314 -0.0013815387141705273 0 0.0068255413316065904 -0.0012749727092772178 0 0.006896142493328314 -0.0013815387141705273 0 0.0067284935898791675 -0.0014398680764908737 0 0.0069533559429683428 -0.0014896860027845858 0 0.006896142493328314 -0.0013815387141705273 0 0.0067284935898791675 -0.0014398680764908737 0 0.0063805022590071392 -0.0020794969760563301 0 0.0064273396246078566 -0.0018664129739463496 0 0.0064567447421282021 -0.0015640977605040996 0 0.0067284935898791675 -0.0014398680764908737 0 0.0065434622178171427 -0.0015223806180434752 0 0.0067284935898791675 -0.0014398680764908737 0 0.0066697538788553301 -0.0013892003463307032 0 0.0065434622178171427 -0.0015223806180434752 0 0.0066697538788553301 -0.0013892003463307032 0 0.0065434622178171427 -0.0015223806180434752 0 0.006496477141293951 -0.0014257528255428671 0 0.0065434622178171427 -0.0015223806180434752 0 0.006496477141293951 -0.0014257528255428671 0 0.0062326817919398916 -0.0015983982006251868 0 0.0066913560295188326 -0.0012130375844117834 0 0.0066697538788553301 -0.0013892003463307032 0 0.006496477141293951 -0.0014257528255428671 0 0.006496477141293951 -0.0014257528255428671 0 0.0062326817919398916 -0.0015983982006251868 0 0.0061802429284132931 -0.001359151972698975 0 0.0065434622178171427 -0.0015223806180434752 0 0.0062326817919398916 -0.0015983982006251868 0 0.0062311231659213017 -0.0018460806928188968 0 0.0062326817919398916 -0.0015983982006251868 0 0.0062311231659213017 -0.0018460806928188968 0 0.0059482362348272375 -0.0017330315221899218 0 0.0064482222410129309 -0.0022761998146374296 0 0.0065434622178171427 -0.0015223806180434752 0 0.0062311231659213017 -0.0018460806928188968 0 0.0064482222410129309 -0.0022761998146374296 0 0.0062311231659213017 -0.0018460806928188968 0 0.005937960694808498 -0.0020606631882395185 0 0.005937960694808498 -0.0020606631882395185 0 0.0055405429806640429 -0.0020436208396971056 0 0.0059482362348272375 -0.0017330315221899218 0 0.0062311231659213017 -0.0018460806928188968 0 0.005937960694808498 -0.0020606631882395185 0 0.0059482362348272375 -0.0017330315221899218 0 0.005339270443986968 -0.0019102216552777036 0 0.0055405429806640429 -0.0020436208396971056 0 0.005611636410184734 -0.0017534567929464197 0 0.0055405429806640429 -0.0020436208396971056 0 0.005611636410184734 -0.0017534567929464197 0 0.0059482362348272375 -0.0017330315221899218 0 0.005611636410184734 -0.0017534567929464197 0 0.0059482362348272375 -0.0017330315221899218 0 0.0059430074947766426 -0.0015096529651429107 0 0.0062326817919398916 -0.0015983982006251868 0 0.0059482362348272375 -0.0017330315221899218 0 0.0059430074947766426 -0.0015096529651429107 0 0.0059430074947766426 -0.0015096529651429107 0 0.0056438678776179153 -0.0014899732635778387 0 0.0059808329696698966 -0.0012112221914231801 0 0.0053894426963999875 -0.0017199279672485402 0 0.005611636410184734 -0.0017534567929464197 0 0.0056438678776179153 -0.0014899732635778387 0 0.005611636410184734 -0.0017534567929464197 0 0.0059430074947766426 -0.0015096529651429107 0 0.0056438678776179153 -0.0014899732635778387 0 0.0082761373002074989 -0.0051485020556637203 0 0.0082325247977284213 -0.0028920914623370461 0 0.0055486874623088467 -0.0012585876977216439 0 0.0056438678776179153 -0.0014899732635778387 0 0.0059808329696698966 -0.0012112221914231801 0 0.0084806754139670863 -0.0029533164580332243 0 0.010037490119583161 -0.002065284769547013 0 0.0077451044089461279 -0.0017098192446780829 0 0.0062340722922444884 -0.00097162087886829376 0 0.0065893390447665122 -0.0010314507786362145 0 0.0063681874964183561 -0.0011737284983025225 0 0.0082325247977284213 -0.0028920914623370461 0 0.0071227388327659751 -0.0020372408122220943 0 0.0082325247977284213 -0.0028920914623370461 0 0.0071881796235832773 -0.0017289339602853759 0 0.0066913560295188326 -0.0012130375844117834 0 0.0065893390447665122 -0.0010314507786362145 0 0.0065354133238967769 -0.0012068045064517246 0 0.0065893390447665122 -0.0010314507786362145 0 0.0065354133238967769 -0.0012068045064517246 0 0.0063681874964183561 -0.0011737284983025225 0 0.006496477141293951 -0.0014257528255428671 0 0.0065354133238967769 -0.0012068045064517246 0 0.0063681874964183561 -0.0011737284983025225 0 0.0066913560295188326 -0.0012130375844117834 0 0.006496477141293951 -0.0014257528255428671 0 0.0065354133238967769 -0.0012068045064517246 0 0.0062326817919398916 -0.0015983982006251868 0 0.0059430074947766426 -0.0015096529651429107 0 0.0061802429284132931 -0.001359151972698975 0 0.0069839488193661195 -0.0015331481688331001 0 0.0071881796235832773 -0.0017289339602853759 0 0.0059430074947766426 -0.0015096529651429107 0 0.0059808329696698966 -0.0012112221914231801 0 0.0061802429284132931 -0.001359151972698975 0 -1.6785123532081868e-05 -0.054976989801583366 0 -1.5622243657582399e-05 -0.054592026325818305 0 5.0913506701193568e-05 -0.0548159546550126 0 1.8575248766835799e-05 -0.05457326216665552 0 9.9365075917142518e-06 -0.054569257381361189 0 -1.5622243657582399e-05 -0.054592026325818305 0 -1.4132003279857188e-05 -0.054803268218894897 0 -2.1621621014982746e-05 -0.054755706883999569 0 1.8575248766835799e-05 -0.05457326216665552 0 9.9365075917142518e-06 -0.054569257381361189 0 -4.5614664458991681e-05 -0.054603640451704669 0 -1.6785123532081868e-05 -0.054976989801583366 0 2.181328295672402e-05 -0.054974471381503381 0 5.0913506701193568e-05 -0.0548159546550126 0 7.678637848917572e-08 -0.054999754949916851 0 2.181328295672402e-05 -0.054974471381503381 0 2.9774151959649273e-09 -0.055000037063677579 0 7.678637848917572e-08 -0.054999754949916851 0 2.181328295672402e-05 -0.054974471381503381 0 5.0913506701193568e-05 -0.0548159546550126 0 -1.6785123532081868e-05 -0.054976989801583366 0 2.181328295672402e-05 -0.054974471381503381 0 5.0915925534790446e-06 -0.054989579750666234 0 -1.4132003279857188e-05 -0.054803268218894897 0 -8.9587622242802119e-06 -0.054883426321765474 0 2.181328295672402e-05 -0.054974471381503381 0 5.0915925534790446e-06 -0.054989579750666234 0 2.9774151959649273e-09 -0.055000037063677579 0 -1.6785123532081868e-05 -0.054976989801583366 0 5.0915925534790446e-06 -0.054989579750666234 0 2.677973221318441e-06 -0.055002033337905487 0 5.0915925534790446e-06 -0.054989579750666234 0 2.9774151959649273e-09 -0.055000037063677579 0 2.677973221318441e-06 -0.055002033337905487 0 1.8575248766835799e-05 -0.05457326216665552 0 -4.4159460389859615e-06 -0.054705598221576272 0 -1.9955176475845196e-05 -0.054649740126214624 0 1.8575248766835799e-05 -0.05457326216665552 0 -4.4159460389859615e-06 -0.054705598221576272 0 5.1594860939433664e-05 -0.054766508487672137 0 -1.9955176475845196e-05 -0.054649740126214624 0 -5.7412766460316112e-05 -0.054704012636108079 0 -4.5614664458991681e-05 -0.054603640451704669 0 1.8575248766835799e-05 -0.05457326216665552 0 -1.9955176475845196e-05 -0.054649740126214624 0 -4.5614664458991681e-05 -0.054603640451704669 0 -4.4159460389859615e-06 -0.054705598221576272 0 -1.9955176475845196e-05 -0.054649740126214624 0 -5.7412766460316112e-05 -0.054704012636108079 0 -5.7412766460316112e-05 -0.054704012636108079 0 -0.00011490930324480377 -0.054609356276405702 0 -0.00015341286464035949 -0.054710327047872917 0 -5.7412766460316112e-05 -0.054704012636108079 0 -0.00011490930324480377 -0.054609356276405702 0 -4.5614664458991681e-05 -0.054603640451704669 0 -0.0002261154326516499 -0.054600630587931381 0 -0.00031474156205530372 -0.054742605333976714 0 -0.00015341286464035949 -0.054710327047872917 0 -0.00011490930324480377 -0.054609356276405702 0 -0.0002261154326516499 -0.054600630587931381 0 -0.00015341286464035949 -0.054710327047872917 0 -0.00011490930324480377 -0.054609356276405702 0 -0.0002261154326516499 -0.054600630587931381 0 -0.00014978424113314947 -0.054493832042103368 0 -0.00014978424113314947 -0.054493832042103368 0 -0.00021423541851414552 -0.054369575034963105 0 -0.00029579120304020146 -0.05444448472672684 0 -0.0002261154326516499 -0.054600630587931381 0 -0.00014978424113314947 -0.054493832042103368 0 -0.00029579120304020146 -0.05444448472672684 0 -0.00014978424113314947 -0.054493832042103368 0 -7.1229491070706375e-05 -0.054528773958797863 0 -0.00010664177929734116 -0.054271635129448478 0 9.9365075917142518e-06 -0.054569257381361189 0 -7.1229491070706375e-05 -0.054528773958797863 0 -0.00010664177929734116 -0.054271635129448478 0 -0.00011490930324480377 -0.054609356276405702 0 -4.5614664458991681e-05 -0.054603640451704669 0 -7.1229491070706375e-05 -0.054528773958797863 0 9.9365075917142518e-06 -0.054569257381361189 0 -4.5614664458991681e-05 -0.054603640451704669 0 -7.1229491070706375e-05 -0.054528773958797863 0 -0.00011490930324480377 -0.054609356276405702 0 -0.00014978424113314947 -0.054493832042103368 0 -7.1229491070706375e-05 -0.054528773958797863 0 9.9365075917142518e-06 -0.054569257381361189 0 -0.00014537463679110309 -0.054519204813082228 0 -1.5622243657582399e-05 -0.054592026325818305 0 0.00031173872726253566 -0.053848095606946478 0 0.00031434523876434244 -0.053596519761759352 0 -0.00014537463679110309 -0.054519204813082228 0 -2.178051343648397e-05 -0.054331547780500984 0 -1.5622243657582399e-05 -0.054592026325818305 0 -0.00010664177929734116 -0.054271635129448478 0 -0.00028248169204069987 -0.054014793980610848 0 -0.00029658053974253052 -0.054259499466152189 0 -0.00014978424113314947 -0.054493832042103368 0 -0.00010664177929734116 -0.054271635129448478 0 -0.00021423541851414552 -0.054369575034963105 0 -0.00021423541851414552 -0.054369575034963105 0 -0.00029658053974253052 -0.054259499466152189 0 -0.00029579120304020146 -0.05444448472672684 0 -0.00010664177929734116 -0.054271635129448478 0 -0.00021423541851414552 -0.054369575034963105 0 -0.00029658053974253052 -0.054259499466152189 0 -0.00014537463679110309 -0.054519204813082228 0 -0.00019328399618018862 -0.053964847538273297 0 -0.00059596374970183644 -0.053690476532855767 0 0.00031434523876434244 -0.053596519761759352 0 0.00033750633852334532 -0.052760209815031357 0 -0.00019328399618018862 -0.053964847538273297 0 -0.00035125248339132656 -0.05338668430417013 0 -0.00059596374970183644 -0.053690476532855767 0 -0.00019328399618018862 -0.053964847538273297 0 -2.178051343648397e-05 -0.054331547780500984 0 -7.1390000047662609e-06 -0.053892215087968015 0 -2.178051343648397e-05 -0.054331547780500984 0 9.6759239025479192e-05 -0.054559498691133197 0 -7.1390000047662609e-06 -0.053892215087968015 0 -0.00014537463679110309 -0.054519204813082228 0 -0.00019328399618018862 -0.053964847538273297 0 -2.178051343648397e-05 -0.054331547780500984 0 -2.178051343648397e-05 -0.054331547780500984 0 9.6759239025479192e-05 -0.054559498691133197 0 -1.5622243657582399e-05 -0.054592026325818305 0 9.6759239025479192e-05 -0.054559498691133197 0 -1.5622243657582399e-05 -0.054592026325818305 0 5.0913506701193568e-05 -0.0548159546550126 0 7.678637848917572e-08 -0.054999754949916851 0 5.0913506701193568e-05 -0.0548159546550126 0 5.8926510340375794e-08 -0.054999587041843725 0 9.6759239025479192e-05 -0.054559498691133197 0 5.0913506701193568e-05 -0.0548159546550126 0 5.8926510340375794e-08 -0.054999587041843725 0 9.6759239025479192e-05 -0.054559498691133197 0 5.8926510340375794e-08 -0.054999587041843725 0 0.00019967616667115182 -0.054279238126859468 0 5.8926510340375794e-08 -0.054999587041843725 0 0.00019967616667115182 -0.054279238126859468 0 8.4125869306043906e-07 -0.054997771225887483 0 9.6759239025479192e-05 -0.054559498691133197 0 0.00019967616667115182 -0.054279238126859468 0 -7.1390000047662609e-06 -0.053892215087968015 0 0.00019967616667115182 -0.054279238126859468 0 0.00040158872618781542 -0.05318451083395094 0 3.3075531177134942e-05 -0.0534349075875288 0 2.9370890244039894e-07 -0.054998160303696517 0 -8.7500414032928438e-05 -0.053860199242739451 0 0.00019967616667115182 -0.054279238126859468 0 8.4125869306043906e-07 -0.054997771225887483 0 0.00040158872618781542 -0.05318451083395094 0 1.5508606970746652e-06 -0.054995381344434421 0 0.00025649832485023945 -0.053728275744874252 0 -2.2701753589992296e-06 -0.049141007675952725 0 -5.7254289050131663e-07 -0.055000148300906826 0 1.5508606970746652e-06 -0.054995381344434421 0 0.00025649832485023945 -0.053728275744874252 0 -0.00023660558447818702 -0.051048200871398677 0 -2.2701753589992296e-06 -0.049141007675952725 0 -0.0011499814047315202 -0.052034007117835276 0 9.1358903661052434e-09 -0.049131388391907421 0 -0.00026687982072056652 -0.049925114766628836 0 0.00025649832485023945 -0.053728275744874252 0 -0.00023660558447818702 -0.051048200871398677 0 -2.2701753589992296e-06 -0.049141007675952725 0 -8.7500414032928438e-05 -0.053860199242739451 0 -0.00034300280053806565 -0.053164944150695406 0 0.00040158872618781542 -0.05318451083395094 0 -0.00023660558447818702 -0.051048200871398677 0 -0.00030317215796759949 -0.052545489221296114 0 -0.00030317215796759949 -0.052545489221296114 0 -0.00068636671321603516 -0.05233519458818027 0 -0.0011499814047315202 -0.052034007117835276 0 -0.00023660558447818702 -0.051048200871398677 0 -0.00030317215796759949 -0.052545489221296114 0 -0.0011499814047315202 -0.052034007117835276 0 -0.00030317215796759949 -0.052545489221296114 0 -0.00036697139626298901 -0.052932480952170818 0 -0.00068636671321603516 -0.05233519458818027 0 -0.00030317215796759949 -0.052545489221296114 0 -0.00036697139626298901 -0.052932480952170818 0 3.3075531177134942e-05 -0.0534349075875288 0 -0.00036697139626298901 -0.052932480952170818 0 -0.00051095353747495948 -0.052729485550661578 0 -0.00068636671321603516 -0.05233519458818027 0 0.00040158872618781542 -0.05318451083395094 0 -0.00030317215796759949 -0.052545489221296114 0 3.3075531177134942e-05 -0.0534349075875288 0 -0.00036697139626298901 -0.052932480952170818 0 3.3075531177134942e-05 -0.0534349075875288 0 -7.1390000047662609e-06 -0.053892215087968015 0 0.00019967616667115182 -0.054279238126859468 0 3.3075531177134942e-05 -0.0534349075875288 0 -7.1390000047662609e-06 -0.053892215087968015 0 -0.00019328399618018862 -0.053964847538273297 0 -7.1390000047662609e-06 -0.053892215087968015 0 -0.00035125248339132656 -0.05338668430417013 0 -0.00036697139626298901 -0.052932480952170818 0 -7.1390000047662609e-06 -0.053892215087968015 0 -0.00035125248339132656 -0.05338668430417013 0 -0.00035125248339132656 -0.05338668430417013 0 -0.00051095353747495948 -0.052729485550661578 0 -0.00059596374970183644 -0.053690476532855767 0 -0.00036697139626298901 -0.052932480952170818 0 -0.00035125248339132656 -0.05338668430417013 0 -0.00051095353747495948 -0.052729485550661578 0 0.00030125324276408398 -0.050969729832680423 0 0.00033750633852334532 -0.052760209815031357 0 -0.00051095353747495948 -0.052729485550661578 0 -0.00078093106531192862 -0.05249512419628917 0 -0.00059596374970183644 -0.053690476532855767 0 -0.00051095353747495948 -0.052729485550661578 0 -0.00078093106531192862 -0.05249512419628917 0 -0.00039787426810370768 -0.051685667623059685 0 -0.00054971620275308288 -0.053704713729817381 0 -0.00064493047666917141 -0.05392464799775696 0 -0.00028248169204069987 -0.054014793980610848 0 -0.00054971620275308288 -0.053704713729817381 0 -0.00073830839487785147 -0.053689390239664833 0 -0.00064493047666917141 -0.05392464799775696 0 -0.00078093106531192862 -0.05249512419628917 0 -0.00098142148755053413 -0.05051082257773222 0 -0.0026514648538169907 -0.049967969194676491 0 0.00030125324276408398 -0.050969729832680423 0 -0.00036173194806582697 -0.047074973611332685 0 -0.00054971620275308288 -0.053704713729817381 0 -0.00073830839487785147 -0.053689390239664833 0 -0.00089076564998323343 -0.053373370724276885 0 -0.00078093106531192862 -0.05249512419628917 0 -0.00039787426810370768 -0.051685667623059685 0 -0.00098142148755053413 -0.05051082257773222 0 -0.00039787426810370768 -0.051685667623059685 0 -0.00098142148755053413 -0.05051082257773222 0 -0.00029251346478052027 -0.049509770990524574 0 -0.00098142148755053413 -0.05051082257773222 0 -0.0005990973437259026 -0.048292145847920478 0 -0.0026514648538169907 -0.049967969194676491 0 -0.00039787426810370768 -0.051685667623059685 0 0.00082849771302392569 -0.047647452307229089 0 -0.00029251346478052027 -0.049509770990524574 0 -0.00039787426810370768 -0.051685667623059685 0 -0.00068636671321603516 -0.05233519458818027 0 -0.0011499814047315202 -0.052034007117835276 0 -0.00053157820587436291 -0.050577059054574887 0 -0.00026687982072056652 -0.049925114766628836 0 -0.00051095353747495948 -0.052729485550661578 0 -0.00039787426810370768 -0.051685667623059685 0 -0.00068636671321603516 -0.05233519458818027 0 0.00082849771302392569 -0.047647452307229089 0 -0.0005990973437259026 -0.048292145847920478 0 0.0003609599840898555 -0.04711649689601223 0 0.00082849771302392569 -0.047647452307229089 0 -0.00029251346478052027 -0.049509770990524574 0 -0.0005990973437259026 -0.048292145847920478 0 -0.00098142148755053413 -0.05051082257773222 0 -0.00029251346478052027 -0.049509770990524574 0 -0.0005990973437259026 -0.048292145847920478 0 -0.0005990973437259026 -0.048292145847920478 0 -0.00028782172666633616 -0.04630349771557276 0 -0.0020602449835040769 -0.047184220248220873 0 -0.0005990973437259026 -0.048292145847920478 0 -0.00028782172666633616 -0.04630349771557276 0 0.0003609599840898555 -0.04711649689601223 0 -0.00028782172666633616 -0.04630349771557276 0 2.0102961754138339e-06 -0.046355489628330027 0 -5.3209064847164226e-06 -0.043582099541844666 0 -0.00028782172666633616 -0.04630349771557276 0 2.0102961754138339e-06 -0.046355489628330027 0 0.0003609599840898555 -0.04711649689601223 0 -5.8258395199269922e-08 -0.049126936120399992 0 0.00082849771302392569 -0.047647452307229089 0 0.0003609599840898555 -0.04711649689601223 0 -5.8258395199269922e-08 -0.049126936120399992 0 2.0102961754138339e-06 -0.046355489628330027 0 0.0003609599840898555 -0.04711649689601223 0 0.00022477557834402748 -0.042076950884706116 0 -2.3664014915673343e-07 -0.043572836344055219 0 2.1545704835296904e-07 -0.040546145594301024 0 0.00022477557834402748 -0.042076950884706116 0 0.00010209365484738968 -0.04193077525316468 0 5.1816115802979138e-05 -0.041850278626917529 0 -1.0015262708715398e-06 -0.043581117779715274 0 -0.00027484809543920852 -0.045257953472554943 0 -0.00028782172666633616 -0.04630349771557276 0 -5.3209064847164226e-06 -0.043582099541844666 0 -0.0020602449835040769 -0.047184220248220873 0 0.00022477557834402748 -0.042076950884706116 0 -2.3664014915673343e-07 -0.043572836344055219 0 -0.00024271510332319403 -0.042097538755360674 0 -0.00027484809543920852 -0.045257953472554943 0 -0.00036173194806582697 -0.047074973611332685 0 -0.0005990973437259026 -0.048292145847920478 0 -0.0020602449835040769 -0.047184220248220873 0 -0.0026514648538169907 -0.049967969194676491 0 -0.00024271510332319403 -0.042097538755360674 0 0.00010209365484738968 -0.04193077525316468 0 -0.00026253046318846168 -0.041631969556737668 0 -0.00093760745166711216 -0.045164917930340998 0 -0.00036173194806582697 -0.047074973611332685 0 0.00022477557834402748 -0.042076950884706116 0 -0.00024271510332319403 -0.042097538755360674 0 0.00010209365484738968 -0.04193077525316468 0 0.00045923449274900587 -0.042374431784801006 0 0.00010416443234139523 -0.042443090537192169 0 5.1816115802979138e-05 -0.041850278626917529 0 -0.00093760745166711216 -0.045164917930340998 0 -0.001072308198032659 -0.044607800314222533 0 0.00023620527293387078 -0.042613463923099539 0 8.006534857986347e-06 -0.042783872015561018 0 0.00010416443234139523 -0.042443090537192169 0 0.00045923449274900587 -0.042374431784801006 0 0.00023620527293387078 -0.042613463923099539 0 0.00010416443234139523 -0.042443090537192169 0 0.00023620527293387078 -0.042613463923099539 0 0.00037249840031816417 -0.042849251509429212 0 8.006534857986347e-06 -0.042783872015561018 0 0.00045923449274900587 -0.042374431784801006 0 0.00023620527293387078 -0.042613463923099539 0 0.00037249840031816417 -0.042849251509429212 0 0.00045923449274900587 -0.042374431784801006 0 0.00037249840031816417 -0.042849251509429212 0 0.00082046078816371112 -0.04272877402558186 0 0.00037249840031816417 -0.042849251509429212 0 0.00058704782130313026 -0.04306199805515197 0 0.00037522082301735577 -0.043145311313039218 0 0.00037249840031816417 -0.042849251509429212 0 0.00037522082301735577 -0.043145311313039218 0 5.2719746655242437e-05 -0.043225367114573095 0 0.00037249840031816417 -0.042849251509429212 0 5.2719746655242437e-05 -0.043225367114573095 0 8.006534857986347e-06 -0.042783872015561018 0 -0.00073830839487785147 -0.053689390239664833 0 -0.00089076564998323343 -0.053373370724276885 0 -0.00086814500148387906 -0.053739542002700619 0 0.00082046078816371112 -0.04272877402558186 0 0.00058704782130313026 -0.04306199805515197 0 0.00084569929411923103 -0.043297061735470654 0 -0.00036173194806582697 -0.047074973611332685 0 0.00019275749814958297 -0.0476866512138409 0 0.00037249840031816417 -0.042849251509429212 0 0.00082046078816371112 -0.04272877402558186 0 0.00058704782130313026 -0.04306199805515197 0 0.00058704782130313026 -0.04306199805515197 0 0.00084569929411923103 -0.043297061735470654 0 0.00050007024583215143 -0.043326413393649843 0 0.00084569929411923103 -0.043297061735470654 0 0.00050007024583215143 -0.043326413393649843 0 0.00066729609343134475 -0.043580195405372231 0 -0.00073830839487785147 -0.053689390239664833 0 -0.00086814500148387906 -0.053739542002700619 0 -0.00064493047666917141 -0.05392464799775696 0 0.00037522082301735577 -0.043145311313039218 0 0.00030765348312942434 -0.043329155934293768 0 5.2719746655242437e-05 -0.043225367114573095 0 0.00058704782130313026 -0.04306199805515197 0 0.00037522082301735577 -0.043145311313039218 0 0.00050007024583215143 -0.043326413393649843 0 0.00037522082301735577 -0.043145311313039218 0 0.00050007024583215143 -0.043326413393649843 0 0.00030765348312942434 -0.043329155934293768 0 0.00050007024583215143 -0.043326413393649843 0 0.00039530327783004825 -0.043489508370626706 0 0.00043437157224892351 -0.043733357471560312 0 -0.00083775709618687569 -0.043241227389127293 0 -0.0009619678721945426 -0.043198242129591072 0 0.00050007024583215143 -0.043326413393649843 0 0.00039530327783004825 -0.043489508370626706 0 0.00030765348312942434 -0.043329155934293768 0 0.00030765348312942434 -0.043329155934293768 0 0.00018019295861166471 -0.043483907467175759 0 5.2719746655242437e-05 -0.043225367114573095 0 0.00039530327783004825 -0.043489508370626706 0 0.00030765348312942434 -0.043329155934293768 0 0.00018019295861166471 -0.043483907467175759 0 -0.00087540171547303893 -0.040141856445767822 0 -0.0007685008081257603 -0.039821791377310234 0 0.00039530327783004825 -0.043489508370626706 0 0.0001704908714921463 -0.043683473335386393 0 0.00043437157224892351 -0.043733357471560312 0 0.00039530327783004825 -0.043489508370626706 0 0.00018019295861166471 -0.043483907467175759 0 0.0001488616852654762 -0.043704991015894708 0 0.00018019295861166471 -0.043483907467175759 0 0.0001488616852654762 -0.043704991015894708 0 9.212571188134257e-06 -0.043680382593205357 0 -0.0007685008081257603 -0.039821791377310234 0 -0.0009619678721945426 -0.043198242129591072 0 0.00050007024583215143 -0.043326413393649843 0 0.00043616796398457381 -0.043810332248325895 0 0.00066729609343134475 -0.043580195405372231 0 -0.00064470889005266787 -0.05415402973295317 0 -0.00063557989685098534 -0.054214572164096322 0 -0.00062371376968296897 -0.054192406524692607 0 -0.0009619678721945426 -0.043198242129591072 0 -0.00063808386080437701 -0.043880958008786441 0 0.00011253961868729646 -0.040225153273187271 0 4.3558832516903816e-05 -0.040299571899581908 0 9.541624899229939e-05 -0.040397228682456057 0 5.2783412764649289e-07 -0.040202541825369677 0 0.00011253961868729646 -0.040225153273187271 0 4.3558832516903816e-05 -0.040299571899581908 0 5.2783412764649289e-07 -0.040202541825369677 0 4.3558832516903816e-05 -0.040299571899581908 0 -6.1790798745135235e-05 -0.04025677667957106 0 -0.00061543361849680735 -0.037624809687397856 0 -0.00037991514107512265 -0.03803637499108465 0 4.3558832516903816e-05 -0.040299571899581908 0 3.6822837642872979e-05 -0.040462618518030111 0 -6.1790798745135235e-05 -0.04025677667957106 0 4.3558832516903816e-05 -0.040299571899581908 0 9.541624899229939e-05 -0.040397228682456057 0 3.6822837642872979e-05 -0.040462618518030111 0 -0.00063557989685098534 -0.054214572164096322 0 -0.00061534502949500941 -0.054245880471315767 0 -0.00062371376968296897 -0.054192406524692607 0 9.541624899229939e-05 -0.040397228682456057 0 6.7799947690986605e-05 -0.040469376979444777 0 8.5677762316593164e-05 -0.040568722438419233 0 -0.00063557989685098534 -0.054214572164096322 0 -0.00061534502949500941 -0.054245880471315767 0 -0.0005909673843730376 -0.054230507262233454 0 -0.00063808386080437701 -0.043880958008786441 0 -0.00010781399263568911 -0.041657625390531701 0 0.0011307744444567234 -0.030831808210076844 0 0.0011026345646130043 -0.0307292552484273 0 0.001228323046531519 -0.030852730206670634 0 -0.00060399911142100429 -0.037634400357964136 0 -0.00061543361849680735 -0.037624809687397856 0 9.541624899229939e-05 -0.040397228682456057 0 6.7799947690986605e-05 -0.040469376979444777 0 3.6822837642872979e-05 -0.040462618518030111 0 -0.00061534502949500941 -0.054245880471315767 0 -0.00061264878367076352 -0.054212255613032348 0 -0.0006159974898636765 -0.054302400968279964 0 -0.00062371376968296897 -0.054192406524692607 0 -0.00061264878367076352 -0.054212255613032348 0 -0.00060072583300638325 -0.054168142954732705 0 -0.00061534502949500941 -0.054245880471315767 0 -0.00062371376968296897 -0.054192406524692607 0 -0.00061264878367076352 -0.054212255613032348 0 0.00073844545773503554 -0.048519103063946946 0 0.00075320591714370317 -0.047164030454979085 0 0.00019275749814958297 -0.0476866512138409 0 0.00075320591714370317 -0.047164030454979085 0 0.00084569929411923103 -0.043297061735470654 0 0.00088468387360281957 -0.043888794747725016 0 0.00066729609343134475 -0.043580195405372231 0 -0.00086814500148387906 -0.053739542002700619 0 -0.0008355521064742805 -0.054073924421395081 0 -0.00064493047666917141 -0.05392464799775696 0 -0.00064470889005266787 -0.05415402973295317 0 -0.00062371376968296897 -0.054192406524692607 0 -0.00060072583300638325 -0.054168142954732705 0 -0.0009619678721945426 -0.043198242129591072 0 0.00075320591714370317 -0.047164030454979085 0 0.00043616796398457381 -0.043810332248325895 0 0.00088468387360281957 -0.043888794747725016 0 0.00066729609343134475 -0.043580195405372231 0 -0.00064493047666917141 -0.05392464799775696 0 -0.00051854605421547634 -0.054130595529842854 0 -0.00028248169204069987 -0.054014793980610848 0 -0.0008355521064742805 -0.054073924421395081 0 -0.00064493047666917141 -0.05392464799775696 0 -0.00051854605421547634 -0.054130595529842854 0 -0.00061264878367076352 -0.054212255613032348 0 -0.00062110220292593658 -0.054120875955667891 0 -0.00051854605421547634 -0.054130595529842854 0 0.00075320591714370317 -0.047164030454979085 0 0.00055548459806092302 -0.048001166558377023 0 -0.00051854605421547634 -0.054130595529842854 0 -0.00028248169204069987 -0.054014793980610848 0 -0.00029658053974253052 -0.054259499466152189 0 -0.00051854605421547634 -0.054130595529842854 0 -0.00029658053974253052 -0.054259499466152189 0 -0.00045493935782252889 -0.054307366310212053 0 -0.00029658053974253052 -0.054259499466152189 0 -0.00045493935782252889 -0.054307366310212053 0 -0.00029579120304020146 -0.05444448472672684 0 -0.00051854605421547634 -0.054130595529842854 0 -0.00045493935782252889 -0.054307366310212053 0 -0.00055667793660399358 -0.054238287753818795 0 -0.00061264878367076352 -0.054212255613032348 0 -0.00051854605421547634 -0.054130595529842854 0 -0.00055667793660399358 -0.054238287753818795 0 -0.00061264878367076352 -0.054212255613032348 0 -0.00055667793660399358 -0.054238287753818795 0 -0.0006159974898636765 -0.054302400968279964 0 -0.00045493935782252889 -0.054307366310212053 0 -0.00055667793660399358 -0.054238287753818795 0 -0.0006159974898636765 -0.054302400968279964 0 -0.00045493935782252889 -0.054307366310212053 0 -0.0006159974898636765 -0.054302400968279964 0 -0.00044802444710486213 -0.054460554311868123 0 -0.00045493935782252889 -0.054307366310212053 0 -0.00044802444710486213 -0.054460554311868123 0 -0.00029579120304020146 -0.05444448472672684 0 -0.00044802444710486213 -0.054460554311868123 0 -0.00029579120304020146 -0.05444448472672684 0 -0.0003440447725082426 -0.054586618895093794 0 -0.0003440447725082426 -0.054586618895093794 0 -0.00053684629625753478 -0.054656439463510065 0 -0.00031474156205530372 -0.054742605333976714 0 -0.0002261154326516499 -0.054600630587931381 0 -0.0003440447725082426 -0.054586618895093794 0 -0.00031474156205530372 -0.054742605333976714 0 -0.0002261154326516499 -0.054600630587931381 0 -0.00029579120304020146 -0.05444448472672684 0 -0.0003440447725082426 -0.054586618895093794 0 -0.0006159974898636765 -0.054302400968279964 0 -0.00044802444710486213 -0.054460554311868123 0 -0.00053684629625753478 -0.054656439463510065 0 -0.00044802444710486213 -0.054460554311868123 0 -0.0003440447725082426 -0.054586618895093794 0 -0.00053684629625753478 -0.054656439463510065 0 -0.00011489054112348411 -0.054118893802478675 0 1.5968883912635245e-06 -0.053935630185359996 0 -0.00069108707383004858 -0.054135038772438852 0 -0.00055385758071572913 -0.054150081898653848 0 -0.00059761566656210468 -0.054224665861600248 0 -0.0006159974898636765 -0.054302400968279964 0 -0.00069108707383004858 -0.054135038772438852 0 -0.00059761566656210468 -0.054224665861600248 0 0.00019074164921791236 -0.040093870937019674 0 -0.00010781399263568911 -0.041657625390531701 0 0.00063514597355957664 -0.047091834666407519 0 -0.00010781399263568911 -0.041657625390531701 0 -0.00081655787149702611 -0.043824187447429136 0 -0.00011258173959558271 -0.044036637857060308 0 -0.0006664600398981589 -0.042550253117056527 0 -0.00055385758071572913 -0.054150081898653848 0 -0.0005909673843730376 -0.054230507262233454 0 -0.00059761566656210468 -0.054224665861600248 0 0.0011697169601137013 -0.030553390689563587 0 0.0011026345646130043 -0.0307292552484273 0 0.0012434322156491997 -0.030633518371504451 0 6.7799947690986605e-05 -0.040469376979444777 0 4.0549739671790825e-05 -0.040462301754714616 0 8.5677762316593164e-05 -0.040568722438419233 0 -0.00061543361849680735 -0.037624809687397856 0 -0.00010781399263568911 -0.041657625390531701 0 -0.00061534502949500941 -0.054245880471315767 0 -0.0006159974898636765 -0.054302400968279964 0 -0.00059761566656210468 -0.054224665861600248 0 -0.00061534502949500941 -0.054245880471315767 0 -0.0005909673843730376 -0.054230507262233454 0 -0.00059761566656210468 -0.054224665861600248 0 0.00050787538624844466 -0.029370889463362984 0 0.00085356370286864057 -0.029017221088136414 0 0.00087954933744724048 -0.029550291765522468 0 0.00050787538624844466 -0.029370889463362984 0 0.00085356370286864057 -0.029017221088136414 0 0.00015910126930407194 -0.028956906679674384 0 0.00085356370286864057 -0.029017221088136414 0 0.00015910126930407194 -0.028956906679674384 0 0.00089914879278297274 -0.028346647285563461 0 0.00085356370286864057 -0.029017221088136414 0 0.0011948649269235083 -0.02882943586787387 0 0.0009055360515095943 -0.028346652992957133 0 0.0006047731093075312 -0.031778299588914795 0 -2.4823618148503077e-05 -0.035247574933829302 0 0.0011948649269235083 -0.02882943586787387 0 0.0014448842265216673 -0.029483235853600812 0 0.0015478618390763362 -0.028480158080109633 0 0.0011026345646130043 -0.0307292552484273 0 0.0012434322156491997 -0.030633518371504451 0 0.001228323046531519 -0.030852730206670634 0 0.00085356370286864057 -0.029017221088136414 0 0.0014448842265216673 -0.029483235853600812 0 0.00087954933744724048 -0.029550291765522468 0 0.00085356370286864057 -0.029017221088136414 0 0.0011948649269235083 -0.02882943586787387 0 0.0014448842265216673 -0.029483235853600812 0 0.0014448842265216673 -0.029483235853600812 0 0.0010356407621452161 -0.030031898213851417 0 0.00087954933744724048 -0.029550291765522468 0 0.0014448842265216673 -0.029483235853600812 0 0.0010356407621452161 -0.030031898213851417 0 0.0011822703074094343 -0.030493647265103896 0 0.0006047731093075312 -0.031778299588914795 0 0.00074543515918251691 -0.031119320797866223 0 0.0011697169601137013 -0.030553390689563587 0 0.0012434322156491997 -0.030633518371504451 0 0.0011822703074094343 -0.030493647265103896 0 0.0010356407621452161 -0.030031898213851417 0 0.00058583167473657085 -0.029904753651995738 0 0.0010093550097071435 -0.030549675060488439 0 0.00058583167473657085 -0.029904753651995738 0 -9.8864826231536768e-05 -0.03028872772298543 0 0.0010093550097071435 -0.030549675060488439 0 0.0010356407621452161 -0.030031898213851417 0 0.00087954933744724048 -0.029550291765522468 0 0.00058583167473657085 -0.029904753651995738 0 0.00050787538624844466 -0.029370889463362984 0 0.00087954933744724048 -0.029550291765522468 0 0.00058583167473657085 -0.029904753651995738 0 0.00050787538624844466 -0.029370889463362984 0 0.00058583167473657085 -0.029904753651995738 0 9.175174574676093e-05 -0.029572837188449018 0 0.00058583167473657085 -0.029904753651995738 0 -9.8864826231536768e-05 -0.03028872772298543 0 9.175174574676093e-05 -0.029572837188449018 0 -9.8864826231536768e-05 -0.03028872772298543 0 9.175174574676093e-05 -0.029572837188449018 0 -0.00076135814502805267 -0.02948973789808941 0 -0.00066834675165486595 -0.034444261219402944 0 -0.0012803842934979587 -0.033561246724346183 0 -0.0017154445144083304 -0.029972928827502365 0 -0.0023586087789560519 -0.029820132208722278 0 -0.00075965893088535553 -0.031922171402297125 0 -9.8864826231536768e-05 -0.03028872772298543 0 -0.0017154445144083304 -0.029972928827502365 0 -0.00076135814502805267 -0.02948973789808941 0 -0.0017154445144083304 -0.029972928827502365 0 -0.0017289210178499789 -0.028817753918904905 0 -0.0023586087789560519 -0.029820132208722278 0 -0.0017154445144083304 -0.029972928827502365 0 -0.00076135814502805267 -0.02948973789808941 0 -0.0017289210178499789 -0.028817753918904905 0 -0.00076135814502805267 -0.02948973789808941 0 -0.0017289210178499789 -0.028817753918904905 0 -0.00065612073785493476 -0.028254908986233385 0 -0.0017289210178499789 -0.028817753918904905 0 -0.00065612073785493476 -0.028254908986233385 0 -0.0012678162599187102 -0.027530527227636804 0 -0.00065612073785493476 -0.028254908986233385 0 -0.0012678162599187102 -0.027530527227636804 0 -7.6618970762038792e-05 -0.027498950689788956 0 9.175174574676093e-05 -0.029572837188449018 0 -0.00076135814502805267 -0.02948973789808941 0 0.00015910126930407194 -0.028956906679674384 0 0.00050787538624844466 -0.029370889463362984 0 9.175174574676093e-05 -0.029572837188449018 0 0.00015910126930407194 -0.028956906679674384 0 -0.00076135814502805267 -0.02948973789808941 0 -0.00065612073785493476 -0.028254908986233385 0 0.00050078832799887497 -0.028136851689534011 0 0.00091284862100696022 -0.0309559064501417 0 0.0011058818764829396 -0.031283347458214629 0 -0.00065612073785493476 -0.028254908986233385 0 0.00050078832799887497 -0.028136851689534011 0 -7.6618970762038792e-05 -0.027498950689788956 0 -7.6618970762038792e-05 -0.027498950689788956 0 -0.00048280297920590424 -0.02663796591589605 0 0.0016788001708049447 -0.027053537346163548 0 -0.00050995263474160697 -0.030800929905690687 0 0.00047864289386186971 -0.033508475070172329 0 -0.0012678162599187102 -0.027530527227636804 0 -7.6618970762038792e-05 -0.027498950689788956 0 -0.00048280297920590424 -0.02663796591589605 0 -0.0012678162599187102 -0.027530527227636804 0 -0.00048280297920590424 -0.02663796591589605 0 -0.0020456284501212648 -0.026438568656789119 0 -0.00050995263474160697 -0.030800929905690687 0 -0.00090523951209735482 -0.029563893393789519 0 -0.00027258677011126177 -0.030720975510422438 0 -6.4338135979518425e-06 -0.031066238531719036 0 0.00019800331016899664 -0.030813983559523472 0 -0.00027258677011126177 -0.030720975510422438 0 -0.00058686183831276788 -0.030815831484827659 0 -0.0004100901892194822 -0.031059379958783898 0 -0.00027258677011126177 -0.030720975510422438 0 -0.0004100901892194822 -0.031059379958783898 0 -6.4338135979518425e-06 -0.031066238531719036 0 -0.00058686183831276788 -0.030815831484827659 0 -0.0007829140213492634 -0.030999803441314065 0 -0.0004100901892194822 -0.031059379958783898 0 -0.00058686183831276788 -0.030815831484827659 0 -0.00072423736817578389 -0.030640708939656335 0 -0.0007829140213492634 -0.030999803441314065 0 0.00047864289386186971 -0.033508475070172329 0 -0.00040803494474175042 -0.036290582309995413 0 -0.00040803494474175042 -0.036290582309995413 0 -0.0007852455139466455 -0.035290090002508379 0 0.00050078832799887497 -0.028136851689534011 0 -7.6618970762038792e-05 -0.027498950689788956 0 0.0016788001708049447 -0.027053537346163548 0 -0.00027258677011126177 -0.030720975510422438 0 -0.00058686183831276788 -0.030815831484827659 0 -0.00072423736817578389 -0.030640708939656335 0 0.00056694673490680244 -0.032307055080075482 0 0.00047864289386186971 -0.033508475070172329 0 0.0011058818764829396 -0.031283347458214629 0 0.00047864289386186971 -0.033508475070172329 0 -0.00018104254260178812 -0.035212454577596489 0 0.00010173782822766309 -0.035277111533998214 0 0.00013948478407043878 -0.03493062696363463 0 -2.4823618148503077e-05 -0.035247574933829302 0 -0.00037991514107512265 -0.03803637499108465 0 -0.0011318401279483354 -0.037326173218447854 0 -0.0014065715443893009 -0.037265427644087565 0 -0.0013582205439274975 -0.036823276213280007 0 -0.00061543361849680735 -0.037624809687397856 0 -2.4823618148503077e-05 -0.035247574933829302 0 0.0011948649269235083 -0.02882943586787387 0 0.0009055360515095943 -0.028346652992957133 0 0.0015478618390763362 -0.028480158080109633 0 0.00047864289386186971 -0.033508475070172329 0 -2.4823618148503077e-05 -0.035247574933829302 0 0.00047864289386186971 -0.033508475070172329 0 -0.00037991514107512265 -0.03803637499108465 0 0.00031200461564850012 -0.036467315225712636 0 0.00013790365241051953 -0.036789502438200991 0 0.00023659208681694099 -0.036904272270218891 0 7.2103692903795697e-06 -0.036745511336924087 0 0.00013790365241051953 -0.036789502438200991 0 5.298123232699473e-07 -0.036805927464822433 0 -0.0007685008081257603 -0.039821791377310234 0 -0.00037991514107512265 -0.03803637499108465 0 0.00085654780601340157 -0.039024313975150472 0 -0.0009295617667231512 -0.04062205851002304 0 -0.00082275585058429808 -0.039662125263898146 0 -0.00037991514107512265 -0.03803637499108465 0 -0.00038250901030449891 -0.03845500398702096 0 0.00031200461564850012 -0.036467315225712636 0 7.2103692903795697e-06 -0.036745511336924087 0 0.00013790365241051953 -0.036789502438200991 0 -0.00040803494474175042 -0.036290582309995413 0 -0.00038521330681545106 -0.038857553958153671 0 0.00013790365241051953 -0.036789502438200991 0 0.00023659208681694099 -0.036904272270218891 0 -5.9910145853297573e-06 -0.036863402435235323 0 -0.0007685008081257603 -0.039821791377310234 0 -0.00038521330681545106 -0.038857553958153671 0 0.00085654780601340157 -0.039024313975150472 0 -0.00072122562730510026 -0.0387506732220411 0 -0.00082275585058429808 -0.039662125263898146 0 -0.00038521330681545106 -0.038857553958153671 0 -0.00038250901030449891 -0.03845500398702096 0 0.00013790365241051953 -0.036789502438200991 0 -5.9910145853297573e-06 -0.036863402435235323 0 5.298123232699473e-07 -0.036805927464822433 0 0.00018019295861166471 -0.043483907467175759 0 9.212571188134257e-06 -0.043680382593205357 0 5.2719746655242437e-05 -0.043225367114573095 0 -0.00038521330681545106 -0.038857553958153671 0 -0.00045396375390637102 -0.040239449307660109 0 1.2606004181694063e-05 -0.043638744715694858 0 5.2719746655242437e-05 -0.043225367114573095 0 -0.00026350664832715303 -0.043059669815244291 0 -0.00040803494474175042 -0.036290582309995413 0 -0.00057908887172142417 -0.036812505033555258 0 -0.0012483275016676272 -0.03751146829853947 0 -0.0010712264082916618 -0.037543359414750468 0 -0.001211836677912974 -0.037217845545104905 0 -0.00038521330681545106 -0.038857553958153671 0 -0.00057908887172142417 -0.036812505033555258 0 -0.00085805038317959164 -0.030997244442620427 0 -0.00071688531568473704 -0.031210157881129342 0 -0.00091069588076653067 -0.031386118057509599 0 -0.00071688531568473704 -0.031210157881129342 0 -0.00060991802324134134 -0.031412188041740681 0 -0.0004100901892194822 -0.031059379958783898 0 -0.00085805038317959164 -0.030997244442620427 0 -0.00071688531568473704 -0.031210157881129342 0 -0.0004100901892194822 -0.031059379958783898 0 -0.00071688531568473704 -0.031210157881129342 0 -0.00060991802324134134 -0.031412188041740681 0 -0.00091069588076653067 -0.031386118057509599 0 -0.00060991802324134134 -0.031412188041740681 0 -0.00081603408898264925 -0.031647678744145979 0 -0.00091069588076653067 -0.031386118057509599 0 -0.00060991802324134134 -0.031412188041740681 0 -0.00081603408898264925 -0.031647678744145979 0 -0.00057402674968261042 -0.031683558574056428 0 -0.00057908887172142417 -0.036812505033555258 0 -0.00040104711295280355 -0.037428466053400222 0 -0.00081603408898264925 -0.031647678744145979 0 -0.00089222067055196312 -0.031432523980066004 0 -0.00095260447209798984 -0.031792826240362775 0 -0.00026350664832715303 -0.043059669815244291 0 8.006534857986347e-06 -0.042783872015561018 0 -0.00026984896149146695 -0.042466742822270628 0 5.2719746655242437e-05 -0.043225367114573095 0 -0.00026350664832715303 -0.043059669815244291 0 8.006534857986347e-06 -0.042783872015561018 0 -0.00090041501685641373 -0.035621822618681062 0 -0.00057908887172142417 -0.036812505033555258 0 8.006534857986347e-06 -0.042783872015561018 0 0.00010416443234139523 -0.042443090537192169 0 -0.00026984896149146695 -0.042466742822270628 0 -0.00095260447209798984 -0.031792826240362775 0 -0.0006911995408034916 -0.03190986251107307 0 -0.0010068964389399254 -0.032200168100518754 0 0.00010416443234139523 -0.042443090537192169 0 -0.00026984896149146695 -0.042466742822270628 0 5.1816115802979138e-05 -0.041850278626917529 0 -0.00081603408898264925 -0.031647678744145979 0 -0.00095260447209798984 -0.031792826240362775 0 -0.0006911995408034916 -0.03190986251107307 0 -0.00081603408898264925 -0.031647678744145979 0 -0.00057402674968261042 -0.031683558574056428 0 -0.0006911995408034916 -0.03190986251107307 0 -0.00057402674968261042 -0.031683558574056428 0 -0.0006911995408034916 -0.03190986251107307 0 -0.00040162776745310968 -0.031915480935341252 0 -0.0006911995408034916 -0.03190986251107307 0 -0.00060929821420082622 -0.032236976296390801 0 -0.00040162776745310968 -0.031915480935341252 0 -2.9894112080529528e-06 -0.038303134410150229 0 1.2037450300097463e-07 -0.038294678029755364 0 7.8657469648195845e-06 -0.04031448870217965 0 -0.0006911995408034916 -0.03190986251107307 0 -0.00060929821420082622 -0.032236976296390801 0 -0.0010068964389399254 -0.032200168100518754 0 0.00078686150985047578 -0.036785868909626387 0 -0.00021144485349715569 -0.038638939193428583 0 1.2037450300097463e-07 -0.038294678029755364 0 -1.2474596027632344e-07 -0.040539019609427372 0 7.8657469648195845e-06 -0.04031448870217965 0 -0.00026984896149146695 -0.042466742822270628 0 -0.00019879209189136105 -0.041282733677022135 0 5.1816115802979138e-05 -0.041850278626917529 0 -0.00040104711295280355 -0.037428466053400222 0 -0.00021144485349715569 -0.038638939193428583 0 0.00022477557834402748 -0.042076950884706116 0 2.1545704835296904e-07 -0.040546145594301024 0 -0.00019879209189136105 -0.041282733677022135 0 -3.1143256089011504e-06 -0.040531610229459843 0 -0.00021144485349715569 -0.038638939193428583 0 0.00022477557834402748 -0.042076950884706116 0 -0.00019879209189136105 -0.041282733677022135 0 5.1816115802979138e-05 -0.041850278626917529 0 0.0027524752318443275 -0.035540361711386768 0 0.0017100481301994355 -0.033320634819633904 0 -0.00020642173903969712 -0.032278882045133704 0 -0.00040162776745310968 -0.031915480935341252 0 4.0707280030696031e-06 -0.031858538680268847 0 -2.9436392417676401e-06 -0.03529875609581986 0 -0.00042965410642187496 -0.031980470432718393 0 0.00011616201862977282 -0.032913596648945338 0 -2.9436392417676401e-06 -0.03529875609581986 0 -0.00089809616764154325 -0.035203706748331745 0 -0.00042965410642187496 -0.031980470432718393 0 1.7428564345347438e-06 -0.035303874034419654 0 0.0027524752318443275 -0.035540361711386768 0 0.00078686150985047578 -0.036785868909626387 0 0.0027524752318443275 -0.035540361711386768 0 -0.00060929821420082622 -0.032236976296390801 0 -0.00020642173903969712 -0.032278882045133704 0 -0.00040162776745310968 -0.031915480935341252 0 -2.9894112080529528e-06 -0.038303134410150229 0 1.2037450300097463e-07 -0.038294678029755364 0 -1.0670334799790174e-07 -0.036005218567365008 0 -0.00057402674968261042 -0.031683558574056428 0 -0.00040162776745310968 -0.031915480935341252 0 -0.00034790649651327606 -0.03153068256525797 0 -0.00040162776745310968 -0.031915480935341252 0 4.0707280030696031e-06 -0.031858538680268847 0 -0.00034790649651327606 -0.03153068256525797 0 4.0707280030696031e-06 -0.031858538680268847 0 -8.3528134754421018e-05 -0.031394444135266243 0 0.0001954374857656635 -0.031420354504011483 0 4.0707280030696031e-06 -0.031858538680268847 0 -8.3528134754421018e-05 -0.031394444135266243 0 -0.00034790649651327606 -0.03153068256525797 0 -0.00060991802324134134 -0.031412188041740681 0 -0.00057402674968261042 -0.031683558574056428 0 -0.00034790649651327606 -0.03153068256525797 0 -0.00060991802324134134 -0.031412188041740681 0 -0.00034790649651327606 -0.03153068256525797 0 -0.0004100901892194822 -0.031059379958783898 0 -8.3528134754421018e-05 -0.031394444135266243 0 -0.00034790649651327606 -0.03153068256525797 0 -0.0004100901892194822 -0.031059379958783898 0 -8.3528134754421018e-05 -0.031394444135266243 0 -0.0004100901892194822 -0.031059379958783898 0 -6.4338135979518425e-06 -0.031066238531719036 0 -8.3528134754421018e-05 -0.031394444135266243 0 -6.4338135979518425e-06 -0.031066238531719036 0 0.0001954374857656635 -0.031420354504011483 0 0.0011447979337761713 -0.031857108033098575 0 0.0012541956968433398 -0.032214782817240419 0 -6.4338135979518425e-06 -0.031066238531719036 0 0.00032832751676974852 -0.030959743939176367 0 0.0001954374857656635 -0.031420354504011483 0 0.00032832751676974852 -0.030959743939176367 0 0.00042546975627276711 -0.030965422948738351 0 0.00043306628848562012 -0.030940773630252223 0 0.00032832751676974852 -0.030959743939176367 0 0.00045955503271671551 -0.031002575790201589 0 0.00042546975627276711 -0.030965422948738351 0 0.00032832751676974852 -0.030959743939176367 0 0.00045955503271671551 -0.031002575790201589 0 8.7300999744812781e-05 -0.031092644786167998 0 0.00045955503271671551 -0.031002575790201589 0 8.7300999744812781e-05 -0.031092644786167998 0 0.00029356361210314773 -0.031671411154265847 0 0.0017100481301994355 -0.033320634819633904 0 0.0012541956968433398 -0.032214782817240419 0 -0.00042965410642187496 -0.031980470432718393 0 0.00029356361210314773 -0.031671411154265847 0 0.00011616201862977282 -0.032913596648945338 0 -0.00042965410642187496 -0.031980470432718393 0 8.7300999744812781e-05 -0.031092644786167998 0 0.00029356361210314773 -0.031671411154265847 0 0.00045955503271671551 -0.031002575790201589 0 0.00029356361210314773 -0.031671411154265847 0 0.00046857735252153466 -0.030904550488639274 0 1.4789104282613267e-06 -0.032560725480403653 0 1.5599722788235222e-06 -0.029817326342515403 0 0.00046857735252153466 -0.030904550488639274 0 0.00029356361210314773 -0.031671411154265847 0 1.4789104282613267e-06 -0.032560725480403653 0 0.00046857735252153466 -0.030904550488639274 0 0.00029356361210314773 -0.031671411154265847 0 1.4789104282613267e-06 -0.032560725480403653 0 0.00011616201862977282 -0.032913596648945338 0 -2.9436392417676401e-06 -0.03529875609581986 0 1.4789104282613267e-06 -0.032560725480403653 0 0.00011616201862977282 -0.032913596648945338 0 -0.00055576156737547483 -0.029669067876981717 0 -3.0793577637097889e-06 -0.027079750090775609 0 0.00023179063490487802 -0.029672434419594631 0 -3.0793577637097889e-06 -0.027079750090775609 0 0.00023179063490487802 -0.029672434419594631 0 1.5599722788235222e-06 -0.029817326342515403 0 0.00023179063490487802 -0.029672434419594631 0 1.5599722788235222e-06 -0.029817326342515403 0 0.00046857735252153466 -0.030904550488639274 0 0.00023179063490487802 -0.029672434419594631 0 0.00046857735252153466 -0.030904550488639274 0 0.00034962415466419778 -0.030711754149482278 0 0.00045955503271671551 -0.031002575790201589 0 0.00046857735252153466 -0.030904550488639274 0 0.00034962415466419778 -0.030711754149482278 0 -0.00055576156737547483 -0.029669067876981717 0 0.00023179063490487802 -0.029672434419594631 0 0.00034962415466419778 -0.030711754149482278 0 9.9666439759698577e-05 -0.030831799178598462 0 0.00034962415466419778 -0.030711754149482278 0 0.00038265536794851706 -0.030940393774033303 0 0.00045955503271671551 -0.031002575790201589 0 0.00034962415466419778 -0.030711754149482278 0 0.00038265536794851706 -0.030940393774033303 0 0.00045955503271671551 -0.031002575790201589 0 0.00042546975627276711 -0.030965422948738351 0 0.00038265536794851706 -0.030940393774033303 0 0.00042546975627276711 -0.030965422948738351 0 0.00038265536794851706 -0.030940393774033303 0 0.00043306628848562012 -0.030940773630252223 0 0.00038895591627139119 -0.029468008220855765 0 0.00052381032817668904 -0.02991201478675792 0 0.00038265536794851706 -0.030940393774033303 0 0.00032530636097170807 -0.030975057093137918 0 0.00043306628848562012 -0.030940773630252223 0 0.0001988119616147928 -0.030777947050704021 0 0.00038265536794851706 -0.030940393774033303 0 0.00032530636097170807 -0.030975057093137918 0 -0.0021692445668144269 -0.026689794059286003 0 -0.0021842339622645192 -0.026244073799882868 0 -0.002451841667787127 -0.026443895611251048 0 -0.0021842339622645192 -0.026244073799882868 0 -0.002451841667787127 -0.026443895611251048 0 -0.0025116292091693256 -0.0260499689459106 0 -0.002451841667787127 -0.026443895611251048 0 -0.0026465941351778923 -0.026578773625257048 0 -0.0025116292091693256 -0.0260499689459106 0 -0.002451841667787127 -0.026443895611251048 0 -0.0026195923831443296 -0.026517355320965674 0 -0.0026465941351778923 -0.026578773625257048 0 -0.00084163110593624775 -0.028575232185952492 0 -0.00099418999681722547 -0.028970423944991251 0 -0.0021692445668144269 -0.026689794059286003 0 -0.002451841667787127 -0.026443895611251048 0 -0.0026195923831443296 -0.026517355320965674 0 0.00032832751676974852 -0.030959743939176367 0 0.00043306628848562012 -0.030940773630252223 0 0.00019800331016899664 -0.030813983559523472 0 -0.0026195923831443296 -0.026517355320965674 0 -0.0020456284501212648 -0.026438568656789119 0 -0.0026465941351778923 -0.026578773625257048 0 -0.00099418999681722547 -0.028970423944991251 0 -0.00090523951209735482 -0.029563893393789519 0 -6.4338135979518425e-06 -0.031066238531719036 0 0.00032832751676974852 -0.030959743939176367 0 0.00019800331016899664 -0.030813983559523472 0 -0.0012678162599187102 -0.027530527227636804 0 -0.0020456284501212648 -0.026438568656789119 0 -0.0023327747872996501 -0.027372101097779357 0 -0.0020816269237204504 -0.026402367493047203 0 -0.0019475627138098549 -0.026402938650426373 0 -0.0020456284501212648 -0.026438568656789119 0 -0.0026465941351778923 -0.026578773625257048 0 -0.0023327747872996501 -0.027372101097779357 0 -0.0026465941351778923 -0.026578773625257048 0 -0.0030041750617957712 -0.026163998921401244 0 -0.0025116292091693256 -0.0260499689459106 0 -0.00061043436047883816 -0.023113742142950335 0 -0.00063266460108827075 -0.023254370912595235 0 -0.00078319695032544236 -0.023141485922347178 0 -0.0019475627138098549 -0.026402938650426373 0 -0.0016547035960044804 -0.025140550925783132 0 -0.0017289210178499789 -0.028817753918904905 0 -0.0012678162599187102 -0.027530527227636804 0 -0.0038577103187722632 -0.028006246073587437 0 -0.0019475627138098549 -0.026402938650426373 0 -0.0013410239426247461 -0.026851153144306496 0 -0.0019352989974830541 -0.026666654085333804 0 -0.0019475627138098549 -0.026402938650426373 0 -0.0017289210178499789 -0.028817753918904905 0 -0.0038577103187722632 -0.028006246073587437 0 -0.0023586087789560519 -0.029820132208722278 0 -0.00048498696089101494 -0.023257823929392418 0 -0.00063266460108827075 -0.023254370912595235 0 -0.00049724542706538631 -0.02339469474523484 0 -0.00061043436047883816 -0.023113742142950335 0 -0.00048498696089101494 -0.023257823929392418 0 -0.00063266460108827075 -0.023254370912595235 0 -0.00063266460108827075 -0.023254370912595235 0 -0.0007446367185223032 -0.023254671173673525 0 -0.00078319695032544236 -0.023141485922347178 0 -0.00063266460108827075 -0.023254370912595235 0 -0.0007446367185223032 -0.023254671173673525 0 -0.00072944570414680879 -0.023367410165886005 0 -0.0007446367185223032 -0.023254671173673525 0 -0.00083326079289804719 -0.023255967753451311 0 -0.00072944570414680879 -0.023367410165886005 0 -0.00083326079289804719 -0.023255967753451311 0 -0.00096319337249085608 -0.023332340024622603 0 -0.00072944570414680879 -0.023367410165886005 0 -0.0007446367185223032 -0.023254671173673525 0 -0.00083326079289804719 -0.023255967753451311 0 -0.00078319695032544236 -0.023141485922347178 0 -0.00083326079289804719 -0.023255967753451311 0 -0.00095961372365205668 -0.023170701231673019 0 -0.00096319337249085608 -0.023332340024622603 0 -0.0015299693034839044 -0.024116636631708384 0 -0.0016547035960044804 -0.025140550925783132 0 -0.0021842339622645192 -0.026244073799882868 0 -0.002146148692148513 -0.025886794572765229 0 -0.0025116292091693256 -0.0260499689459106 0 -0.00083326079289804719 -0.023255967753451311 0 -0.00095961372365205668 -0.023170701231673019 0 -0.00078319695032544236 -0.023141485922347178 0 -0.00081874996471655059 -0.023409518095547109 0 -0.0007804025543349882 -0.023566479454016871 0 -0.00070107988947330812 -0.023514139262103918 0 -0.00081874996471655059 -0.023409518095547109 0 -0.0007804025543349882 -0.023566479454016871 0 -0.00092768782850433898 -0.023528071763829581 0 -0.00092768782850433898 -0.023528071763829581 0 -0.0010739144287893203 -0.023422286836709275 0 -0.0010302800162581252 -0.023592154097869356 0 -0.0012459812509967735 -0.023625526651585588 0 -0.0010739144287893203 -0.023422286836709275 0 -0.0010302800162581252 -0.023592154097869356 0 -0.00081874996471655059 -0.023409518095547109 0 -0.00092768782850433898 -0.023528071763829581 0 -0.0010739144287893203 -0.023422286836709275 0 -0.00094544256390501427 -0.023268313665924401 0 -0.0010536316330975201 -0.023175076959766075 0 -0.00081874996471655059 -0.023409518095547109 0 -0.0010739144287893203 -0.023422286836709275 0 -0.0010983284211386133 -0.023136571285594296 0 -0.0010536316330975201 -0.023175076959766075 0 -0.00077815081517815243 -0.023277334377938004 0 -0.00081874996471655059 -0.023409518095547109 0 -0.0010017381629864408 -0.023271323049288226 0 -0.00076684339433970034 -0.023310133193836208 0 -0.00077815081517815243 -0.023277334377938004 0 -0.00064769897001671229 -0.023315448108283121 0 -0.00063266460108827075 -0.023254370912595235 0 -0.00072944570414680879 -0.023367410165886005 0 -0.00049724542706538631 -0.02339469474523484 0 -0.00081874996471655059 -0.023409518095547109 0 -0.00076684339433970034 -0.023310133193836208 0 -0.00066283325816462351 -0.023431321807534423 0 -0.00076684339433970034 -0.023310133193836208 0 -0.00049724542706538631 -0.02339469474523484 0 -0.00066283325816462351 -0.023431321807534423 0 -0.00049724542706538631 -0.02339469474523484 0 -0.00055750813321776577 -0.023472845561428077 0 -0.00066283325816462351 -0.023431321807534423 0 -0.00049724542706538631 -0.02339469474523484 0 -0.00055750813321776577 -0.023472845561428077 0 -0.00044185365875817206 -0.023471721404114104 0 -0.00055750813321776577 -0.023472845561428077 0 -0.00047163224485876151 -0.023541426633814286 0 -0.00044185365875817206 -0.023471721404114104 0 -0.00055750813321776577 -0.023472845561428077 0 -0.00054407538320483872 -0.023557918467464353 0 -0.000625589132141494 -0.023499658794567491 0 -0.00054407538320483872 -0.023557918467464353 0 -0.00063169976287287945 -0.023565669362152913 0 -0.00059731881632564998 -0.023639433527312761 0 -0.00054407538320483872 -0.023557918467464353 0 -0.000625589132141494 -0.023499658794567491 0 -0.00063169976287287945 -0.023565669362152913 0 -0.00054407538320483872 -0.023557918467464353 0 -0.00049911187073622683 -0.023588122810886212 0 -0.00052552968609202299 -0.023637977623607274 0 -0.00055750813321776577 -0.023472845561428077 0 -0.00054407538320483872 -0.023557918467464353 0 -0.00047163224485876151 -0.023541426633814286 0 -0.00054407538320483872 -0.023557918467464353 0 -0.00049911187073622683 -0.023588122810886212 0 -0.00047163224485876151 -0.023541426633814286 0 -0.00049911187073622683 -0.023588122810886212 0 -0.00047163224485876151 -0.023541426633814286 0 -0.000455728600085349 -0.023615681088997354 0 -0.00081874996471655059 -0.023409518095547109 0 -0.00066283325816462351 -0.023431321807534423 0 -0.00070107988947330812 -0.023514139262103918 0 -0.00055750813321776577 -0.023472845561428077 0 -0.00066283325816462351 -0.023431321807534423 0 -0.000625589132141494 -0.023499658794567491 0 -0.00066283325816462351 -0.023431321807534423 0 -0.000625589132141494 -0.023499658794567491 0 -0.00070107988947330812 -0.023514139262103918 0 -0.000625589132141494 -0.023499658794567491 0 -0.00063169976287287945 -0.023565669362152913 0 -0.00070107988947330812 -0.023514139262103918 0 -0.00063169976287287945 -0.023565669362152913 0 -0.00070107988947330812 -0.023514139262103918 0 -0.00069032717995842307 -0.023616405471613325 0 -0.0007804025543349882 -0.023566479454016871 0 -0.00070107988947330812 -0.023514139262103918 0 -0.00069032717995842307 -0.023616405471613325 0 -0.0007804025543349882 -0.023566479454016871 0 -0.00069032717995842307 -0.023616405471613325 0 -0.00079064494614017864 -0.02369989240807218 0 -0.00069032717995842307 -0.023616405471613325 0 -0.00064313670669715174 -0.023710196158704636 0 -0.00059731881632564998 -0.023639433527312761 0 -0.00063169976287287945 -0.023565669362152913 0 -0.00069032717995842307 -0.023616405471613325 0 -0.00059731881632564998 -0.023639433527312761 0 -0.00064313670669715174 -0.023710196158704636 0 -0.00071755668236878143 -0.023794805056852563 0 -0.00079064494614017864 -0.02369989240807218 0 -0.00069032717995842307 -0.023616405471613325 0 -0.00064313670669715174 -0.023710196158704636 0 -0.00079064494614017864 -0.02369989240807218 0 -0.00048624901310218168 -0.023668646442463873 0 -0.000455728600085349 -0.023615681088997354 0 -0.00042516507160370205 -0.0236962274204887 0 -0.00048624901310218168 -0.023668646442463873 0 -0.000455728600085349 -0.023615681088997354 0 -0.00052552968609202299 -0.023637977623607274 0 -0.00049911187073622683 -0.023588122810886212 0 -0.000455728600085349 -0.023615681088997354 0 -0.00052552968609202299 -0.023637977623607274 0 -0.00048624901310218168 -0.023668646442463873 0 -0.00052552968609202299 -0.023637977623607274 0 -0.00051673329560665289 -0.023699503923153155 0 -0.00052552968609202299 -0.023637977623607274 0 -0.00059731881632564998 -0.023639433527312761 0 -0.00051673329560665289 -0.023699503923153155 0 -0.00054407538320483872 -0.023557918467464353 0 -0.00052552968609202299 -0.023637977623607274 0 -0.00059731881632564998 -0.023639433527312761 0 -0.00064313670669715174 -0.023710196158704636 0 -0.00051673329560665289 -0.023699503923153155 0 -0.00053741820154031342 -0.023815739933750486 0 -0.00064313670669715174 -0.023710196158704636 0 -0.00059731881632564998 -0.023639433527312761 0 -0.00051673329560665289 -0.023699503923153155 0 -0.00048624901310218168 -0.023668646442463873 0 -0.00051673329560665289 -0.023699503923153155 0 -0.00042516507160370205 -0.0236962274204887 0 -0.00051673329560665289 -0.023699503923153155 0 -0.00053741820154031342 -0.023815739933750486 0 -0.00040479811281764953 -0.023723170629337736 0 0.0004946899016076969 -0.036424521169430846 0 0.00068683477160908879 -0.036554258577048825 0 0.00070087109746723767 -0.036275684673427837 0 0.0004946899016076969 -0.036424521169430846 0 0.0002762960390122762 -0.036567683276800218 0 0.00053692439342367811 -0.036720738563985514 0 0.0004946899016076969 -0.036424521169430846 0 0.00053692439342367811 -0.036720738563985514 0 0.00068683477160908879 -0.036554258577048825 0 0.00047728281668405674 -0.030512502380282358 0 -0.00014470089766488049 -0.031760850601244527 0 -0.00064313670669715174 -0.023710196158704636 0 -0.00053741820154031342 -0.023815739933750486 0 -0.00071755668236878143 -0.023794805056852563 0 -0.00053741820154031342 -0.023815739933750486 0 -0.00071755668236878143 -0.023794805056852563 0 -0.00067735608645264327 -0.023914469904781632 0 0.00047728281668405674 -0.030512502380282358 0 0.0013601551894531954 -0.029265714872692628 0 0.0013601551894531954 -0.029265714872692628 0 0.00079742076916118946 -0.024270578200715036 0 -0.00071755668236878143 -0.023794805056852563 0 -0.00067735608645264327 -0.023914469904781632 0 -0.00082751009307917192 -0.023826894253034438 0 0.0014237743089988552 -0.026408675238646744 0 0.0017846191540139998 -0.026596206900744761 0 0.001679072829312101 -0.026189328781054295 0 -0.00082751009307917192 -0.023826894253034438 0 -0.00079064494614017864 -0.02369989240807218 0 -0.00098352601622769234 -0.023735881758618869 0 0.0010606557054103321 -0.026217626745996047 0 0.0014237743089988552 -0.026408675238646744 0 0.0013871940538549734 -0.025992321951251965 0 0.00079742076916118946 -0.024270578200715036 0 0.00036813692016172072 -0.019101144384633575 0 -0.00071755668236878143 -0.023794805056852563 0 -0.00082751009307917192 -0.023826894253034438 0 -0.00079064494614017864 -0.02369989240807218 0 -0.00079064494614017864 -0.02369989240807218 0 -0.00091164575479559852 -0.023628848856724713 0 -0.00098352601622769234 -0.023735881758618869 0 -0.0007804025543349882 -0.023566479454016871 0 -0.00092768782850433898 -0.023528071763829581 0 -0.00091164575479559852 -0.023628848856724713 0 -0.0007804025543349882 -0.023566479454016871 0 -0.00079064494614017864 -0.02369989240807218 0 -0.00091164575479559852 -0.023628848856724713 0 -0.0012459812509967735 -0.023625526651585588 0 -0.0010302800162581252 -0.023592154097869356 0 -0.0010001348348689554 -0.023754592479845613 0 0.00084122543458980752 -0.01558490776893796 0 0.00036813692016172072 -0.019101144384633575 0 -0.00092768782850433898 -0.023528071763829581 0 -0.00091164575479559852 -0.023628848856724713 0 -0.0010302800162581252 -0.023592154097869356 0 -0.00091164575479559852 -0.023628848856724713 0 -0.0010302800162581252 -0.023592154097869356 0 -0.0010001348348689554 -0.023754592479845613 0 -9.5570666443797292e-05 -0.019935175067244491 0 0.00036813692016172072 -0.019101144384633575 0 0.0028791015167061672 -0.019584610946223227 0 0.00036813692016172072 -0.019101144384633575 0 0.0020837199616468684 -0.02617559891308139 0 0.0017846191540139998 -0.026596206900744761 0 0.001679072829312101 -0.026189328781054295 0 0.002260126891777152 -0.0052578636101147675 0 0.0015107877890418574 -0.0033202833627488629 0 -0.00024907540880064283 -0.0058653464875937636 0 0.0020837199616468684 -0.02617559891308139 0 0.001679072829312101 -0.026189328781054295 0 0.0017151174406551126 -0.025769221749008125 0 0.00030361214659501253 -0.036719573490103463 0 0.00021917579402592349 -0.036766823703217738 0 0.00037823763400016863 -0.036793898615567922 0 0.001679072829312101 -0.026189328781054295 0 0.0013871940538549734 -0.025992321951251965 0 0.0017151174406551126 -0.025769221749008125 0 0.0014237743089988552 -0.026408675238646744 0 0.001679072829312101 -0.026189328781054295 0 0.0013871940538549734 -0.025992321951251965 0 0.0013143490140229057 -0.030718771586667606 0 0.0017877224700512272 -0.031753603291891454 0 0.0022128519060611671 -0.047430801514052462 0 0.0016391467552815647 -0.04647441268530822 0 0.0010161875372312621 -0.047203228560479156 0 0.0017877224700512272 -0.031753603291891454 0 0.000940220480319118 -0.032733438596480244 0 0.0002036519080798618 -0.036800118230946754 0 0.00037823763400016863 -0.036793898615567922 0 0.00033885670188360474 -0.036887732135471335 0 0.00014813619593152404 -0.036836177227023939 0 0.0002036519080798618 -0.036800118230946754 0 0.00033885670188360474 -0.036887732135471335 0 0.0017945431985694248 -0.034272472735205353 0 0.0010930390240656074 -0.039077533372312491 0 0.0031895917234907494 -0.025553620145088243 0 0.0017877224700512272 -0.031753603291891454 0 0.0036293154829396147 -0.029024281770222107 0 0.0015880599399346401 -0.028487716551467986 0 0.00070252398226820084 -0.029094496731877931 0 0.0017945431985694248 -0.034272472735205353 0 0.0017877224700512272 -0.031753603291891454 0 0.0022128519060611671 -0.047430801514052462 0 0.0023586036556595292 -0.046653539216362221 0 0.0016391467552815647 -0.04647441268530822 0 0.0023586036556595292 -0.046653539216362221 0 0.0016391467552815647 -0.04647441268530822 0 0.0023088579032551067 -0.045960287771101178 0 0.0016391467552815647 -0.04647441268530822 0 0.00065364225809631251 -0.046210452576481473 0 0.0010161875372312621 -0.047203228560479156 0 -0.00020978717884338082 -0.044703963462745952 0 0.00060409739821182902 -0.044901704169596421 0 0.0016391467552815647 -0.04647441268530822 0 0.00065364225809631251 -0.046210452576481473 0 0.0014529417170593816 -0.045421637389202948 0 0.0016391467552815647 -0.04647441268530822 0 0.0023088579032551067 -0.045960287771101178 0 0.0014529417170593816 -0.045421637389202948 0 -0.00010218992809505875 -0.046646988209828606 0 -0.0014967819781788701 -0.046360441287302427 0 -0.00063134205775617778 -0.045306895303189217 0 0.00065364225809631251 -0.046210452576481473 0 -0.00014869174839413237 -0.046988757860818429 0 0.0010161875372312621 -0.047203228560479156 0 -0.00020978717884338082 -0.044703963462745952 0 0.00031361410657318299 -0.04190770966897555 0 -0.00010218992809505875 -0.046646988209828606 0 -0.0010255357551469848 -0.047517852023407366 0 -0.0014967819781788701 -0.046360441287302427 0 0.00058345511127100465 -0.036980133879093366 0 0.00037823763400016863 -0.036793898615567922 0 0.00053692439342367811 -0.036720738563985514 0 0.00058345511127100465 -0.036980133879093366 0 0.00037823763400016863 -0.036793898615567922 0 0.00033885670188360474 -0.036887732135471335 0 0.00031361410657318299 -0.04190770966897555 0 0.0010930390240656074 -0.039077533372312491 0 0.00040093503860184752 -0.036642763404136275 0 0.00037823763400016863 -0.036793898615567922 0 0.00053692439342367811 -0.036720738563985514 0 0.00040093503860184752 -0.036642763404136275 0 0.00030361214659501253 -0.036719573490103463 0 0.00037823763400016863 -0.036793898615567922 0 0.0013601551894531954 -0.029265714872692628 0 0.0013143490140229057 -0.030718771586667606 0 0.0013601551894531954 -0.029265714872692628 0 0.0019159901046770563 -0.030547717920242665 0 0.00053692439342367811 -0.036720738563985514 0 0.00082991981340602757 -0.036828944131600004 0 0.00068683477160908879 -0.036554258577048825 0 0.00082991981340602757 -0.036828944131600004 0 0.00092766448671946944 -0.036549634039840469 0 0.00068683477160908879 -0.036554258577048825 0 0.0016790850654053696 -0.040302818388221681 0 0.0018292675643996161 -0.038165888622496681 0 -5.0551878510001186e-05 -0.038104083905387769 0 0.00025441847073230894 -0.040154004432636767 0 0.00042951497650685154 -0.036594805569615689 0 0.00082991981340602757 -0.036828944131600004 0 0.0012887879179632438 -0.036938635597494468 0 0.00092766448671946944 -0.036549634039840469 0 0.00082991981340602757 -0.036828944131600004 0 0.00095801475171636101 -0.037446201722241043 0 0.0012887879179632438 -0.036938635597494468 0 0.00095801475171636101 -0.037446201722241043 0 0.0012887879179632438 -0.036938635597494468 0 0.0013554839261858771 -0.03731618119643907 0 0.00058345511127100465 -0.036980133879093366 0 0.00053692439342367811 -0.036720738563985514 0 0.00082991981340602757 -0.036828944131600004 0 0.00031361410657318299 -0.04190770966897555 0 0.0014946926920057608 -0.039669500482669033 0 0.00030541631265781693 -0.037346262152782618 0 0.00082991981340602757 -0.036828944131600004 0 0.00095801475171636101 -0.037446201722241043 0 -0.0010255357551469848 -0.047517852023407366 0 -0.0022347643908374962 -0.04729989452913242 0 -0.0014967819781788701 -0.046360441287302427 0 0.00031361410657318299 -0.04190770966897555 0 -0.00052804081300059753 -0.043552932722592717 0 -0.0022347643908374962 -0.04729989452913242 0 -0.0014967819781788701 -0.046360441287302427 0 -0.0027911240706938582 -0.046167289519110248 0 -0.0053240703683910635 -0.049562533552422169 0 -0.0062694986725266039 -0.049052721809008701 0 -0.0058802548380104585 -0.049939775394618656 0 -0.0053240703683910635 -0.049562533552422169 0 -0.0062694986725266039 -0.049052721809008701 0 -0.0053679690160982427 -0.048616059326598904 0 -0.0021901905006591507 -0.047081519958648455 0 -0.00060648426167069002 -0.045942323674790966 0 -0.0053240703683910635 -0.049562533552422169 0 -0.0039460109588918095 -0.049013059680934404 0 -0.0053679690160982427 -0.048616059326598904 0 -0.0053240703683910635 -0.049562533552422169 0 -0.0039460109588918095 -0.049013059680934404 0 -0.0049778535074320217 -0.050397035922949987 0 -0.00052804081300059753 -0.043552932722592717 0 -0.00060648426167069002 -0.045942323674790966 0 0.00095801475171636101 -0.037446201722241043 0 0.0015769248434948559 -0.037567890327834905 0 0.0013554839261858771 -0.03731618119643907 0 -0.0022347643908374962 -0.04729989452913242 0 -0.0027911240706938582 -0.046167289519110248 0 -0.0034239724782732686 -0.047091658579602819 0 0.0015769248434948559 -0.037567890327834905 0 0.0016712779684146669 -0.037437110902369015 0 0.0013554839261858771 -0.03731618119643907 0 -0.00060648426167069002 -0.045942323674790966 0 1.27638839302038e-05 -0.045059973351488161 0 -7.7039364418697399e-05 -0.045628167676513953 0 -0.00031100334992860401 -0.045334092441920368 0 -0.00044630178458065546 -0.046159912931834871 0 -0.00023091616984002633 -0.046902805554965156 0 -4.9781235754299874e-05 -0.046592983808111339 0 -0.00074506241673694921 -0.054403389407543391 0 -0.00075362316219095308 -0.054340124184634471 0 -0.00071719790541531134 -0.054375738936874439 0 0.0011829212308653279 -0.046350391119952761 0 9.8695976375390472e-07 -0.048061480568549551 0 -0.0017592919573181699 -0.045852507159984797 0 1.27638839302038e-05 -0.045059973351488161 0 -0.00023091616984002633 -0.046902805554965156 0 -0.0053240703683910635 -0.049562533552422169 0 -0.0049778535074320217 -0.050397035922949987 0 -0.0056269317023884529 -0.050269247677617764 0 -0.0053240703683910635 -0.049562533552422169 0 -0.0056269317023884529 -0.050269247677617764 0 -0.0058802548380104585 -0.049939775394618656 0 -0.00060648426167069002 -0.045942323674790966 0 -0.00023091616984002633 -0.046902805554965156 0 -0.00023091616984002633 -0.046902805554965156 0 -0.00031603707806085479 -0.046912553721742634 0 -0.00074506241673694921 -0.054403389407543391 0 -0.00071719790541531134 -0.054375738936874439 0 -0.00070003556669205277 -0.054389644164547543 0 -0.00075362316219095308 -0.054340124184634471 0 -0.00071888064280643794 -0.054357818129013302 0 -0.00071719790541531134 -0.054375738936874439 0 1.27638839302038e-05 -0.045059973351488161 0 -4.9781235754299874e-05 -0.046592983808111339 0 -0.00076519556866069469 -0.054312893155729819 0 -0.00075362316219095308 -0.054340124184634471 0 -0.00071888064280643794 -0.054357818129013302 0 -0.00029986469763754664 -0.047099100240101104 0 -4.9781235754299874e-05 -0.046592983808111339 0 1.27638839302038e-05 -0.045059973351488161 0 0.00025441847073230894 -0.040154004432636767 0 0.0016712779684146669 -0.037437110902369015 0 0.0012887879179632438 -0.036938635597494468 0 0.0013554839261858771 -0.03731618119643907 0 0.0043965058038554173 -0.041083482266613916 0 0.0016790850654053696 -0.040302818388221681 0 0.0033909651355550742 -0.039443105975752041 0 0.0034157473532655681 -0.042503732466944069 0 0.0043965058038554173 -0.041083482266613916 0 0.0016790850654053696 -0.040302818388221681 0 0.0016790850654053696 -0.040302818388221681 0 0.0033909651355550742 -0.039443105975752041 0 0.0018292675643996161 -0.038165888622496681 0 -4.9781235754299874e-05 -0.046592983808111339 0 0.00067324612884734345 -0.04567215217692993 0 0.0043965058038554173 -0.041083482266613916 0 0.0033909651355550742 -0.039443105975752041 0 0.0047659909697286328 -0.038111883904193393 0 -0.00076519556866069469 -0.054312893155729819 0 -0.00080347280770436374 -0.054401189436241351 0 -0.00086073562252493227 -0.05402851339456119 0 0.0033909651355550742 -0.039443105975752041 0 0.0047659909697286328 -0.038111883904193393 0 0.0030775091378680056 -0.036822536275519464 0 0.0047659909697286328 -0.038111883904193393 0 0.0030775091378680056 -0.036822536275519464 0 0.0051242947712161627 -0.035146397041373248 0 0.00067324612884734345 -0.04567215217692993 0 0.00076505269675825646 -0.04406651753958133 0 0.003442256344102296 -0.035056356838736494 0 0.0030775091378680056 -0.036822536275519464 0 0.0051242947712161627 -0.035146397041373248 0 0.003442256344102296 -0.035056356838736494 0 0.0039656151760259477 -0.033826793759273999 0 0.0051242947712161627 -0.035146397041373248 0 0.0022486950093912293 -0.035201880184330993 0 0.0030775091378680056 -0.036822536275519464 0 0.0010507712737475377 -0.036160306861992147 0 0.0022486950093912293 -0.035201880184330993 0 0.0010507712737475377 -0.036160306861992147 0 0.001332246015924162 -0.034672239893237283 0 0.0022486950093912293 -0.035201880184330993 0 0.0027541388092617827 -0.034251232675809186 0 0.0019689194269605944 -0.034305623160402775 0 0.0022486950093912293 -0.035201880184330993 0 0.001332246015924162 -0.034672239893237283 0 0.0019689194269605944 -0.034305623160402775 0 0.003442256344102296 -0.035056356838736494 0 0.0022486950093912293 -0.035201880184330993 0 0.0027541388092617827 -0.034251232675809186 0 0.003442256344102296 -0.035056356838736494 0 0.0022486950093912293 -0.035201880184330993 0 0.0030775091378680056 -0.036822536275519464 0 0.0018292675643996161 -0.038165888622496681 0 0.0030775091378680056 -0.036822536275519464 0 0.0010507712737475377 -0.036160306861992147 0 0.0033909651355550742 -0.039443105975752041 0 0.0018292675643996161 -0.038165888622496681 0 0.0030775091378680056 -0.036822536275519464 0 -5.0551878510001186e-05 -0.038104083905387769 0 -0.0017854759117380803 -0.035910041806855357 0 0.0010507712737475377 -0.036160306861992147 0 0.0018292675643996161 -0.038165888622496681 0 -5.0551878510001186e-05 -0.038104083905387769 0 0.0010507712737475377 -0.036160306861992147 0 0.00042951497650685154 -0.036594805569615689 0 -0.00014470089766488049 -0.031760850601244527 0 0.00092766448671946944 -0.036549634039840469 0 0.00068683477160908879 -0.036554258577048825 0 0.00070087109746723767 -0.036275684673427837 0 -0.00042516507160370205 -0.0236962274204887 0 -0.00040686695814953213 -0.023722103571490898 0 -0.00037454348954188882 -0.023568972861836582 0 -0.00040686695814953213 -0.023722103571490898 0 -0.0002005375950847534 -0.023584168029196547 0 -0.00037454348954188882 -0.023568972861836582 0 -0.00051673329560665289 -0.023699503923153155 0 -0.00042516507160370205 -0.0236962274204887 0 -0.00040479811281764953 -0.023723170629337736 0 -0.00019774485772834882 -0.031660806773009288 0 -0.00014470089766488049 -0.031760850601244527 0 -0.000455728600085349 -0.023615681088997354 0 -0.00042516507160370205 -0.0236962274204887 0 -0.00037454348954188882 -0.023568972861836582 0 -0.00014470089766488049 -0.031760850601244527 0 0.00088292127762527124 -0.02914769820793732 0 -0.0017854759117380803 -0.035910041806855357 0 0.0010507712737475377 -0.036160306861992147 0 0.00086411637562260957 -0.034100241681294378 0 0.0010507712737475377 -0.036160306861992147 0 0.001332246015924162 -0.034672239893237283 0 0.00086411637562260957 -0.034100241681294378 0 -0.0002005375950847534 -0.023584168029196547 0 -0.00037454348954188882 -0.023568972861836582 0 -0.0003457694437959568 -0.023406993927050493 0 0.001332246015924162 -0.034672239893237283 0 0.0013710999104627976 -0.033755301807831511 0 0.00086883207942832529 -0.034092027948307624 0 0.00090407899731426069 -0.034068797340946227 0 0.00088176743799481478 -0.032752662935919927 0 -0.00075965893088535553 -0.031922171402297125 0 0.00088292127762527124 -0.02914769820793732 0 -0.00038529586016038873 -0.027819950630735175 0 0.0010046969817228359 -0.029370224974582828 0 0.00088292127762527124 -0.02914769820793732 0 0.00083060457407192626 -0.029230867704060685 0 0.00088292127762527124 -0.02914769820793732 0 0.0013710999104627976 -0.033755301807831511 0 0.00088176743799481478 -0.032752662935919927 0 0.0018507454629885143 -0.03292667047097788 0 0.0013710999104627976 -0.033755301807831511 0 0.00090407899731426069 -0.034068797340946227 0 0.00088176743799481478 -0.032752662935919927 0 -0.00037454348954188882 -0.023568972861836582 0 -0.00044185365875817206 -0.023471721404114104 0 -0.0003457694437959568 -0.023406993927050493 0 -0.00047163224485876151 -0.023541426633814286 0 -0.000455728600085349 -0.023615681088997354 0 -0.00037454348954188882 -0.023568972861836582 0 -0.00047163224485876151 -0.023541426633814286 0 -0.00037454348954188882 -0.023568972861836582 0 -0.00044185365875817206 -0.023471721404114104 0 -0.00048498696089101494 -0.023257823929392418 0 -0.00049724542706538631 -0.02339469474523484 0 -0.0003457694437959568 -0.023406993927050493 0 -0.00049724542706538631 -0.02339469474523484 0 -0.00044185365875817206 -0.023471721404114104 0 -0.0003457694437959568 -0.023406993927050493 0 0.0005967516746788709 -0.030739967811910109 0 -0.0017154445144083304 -0.029972928827502365 0 -0.00075965893088535553 -0.031922171402297125 0 -0.0013410239426247461 -0.026851153144306496 0 -0.00038529586016038873 -0.027819950630735175 0 0.00088176743799481478 -0.032752662935919927 0 0.00042213865240868357 -0.031833894677106907 0 0.0015209234194707389 -0.03200964755155903 0 0.00088176743799481478 -0.032752662935919927 0 0.0015209234194707389 -0.03200964755155903 0 0.0018507454629885143 -0.03292667047097788 0 0.00088176743799481478 -0.032752662935919927 0 -0.00075965893088535553 -0.031922171402297125 0 0.00042213865240868357 -0.031833894677106907 0 0.0005967516746788709 -0.030739967811910109 0 -0.00075965893088535553 -0.031922171402297125 0 0.00042213865240868357 -0.031833894677106907 0 0.0005967516746788709 -0.030739967811910109 0 0.00042213865240868357 -0.031833894677106907 0 0.0015209234194707389 -0.03200964755155903 0 0.0005967516746788709 -0.030739967811910109 0 0.0015209234194707389 -0.03200964755155903 0 0.0030086059409870666 -0.031476576727113549 0 -0.00066834675165486595 -0.034444261219402944 0 0.0001064493961939359 -0.037070346300866482 0 0.0015209234194707389 -0.03200964755155903 0 0.0024994295406837452 -0.032356557632497812 0 0.0018507454629885143 -0.03292667047097788 0 0.0015209234194707389 -0.03200964755155903 0 0.0024994295406837452 -0.032356557632497812 0 0.0030086059409870666 -0.031476576727113549 0 0.0031332595084840546 -0.032331816472412227 0 0.0024994295406837452 -0.032356557632497812 0 0.0028795823720123236 -0.033099368843290393 0 0.0031332595084840546 -0.032331816472412227 0 0.0024994295406837452 -0.032356557632497812 0 0.0030086059409870666 -0.031476576727113549 0 0.0001064493961939359 -0.037070346300866482 0 0.00013933260395213682 -0.042147571705412869 0 0.0010093550097071435 -0.030549675060488439 0 0.0011822703074094343 -0.030493647265103896 0 0.0012909140749434414 -0.030580617896741137 0 0.0030086059409870666 -0.031476576727113549 0 0.0039731102308249878 -0.032484003688589044 0 0.0054695983092272887 -0.032221015812450009 0 0.0011697169601137013 -0.030553390689563587 0 0.0011822703074094343 -0.030493647265103896 0 0.0012909140749434414 -0.030580617896741137 0 0.0010356407621452161 -0.030031898213851417 0 0.0010093550097071435 -0.030549675060488439 0 0.0011822703074094343 -0.030493647265103896 0 0.0031332595084840546 -0.032331816472412227 0 0.0039731102308249878 -0.032484003688589044 0 0.0028795823720123236 -0.033099368843290393 0 0.0031332595084840546 -0.032331816472412227 0 0.0030086059409870666 -0.031476576727113549 0 0.0039731102308249878 -0.032484003688589044 0 0.0039731102308249878 -0.032484003688589044 0 0.0039656151760259477 -0.033826793759273999 0 0.0028795823720123236 -0.033099368843290393 0 0.0039656151760259477 -0.033826793759273999 0 0.0054695983092272887 -0.032221015812450009 0 0.0051242947712161627 -0.035146397041373248 0 0.0039731102308249878 -0.032484003688589044 0 0.0039656151760259477 -0.033826793759273999 0 0.0054695983092272887 -0.032221015812450009 0 0.003442256344102296 -0.035056356838736494 0 0.0039656151760259477 -0.033826793759273999 0 0.0027541388092617827 -0.034251232675809186 0 0.0039656151760259477 -0.033826793759273999 0 0.0027541388092617827 -0.034251232675809186 0 0.0028795823720123236 -0.033099368843290393 0 0.0027541388092617827 -0.034251232675809186 0 0.0021330872683715876 -0.033650874179837434 0 0.0028795823720123236 -0.033099368843290393 0 0.0027541388092617827 -0.034251232675809186 0 0.0019689194269605944 -0.034305623160402775 0 0.0021330872683715876 -0.033650874179837434 0 0.001332246015924162 -0.034672239893237283 0 0.0013710999104627976 -0.033755301807831511 0 0.0019689194269605944 -0.034305623160402775 0 0.0013710999104627976 -0.033755301807831511 0 0.0019689194269605944 -0.034305623160402775 0 0.0021330872683715876 -0.033650874179837434 0 0.0021330872683715876 -0.033650874179837434 0 0.0018507454629885143 -0.03292667047097788 0 0.0028795823720123236 -0.033099368843290393 0 0.0013710999104627976 -0.033755301807831511 0 0.0021330872683715876 -0.033650874179837434 0 0.0018507454629885143 -0.03292667047097788 0 0.0024994295406837452 -0.032356557632497812 0 0.0018507454629885143 -0.03292667047097788 0 0.0028795823720123236 -0.033099368843290393 0 0.00087563847945792419 -0.049165763838963351 0 0.00088528448265627884 -0.052532414947715496 0 -0.00035102917944835195 -0.053068797585411297 0 -0.00079186465508930548 -0.052919087934710639 0 -0.00085097416144469312 -0.053490393408686936 0 0.00013933260395213682 -0.042147571705412869 0 0.00076505269675825646 -0.04406651753958133 0 -0.00081655787149702611 -0.043824187447429136 0 -0.00011258173959558271 -0.044036637857060308 0 -0.00097086631626436065 -0.045095582348991761 0 -0.00011258173959558271 -0.044036637857060308 0 0.00043513627045584509 -0.045521236296403846 0 -0.00097086631626436065 -0.045095582348991761 0 0.00087563847945792419 -0.049165763838963351 0 0.00013933260395213682 -0.042147571705412869 0 0.00019074164921791236 -0.040093870937019674 0 0.00013933260395213682 -0.042147571705412869 0 -0.00069108707383004858 -0.054135038772438852 0 -0.00055385758071572913 -0.054150081898653848 0 -0.00059310314619296376 -0.053990672731626395 0 0.00063514597355957664 -0.047091834666407519 0 0.00087563847945792419 -0.049165763838963351 0 -0.00053684629625753478 -0.054656439463510065 0 -0.00031474156205530372 -0.054742605333976714 0 -0.00045333255942682233 -0.054883644072141934 0 -0.00069108707383004858 -0.054135038772438852 0 -0.00059310314619296376 -0.053990672731626395 0 -0.00072854388307808083 -0.053946982105436206 0 1.5968883912635245e-06 -0.053935630185359996 0 0.00030772545329245247 -0.052727245729656182 0 -0.00031474156205530372 -0.054742605333976714 0 -0.00045333255942682233 -0.054883644072141934 0 -0.00015820475128368631 -0.054915220316458159 0 0.00030772545329245247 -0.052727245729656182 0 0.00023468141612870613 -0.053341261214193546 0 -0.00011123057760329668 -0.054444510580803865 0 1.7384382609932318e-05 -0.054495099948500506 0 -5.7434637669839166e-05 -0.054598433644492836 0 0.00087563847945792419 -0.049165763838963351 0 0.00030772545329245247 -0.052727245729656182 0 1.7384382609932318e-05 -0.054495099948500506 0 2.6224194636805044e-05 -0.054642565980100088 0 -5.7434637669839166e-05 -0.054598433644492836 0 0.00030772545329245247 -0.052727245729656182 0 0.0003286419348740186 -0.054081499169285181 0 2.6224194636805044e-05 -0.054642565980100088 0 8.6635864947282364e-07 -0.054694889828034367 0 -5.7434637669839166e-05 -0.054598433644492836 0 1.9783990009157881e-05 -0.054970632896882879 0 -4.2230301304692621e-06 -0.054850613473892716 0 -0.00015820475128368631 -0.054915220316458159 0 -4.2230301304692621e-06 -0.054850613473892716 0 -9.8238690086227003e-05 -0.054817302057576837 0 -0.00015820475128368631 -0.054915220316458159 0 -4.2230301304692621e-06 -0.054850613473892716 0 -3.3630914841847813e-05 -0.054687101180179373 0 -9.8238690086227003e-05 -0.054817302057576837 0 0.0003286419348740186 -0.054081499169285181 0 0.00030566369473218282 -0.054347194465771423 0 -3.3630914841847813e-05 -0.054687101180179373 0 -0.00010263521873348163 -0.054721655575904103 0 -9.8238690086227003e-05 -0.054817302057576837 0 -7.6352479263327609e-05 -0.054005323650049675 0 -0.00032655048384869629 -0.053879896691252663 0 -0.00019854044283958762 -0.053540235143932052 0 2.6224194636805044e-05 -0.054642565980100088 0 8.6635864947282364e-07 -0.054694889828034367 0 -3.3630914841847813e-05 -0.054687101180179373 0 0.00070449223095167708 -0.053638419920036755 0 0.00088528448265627884 -0.052532414947715496 0 -7.6352479263327609e-05 -0.054005323650049675 0 -0.00032655048384869629 -0.053879896691252663 0 -0.00031797184348820654 -0.054175421006993553 0 -0.00051449614058504266 -0.053996643547898723 0 -0.00032655048384869629 -0.053879896691252663 0 -0.00031797184348820654 -0.054175421006993553 0 -0.00051449614058504266 -0.053996643547898723 0 -0.00032655048384869629 -0.053879896691252663 0 -0.00051757407040185289 -0.053667543153873537 0 -0.00035102917944835195 -0.053068797585411297 0 -0.00051757407040185289 -0.053667543153873537 0 -0.00019854044283958762 -0.053540235143932052 0 -0.00032655048384869629 -0.053879896691252663 0 -0.00051757407040185289 -0.053667543153873537 0 -0.00019854044283958762 -0.053540235143932052 0 -0.00035102917944835195 -0.053068797585411297 0 -0.00051757407040185289 -0.053667543153873537 0 -0.00085097416144469312 -0.053490393408686936 0 -0.00086073562252493227 -0.05402851339456119 0 -0.00051757407040185289 -0.053667543153873537 0 -0.00085097416144469312 -0.053490393408686936 0 -0.00086073562252493227 -0.05402851339456119 0 -0.00051449614058504266 -0.053996643547898723 0 -0.00051757407040185289 -0.053667543153873537 0 -0.00076519556866069469 -0.054312893155729819 0 -0.00086073562252493227 -0.05402851339456119 0 -0.00068188122610170795 -0.054182122389972956 0 -0.00086073562252493227 -0.05402851339456119 0 -0.00051449614058504266 -0.053996643547898723 0 -0.00068188122610170795 -0.054182122389972956 0 -0.00051449614058504266 -0.053996643547898723 0 -0.00068188122610170795 -0.054182122389972956 0 -0.00050160805692358646 -0.054189151777091375 0 -0.00068188122610170795 -0.054182122389972956 0 -0.00061471561625286932 -0.054322589149656972 0 -0.00050160805692358646 -0.054189151777091375 0 -0.00076519556866069469 -0.054312893155729819 0 -0.00068188122610170795 -0.054182122389972956 0 -0.00061471561625286932 -0.054322589149656972 0 -0.00051449614058504266 -0.053996643547898723 0 -0.00031797184348820654 -0.054175421006993553 0 -0.00050160805692358646 -0.054189151777091375 0 -0.00031797184348820654 -0.054175421006993553 0 -0.00050160805692358646 -0.054189151777091375 0 -0.00034306449761306107 -0.054402853246717738 0 -0.00061471561625286932 -0.054322589149656972 0 -0.00050160805692358646 -0.054189151777091375 0 -0.00034306449761306107 -0.054402853246717738 0 -0.00031797184348820654 -0.054175421006993553 0 -0.00034306449761306107 -0.054402853246717738 0 -0.00019563328030492666 -0.054408839209889114 0 -0.00034306449761306107 -0.054402853246717738 0 -0.00025480226105270207 -0.054519289717259653 0 -0.00035246256021875577 -0.054572356064329093 0 -0.00034306449761306107 -0.054402853246717738 0 -0.00025480226105270207 -0.054519289717259653 0 -0.00019563328030492666 -0.054408839209889114 0 -0.00034306449761306107 -0.054402853246717738 0 -0.00043841621814860477 -0.054480944386461609 0 -0.00035246256021875577 -0.054572356064329093 0 -0.00061471561625286932 -0.054322589149656972 0 -0.00034306449761306107 -0.054402853246717738 0 -0.00043841621814860477 -0.054480944386461609 0 -0.00043841621814860477 -0.054480944386461609 0 -0.00046465654141031868 -0.054612227622697927 0 -0.00035246256021875577 -0.054572356064329093 0 -0.00025480226105270207 -0.054519289717259653 0 -0.00035246256021875577 -0.054572356064329093 0 -0.00023577293699796257 -0.054629345576078021 0 -0.00061471561625286932 -0.054322589149656972 0 -0.00043841621814860477 -0.054480944386461609 0 -0.00046465654141031868 -0.054612227622697927 0 -0.00061471561625286932 -0.054322589149656972 0 -0.00065871435885967236 -0.054375739654768843 0 -0.0006733210767819334 -0.054358499395604547 0 -0.0019815208798323117 -0.05345662749479578 0 -0.0022615272691695813 -0.052909092625035341 0 -0.00076519556866069469 -0.054312893155729819 0 -0.00061471561625286932 -0.054322589149656972 0 -0.0006733210767819334 -0.054358499395604547 0 -0.00076519556866069469 -0.054312893155729819 0 -0.0006733210767819334 -0.054358499395604547 0 -0.00071888064280643794 -0.054357818129013302 0 -0.00065871435885967236 -0.054375739654768843 0 -0.00068201088690462964 -0.054376757263808355 0 -0.0006733210767819334 -0.054358499395604547 0 -0.00068201088690462964 -0.054376757263808355 0 -0.0006733210767819334 -0.054358499395604547 0 -0.00071888064280643794 -0.054357818129013302 0 -0.00068201088690462964 -0.054376757263808355 0 -0.00071888064280643794 -0.054357818129013302 0 -0.00071719790541531134 -0.054375738936874439 0 -0.00023091616984002633 -0.046902805554965156 0 -0.0033241069839641396 -0.050587666816169753 0 -0.00074506241673694921 -0.054403389407543391 0 -0.00070003556669205277 -0.054389644164547543 0 -0.00068398089394650183 -0.054400772189429444 0 -0.00074506241673694921 -0.054403389407543391 0 -0.00068398089394650183 -0.054400772189429444 0 -0.0006500640977135496 -0.054416692198722784 0 -0.0056483726944761758 -0.050238098392566967 0 -0.0058802548380104585 -0.049939775394618656 0 -0.0076567129846484491 -0.049806790073594648 0 -0.00068201088690462964 -0.054376757263808355 0 -0.00071719790541531134 -0.054375738936874439 0 -0.00070003556669205277 -0.054389644164547543 0 -0.00068398089394650183 -0.054400772189429444 0 -0.00067246302748279359 -0.054389608553717342 0 -0.0006500640977135496 -0.054416692198722784 0 -0.00065871435885967236 -0.054375739654768843 0 -0.00068201088690462964 -0.054376757263808355 0 -0.00067246302748279359 -0.054389608553717342 0 -0.00070003556669205277 -0.054389644164547543 0 -0.00068398089394650183 -0.054400772189429444 0 -0.00067246302748279359 -0.054389608553717342 0 -0.00068201088690462964 -0.054376757263808355 0 -0.00070003556669205277 -0.054389644164547543 0 -0.00067246302748279359 -0.054389608553717342 0 -0.00065871435885967236 -0.054375739654768843 0 -0.00067246302748279359 -0.054389608553717342 0 -0.0006500640977135496 -0.054416692198722784 0 -0.00046465654141031868 -0.054612227622697927 0 -0.00041348126851033083 -0.054647245275715059 0 -0.00040680293304685782 -0.054708930485838463 0 -0.00046465654141031868 -0.054612227622697927 0 -0.00035246256021875577 -0.054572356064329093 0 -0.00041348126851033083 -0.054647245275715059 0 -0.0022615272691695813 -0.052909092625035341 0 -0.0033241069839641396 -0.050587666816169753 0 -0.00035246256021875577 -0.054572356064329093 0 -0.00041348126851033083 -0.054647245275715059 0 -0.00030773308240707539 -0.054649317798567368 0 -0.00035246256021875577 -0.054572356064329093 0 -0.00030773308240707539 -0.054649317798567368 0 -0.00023577293699796257 -0.054629345576078021 0 -0.00030773308240707539 -0.054649317798567368 0 -0.00022993699989769394 -0.054734779159722934 0 -0.00023577293699796257 -0.054629345576078021 0 -0.00041348126851033083 -0.054647245275715059 0 -0.00030773308240707539 -0.054649317798567368 0 -0.00022993699989769394 -0.054734779159722934 0 -0.00041348126851033083 -0.054647245275715059 0 -0.00040680293304685782 -0.054708930485838463 0 -0.00034822504549785344 -0.054712953891010392 0 -0.0020973043168130033 -0.052604458209290487 0 -0.0031585564953579854 -0.051482739399546104 0 -0.0076567129846484491 -0.049806790073594648 0 -0.0070548402544941624 -0.048569810683005296 0 -0.0079869893244094714 -0.048285299754780228 0 -0.008273578350842541 -0.046572635612940283 0 -0.0081585075131790554 -0.046694017378603035 0 -0.0082458166330495603 -0.046764581643375956 0 -0.0033241069839641396 -0.050587666816169753 0 -0.0056157137820005663 -0.047954113454780463 0 -0.0033241069839641396 -0.050587666816169753 0 -0.0031585564953579854 -0.051482739399546104 0 -0.008273578350842541 -0.046572635612940283 0 -0.0081585075131790554 -0.046694017378603035 0 -0.0081752983807310831 -0.046587981096835603 0 -0.0062694986725266039 -0.049052721809008701 0 -0.0076567129846484491 -0.049806790073594648 0 -0.0070548402544941624 -0.048569810683005296 0 -0.0062694986725266039 -0.049052721809008701 0 -0.0058802548380104585 -0.049939775394618656 0 -0.0076567129846484491 -0.049806790073594648 0 -0.0018892640936230755 -0.052377662211781612 0 -0.001402255453408106 -0.052858229715708249 0 -0.00010824860975914563 -0.054683988368229158 0 -8.564653990415399e-05 -0.054640158866056582 0 -8.8762591862358008e-05 -0.054643381714100887 0 -0.0026966548418343732 -0.052205274101282853 0 -0.0024236162509434439 -0.052251530684226409 0 -0.0026538067572489084 -0.052479645002389094 0 -0.001402255453408106 -0.052858229715708249 0 -0.0033920239917904632 -0.051695883710663068 0 -0.0018892640936230755 -0.052377662211781612 0 -0.0031585564953579854 -0.051482739399546104 0 -0.0026966548418343732 -0.052205274101282853 0 -0.0029692454132667669 -0.052159166789048361 0 -0.0026538067572489084 -0.052479645002389094 0 -0.0031585564953579854 -0.051482739399546104 0 -0.0033920239917904632 -0.051695883710663068 0 -0.0081585075131790554 -0.046694017378603035 0 -0.0081752983807310831 -0.046587981096835603 0 -0.0079587700448836909 -0.046761679598115044 0 -0.00010824860975914563 -0.054683988368229158 0 -0.00022993699989769394 -0.054734779159722934 0 -0.00013061955195278597 -0.054649389701800909 0 -0.00022993699989769394 -0.054734779159722934 0 -0.00023577293699796257 -0.054629345576078021 0 -0.00013061955195278597 -0.054649389701800909 0 -0.00023577293699796257 -0.054629345576078021 0 -0.00013061955195278597 -0.054649389701800909 0 -0.0001338756393793089 -0.054576381105046826 0 -0.00013061955195278597 -0.054649389701800909 0 -8.564653990415399e-05 -0.054640158866056582 0 -7.962066312831982e-05 -0.05460360364337713 0 -0.00010824860975914563 -0.054683988368229158 0 -0.00013061955195278597 -0.054649389701800909 0 -8.564653990415399e-05 -0.054640158866056582 0 -8.564653990415399e-05 -0.054640158866056582 0 -7.962066312831982e-05 -0.05460360364337713 0 -8.670230203872778e-05 -0.054624080041413947 0 -7.962066312831982e-05 -0.05460360364337713 0 -7.351461805496047e-05 -0.054617780950190549 0 -8.670230203872778e-05 -0.054624080041413947 0 -7.962066312831982e-05 -0.05460360364337713 0 -7.351461805496047e-05 -0.054617780950190549 0 -3.3692795940205321e-05 -0.054539854319695866 0 -0.00025480226105270207 -0.054519289717259653 0 -0.00023577293699796257 -0.054629345576078021 0 -0.0001338756393793089 -0.054576381105046826 0 -0.00013061955195278597 -0.054649389701800909 0 -7.962066312831982e-05 -0.05460360364337713 0 -0.0001338756393793089 -0.054576381105046826 0 -7.962066312831982e-05 -0.05460360364337713 0 -0.0001338756393793089 -0.054576381105046826 0 -3.3692795940205321e-05 -0.054539854319695866 0 -0.0001338756393793089 -0.054576381105046826 0 -3.3692795940205321e-05 -0.054539854319695866 0 -0.00019563328030492666 -0.054408839209889114 0 -0.00025480226105270207 -0.054519289717259653 0 -0.0001338756393793089 -0.054576381105046826 0 -0.00019563328030492666 -0.054408839209889114 0 -7.6352479263327609e-05 -0.054005323650049675 0 -3.3692795940205321e-05 -0.054539854319695866 0 -0.00019563328030492666 -0.054408839209889114 0 8.6635864947282364e-07 -0.054694889828034367 0 -3.3692795940205321e-05 -0.054539854319695866 0 -3.3630914841847813e-05 -0.054687101180179373 0 0.00070449223095167708 -0.053638419920036755 0 0.0006331615913672241 -0.053924854282051349 0 -7.6352479263327609e-05 -0.054005323650049675 0 -0.00031797184348820654 -0.054175421006993553 0 -0.00019563328030492666 -0.054408839209889114 0 -7.351461805496047e-05 -0.054617780950190549 0 -3.3630914841847813e-05 -0.054687101180179373 0 -0.00010263521873348163 -0.054721655575904103 0 -7.351461805496047e-05 -0.054617780950190549 0 -3.3692795940205321e-05 -0.054539854319695866 0 -3.3630914841847813e-05 -0.054687101180179373 0 -7.351461805496047e-05 -0.054617780950190549 0 -0.00010263521873348163 -0.054721655575904103 0 -0.00012050702693065046 -0.05465566376046755 0 -6.9578384670741282e-05 -0.054813146525475545 0 -8.6479783591795058e-05 -0.054829194898898717 0 -0.00010263521873348163 -0.054721655575904103 0 -0.00014534707608367925 -0.054678981282143824 0 -0.00012050702693065046 -0.05465566376046755 0 -0.00010263521873348163 -0.054721655575904103 0 -0.00010666161408768248 -0.054898306080316303 0 -0.00012362122215376712 -0.054878366626257599 0 -0.00014534707608367925 -0.054678981282143824 0 -0.00012050702693065046 -0.05465566376046755 0 -0.00015557234232991339 -0.054649547952829031 0 -0.00012050702693065046 -0.05465566376046755 0 -0.00011332055181805504 -0.054625298592125053 0 -0.00015557234232991339 -0.054649547952829031 0 -0.00012050702693065046 -0.05465566376046755 0 -8.670230203872778e-05 -0.054624080041413947 0 -0.00011332055181805504 -0.054625298592125053 0 -7.351461805496047e-05 -0.054617780950190549 0 -0.00012050702693065046 -0.05465566376046755 0 -8.670230203872778e-05 -0.054624080041413947 0 -8.564653990415399e-05 -0.054640158866056582 0 -8.670230203872778e-05 -0.054624080041413947 0 -0.00011332055181805504 -0.054625298592125053 0 -8.564653990415399e-05 -0.054640158866056582 0 -0.00011332055181805504 -0.054625298592125053 0 -8.8762591862358008e-05 -0.054643381714100887 0 -0.00081859763776854578 -0.053906344501624633 0 -0.001402255453408106 -0.052858229715708249 0 -0.00081859763776854578 -0.053906344501624633 0 -0.0004106269593599059 -0.054467657703399563 0 2.7329765216645323e-06 -0.054989957170269291 0 1.5723676349010799e-06 -0.054984073780654105 0 3.2534836804519047e-06 -0.05498108726592027 0 2.7329765216645323e-06 -0.054989957170269291 0 1.5723676349010799e-06 -0.054984073780654105 0 6.2528024630762711e-07 -0.054994334337776063 0 -0.0006009160705978912 -0.053307443770617934 0 -0.001402255453408106 -0.052858229715708249 0 1.5723676349010799e-06 -0.054984073780654105 0 -1.3043842860890877e-05 -0.054966985921258066 0 -7.7900860310317637e-06 -0.05497791867470677 0 -2.1914437397537011e-08 -0.055000020435095366 0 6.2528024630762711e-07 -0.054994334337776063 0 3.7490565388658933e-06 -0.054992674705026376 0 -2.1914437397537011e-08 -0.055000020435095366 0 6.2528024630762711e-07 -0.054994334337776063 0 5.7321139338588752e-09 -0.054999985262156478 0 1.5723676349010799e-06 -0.054984073780654105 0 6.2528024630762711e-07 -0.054994334337776063 0 3.7490565388658933e-06 -0.054992674705026376 0 2.7329765216645323e-06 -0.054989957170269291 0 6.2528024630762711e-07 -0.054994334337776063 0 1.1805153133046895e-06 -0.054996947710859632 0 6.2528024630762711e-07 -0.054994334337776063 0 5.7321139338588752e-09 -0.054999985262156478 0 4.0755234923715361e-08 -0.054998679274626219 0 5.7321139338588752e-09 -0.054999985262156478 0 4.0755234923715361e-08 -0.054998679274626219 0 -3.5362513492947893e-09 -0.055000004795494814 0 6.2528024630762711e-07 -0.054994334337776063 0 4.0755234923715361e-08 -0.054998679274626219 0 1.1805153133046895e-06 -0.054996947710859632 0 4.0755234923715361e-08 -0.054998679274626219 0 1.1805153133046895e-06 -0.054996947710859632 0 1.1065440131625835e-07 -0.054999690382036136 0 -0.0004106269593599059 -0.054467657703399563 0 -0.0001143707977556714 -0.054866444109834725 0 -8.6479783591795058e-05 -0.054829194898898717 0 -0.0001143707977556714 -0.054866444109834725 0 -0.00010666161408768248 -0.054898306080316303 0 -3.8696111824451856e-05 -0.05498405654935707 0 -4.3348075629842787e-05 -0.05496402595732252 0 -0.00014534707608367925 -0.054678981282143824 0 -0.00015557234232991339 -0.054649547952829031 0 -0.00018191504118094453 -0.054675770492173079 0 -2.2678579202102091e-07 -0.054999421176492744 0 -0.0001143707977556714 -0.054866444109834725 0 4.0755234923715361e-08 -0.054998679274626219 0 -3.5362513492947893e-09 -0.055000004795494814 0 1.1065440131625835e-07 -0.054999690382036136 0 -3.8696111824451856e-05 -0.05498405654935707 0 -3.3236378893605322e-08 -0.054999913580787159 0 -4.3348075629842787e-05 -0.05496402595732252 0 -2.3981000015705396e-10 -0.054999999658468343 0 -2.2007911583630119e-07 -0.054999780684813419 0 6.3374532135345995e-11 -0.054999999929040005 0 -0.0001143707977556714 -0.054866444109834725 0 -3.6596079363340123e-07 -0.05499959714543471 0 -4.3348075629842787e-05 -0.05496402595732252 0 -5.3599788265750667e-08 -0.05500000790895393 0 -6.5698399644199156e-05 -0.054937927777458026 0 -3.3236378893605322e-08 -0.054999913580787159 0 -4.3348075629842787e-05 -0.05496402595732252 0 -5.3599788265750667e-08 -0.05500000790895393 0 -5.3599788265750667e-08 -0.05500000790895393 0 -3.5500195569311033e-05 -0.054940564383714724 0 -6.5698399644199156e-05 -0.054937927777458026 0 -5.3599788265750667e-08 -0.05500000790895393 0 -3.5500195569311033e-05 -0.054940564383714724 0 1.4485890603411329e-07 -0.054999694598923579 0 -3.5500195569311033e-05 -0.054940564383714724 0 -6.5698399644199156e-05 -0.054937927777458026 0 -9.3146922937290997e-05 -0.054914271181512715 0 -3.5500195569311033e-05 -0.054940564383714724 0 -9.3146922937290997e-05 -0.054914271181512715 0 -8.2726113818576357e-05 -0.05487738432915773 0 -0.00010666161408768248 -0.054898306080316303 0 -4.3348075629842787e-05 -0.05496402595732252 0 -6.5698399644199156e-05 -0.054937927777458026 0 -0.00010666161408768248 -0.054898306080316303 0 -6.5698399644199156e-05 -0.054937927777458026 0 -0.00012362122215376712 -0.054878366626257599 0 -0.00010263521873348163 -0.054721655575904103 0 -0.00012362122215376712 -0.054878366626257599 0 -9.8238690086227003e-05 -0.054817302057576837 0 -0.00012362122215376712 -0.054878366626257599 0 -9.8238690086227003e-05 -0.054817302057576837 0 -0.00015820475128368631 -0.054915220316458159 0 -0.00012362122215376712 -0.054878366626257599 0 -0.00015820475128368631 -0.054915220316458159 0 -9.3146922937290997e-05 -0.054914271181512715 0 -6.5698399644199156e-05 -0.054937927777458026 0 -0.00012362122215376712 -0.054878366626257599 0 -9.3146922937290997e-05 -0.054914271181512715 0 -8.2726113818576357e-05 -0.05487738432915773 0 -0.00016567932469462179 -0.054812179963626737 0 -9.9761217707062971e-05 -0.054785571422626848 0 -0.00015820475128368631 -0.054915220316458159 0 -8.2726113818576357e-05 -0.05487738432915773 0 -0.00016567932469462179 -0.054812179963626737 0 -0.00015820475128368631 -0.054915220316458159 0 -9.3146922937290997e-05 -0.054914271181512715 0 -8.2726113818576357e-05 -0.05487738432915773 0 -0.00031474156205530372 -0.054742605333976714 0 -0.00015820475128368631 -0.054915220316458159 0 -0.00016567932469462179 -0.054812179963626737 0 -0.00031474156205530372 -0.054742605333976714 0 -0.00016567932469462179 -0.054812179963626737 0 -0.00015341286464035949 -0.054710327047872917 0 -5.7412766460316112e-05 -0.054704012636108079 0 -0.00015341286464035949 -0.054710327047872917 0 -9.9761217707062971e-05 -0.054785571422626848 0 -0.00016567932469462179 -0.054812179963626737 0 -0.00015341286464035949 -0.054710327047872917 0 -9.9761217707062971e-05 -0.054785571422626848 0 -3.5612689794624947e-05 -0.054807903354681775 0 5.1594860939433664e-05 -0.054766508487672137 0 -1.8675702304194909e-05 -0.054897546438977422 0 -5.7412766460316112e-05 -0.054704012636108079 0 -9.9761217707062971e-05 -0.054785571422626848 0 -3.5612689794624947e-05 -0.054807903354681775 0 -4.4159460389859615e-06 -0.054705598221576272 0 -5.7412766460316112e-05 -0.054704012636108079 0 -3.5612689794624947e-05 -0.054807903354681775 0 -8.2726113818576357e-05 -0.05487738432915773 0 -9.9761217707062971e-05 -0.054785571422626848 0 -3.5612689794624947e-05 -0.054807903354681775 0 -4.4159460389859615e-06 -0.054705598221576272 0 -3.5612689794624947e-05 -0.054807903354681775 0 5.1594860939433664e-05 -0.054766508487672137 0 5.1594860939433664e-05 -0.054766508487672137 0 1.4485890603411329e-07 -0.054999694598923579 0 -1.8675702304194909e-05 -0.054897546438977422 0 2.9774151959649273e-09 -0.055000037063677579 0 2.677973221318441e-06 -0.055002033337905487 0 -2.337672458128666e-10 -0.054999981014961744 0 -8.9587622242802119e-06 -0.054883426321765474 0 2.108580108898599e-08 -0.054999829882405454 0 -3.5500195569311033e-05 -0.054940564383714724 0 1.4485890603411329e-07 -0.054999694598923579 0 -1.8675702304194909e-05 -0.054897546438977422 0 -3.5500195569311033e-05 -0.054940564383714724 0 -8.2726113818576357e-05 -0.05487738432915773 0 -1.8675702304194909e-05 -0.054897546438977422 0 -8.2726113818576357e-05 -0.05487738432915773 0 -3.5612689794624947e-05 -0.054807903354681775 0 -1.8675702304194909e-05 -0.054897546438977422 0 -7.028673141614159e-06 -0.054988199152836315 0 -1.0055765558976023e-05 -0.054983986510259306 0 -1.050520762536279e-05 -0.054981394876932287 0 -7.028673141614159e-06 -0.054988199152836315 0 -1.0055765558976023e-05 -0.054983986510259306 0 -5.7633518205905784e-06 -0.054991548403262841 0 -1.0055765558976023e-05 -0.054983986510259306 0 -1.050520762536279e-05 -0.054981394876932287 0 -1.4601332139684516e-05 -0.054976333023660374 0 -1.0055765558976023e-05 -0.054983986510259306 0 -1.4601332139684516e-05 -0.054976333023660374 0 -1.1243042826843675e-05 -0.054984169622242278 0 -1.0055765558976023e-05 -0.054983986510259306 0 -5.7633518205905784e-06 -0.054991548403262841 0 -1.1243042826843675e-05 -0.054984169622242278 0 -7.028673141614159e-06 -0.054988199152836315 0 -5.7633518205905784e-06 -0.054991548403262841 0 -6.2429801666818105e-09 -0.054999982192649267 0 -5.7633518205905784e-06 -0.054991548403262841 0 -6.2429801666818105e-09 -0.054999982192649267 0 -6.5093787169214614e-09 -0.054999981362914264 0 -7.028673141614159e-06 -0.054988199152836315 0 -6.2429801666818105e-09 -0.054999982192649267 0 -8.161456802321374e-06 -0.054984189382017837 0 -6.2429801666818105e-09 -0.054999982192649267 0 -8.161456802321374e-06 -0.054984189382017837 0 -4.3168993145272407e-06 -0.054989776902894048 0 -7.028673141614159e-06 -0.054988199152836315 0 -8.161456802321374e-06 -0.054984189382017837 0 -1.050520762536279e-05 -0.054981394876932287 0 -8.161456802321374e-06 -0.054984189382017837 0 -1.050520762536279e-05 -0.054981394876932287 0 -1.2117201243617596e-05 -0.054974952582808628 0 -8.161456802321374e-06 -0.054984189382017837 0 -1.2117201243617596e-05 -0.054974952582808628 0 -1.0322699596480817e-05 -0.054975974455525177 0 -1.2117201243617596e-05 -0.054974952582808628 0 -1.3412220346964055e-05 -0.054967974602838615 0 -1.1526868064036237e-05 -0.054964470192450356 0 -1.2117201243617596e-05 -0.054974952582808628 0 -1.3412220346964055e-05 -0.054967974602838615 0 -1.4601332139684516e-05 -0.054976333023660374 0 -1.050520762536279e-05 -0.054981394876932287 0 -1.2117201243617596e-05 -0.054974952582808628 0 -1.4601332139684516e-05 -0.054976333023660374 0 -1.3412220346964055e-05 -0.054967974602838615 0 -8.9859655173008502e-06 -0.054961334533158511 0 -8.4329673689521919e-06 -0.054953649358587014 0 -1.3412220346964055e-05 -0.054967974602838615 0 -8.4329673689521919e-06 -0.054953649358587014 0 -1.1526868064036237e-05 -0.054964470192450356 0 -0.0033668423214289196 -0.051425084133618085 0 -0.0040633833694215778 -0.0493491709533527 0 -1.3412220346964055e-05 -0.054967974602838615 0 -1.7278833323092449e-05 -0.054971697225976501 0 -8.9859655173008502e-06 -0.054961334533158511 0 -0.005940860278059696 -0.048506450788162146 0 -0.0056449977725303606 -0.048360468868199329 0 -0.0057166151022611461 -0.048017495111614947 0 -0.0062133572460975868 -0.048286333690435494 0 -0.005940860278059696 -0.048506450788162146 0 -0.0057166151022611461 -0.048017495111614947 0 -0.0033668423214289196 -0.051425084133618085 0 -0.005501913470409658 -0.049972779581080901 0 -0.002957395954456832 -0.051781828810693993 0 -0.0033668423214289196 -0.051425084133618085 0 -1.3412220346964055e-05 -0.054967974602838615 0 -1.4601332139684516e-05 -0.054976333023660374 0 -1.7278833323092449e-05 -0.054971697225976501 0 -1.4601332139684516e-05 -0.054976333023660374 0 -1.7765919586122094e-05 -0.054974089175493443 0 -1.1243042826843675e-05 -0.054984169622242278 0 -0.0062720433375902966 -0.058366492694401917 0 -0.0046345998986048889 -0.056515795074547008 0 -0.0029225112399127854 -0.056626397242496775 0 -0.0033668423214289196 -0.051425084133618085 0 -0.0022490709549017481 -0.053441457440731768 0 -0.0056870728871536895 -0.056110701194375022 0 -0.0077553553010036086 -0.055022699776730397 0 -0.0036566745239655961 -0.054961588466521098 0 -0.0077553553010036086 -0.055022699776730397 0 -0.0057109566718698546 -0.05226957846146911 0 -0.0040967172083361657 -0.05501256765043204 0 -0.0045471081807827093 -0.054849129532153158 0 -0.0032189568030698652 -0.05480923143041088 0 -0.0046345998986048889 -0.056515795074547008 0 -0.0056870728871536895 -0.056110701194375022 0 -0.0036566745239655961 -0.054961588466521098 0 -0.0062720433375902966 -0.058366492694401917 0 -0.0046345998986048889 -0.056515795074547008 0 -0.0056870728871536895 -0.056110701194375022 0 -0.0062720433375902966 -0.058366492694401917 0 -0.0056870728871536895 -0.056110701194375022 0 -0.0089136048437108931 -0.056250156998550779 0 -0.0089136048437108931 -0.056250156998550779 0 -0.0077553553010036086 -0.055022699776730397 0 -0.011605405941486489 -0.054074049137966033 0 -0.0056870728871536895 -0.056110701194375022 0 -0.0089136048437108931 -0.056250156998550779 0 -0.0077553553010036086 -0.055022699776730397 0 -0.005501913470409658 -0.049972779581080901 0 -0.0072565207486975413 -0.048039577807874212 0 -0.0077553553010036086 -0.055022699776730397 0 -0.0073898156361418719 -0.048884853129088246 0 -0.011605405941486489 -0.054074049137966033 0 -0.0079417019108791176 -0.049048935423966968 0 -0.0072565207486975413 -0.048039577807874212 0 -0.0073898156361418719 -0.048884853129088246 0 -0.0078086188989095274 -0.04830040842095313 0 -0.007886739892427096 -0.048325571019306734 0 -0.0077553553010036086 -0.055022699776730397 0 -0.0057109566718698546 -0.05226957846146911 0 -0.0073898156361418719 -0.048884853129088246 0 -0.0057109566718698546 -0.05226957846146911 0 -0.003988525209808573 -0.052548418839948603 0 -0.0040967172083361657 -0.05501256765043204 0 -0.0057109566718698546 -0.05226957846146911 0 -0.0051861285567610538 -0.050009444357188869 0 -0.0073898156361418719 -0.048884853129088246 0 -0.0057109566718698546 -0.05226957846146911 0 -0.003988525209808573 -0.052548418839948603 0 -0.0051861285567610538 -0.050009444357188869 0 -0.003988525209808573 -0.052548418839948603 0 -0.0026547601719561493 -0.050002443724490898 0 -0.0051861285567610538 -0.050009444357188869 0 -0.0022098352157061039 -0.053522753805570117 0 -0.003988525209808573 -0.052548418839948603 0 -0.0026547601719561493 -0.050002443724490898 0 -0.0022098352157061039 -0.053522753805570117 0 -0.003988525209808573 -0.052548418839948603 0 -0.0040967172083361657 -0.05501256765043204 0 -0.0032189568030698652 -0.05480923143041088 0 -0.0010076143210143908 -0.054698130272083659 0 -0.0036566745239655961 -0.054961588466521098 0 -0.0029225112399127854 -0.056626397242496775 0 0.00040536362899772007 -0.054903178098497728 0 -0.0022098352157061039 -0.053522753805570117 0 -0.0040967172083361657 -0.05501256765043204 0 -0.00087269931249329079 -0.055325273136470447 0 -5.7633518205905784e-06 -0.054991548403262841 0 -1.1243042826843675e-05 -0.054984169622242278 0 -4.8255173111157881e-06 -0.054993282816631399 0 -0.0022490709549017481 -0.053441457440731768 0 -0.0010076143210143908 -0.054698130272083659 0 -0.0046345998986048889 -0.056515795074547008 0 -0.0036566745239655961 -0.054961588466521098 0 -0.0029225112399127854 -0.056626397242496775 0 -5.7633518205905784e-06 -0.054991548403262841 0 -4.8255173111157881e-06 -0.054993282816631399 0 -6.5093787169214614e-09 -0.054999981362914264 0 -0.0010076143210143908 -0.054698130272083659 0 -2.517004129833731e-06 -0.054998168221683297 0 -3.3929713414102486e-06 -0.054999200960051335 0 -2.4549413767988749e-09 -0.055000001466939424 0 1.3441879173048087e-09 -0.054999997763870531 0 -0.0010076143210143908 -0.054698130272083659 0 -2.0675978689352212e-06 -0.054998668328129982 0 -0.00087269931249329079 -0.055325273136470447 0 -7.7194327135342219e-05 -0.054746484466068369 0 6.9916008158856089e-07 -0.054997692663345581 0 -7.7194327135342219e-05 -0.054746484466068369 0 6.9916008158856089e-07 -0.054997692663345581 0 -3.0545831601780518e-07 -0.05500041755973778 0 -0.0022098352157061039 -0.053522753805570117 0 -7.7194327135342219e-05 -0.054746484466068369 0 -0.0026547601719561493 -0.050002443724490898 0 -0.0011765399702545708 -0.053192971265223057 0 -0.0017670537683708736 -0.052567925219075565 0 -0.0022098352157061039 -0.053522753805570117 0 -0.00087269931249329079 -0.055325273136470447 0 -7.7194327135342219e-05 -0.054746484466068369 0 -7.7194327135342219e-05 -0.054746484466068369 0 -3.0545831601780518e-07 -0.05500041755973778 0 4.9429832180913166e-05 -0.054945964879268595 0 -3.0545831601780518e-07 -0.05500041755973778 0 4.9429832180913166e-05 -0.054945964879268595 0 1.6898000142817547e-05 -0.054990137101477682 0 -0.0017670537683708736 -0.052567925219075565 0 -0.0027496480422202307 -0.051707568321877402 0 4.9429832180913166e-05 -0.054945964879268595 0 1.6898000142817547e-05 -0.054990137101477682 0 1.6973890665741004e-05 -0.054983260765476431 0 -3.0545831601780518e-07 -0.05500041755973778 0 1.6898000142817547e-05 -0.054990137101477682 0 9.2333230276184354e-08 -0.0549998787551879 0 9.2333230276184354e-08 -0.0549998787551879 0 8.7540825220979921e-06 -0.054991069912657842 0 3.7490565388658933e-06 -0.054992674705026376 0 1.6898000142817547e-05 -0.054990137101477682 0 9.2333230276184354e-08 -0.0549998787551879 0 8.7540825220979921e-06 -0.054991069912657842 0 1.6898000142817547e-05 -0.054990137101477682 0 8.7540825220979921e-06 -0.054991069912657842 0 7.8939283910231233e-06 -0.054986592928898743 0 1.5723676349010799e-06 -0.054984073780654105 0 3.7490565388658933e-06 -0.054992674705026376 0 2.5012573105990399e-06 -0.054984139776409507 0 8.7540825220979921e-06 -0.054991069912657842 0 3.7490565388658933e-06 -0.054992674705026376 0 2.5012573105990399e-06 -0.054984139776409507 0 -2.1914437397537011e-08 -0.055000020435095366 0 9.2333230276184354e-08 -0.0549998787551879 0 3.7490565388658933e-06 -0.054992674705026376 0 -7.7900860310317637e-06 -0.05497791867470677 0 -9.624934798088881e-06 -0.054984780659137852 0 -2.8737497083437993e-05 -0.054973035361648194 0 -7.7900860310317637e-06 -0.05497791867470677 0 2.5012573105990399e-06 -0.054984139776409507 0 -9.624934798088881e-06 -0.054984780659137852 0 -1.3043842860890877e-05 -0.054966985921258066 0 -7.7900860310317637e-06 -0.05497791867470677 0 -2.8737497083437993e-05 -0.054973035361648194 0 1.5723676349010799e-06 -0.054984073780654105 0 -7.7900860310317637e-06 -0.05497791867470677 0 2.5012573105990399e-06 -0.054984139776409507 0 8.7540825220979921e-06 -0.054991069912657842 0 2.5012573105990399e-06 -0.054984139776409507 0 7.8939283910231233e-06 -0.054986592928898743 0 2.5012573105990399e-06 -0.054984139776409507 0 7.8939283910231233e-06 -0.054986592928898743 0 -9.624934798088881e-06 -0.054984780659137852 0 7.8939283910231233e-06 -0.054986592928898743 0 -9.624934798088881e-06 -0.054984780659137852 0 1.6973890665741004e-05 -0.054983260765476431 0 -0.0075559396226837338 -0.046747037236566966 0 -0.0074965498610716748 -0.047535153256753962 0 -0.0078086111915189908 -0.047192037935675279 0 -0.0075559396226837338 -0.046747037236566966 0 -0.0074965498610716748 -0.047535153256753962 0 -0.0060528028224418216 -0.04724323495522964 0 -0.0034030476732906999 -0.051330042717233543 0 -0.0027496480422202307 -0.051707568321877402 0 1.6898000142817547e-05 -0.054990137101477682 0 7.8939283910231233e-06 -0.054986592928898743 0 1.6973890665741004e-05 -0.054983260765476431 0 -0.0026547601719561493 -0.050002443724490898 0 -0.0060528028224418216 -0.04724323495522964 0 -0.0051861285567610538 -0.050009444357188869 0 -0.0060528028224418216 -0.04724323495522964 0 -0.0051861285567610538 -0.050009444357188869 0 -0.0073898156361418719 -0.048884853129088246 0 -0.0074965498610716748 -0.047535153256753962 0 -0.0073898156361418719 -0.048884853129088246 0 -0.0078086188989095274 -0.04830040842095313 0 -0.0074965498610716748 -0.047535153256753962 0 -0.0060528028224418216 -0.04724323495522964 0 -0.0073898156361418719 -0.048884853129088246 0 -0.0080251192554038481 -0.047748986315327736 0 -0.0080055389882208432 -0.047375007854017555 0 -0.0078086188989095274 -0.04830040842095313 0 -0.0074965498610716748 -0.047535153256753962 0 -0.0080055389882208432 -0.047375007854017555 0 -0.0078086188989095274 -0.04830040842095313 0 -0.0080251192554038481 -0.047748986315327736 0 -0.0081864638273924043 -0.047246535307629872 0 -0.0080055389882208432 -0.047375007854017555 0 -0.0081864638273924043 -0.047246535307629872 0 -0.0082808732311746014 -0.046536364098072915 0 -0.0081501882370664039 -0.047991849054207184 0 -0.0083526254056625181 -0.047028973400127877 0 -0.0082989247722092697 -0.047126381081913055 0 -0.0080251192554038481 -0.047748986315327736 0 -0.0081864638273924043 -0.047246535307629872 0 -0.0081501882370664039 -0.047991849054207184 0 -0.0081864638273924043 -0.047246535307629872 0 -0.0082225833764169431 -0.047085992669648774 0 -0.0080055389882208432 -0.047375007854017555 0 -0.0081864638273924043 -0.047246535307629872 0 -0.0082225833764169431 -0.047085992669648774 0 -0.0082808732311746014 -0.046536364098072915 0 -0.0082225833764169431 -0.047085992669648774 0 -0.0080595925356116739 -0.04704650347564257 0 -0.0081766187188207998 -0.047122337854049824 0 -0.0082225833764169431 -0.047085992669648774 0 -0.0081766187188207998 -0.047122337854049824 0 -0.0082808732311746014 -0.046536364098072915 0 -0.0074965498610716748 -0.047535153256753962 0 -0.0080055389882208432 -0.047375007854017555 0 -0.0078086111915189908 -0.047192037935675279 0 -0.0082225833764169431 -0.047085992669648774 0 -0.0080055389882208432 -0.047375007854017555 0 -0.0080595925356116739 -0.04704650347564257 0 -0.0080055389882208432 -0.047375007854017555 0 -0.0078086111915189908 -0.047192037935675279 0 -0.0080595925356116739 -0.04704650347564257 0 -0.0034030476732906999 -0.051330042717233543 0 -0.0033920239917904632 -0.051695883710663068 0 -0.0075559396226837338 -0.046747037236566966 0 -0.0079469996575480088 -0.046837916117207501 0 -0.0079611802477958012 -0.046725551927565862 0 -0.0075559396226837338 -0.046747037236566966 0 -0.0078086111915189908 -0.047192037935675279 0 -0.0080595925356116739 -0.04704650347564257 0 -0.0075559396226837338 -0.046747037236566966 0 -0.0079469996575480088 -0.046837916117207501 0 -0.0080595925356116739 -0.04704650347564257 0 -0.0079469996575480088 -0.046837916117207501 0 -0.0080595925356116739 -0.04704650347564257 0 -0.008080426874398465 -0.046936071655934497 0 -0.0079469996575480088 -0.046837916117207501 0 -0.008080426874398465 -0.046936071655934497 0 -0.007995237161162216 -0.046787342894925116 0 -0.0080595925356116739 -0.04704650347564257 0 -0.0081766187188207998 -0.047122337854049824 0 -0.008080426874398465 -0.046936071655934497 0 -0.0081766187188207998 -0.047122337854049824 0 -0.008080426874398465 -0.046936071655934497 0 -0.008116342182078861 -0.046794218393214827 0 -0.0081585075131790554 -0.046694017378603035 0 -0.008116342182078861 -0.046794218393214827 0 -0.0079587700448836909 -0.046761679598115044 0 -0.008116342182078861 -0.046794218393214827 0 -0.0079587700448836909 -0.046761679598115044 0 -0.007995237161162216 -0.046787342894925116 0 -0.0081766187188207998 -0.047122337854049824 0 -0.008116342182078861 -0.046794218393214827 0 -0.0082458166330495603 -0.046764581643375956 0 -0.008080426874398465 -0.046936071655934497 0 -0.008116342182078861 -0.046794218393214827 0 -0.007995237161162216 -0.046787342894925116 0 -0.0081585075131790554 -0.046694017378603035 0 -0.008116342182078861 -0.046794218393214827 0 -0.0082458166330495603 -0.046764581643375956 0 -0.0079469996575480088 -0.046837916117207501 0 -0.0079611802477958012 -0.046725551927565862 0 -0.007995237161162216 -0.046787342894925116 0 -0.0033920239917904632 -0.051695883710663068 0 -0.0034378218694501458 -0.051632422650401008 0 -0.0062694986725266039 -0.049052721809008701 0 -0.0070548402544941624 -0.048569810683005296 0 -0.0062686280402239709 -0.047866779294808676 0 -0.0072350978700653525 -0.047834948007966525 0 -0.0070548402544941624 -0.048569810683005296 0 -0.0062686280402239709 -0.047866779294808676 0 -0.0072350978700653525 -0.047834948007966525 0 -0.0070548402544941624 -0.048569810683005296 0 -0.0079869893244094714 -0.048285299754780228 0 -0.0062209102136895848 -0.047375404136989832 0 -0.0056157137820005663 -0.047954113454780463 0 -0.0081766187188207998 -0.047122337854049824 0 -0.0072350978700653525 -0.047834948007966525 0 -0.0068884122791807948 -0.04700864084262478 0 -0.0081766187188207998 -0.047122337854049824 0 -0.0072350978700653525 -0.047834948007966525 0 -0.0079869893244094714 -0.048285299754780228 0 -0.0072350978700653525 -0.047834948007966525 0 -0.0068884122791807948 -0.04700864084262478 0 -0.0062686280402239709 -0.047866779294808676 0 -0.0068884122791807948 -0.04700864084262478 0 -0.0072776818944752589 -0.046613871366912224 0 -0.0057991714242146145 -0.04627908927696462 0 -0.0081766187188207998 -0.047122337854049824 0 -0.0068884122791807948 -0.04700864084262478 0 -0.0072776818944752589 -0.046613871366912224 0 -0.0081766187188207998 -0.047122337854049824 0 -0.0072776818944752589 -0.046613871366912224 0 -0.0082808732311746014 -0.046536364098072915 0 -0.0072776818944752589 -0.046613871366912224 0 -0.0082808732311746014 -0.046536364098072915 0 -0.0069193209832860911 -0.0454139926879501 0 -0.0072776818944752589 -0.046613871366912224 0 -0.0069193209832860911 -0.0454139926879501 0 -0.0057991714242146145 -0.04627908927696462 0 -0.0069193209832860911 -0.0454139926879501 0 -0.0070184080098241583 -0.043055960066031074 0 -0.0080218097255949031 -0.044477199306886581 0 -0.0069193209832860911 -0.0454139926879501 0 -0.0070184080098241583 -0.043055960066031074 0 -0.005898390802581888 -0.044079180108224925 0 -0.0070184080098241583 -0.043055960066031074 0 -0.0086049729790300313 -0.043207073913935079 0 -0.0077885808297386569 -0.041457683414050324 0 -0.0070184080098241583 -0.043055960066031074 0 -0.0086049729790300313 -0.043207073913935079 0 -0.0080218097255949031 -0.044477199306886581 0 -0.0082808732311746014 -0.046536364098072915 0 -0.0080218097255949031 -0.044477199306886581 0 -0.009002694684286449 -0.044636709950466806 0 -0.0082808732311746014 -0.046536364098072915 0 -0.0069193209832860911 -0.0454139926879501 0 -0.0080218097255949031 -0.044477199306886581 0 -0.0086049729790300313 -0.043207073913935079 0 -0.0080218097255949031 -0.044477199306886581 0 -0.009002694684286449 -0.044636709950466806 0 -0.0082808732311746014 -0.046536364098072915 0 -0.010046924917275022 -0.045095654784194833 0 -0.009002694684286449 -0.044636709950466806 0 -0.010046924917275022 -0.045095654784194833 0 -0.010009066294940361 -0.044109661043180454 0 -0.009002694684286449 -0.044636709950466806 0 -0.0080251192554038481 -0.047748986315327736 0 -0.0081501882370664039 -0.047991849054207184 0 -0.0078086188989095274 -0.04830040842095313 0 -0.0081501882370664039 -0.047991849054207184 0 -0.0078086188989095274 -0.04830040842095313 0 -0.007886739892427096 -0.048325571019306734 0 -0.0082989247722092697 -0.047126381081913055 0 -0.0072565207486975413 -0.048039577807874212 0 -0.010046924917275022 -0.045095654784194833 0 -0.010009066294940361 -0.044109661043180454 0 -0.011468228698150749 -0.043860892449295287 0 -0.005940860278059696 -0.048506450788162146 0 -0.0056675900903757704 -0.048728794690014371 0 -0.0056449977725303606 -0.048360468868199329 0 -0.0056675900903757704 -0.048728794690014371 0 -0.0052533834434392778 -0.048188387273881708 0 -0.0056449977725303606 -0.048360468868199329 0 -0.0072565207486975413 -0.048039577807874212 0 -0.00725235025994698 -0.044564772470298261 0 -0.010009066294940361 -0.044109661043180454 0 -0.011468228698150749 -0.043860892449295287 0 -0.0097731111415472575 -0.041686785174762979 0 -0.0078260493321623721 -0.043880524924612904 0 -0.00725235025994698 -0.044564772470298261 0 -0.0086049729790300313 -0.043207073913935079 0 -0.010009066294940361 -0.044109661043180454 0 -0.0096911605084222946 -0.041650114820034528 0 -0.0086049729790300313 -0.043207073913935079 0 -0.010009066294940361 -0.044109661043180454 0 -0.009002694684286449 -0.044636709950466806 0 -0.0052533834434392778 -0.048188387273881708 0 -0.0056449977725303606 -0.048360468868199329 0 -0.0057166151022611461 -0.048017495111614947 0 -0.0040633833694215778 -0.0493491709533527 0 -0.0055652769456982039 -0.046242883990329033 0 -0.0052533834434392778 -0.048188387273881708 0 -0.0057166151022611461 -0.048017495111614947 0 -0.0052111439140434491 -0.047748097010528311 0 -8.9859655173008502e-06 -0.054961334533158511 0 1.3361114016706071e-05 -0.054941420069345166 0 -8.4329673689521919e-06 -0.054953649358587014 0 -0.0095660934889650832 -0.041708215369666062 0 -0.0094160819070052398 -0.04003443926756841 0 -0.0082240526676163762 -0.039946792023440952 0 -0.00725235025994698 -0.044564772470298261 0 -0.0070264334166460609 -0.042978241323796344 0 -0.00725235025994698 -0.044564772470298261 0 -0.0055652769456982039 -0.046242883990329033 0 -0.0096911605084222946 -0.041650114820034528 0 -0.0082240526676163762 -0.039946792023440952 0 -0.0077885808297386569 -0.041457683414050324 0 -0.0082240526676163762 -0.039946792023440952 0 -0.0070126422373730096 -0.040083808029514202 0 -0.0077885808297386569 -0.041457683414050324 0 -0.0062394473435305551 -0.040991348910150091 0 -0.0070126422373730096 -0.040083808029514202 0 -0.0057353386703225644 -0.039399799952130575 0 -0.0062394473435305551 -0.040991348910150091 0 -0.0070126422373730096 -0.040083808029514202 0 -0.0077885808297386569 -0.041457683414050324 0 -0.0070184080098241583 -0.043055960066031074 0 -0.0062394473435305551 -0.040991348910150091 0 -0.0052624967153150756 -0.042357236186065066 0 -0.0070184080098241583 -0.043055960066031074 0 -0.0062394473435305551 -0.040991348910150091 0 -0.0077885808297386569 -0.041457683414050324 0 -0.0086049729790300313 -0.043207073913935079 0 -0.0096911605084222946 -0.041650114820034528 0 -0.0077885808297386569 -0.041457683414050324 0 -0.0047768762314036942 -0.040622587106010757 0 -0.0033588328009491069 -0.040290969133566334 0 -0.0032821824195982305 -0.041558807101854701 0 -0.0047768762314036942 -0.040622587106010757 0 -0.0032821824195982305 -0.041558807101854701 0 -0.0052624967153150756 -0.042357236186065066 0 -0.0062394473435305551 -0.040991348910150091 0 -0.0047768762314036942 -0.040622587106010757 0 -0.0052624967153150756 -0.042357236186065066 0 -0.0062394473435305551 -0.040991348910150091 0 -0.0047768762314036942 -0.040622587106010757 0 -0.0057353386703225644 -0.039399799952130575 0 -0.0047768762314036942 -0.040622587106010757 0 -0.0033588328009491069 -0.040290969133566334 0 -0.0042501728970405972 -0.039203653369225433 0 -0.0033588328009491069 -0.040290969133566334 0 -0.0022338070922058666 -0.039751244232938854 0 -0.0031284087505136179 -0.039214103501327535 0 -0.0033588328009491069 -0.040290969133566334 0 -0.0022338070922058666 -0.039751244232938854 0 -0.0018599803790891624 -0.041074490463431881 0 -0.0022338070922058666 -0.039751244232938854 0 -0.0018599803790891624 -0.041074490463431881 0 -0.00130907484603618 -0.040037550720884996 0 -0.0033588328009491069 -0.040290969133566334 0 -0.0018599803790891624 -0.041074490463431881 0 -0.0032821824195982305 -0.041558807101854701 0 -0.0032821824195982305 -0.041558807101854701 0 -0.0024280202416417972 -0.042184047606946516 0 -0.0043447484889267817 -0.042578801941879733 0 -0.0018599803790891624 -0.041074490463431881 0 -0.0024280202416417972 -0.042184047606946516 0 -0.00091918802147460284 -0.041662911228496906 0 -0.0018599803790891624 -0.041074490463431881 0 -0.0032821824195982305 -0.041558807101854701 0 -0.0024280202416417972 -0.042184047606946516 0 -0.0024280202416417972 -0.042184047606946516 0 -0.0028630649926542468 -0.043660863261404018 0 -0.0009809421983484098 -0.043558508447341743 0 -0.0024280202416417972 -0.042184047606946516 0 -0.0043447484889267817 -0.042578801941879733 0 -0.0028630649926542468 -0.043660863261404018 0 -0.0032821824195982305 -0.041558807101854701 0 -0.004323271629308869 -0.044176456926615197 0 -0.0052624967153150756 -0.042357236186065066 0 -0.0040632446999656789 -0.042766115191436534 0 -0.0045976948737196013 -0.043628011515239241 0 -0.004323271629308869 -0.044176456926615197 0 -0.0052624967153150756 -0.042357236186065066 0 -0.005898390802581888 -0.044079180108224925 0 -0.0070184080098241583 -0.043055960066031074 0 -0.0052624967153150756 -0.042357236186065066 0 -0.005898390802581888 -0.044079180108224925 0 -0.0069193209832860911 -0.0454139926879501 0 -0.005898390802581888 -0.044079180108224925 0 -0.0057991714242146145 -0.04627908927696462 0 -0.004323271629308869 -0.044176456926615197 0 -0.005898390802581888 -0.044079180108224925 0 -0.0057991714242146145 -0.04627908927696462 0 -0.0045976948737196013 -0.043628011515239241 0 -0.0055290823066472044 -0.045083887527115916 0 -0.0043447484889267817 -0.042578801941879733 0 -0.0041991465152082987 -0.044540452671050744 0 -0.0028630649926542468 -0.043660863261404018 0 -0.0043447484889267817 -0.042578801941879733 0 -0.0057336966027728802 -0.044491488620198756 0 -0.0041991465152082987 -0.044540452671050744 0 -0.0057336966027728802 -0.044491488620198756 0 -0.0041991465152082987 -0.044540452671050744 0 -0.0047963899948392447 -0.046749013839570176 0 -0.0041991465152082987 -0.044540452671050744 0 -0.0047963899948392447 -0.046749013839570176 0 -0.0032861048309955404 -0.045507348361866477 0 -0.0060546837833028557 -0.045903371433990897 0 -0.0055290823066472044 -0.045083887527115916 0 -0.0068884122791807948 -0.04700864084262478 0 -0.0057336966027728802 -0.044491488620198756 0 -0.0047963899948392447 -0.046749013839570176 0 -0.0068884122791807948 -0.04700864084262478 0 -0.0047963899948392447 -0.046749013839570176 0 -0.0062686280402239709 -0.047866779294808676 0 -0.0039460109588918095 -0.049013059680934404 0 -0.0047963899948392447 -0.046749013839570176 0 -0.0053679690160982427 -0.048616059326598904 0 -0.0047963899948392447 -0.046749013839570176 0 -0.0053679690160982427 -0.048616059326598904 0 -0.0062686280402239709 -0.047866779294808676 0 -0.0062694986725266039 -0.049052721809008701 0 -0.0053679690160982427 -0.048616059326598904 0 -0.0062686280402239709 -0.047866779294808676 0 -0.0014967819781788701 -0.046360441287302427 0 -0.0021509380556299705 -0.0452273268647638 0 -0.00063134205775617778 -0.045306895303189217 0 -0.0039460109588918095 -0.049013059680934404 0 -0.0047963899948392447 -0.046749013839570176 0 -0.0028260782494166229 -0.047438910716933944 0 -0.0021901905006591507 -0.047081519958648455 0 -0.0021092278017745235 -0.046356673790173469 0 -0.0014967819781788701 -0.046360441287302427 0 -0.0027911240706938582 -0.046167289519110248 0 -0.0021509380556299705 -0.0452273268647638 0 -0.0028260782494166229 -0.047438910716933944 0 -0.0017807610289089732 -0.045581257258554449 0 -0.0032861048309955404 -0.045507348361866477 0 -0.0047963899948392447 -0.046749013839570176 0 -0.0028260782494166229 -0.047438910716933944 0 -0.0032861048309955404 -0.045507348361866477 0 -0.0021509380556299705 -0.0452273268647638 0 -0.0015027326470880029 -0.044288947346459072 0 -0.00063134205775617778 -0.045306895303189217 0 -0.0021092278017745235 -0.046356673790173469 0 -0.0016304471549528799 -0.045330126201039649 0 -0.0017807610289089732 -0.045581257258554449 0 -0.0032861048309955404 -0.045507348361866477 0 -0.0028630649926542468 -0.043660863261404018 0 -0.0041991465152082987 -0.044540452671050744 0 -0.0032861048309955404 -0.045507348361866477 0 -0.0028630649926542468 -0.043660863261404018 0 -0.0017807610289089732 -0.045581257258554449 0 -0.0028630649926542468 -0.043660863261404018 0 -0.0009809421983484098 -0.043558508447341743 0 -0.0009809421983484098 -0.043558508447341743 0 0.0006891935246773936 -0.043470887778120075 0 0.00012577117240503979 -0.042569077719976908 0 -0.0009809421983484098 -0.043558508447341743 0 -0.00037986798525024504 -0.044266779892875592 0 0.0006891935246773936 -0.043470887778120075 0 -0.0015027326470880029 -0.044288947346459072 0 -0.0009809421983484098 -0.043558508447341743 0 -0.00037986798525024504 -0.044266779892875592 0 -0.0016304471549528799 -0.045330126201039649 0 -0.0013260565926636978 -0.044761548666149738 0 -0.0015027326470880029 -0.044288947346459072 0 -0.00037986798525024504 -0.044266779892875592 0 -0.00063134205775617778 -0.045306895303189217 0 -0.00037986798525024504 -0.044266779892875592 0 -0.00063134205775617778 -0.045306895303189217 0 0.00078071536347765018 -0.044553496875576859 0 -0.00010218992809505875 -0.046646988209828606 0 -0.00063134205775617778 -0.045306895303189217 0 0.00089965461683921171 -0.045751354865445515 0 -0.00063134205775617778 -0.045306895303189217 0 0.00089965461683921171 -0.045751354865445515 0 0.00078071536347765018 -0.044553496875576859 0 0.0023088579032551067 -0.045960287771101178 0 0.0022966620046346864 -0.045291215233826725 0 0.0014529417170593816 -0.045421637389202948 0 0.0022966620046346864 -0.045291215233826725 0 0.0014529417170593816 -0.045421637389202948 0 0.0021255045550631546 -0.044639524377474066 0 0.00060409739821182902 -0.044901704169596421 0 0.0011235164322041967 -0.044669496578572609 0 0.00089965461683921171 -0.045751354865445515 0 0.00078071536347765018 -0.044553496875576859 0 0.0021255045550631546 -0.044639524377474066 0 0.00078071536347765018 -0.044553496875576859 0 0.0021255045550631546 -0.044639524377474066 0 0.0023404671022095448 -0.043805327111130145 0 0.0006891935246773936 -0.043470887778120075 0 0.001673307339785072 -0.042607006589774093 0 0.0021249541597365275 -0.043562608512564154 0 0.0016085257090638963 -0.043534130929409318 0 0.0023429453404603456 -0.043718987826768592 0 0.00078071536347765018 -0.044553496875576859 0 0.0006891935246773936 -0.043470887778120075 0 0.0023404671022095448 -0.043805327111130145 0 -0.00037986798525024504 -0.044266779892875592 0 0.00078071536347765018 -0.044553496875576859 0 0.0006891935246773936 -0.043470887778120075 0 0.0006891935246773936 -0.043470887778120075 0 0.001673307339785072 -0.042607006589774093 0 0.00012577117240503979 -0.042569077719976908 0 0.001673307339785072 -0.042607006589774093 0 0.0012968913787838581 -0.041114467794851596 0 0.0029908961280917155 -0.041926144841799365 0 0.001673307339785072 -0.042607006589774093 0 0.0012968913787838581 -0.041114467794851596 0 0.00012577117240503979 -0.042569077719976908 0 0.0012968913787838581 -0.041114467794851596 0 -0.00091918802147460284 -0.041662911228496906 0 -0.00018675652691571885 -0.039379701866940835 0 0.0012968913787838581 -0.041114467794851596 0 0.00012577117240503979 -0.042569077719976908 0 -0.00091918802147460284 -0.041662911228496906 0 -0.0009809421983484098 -0.043558508447341743 0 0.00012577117240503979 -0.042569077719976908 0 -0.00091918802147460284 -0.041662911228496906 0 -0.0024280202416417972 -0.042184047606946516 0 -0.0009809421983484098 -0.043558508447341743 0 -0.00091918802147460284 -0.041662911228496906 0 -0.00038487872236055886 -0.040712986413229603 0 7.4895693303604136e-05 -0.039918502198501279 0 -0.0018599803790891624 -0.041074490463431881 0 -0.00091918802147460284 -0.041662911228496906 0 -0.00020874520536040962 -0.040551856774041641 0 -0.0018599803790891624 -0.041074490463431881 0 -0.00020874520536040962 -0.040551856774041641 0 -0.00130907484603618 -0.040037550720884996 0 -0.0022338070922058666 -0.039751244232938854 0 -0.00130907484603618 -0.040037550720884996 0 -0.0015222919609318775 -0.03919029219322058 0 -0.00020874520536040962 -0.040551856774041641 0 -0.00130907484603618 -0.040037550720884996 0 -0.00069154679298702221 -0.039364017342045636 0 -0.00020874520536040962 -0.040551856774041641 0 -6.0031560089970708e-05 -0.039325301435424287 0 -0.00069154679298702221 -0.039364017342045636 0 -0.00020874520536040962 -0.040551856774041641 0 0.00063610861553648412 -0.039091754187480544 0 -6.0031560089970708e-05 -0.039325301435424287 0 7.4895693303604136e-05 -0.039918502198501279 0 0.0008400062543193385 -0.038883806213737895 0 0.0014726042313985119 -0.038261182224280939 0 0.0009888853813928896 -0.039315875481627155 0 0.00068782374563183227 -0.037357285912160372 0 -0.00018675652691571885 -0.039379701866940835 0 0.0009888853813928896 -0.039315875481627155 0 0.00068782374563183227 -0.037357285912160372 0 0.0014726042313985119 -0.038261182224280939 0 0.0021356810233005541 -0.039565205626952663 0 0.0009888853813928896 -0.039315875481627155 0 0.0014726042313985119 -0.038261182224280939 0 0.0021356810233005541 -0.039565205626952663 0 0.0025503788607747634 -0.037803510805354296 0 0.0012968913787838581 -0.041114467794851596 0 0.0021356810233005541 -0.039565205626952663 0 0.0009888853813928896 -0.039315875481627155 0 0.0012968913787838581 -0.041114467794851596 0 -0.00018675652691571885 -0.039379701866940835 0 0.0009888853813928896 -0.039315875481627155 0 0.0031295198490393777 -0.033617101718514571 0 0.0032148058949611849 -0.033532234150046067 0 0.0031405529270049108 -0.033237458791001699 0 0.0032863602579146652 -0.033414841284582338 0 0.0032375710928960588 -0.03365554043044431 0 0.0035540132810206763 -0.03323724611983768 0 0.003272164425106857 -0.033794438686615982 0 0.0032375710928960588 -0.03365554043044431 0 0.0035540132810206763 -0.03323724611983768 0 0.0032863602579146652 -0.033414841284582338 0 0.0031405529270049108 -0.033237458791001699 0 0.0035540132810206763 -0.03323724611983768 0 0.0032148058949611849 -0.033532234150046067 0 0.0032863602579146652 -0.033414841284582338 0 0.0032375710928960588 -0.03365554043044431 0 0.00053236947165199468 -0.040366789322136651 0 0.00057521463237535564 -0.040306450287352226 0 0.0031295198490393777 -0.033617101718514571 0 0.0032148058949611849 -0.033532234150046067 0 0.0032375710928960588 -0.03365554043044431 0 0.0032148058949611849 -0.033532234150046067 0 0.0032863602579146652 -0.033414841284582338 0 0.0031405529270049108 -0.033237458791001699 0 0.0008400062543193385 -0.038883806213737895 0 0.0025361996545723024 -0.035006601251304025 0 0.0020539769321056634 -0.036561886615786285 0 0.00041649754650757465 -0.037004558101221087 0 0.0015855674340687577 -0.035009449755137083 0 0.0020539769321056634 -0.036561886615786285 0 0.0016503202150786427 -0.037418505802798194 0 0.00041649754650757465 -0.037004558101221087 0 0.0014726042313985119 -0.038261182224280939 0 0.0016503202150786427 -0.037418505802798194 0 0.0025503788607747634 -0.037803510805354296 0 0.0020539769321056634 -0.036561886615786285 0 0.0016503202150786427 -0.037418505802798194 0 0.0025503788607747634 -0.037803510805354296 0 0.0014726042313985119 -0.038261182224280939 0 0.0016503202150786427 -0.037418505802798194 0 0.00041649754650757465 -0.037004558101221087 0 0.00079049464785007511 -0.038674213355392423 0 0.0008400062543193385 -0.038883806213737895 0 0.00028306021681597134 -0.038677899433596771 0 0.00063610861553648412 -0.039091754187480544 0 -6.0031560089970708e-05 -0.039325301435424287 0 0.0031207155268999187 -0.033625012624466093 0 0.003272164425106857 -0.033794438686615982 0 0.0032375710928960588 -0.03365554043044431 0 0.00053236947165199468 -0.040366789322136651 0 0.0008400062543193385 -0.038883806213737895 0 0.00028306021681597134 -0.038677899433596771 0 -0.00069154679298702221 -0.039364017342045636 0 -0.0012012297468432826 -0.03817235562979239 0 0.00028306021681597134 -0.038677899433596771 0 -6.0031560089970708e-05 -0.039325301435424287 0 -0.00069154679298702221 -0.039364017342045636 0 -0.00069154679298702221 -0.039364017342045636 0 -0.0015222919609318775 -0.03919029219322058 0 -0.0012012297468432826 -0.03817235562979239 0 -0.00130907484603618 -0.040037550720884996 0 -0.00069154679298702221 -0.039364017342045636 0 -0.0015222919609318775 -0.03919029219322058 0 -0.0015222919609318775 -0.03919029219322058 0 -0.0012012297468432826 -0.03817235562979239 0 -0.0022216505409971476 -0.038610656777939734 0 0.0031295198490393777 -0.033617101718514571 0 0.0027721329909023034 -0.033154385188282738 0 0.0031405529270049108 -0.033237458791001699 0 -0.0015917393010356081 -0.04797275027157117 0 0.00013358859987091154 -0.048539851361556342 0 -0.00046173187336349947 -0.049313671099682439 0 0.00053236947165199468 -0.040366789322136651 0 -0.00026588035494790112 -0.042405658726256269 0 0.00053236947165199468 -0.040366789322136651 0 0.00091260423140403332 -0.041703667519441975 0 0.0027721329909023034 -0.033154385188282738 0 0.0029819833484226468 -0.032952119741311944 0 0.0031405529270049108 -0.033237458791001699 0 0.0027721329909023034 -0.033154385188282738 0 0.0026914422363316149 -0.032813346183101985 0 0.0028035786932021941 -0.032920807729321398 0 0.0027721329909023034 -0.033154385188282738 0 0.0029819833484226468 -0.032952119741311944 0 0.0028035786932021941 -0.032920807729321398 0 -0.00046173187336349947 -0.049313671099682439 0 0.00066160714220241622 -0.049379130809445122 0 0.00052231329458373886 -0.049770728855614135 0 0.00091260423140403332 -0.041703667519441975 0 0.0015137304488987207 -0.043761952671052227 0 0.00013358859987091154 -0.048539851361556342 0 -0.00046173187336349947 -0.049313671099682439 0 0.00066160714220241622 -0.049379130809445122 0 -0.00046173187336349947 -0.049313671099682439 0 0.00052231329458373886 -0.049770728855614135 0 0.00065383039855898691 -0.050477057446178718 0 -0.00046173187336349947 -0.049313671099682439 0 0.00064828656921310783 -0.050572921783197756 0 0.00065383039855898691 -0.050477057446178718 0 0.0027721329909023034 -0.033154385188282738 0 0.0026914422363316149 -0.032813346183101985 0 0.0024347254233486443 -0.032732317946404001 0 0.0026914422363316149 -0.032813346183101985 0 0.0027341695546634248 -0.032634912585879056 0 0.0026060240041540883 -0.032635624752749129 0 0.0026914422363316149 -0.032813346183101985 0 0.0026060240041540883 -0.032635624752749129 0 0.0024347254233486443 -0.032732317946404001 0 0.0015137304488987207 -0.043761952671052227 0 0.001511684208725414 -0.043787321413790048 0 0.0029819833484226468 -0.032952119741311944 0 0.0028383611752497858 -0.032765255327138573 0 0.0030733420180184372 -0.032688175499177567 0 0.0029819833484226468 -0.032952119741311944 0 0.0028035786932021941 -0.032920807729321398 0 0.0028383611752497858 -0.032765255327138573 0 0.0026914422363316149 -0.032813346183101985 0 0.0028035786932021941 -0.032920807729321398 0 0.0028383611752497858 -0.032765255327138573 0 0.0027341695546634248 -0.032634912585879056 0 0.0028383611752497858 -0.032765255327138573 0 0.0028785754898466216 -0.032535218678876224 0 0.0026914422363316149 -0.032813346183101985 0 0.0027341695546634248 -0.032634912585879056 0 0.0028383611752497858 -0.032765255327138573 0 0.0028383611752497858 -0.032765255327138573 0 0.0030733420180184372 -0.032688175499177567 0 0.0028785754898466216 -0.032535218678876224 0 0.0029819833484226468 -0.032952119741311944 0 0.0033180439709224767 -0.032888590121076602 0 0.0030733420180184372 -0.032688175499177567 0 0.0033180439709224767 -0.032888590121076602 0 0.0030733420180184372 -0.032688175499177567 0 0.003368648709372553 -0.032512973784556559 0 0.0029819833484226468 -0.032952119741311944 0 0.0033180439709224767 -0.032888590121076602 0 0.0031405529270049108 -0.033237458791001699 0 0.0033180439709224767 -0.032888590121076602 0 0.0031405529270049108 -0.033237458791001699 0 0.0035540132810206763 -0.03323724611983768 0 0.0025361996545723024 -0.035006601251304025 0 0.0032381578398707174 -0.033467153300054578 0 0.0033180439709224767 -0.032888590121076602 0 0.0035540132810206763 -0.03323724611983768 0 0.0038023348914387458 -0.032680312543845125 0 0.0033180439709224767 -0.032888590121076602 0 0.003368648709372553 -0.032512973784556559 0 0.0038023348914387458 -0.032680312543845125 0 0.0036284023005625898 -0.032225531751060028 0 0.003368648709372553 -0.032512973784556559 0 0.0038023348914387458 -0.032680312543845125 0 0.0036284023005625898 -0.032225531751060028 0 0.003368648709372553 -0.032512973784556559 0 0.0032768629397951173 -0.032134110346730735 0 0.00310536249460729 -0.03242886780047842 0 0.003368648709372553 -0.032512973784556559 0 0.0032768629397951173 -0.032134110346730735 0 0.00310536249460729 -0.03242886780047842 0 0.0032768629397951173 -0.032134110346730735 0 0.0028966610769937703 -0.032215258548753171 0 0.0030733420180184372 -0.032688175499177567 0 0.00310536249460729 -0.03242886780047842 0 0.003368648709372553 -0.032512973784556559 0 0.0032768629397951173 -0.032134110346730735 0 0.0035695017522661479 -0.031831250268185403 0 0.0032859494681260625 -0.031813213229081629 0 0.0032768629397951173 -0.032134110346730735 0 0.0032859494681260625 -0.031813213229081629 0 0.0030612898426444755 -0.031938917820891102 0 0.0036284023005625898 -0.032225531751060028 0 0.0032768629397951173 -0.032134110346730735 0 0.0035695017522661479 -0.031831250268185403 0 0.0036284023005625898 -0.032225531751060028 0 0.0035695017522661479 -0.031831250268185403 0 0.0038819311581111304 -0.03187932462218699 0 0.0035695017522661479 -0.031831250268185403 0 0.003434925130845843 -0.03147574949703854 0 0.0040677838777486404 -0.031568220588167335 0 0.0043878915238663545 -0.039934439326601998 0 0.0040526416585162884 -0.038525592497482955 0 0.0035695017522661479 -0.031831250268185403 0 0.0032859494681260625 -0.031813213229081629 0 0.0034583800506130216 -0.03161107605793137 0 0.0038065410542962113 -0.037968898329856726 0 0.0043878915238663545 -0.039934439326601998 0 0.0032859494681260625 -0.031813213229081629 0 0.0030063383747358932 -0.031582561679477025 0 0.0030612898426444755 -0.031938917820891102 0 0.0032859494681260625 -0.031813213229081629 0 0.0034583800506130216 -0.03161107605793137 0 0.0030063383747358932 -0.031582561679477025 0 0.011916623399921552 -0.053333364707064956 0 0.012657630288465022 -0.054056310289405857 0 0.011438396047211204 -0.053945656993339426 0 0.0043878915238663545 -0.039934439326601998 0 0.006297414017560574 -0.043646895248459584 0 0.00615177931108799 -0.033785588633839313 0 0.0062819865389051903 -0.031540551215053059 0 0.0081978752696464721 -0.035867963829473479 0 0.011916623399921552 -0.053333364707064956 0 0.012657630288465022 -0.054056310289405857 0 0.012230439424307432 -0.052680195590697199 0 0.0043878915238663545 -0.039934439326601998 0 0.0081725030399548999 -0.044134019122167044 0 0.004955867802289622 -0.032449401331826541 0 0.0062819865389051903 -0.031540551215053059 0 0.0040677838777486404 -0.031568220588167335 0 0.00615177931108799 -0.033785588633839313 0 0.004955867802289622 -0.032449401331826541 0 0.0054426525641001347 -0.034234242665570916 0 0.00615177931108799 -0.033785588633839313 0 0.004955867802289622 -0.032449401331826541 0 0.0062819865389051903 -0.031540551215053059 0 0.010087306174183358 -0.053784166867244292 0 0.011438396047211204 -0.053945656993339426 0 0.010760523816337356 -0.053017486061512624 0 0.0063845908009477663 -0.047563951013696218 0 0.006297414017560574 -0.043646895248459584 0 0.011438396047211204 -0.053945656993339426 0 0.011414356999833923 -0.053113152754168058 0 0.010760523816337356 -0.053017486061512624 0 0.011916623399921552 -0.053333364707064956 0 0.011438396047211204 -0.053945656993339426 0 0.011414356999833923 -0.053113152754168058 0 0.0025639595497079322 -0.031557505173729572 0 0.0030063383747358932 -0.031582561679477025 0 0.0028052359701635173 -0.031880865835999007 0 0.0030063383747358932 -0.031582561679477025 0 0.0030612898426444755 -0.031938917820891102 0 0.0028052359701635173 -0.031880865835999007 0 0.0025639595497079322 -0.031557505173729572 0 0.0028052359701635173 -0.031880865835999007 0 0.002502223217322355 -0.032123268495078315 0 0.0063845908009477663 -0.047563951013696218 0 0.0035055461926850771 -0.043202940759656763 0 0.0028052359701635173 -0.031880865835999007 0 0.002502223217322355 -0.032123268495078315 0 0.0028966610769937703 -0.032215258548753171 0 0.002502223217322355 -0.032123268495078315 0 0.0028966610769937703 -0.032215258548753171 0 0.0026580352224305609 -0.032430285568379513 0 0.0030612898426444755 -0.031938917820891102 0 0.0028052359701635173 -0.031880865835999007 0 0.0028966610769937703 -0.032215258548753171 0 0.0032768629397951173 -0.032134110346730735 0 0.0030612898426444755 -0.031938917820891102 0 0.0028966610769937703 -0.032215258548753171 0 0.00310536249460729 -0.03242886780047842 0 0.0028966610769937703 -0.032215258548753171 0 0.0028785754898466216 -0.032535218678876224 0 0.0028966610769937703 -0.032215258548753171 0 0.0028785754898466216 -0.032535218678876224 0 0.0026580352224305609 -0.032430285568379513 0 0.0027341695546634248 -0.032634912585879056 0 0.0028785754898466216 -0.032535218678876224 0 0.0026580352224305609 -0.032430285568379513 0 0.0030733420180184372 -0.032688175499177567 0 0.00310536249460729 -0.03242886780047842 0 0.0028785754898466216 -0.032535218678876224 0 0.0015137304488987207 -0.043761952671052227 0 0.0035055461926850771 -0.043202940759656763 0 0.0024347254233486443 -0.032732317946404001 0 0.002502223217322355 -0.032123268495078315 0 0.0026580352224305609 -0.032430285568379513 0 0.0027341695546634248 -0.032634912585879056 0 0.0026060240041540883 -0.032635624752749129 0 0.0026580352224305609 -0.032430285568379513 0 0.0026060240041540883 -0.032635624752749129 0 0.0024347254233486443 -0.032732317946404001 0 0.0026580352224305609 -0.032430285568379513 0 0.0016331537925689968 -0.051367743395034936 0 0.0015987077110908997 -0.052234674090299159 0 0.0020006722146848326 -0.051808490726751165 0 0.0015137304488987207 -0.043761952671052227 0 0.0029855116019007182 -0.047789055569710637 0 0.0022532384796197322 -0.051130951490269957 0 0.0026829772408079036 -0.051076692855009397 0 0.0026062845344076188 -0.05058999871630615 0 0.001430670090685826 -0.051436403051612872 0 0.0022532384796197322 -0.051130951490269957 0 0.0015276592686309495 -0.050580305384683673 0 0.001430670090685826 -0.051436403051612872 0 0.0022532384796197322 -0.051130951490269957 0 0.0023532074977473685 -0.051685486583086915 0 0.001430670090685826 -0.051436403051612872 0 0.0023532074977473685 -0.051685486583086915 0 0.002286500777610665 -0.052235971200402138 0 0.0022532384796197322 -0.051130951490269957 0 0.0023532074977473685 -0.051685486583086915 0 0.0027409003251931516 -0.051501763296324547 0 0.0023532074977473685 -0.051685486583086915 0 0.002286500777610665 -0.052235971200402138 0 0.0028085714560093008 -0.051931847988937463 0 0.0020006722146848326 -0.051808490726751165 0 0.002286500777610665 -0.052235971200402138 0 0.0019928719248874008 -0.052228521415701008 0 0.0029855116019007182 -0.047789055569710637 0 0.0033433141855819851 -0.048903422828925451 0 0.002286500777610665 -0.052235971200402138 0 0.0019928719248874008 -0.052228521415701008 0 0.002386595790020899 -0.052700834548025439 0 0.002286500777610665 -0.052235971200402138 0 0.002386595790020899 -0.052700834548025439 0 0.0026487192184704782 -0.052394514344345076 0 0.0015987077110908997 -0.052234674090299159 0 0.0020006722146848326 -0.051808490726751165 0 0.0019928719248874008 -0.052228521415701008 0 0.0015987077110908997 -0.052234674090299159 0 0.0019928719248874008 -0.052228521415701008 0 0.0020048579422416155 -0.052683506238429954 0 0.0015737716151627058 -0.053126006929225991 0 0.0015987077110908997 -0.052234674090299159 0 0.0020048579422416155 -0.052683506238429954 0 0.0020048579422416155 -0.052683506238429954 0 0.002386595790020899 -0.052700834548025439 0 0.0025000942284136196 -0.053196095194877821 0 0.0019928719248874008 -0.052228521415701008 0 0.0020048579422416155 -0.052683506238429954 0 0.002386595790020899 -0.052700834548025439 0 0.0025000942284136196 -0.053196095194877821 0 0.0025311994939328985 -0.053170356201574571 0 0.0025402579465740841 -0.053054883404530503 0 0.002386595790020899 -0.052700834548025439 0 0.0025000942284136196 -0.053196095194877821 0 0.0025311994939328985 -0.053170356201574571 0 0.0031732672286840218 -0.053285086659355593 0 0.0025000942284136196 -0.053196095194877821 0 0.0028653388184278409 -0.05292443137892771 0 0.0063845908009477663 -0.047563951013696218 0 0.0041020535766209017 -0.048788401175949715 0 0.0015737716151627058 -0.053126006929225991 0 0.0020048579422416155 -0.052683506238429954 0 0.0025000942284136196 -0.053196095194877821 0 0.0019566424558714662 -0.053609773018730419 0 0.0016526826112750728 -0.053718128350153591 0 0.0019703859478877538 -0.053337060845136564 0 0.0019566424558714662 -0.053609773018730419 0 0.0022534530535613141 -0.054050175943019398 0 0.0016526826112750728 -0.053718128350153591 0 0.0013671706673867828 -0.053797777447645724 0 0.001514794023406267 -0.053664841162752601 0 0.0025311994939328985 -0.053170356201574571 0 0.0028018833554536988 -0.052922856331950596 0 0.0023111910577443225 -0.053300585229738871 0 0.0022710286330814566 -0.053097662948135831 0 0.0022928807534733451 -0.053159965540472781 0 0.0019566424558714662 -0.053609773018730419 0 0.0022534530535613141 -0.054050175943019398 0 0.0023111910577443225 -0.053300585229738871 0 0.002386595790020899 -0.052700834548025439 0 0.0028018833554536988 -0.052922856331950596 0 0.0026487192184704782 -0.052394514344345076 0 0.002386595790020899 -0.052700834548025439 0 0.0025311994939328985 -0.053170356201574571 0 0.0028018833554536988 -0.052922856331950596 0 0.0022534530535613141 -0.054050175943019398 0 0.0017702874808240858 -0.054439991807880582 0 0.0016526826112750728 -0.053718128350153591 0 0.0022534530535613141 -0.054050175943019398 0 0.0017702874808240858 -0.054439991807880582 0 0.0022660359855543521 -0.054679461339966359 0 0.0031111264718230239 -0.050473375008619113 0 0.0031633829881682696 -0.050604611101521452 0 0.0030086856235886379 -0.0506753838911502 0 0.0019804458021605398 -0.052963254961710553 0 0.0021246556921801314 -0.052442400223041953 0 0.0031111264718230239 -0.050473375008619113 0 0.0032670438414055579 -0.050602674163529864 0 0.0031633829881682696 -0.050604611101521452 0 0.0022710286330814566 -0.053097662948135831 0 0.0021246556921801314 -0.052442400223041953 0 0.0028018833554536988 -0.052922856331950596 0 0.0026487192184704782 -0.052394514344345076 0 0.0029907188398025537 -0.052071999186420512 0 0.0021246556921801314 -0.052442400223041953 0 0.0021519907697596613 -0.052443474231599049 0 0.002286500777610665 -0.052235971200402138 0 0.0026487192184704782 -0.052394514344345076 0 0.0028085714560093008 -0.051931847988937463 0 0.0026487192184704782 -0.052394514344345076 0 0.0029907188398025537 -0.052071999186420512 0 0.0028085714560093008 -0.051931847988937463 0 0.003136484276351412 -0.052089262542325494 0 0.0027409003251931516 -0.051501763296324547 0 0.0031444136716282274 -0.051081936041626953 0 0.0032670438414055579 -0.050602674163529864 0 0.0031617210428101206 -0.050655810044914699 0 0.0032289972382585344 -0.050648362711800732 0 0.0021246556921801314 -0.052442400223041953 0 0.0023649114749200997 -0.051414370201927989 0 0.003136484276351412 -0.052089262542325494 0 0.0028085714560093008 -0.051931847988937463 0 0.0027409003251931516 -0.051501763296324547 0 0.0023532074977473685 -0.051685486583086915 0 0.0028085714560093008 -0.051931847988937463 0 0.0027409003251931516 -0.051501763296324547 0 0.0031617210428101206 -0.050655810044914699 0 0.0032289972382585344 -0.050648362711800732 0 0.0032622396945438774 -0.050675319826570926 0 0.0022532384796197322 -0.051130951490269957 0 0.0027409003251931516 -0.051501763296324547 0 0.0026829772408079036 -0.051076692855009397 0 0.0027409003251931516 -0.051501763296324547 0 0.0031444136716282274 -0.051081936041626953 0 0.0026829772408079036 -0.051076692855009397 0 0.0031633829881682696 -0.050604611101521452 0 0.0031955406532674013 -0.050658022285934377 0 0.0031267910035731824 -0.050700097200405039 0 0.0031633829881682696 -0.050604611101521452 0 0.0031267910035731824 -0.050700097200405039 0 0.0030086856235886379 -0.0506753838911502 0 0.0032670438414055579 -0.050602674163529864 0 0.0031633829881682696 -0.050604611101521452 0 0.0032289972382585344 -0.050648362711800732 0 0.0031633829881682696 -0.050604611101521452 0 0.0032289972382585344 -0.050648362711800732 0 0.0031955406532674013 -0.050658022285934377 0 0.0031955406532674013 -0.050658022285934377 0 0.0032622396945438774 -0.050675319826570926 0 0.0031267910035731824 -0.050700097200405039 0 0.0032289972382585344 -0.050648362711800732 0 0.0031955406532674013 -0.050658022285934377 0 0.0032622396945438774 -0.050675319826570926 0 0.0032622396945438774 -0.050675319826570926 0 0.0031267910035731824 -0.050700097200405039 0 0.0029911017850493705 -0.050928650619771892 0 0.0032622396945438774 -0.050675319826570926 0 0.003353213118878155 -0.050264583275306363 0 0.0041249521737420081 -0.050089595074112918 0 0.003353213118878155 -0.050264583275306363 0 0.0032052232416112068 -0.049727963169844326 0 0.0041249521737420081 -0.050089595074112918 0 0.0017032323597290376 -0.049426232538545903 0 8.8867890913581083e-05 -0.049724857772084283 0 -0.0046987050946447426 -0.036868453496477521 0 -0.0062297128631711917 -0.037230539640044261 0 -0.0066528489564059113 -0.03628073811260684 0 -0.0010549431201394201 -0.045710016455576638 0 8.8867890913581083e-05 -0.049724857772084283 0 -0.0053239386151023027 -0.037522846271006306 0 -0.0046987050946447426 -0.036868453496477521 0 -0.0062297128631711917 -0.037230539640044261 0 0.0032052232416112068 -0.049727963169844326 0 0.0030713439261300262 -0.050073049733040081 0 0.0023059149605367908 -0.049840796050601599 0 -0.0046987050946447426 -0.036868453496477521 0 -0.002831335844685447 -0.037538353425880744 0 -0.0042759264008621475 -0.03766073609401728 0 -0.0053239386151023027 -0.037522846271006306 0 -0.0046987050946447426 -0.036868453496477521 0 -0.0042759264008621475 -0.03766073609401728 0 0.0031617210428101206 -0.050655810044914699 0 0.003353213118878155 -0.050264583275306363 0 0.0030713439261300262 -0.050073049733040081 0 0.0030713439261300262 -0.050073049733040081 0 0.0026062845344076188 -0.05058999871630615 0 0.0023059149605367908 -0.049840796050601599 0 0.0031444136716282274 -0.051081936041626953 0 0.0030713439261300262 -0.050073049733040081 0 0.0026062845344076188 -0.05058999871630615 0 0.0023649114749200997 -0.051414370201927989 0 0.0024350307151797283 -0.051041190940565501 0 0.003353213118878155 -0.050264583275306363 0 0.0032052232416112068 -0.049727963169844326 0 0.0030713439261300262 -0.050073049733040081 0 0.0031617210428101206 -0.050655810044914699 0 0.0032622396945438774 -0.050675319826570926 0 0.003353213118878155 -0.050264583275306363 0 0.0031444136716282274 -0.051081936041626953 0 0.0026829772408079036 -0.051076692855009397 0 0.0026062845344076188 -0.05058999871630615 0 0.0015276592686309495 -0.050580305384683673 0 0.0012215503262084486 -0.049913162232644241 0 0.0023059149605367908 -0.049840796050601599 0 0.0026062845344076188 -0.05058999871630615 0 0.0015276592686309495 -0.050580305384683673 0 0.0023059149605367908 -0.049840796050601599 0 0.0022532384796197322 -0.051130951490269957 0 0.0026062845344076188 -0.05058999871630615 0 0.0015276592686309495 -0.050580305384683673 0 0.00064917345902004383 -0.050568399857015389 0 0.00065383039855898691 -0.050477057446178718 0 0.0015276592686309495 -0.050580305384683673 0 0.00064917345902004383 -0.050568399857015389 0 0.001430670090685826 -0.051436403051612872 0 0.0015276592686309495 -0.050580305384683673 0 0.00052231329458373886 -0.049770728855614135 0 0.00065383039855898691 -0.050477057446178718 0 0.0012215503262084486 -0.049913162232644241 0 0.00065383039855898691 -0.050477057446178718 0 0.0015276592686309495 -0.050580305384683673 0 0.0012215503262084486 -0.049913162232644241 0 0.00066160714220241622 -0.049379130809445122 0 0.0012215503262084486 -0.049913162232644241 0 0.001771356790691339 -0.049130469713951269 0 0.00013358859987091154 -0.048539851361556342 0 0.00066160714220241622 -0.049379130809445122 0 0.001771356790691339 -0.049130469713951269 0 0.00066160714220241622 -0.049379130809445122 0 0.00052231329458373886 -0.049770728855614135 0 0.0012215503262084486 -0.049913162232644241 0 -0.0010549431201394201 -0.045710016455576638 0 -0.00072010149184747931 -0.043848140897366092 0 0.0012215503262084486 -0.049913162232644241 0 0.001771356790691339 -0.049130469713951269 0 0.0023059149605367908 -0.049840796050601599 0 0.0032052232416112068 -0.049727963169844326 0 0.001771356790691339 -0.049130469713951269 0 0.0023059149605367908 -0.049840796050601599 0 -0.002831335844685447 -0.037538353425880744 0 -0.0036027010258968596 -0.038348063851072298 0 -0.0042759264008621475 -0.03766073609401728 0 -0.002831335844685447 -0.037538353425880744 0 -0.0036027010258968596 -0.038348063851072298 0 -0.0022216505409971476 -0.038610656777939734 0 -0.00026588035494790112 -0.042405658726256269 0 -0.00072010149184747931 -0.043848140897366092 0 -0.0012012297468432826 -0.03817235562979239 0 -0.002831335844685447 -0.037538353425880744 0 -0.0022216505409971476 -0.038610656777939734 0 -0.0022338070922058666 -0.039751244232938854 0 -0.0015222919609318775 -0.03919029219322058 0 -0.0022216505409971476 -0.038610656777939734 0 -0.0022338070922058666 -0.039751244232938854 0 -0.0022216505409971476 -0.038610656777939734 0 -0.0031284087505136179 -0.039214103501327535 0 -0.0033588328009491069 -0.040290969133566334 0 -0.0031284087505136179 -0.039214103501327535 0 -0.0042501728970405972 -0.039203653369225433 0 -0.0036027010258968596 -0.038348063851072298 0 -0.0022216505409971476 -0.038610656777939734 0 -0.0031284087505136179 -0.039214103501327535 0 -0.0036027010258968596 -0.038348063851072298 0 -0.0031284087505136179 -0.039214103501327535 0 -0.0042501728970405972 -0.039203653369225433 0 -0.0042501728970405972 -0.039203653369225433 0 -0.0057353386703225644 -0.039399799952130575 0 -0.0049146653315411326 -0.038204348148483128 0 -0.0047768762314036942 -0.040622587106010757 0 -0.0042501728970405972 -0.039203653369225433 0 -0.0057353386703225644 -0.039399799952130575 0 -0.0057353386703225644 -0.039399799952130575 0 -0.0049146653315411326 -0.038204348148483128 0 -0.0060334573842772792 -0.037996223975421531 0 -0.0053239386151023027 -0.037522846271006306 0 -0.0060334573842772792 -0.037996223975421531 0 -0.0062297128631711917 -0.037230539640044261 0 -0.0053239386151023027 -0.037522846271006306 0 -0.0049146653315411326 -0.038204348148483128 0 -0.0060334573842772792 -0.037996223975421531 0 -0.0036027010258968596 -0.038348063851072298 0 -0.0049146653315411326 -0.038204348148483128 0 -0.0042759264008621475 -0.03766073609401728 0 -0.0053239386151023027 -0.037522846271006306 0 -0.0049146653315411326 -0.038204348148483128 0 -0.0042759264008621475 -0.03766073609401728 0 -0.0036027010258968596 -0.038348063851072298 0 -0.0042501728970405972 -0.039203653369225433 0 -0.0049146653315411326 -0.038204348148483128 0 -0.0077204126083546378 -0.038076918252369016 0 -0.007035695579280638 -0.038944447497738365 0 -0.00816641803609644 -0.038880785776451272 0 -0.0077204126083546378 -0.038076918252369016 0 -0.0069620599313540161 -0.037651041194622453 0 -0.007035695579280638 -0.038944447497738365 0 -0.0077204126083546378 -0.038076918252369016 0 -0.00816641803609644 -0.038880785776451272 0 -0.0086809756963218271 -0.037855798583965962 0 -0.0077204126083546378 -0.038076918252369016 0 -0.0086809756963218271 -0.037855798583965962 0 -0.0076881750674325563 -0.037072715589776928 0 -0.0077204126083546378 -0.038076918252369016 0 -0.0069620599313540161 -0.037651041194622453 0 -0.0076881750674325563 -0.037072715589776928 0 -0.0060334573842772792 -0.037996223975421531 0 -0.0069620599313540161 -0.037651041194622453 0 -0.007035695579280638 -0.038944447497738365 0 -0.0060334573842772792 -0.037996223975421531 0 -0.0069620599313540161 -0.037651041194622453 0 -0.0062297128631711917 -0.037230539640044261 0 -0.0057353386703225644 -0.039399799952130575 0 -0.0060334573842772792 -0.037996223975421531 0 -0.007035695579280638 -0.038944447497738365 0 -0.0070126422373730096 -0.040083808029514202 0 -0.0057353386703225644 -0.039399799952130575 0 -0.007035695579280638 -0.038944447497738365 0 -0.0082240526676163762 -0.039946792023440952 0 -0.0070126422373730096 -0.040083808029514202 0 -0.007035695579280638 -0.038944447497738365 0 -0.0055652769456982039 -0.046242883990329033 0 -0.0057202478247308872 -0.043967604481537907 0 -0.0094160819070052398 -0.04003443926756841 0 -0.0082240526676163762 -0.039946792023440952 0 -0.007035695579280638 -0.038944447497738365 0 -0.0088579349753921555 -0.039935255758862476 0 -0.007035695579280638 -0.038944447497738365 0 -0.00816641803609644 -0.038880785776451272 0 -0.0088579349753921555 -0.039935255758862476 0 -0.00816641803609644 -0.038880785776451272 0 -0.0086809756963218271 -0.037855798583965962 0 1.3361114016706071e-05 -0.054941420069345166 0 -5.8847257096643461e-07 -0.054935316894779519 0 2.3313640538782959e-05 -0.054893229875304095 0 -0.0055652769456982039 -0.046242883990329033 0 -0.0016043839403985043 -0.049762750527148771 0 1.3361114016706071e-05 -0.054941420069345166 0 -5.8847257096643461e-07 -0.054935316894779519 0 -8.4329673689521919e-06 -0.054953649358587014 0 -5.8847257096643461e-07 -0.054935316894779519 0 9.8713988321645082e-06 -0.054923321061308435 0 8.2857133554121296e-07 -0.054932514126108688 0 -5.8847257096643461e-07 -0.054935316894779519 0 8.2857133554121296e-07 -0.054932514126108688 0 -3.7833108254059084e-06 -0.054941050039690825 0 -0.0018274101620442786 -0.051246326090617959 0 -0.0016043839403985043 -0.049762750527148771 0 -5.8847257096643461e-07 -0.054935316894779519 0 9.8713988321645082e-06 -0.054923321061308435 0 1.8969321508507484e-05 -0.054919109666085326 0 9.8713988321645082e-06 -0.054923321061308435 0 1.8969321508507484e-05 -0.054919109666085326 0 1.9762117515761209e-05 -0.054911561683322618 0 -0.0016043839403985043 -0.049762750527148771 0 -0.0015975529031253708 -0.050158081049340927 0 9.8713988321645082e-06 -0.054923321061308435 0 1.9762117515761209e-05 -0.054911561683322618 0 1.0508514898536749e-05 -0.054913500236525692 0 1.9762117515761209e-05 -0.054911561683322618 0 1.9530029013073917e-05 -0.054915407116712195 0 1.0508514898536749e-05 -0.054913500236525692 0 1.5841855919581731e-05 -0.054948452762430516 0 1.517254670980896e-05 -0.05494502592239086 0 1.9530029013073917e-05 -0.054915407116712195 0 1.0508514898536749e-05 -0.054913500236525692 0 2.2846209945468479e-05 -0.054923639020305851 0 1.8700421375076047e-05 -0.054902436434817445 0 1.9762117515761209e-05 -0.054911561683322618 0 1.4250302521253148e-05 -0.054908086436672505 0 9.8713988321645082e-06 -0.054923321061308435 0 8.2857133554121296e-07 -0.054932514126108688 0 1.0508514898536749e-05 -0.054913500236525692 0 4.4939014300648005e-05 -0.054964027039105919 0 3.4005541614396111e-05 -0.054965885200323764 0 4.2070312063100603e-05 -0.054958744834352348 0 4.4939014300648005e-05 -0.054964027039105919 0 3.4005541614396111e-05 -0.054965885200323764 0 2.7440516275923442e-05 -0.054974645002859757 0 3.4005541614396111e-05 -0.054965885200323764 0 4.2070312063100603e-05 -0.054958744834352348 0 3.7844638467343901e-05 -0.054961868652991172 0 4.4939014300648005e-05 -0.054964027039105919 0 4.2070312063100603e-05 -0.054958744834352348 0 4.2031487860845395e-05 -0.054954269529453384 0 4.4939014300648005e-05 -0.054964027039105919 0 4.2031487860845395e-05 -0.054954269529453384 0 3.5806425734507221e-05 -0.054944574831627201 0 4.2070312063100603e-05 -0.054958744834352348 0 4.3132850291982548e-05 -0.054954976020449978 0 4.6694679365422117e-05 -0.054957040775009437 0 4.2070312063100603e-05 -0.054958744834352348 0 4.2031487860845395e-05 -0.054954269529453384 0 4.3132850291982548e-05 -0.054954976020449978 0 4.2031487860845395e-05 -0.054954269529453384 0 4.3132850291982548e-05 -0.054954976020449978 0 3.9916467801635423e-05 -0.05495103961139837 0 4.3469991462016666e-05 -0.054955281144817819 0 4.3761356076896277e-05 -0.054959722633544504 0 3.9916467801635423e-05 -0.05495103961139837 0 4.3132850291982548e-05 -0.054954976020449978 0 4.3469991462016666e-05 -0.054955281144817819 0 4.6694679365422117e-05 -0.054957040775009437 0 4.3132850291982548e-05 -0.054954976020449978 0 4.3469991462016666e-05 -0.054955281144817819 0 3.9916467801635423e-05 -0.05495103961139837 0 4.3469991462016666e-05 -0.054955281144817819 0 4.3761356076896277e-05 -0.054959722633544504 0 4.6694679365422117e-05 -0.054957040775009437 0 0.00072951911202996189 -0.052270928547780315 0 0.00069242919259040147 -0.052327198491371012 0 4.6694679365422117e-05 -0.054957040775009437 0 4.5962772838507889e-05 -0.054960011572808457 0 5.5019792866526187e-05 -0.054962335948367726 0 4.477290139341611e-05 -0.054960111528651913 0 4.6694679365422117e-05 -0.054957040775009437 0 5.5019792866526187e-05 -0.054962335948367726 0 0.00072951911202996189 -0.052270928547780315 0 0.00072654000091859335 -0.052301038883573958 0 4.2070312063100603e-05 -0.054958744834352348 0 4.6694679365422117e-05 -0.054957040775009437 0 4.5962772838507889e-05 -0.054960011572808457 0 4.2070312063100603e-05 -0.054958744834352348 0 4.5962772838507889e-05 -0.054960011572808457 0 3.7844638467343901e-05 -0.054961868652991172 0 4.5962772838507889e-05 -0.054960011572808457 0 4.1933332376931194e-05 -0.054958299148766689 0 5.5019792866526187e-05 -0.054962335948367726 0 4.5962772838507889e-05 -0.054960011572808457 0 4.1933332376931194e-05 -0.054958299148766689 0 3.7844638467343901e-05 -0.054961868652991172 0 4.3761356076896277e-05 -0.054959722633544504 0 3.9916467801635423e-05 -0.05495103961139837 0 2.4366748500190099e-05 -0.054932313224339849 0 3.5806425734507221e-05 -0.054944574831627201 0 3.9916467801635423e-05 -0.05495103961139837 0 2.4366748500190099e-05 -0.054932313224339849 0 0.002517563170851589 -0.050795239050217905 0 0.0027564064273337269 -0.050862916740439114 0 0.0027082542071683131 -0.050735892359951497 0 0.00072951911202996189 -0.052270928547780315 0 0.0010394655978849057 -0.051450342172616785 0 4.4939014300648005e-05 -0.054964027039105919 0 3.5806425734507221e-05 -0.054944574831627201 0 2.2846209945468479e-05 -0.054923639020305851 0 3.5806425734507221e-05 -0.054944574831627201 0 2.4366748500190099e-05 -0.054932313224339849 0 2.2846209945468479e-05 -0.054923639020305851 0 4.2031487860845395e-05 -0.054954269529453384 0 3.5806425734507221e-05 -0.054944574831627201 0 3.9916467801635423e-05 -0.05495103961139837 0 0.0027564064273337269 -0.050862916740439114 0 0.0028994965426666205 -0.050794902522873213 0 0.0029911017850493705 -0.050928650619771892 0 2.4366748500190099e-05 -0.054932313224339849 0 2.2846209945468479e-05 -0.054923639020305851 0 -6.0108802882568797e-07 -0.054909568951184595 0 0.0010394655978849057 -0.051450342172616785 0 8.8867890913581083e-05 -0.049724857772084283 0 0.0027564064273337269 -0.050862916740439114 0 0.0028994965426666205 -0.050794902522873213 0 0.0028433844836960667 -0.05071208888730034 0 2.2846209945468479e-05 -0.054923639020305851 0 1.4250302521253148e-05 -0.054908086436672505 0 -6.0108802882568797e-07 -0.054909568951184595 0 1.9530029013073917e-05 -0.054915407116712195 0 2.2846209945468479e-05 -0.054923639020305851 0 1.4250302521253148e-05 -0.054908086436672505 0 -0.0016043839403985043 -0.049762750527148771 0 -0.0011473069425099751 -0.049333838371640036 0 1.9762117515761209e-05 -0.054911561683322618 0 1.9530029013073917e-05 -0.054915407116712195 0 1.4250302521253148e-05 -0.054908086436672505 0 -0.0076881750674325563 -0.037072715589776928 0 -0.0062297128631711917 -0.037230539640044261 0 -0.0066528489564059113 -0.03628073811260684 0 -0.0069620599313540161 -0.037651041194622453 0 -0.0076881750674325563 -0.037072715589776928 0 -0.0062297128631711917 -0.037230539640044261 0 -0.0011473069425099751 -0.049333838371640036 0 8.8867890913581083e-05 -0.049724857772084283 0 0.0028994965426666205 -0.050794902522873213 0 0.0029911017850493705 -0.050928650619771892 0 0.0030086856235886379 -0.0506753838911502 0 0.0031267910035731824 -0.050700097200405039 0 0.0029911017850493705 -0.050928650619771892 0 0.0030086856235886379 -0.0506753838911502 0 0.0028994965426666205 -0.050794902522873213 0 0.0030086856235886379 -0.0506753838911502 0 0.0028433844836960667 -0.05071208888730034 0 0.0030086856235886379 -0.0506753838911502 0 0.0028433844836960667 -0.05071208888730034 0 0.0029094093175905523 -0.050552517868857977 0 0.0028433844836960667 -0.05071208888730034 0 0.0029094093175905523 -0.050552517868857977 0 0.0027156239364836449 -0.050574549374654568 0 0.0027564064273337269 -0.050862916740439114 0 0.0028433844836960667 -0.05071208888730034 0 0.0027082542071683131 -0.050735892359951497 0 0.0028433844836960667 -0.05071208888730034 0 0.0027156239364836449 -0.050574549374654568 0 0.0027082542071683131 -0.050735892359951497 0 0.001469710893753848 -0.053557576536034719 0 0.0012658545952598671 -0.052769700115323157 0 0.0029094093175905523 -0.050552517868857977 0 0.0029063528155239865 -0.050367841987442562 0 0.0027156239364836449 -0.050574549374654568 0 0.0031111264718230239 -0.050473375008619113 0 0.0030086856235886379 -0.0506753838911502 0 0.0029094093175905523 -0.050552517868857977 0 0.0031111264718230239 -0.050473375008619113 0 0.0029094093175905523 -0.050552517868857977 0 0.0029063528155239865 -0.050367841987442562 0 0.0019804458021605398 -0.052963254961710553 0 0.001469710893753848 -0.053557576536034719 0 0.0017702874808240858 -0.054439991807880582 0 0.0012536114115098331 -0.054184193616323789 0 0.0016526826112750728 -0.053718128350153591 0 0.001469710893753848 -0.053557576536034719 0 0.0013671706673867828 -0.053797777447645724 0 0.001469710893753848 -0.053557576536034719 0 0.0006745624652672932 -0.053901936118683352 0 0.00026122351549571918 -0.054810747437922053 0 0.00015521395317560745 -0.054760111248814039 0 0.00016576266705921189 -0.054912094083086588 0 0.00011847054437421149 -0.054480024739102718 0 -8.8061265394646739e-05 -0.054597359785073289 0 -5.6205394401935008e-05 -0.054420173883889991 0 0.00023311650037579124 -0.054973577076572945 0 0.00011847054437421149 -0.054480024739102718 0 -8.8061265394646739e-05 -0.054597359785073289 0 0.00023311650037579124 -0.054973577076572945 0 0.00011847054437421149 -0.054480024739102718 0 0.00087992474248017091 -0.054570524744912231 0 0.00011847054437421149 -0.054480024739102718 0 0.00087992474248017091 -0.054570524744912231 0 0.00094740058654126341 -0.053760565177723832 0 0.00046102997296202259 -0.054007081309697169 0 0.0006745624652672932 -0.053901936118683352 0 1.6325505819447461e-06 -0.054675088632727506 0 0.00015521395317560745 -0.054760111248814039 0 8.4189455339710113e-05 -0.054831051543404265 0 1.6325505819447461e-06 -0.054675088632727506 0 -8.8061265394646739e-05 -0.054597359785073289 0 -5.6205394401935008e-05 -0.054420173883889991 0 0.00015521395317560745 -0.054760111248814039 0 8.4189455339710113e-05 -0.054831051543404265 0 0.00016576266705921189 -0.054912094083086588 0 1.6325505819447461e-06 -0.054675088632727506 0 8.4189455339710113e-05 -0.054831051543404265 0 1.4965830723433744e-05 -0.054848690283940439 0 8.4189455339710113e-05 -0.054831051543404265 0 6.5759775020847946e-05 -0.054897242813856842 0 1.4965830723433744e-05 -0.054848690283940439 0 6.5759775020847946e-05 -0.054897242813856842 0 3.6096604969615237e-05 -0.054926550361458236 0 1.9805774882721554e-05 -0.054901109794384818 0 8.4189455339710113e-05 -0.054831051543404265 0 6.5759775020847946e-05 -0.054897242813856842 0 0.00016576266705921189 -0.054912094083086588 0 6.5759775020847946e-05 -0.054897242813856842 0 0.00016576266705921189 -0.054912094083086588 0 8.8121257294102709e-05 -0.054934471108530857 0 0.002517563170851589 -0.050795239050217905 0 0.0027156239364836449 -0.050574549374654568 0 0.0027082542071683131 -0.050735892359951497 0 7.8304564509473022e-05 -0.05497239231468589 0 0.00016576266705921189 -0.054912094083086588 0 8.8121257294102709e-05 -0.054934471108530857 0 0.00072951911202996189 -0.052270928547780315 0 0.0012658545952598671 -0.052769700115323157 0 5.5152306026270937e-05 -0.054940902910372638 0 3.1694502752877129e-05 -0.054948838022365526 0 3.6096604969615237e-05 -0.054926550361458236 0 6.5759775020847946e-05 -0.054897242813856842 0 5.5152306026270937e-05 -0.054940902910372638 0 3.6096604969615237e-05 -0.054926550361458236 0 6.5759775020847946e-05 -0.054897242813856842 0 5.5152306026270937e-05 -0.054940902910372638 0 8.8121257294102709e-05 -0.054934471108530857 0 5.5152306026270937e-05 -0.054940902910372638 0 8.8121257294102709e-05 -0.054934471108530857 0 5.5019792866526187e-05 -0.054962335948367726 0 7.8304564509473022e-05 -0.05497239231468589 0 8.8121257294102709e-05 -0.054934471108530857 0 5.5019792866526187e-05 -0.054962335948367726 0 4.1933332376931194e-05 -0.054958299148766689 0 5.5152306026270937e-05 -0.054940902910372638 0 5.5019792866526187e-05 -0.054962335948367726 0 4.1933332376931194e-05 -0.054958299148766689 0 5.5152306026270937e-05 -0.054940902910372638 0 3.1694502752877129e-05 -0.054948838022365526 0 4.1933332376931194e-05 -0.054958299148766689 0 3.1694502752877129e-05 -0.054948838022365526 0 3.0063546967706384e-05 -0.054959946013077396 0 3.1694502752877129e-05 -0.054948838022365526 0 1.6912879501013803e-05 -0.054957950988991103 0 3.0063546967706384e-05 -0.054959946013077396 0 3.1694502752877129e-05 -0.054948838022365526 0 1.6912879501013803e-05 -0.054957950988991103 0 1.6212539984496668e-05 -0.054935871075197894 0 3.1694502752877129e-05 -0.054948838022365526 0 1.6212539984496668e-05 -0.054935871075197894 0 3.6096604969615237e-05 -0.054926550361458236 0 1.6912879501013803e-05 -0.054957950988991103 0 -1.3721968181992675e-06 -0.054947264175930009 0 1.2472669596393062e-07 -0.054967708200429496 0 1.6912879501013803e-05 -0.054957950988991103 0 1.6212539984496668e-05 -0.054935871075197894 0 -1.3721968181992675e-06 -0.054947264175930009 0 -1.3721968181992675e-06 -0.054947264175930009 0 -4.5229360071145072e-06 -0.054910730170205917 0 -9.6220239574069086e-06 -0.054961600984116427 0 1.6212539984496668e-05 -0.054935871075197894 0 -1.3721968181992675e-06 -0.054947264175930009 0 -4.5229360071145072e-06 -0.054910730170205917 0 -4.5229360071145072e-06 -0.054910730170205917 0 1.9805774882721554e-05 -0.054901109794384818 0 1.4965830723433744e-05 -0.054848690283940439 0 1.6212539984496668e-05 -0.054935871075197894 0 3.6096604969615237e-05 -0.054926550361458236 0 1.9805774882721554e-05 -0.054901109794384818 0 1.6212539984496668e-05 -0.054935871075197894 0 -4.5229360071145072e-06 -0.054910730170205917 0 1.9805774882721554e-05 -0.054901109794384818 0 6.5759775020847946e-05 -0.054897242813856842 0 1.9805774882721554e-05 -0.054901109794384818 0 1.4965830723433744e-05 -0.054848690283940439 0 -4.5229360071145072e-06 -0.054910730170205917 0 1.4965830723433744e-05 -0.054848690283940439 0 -8.2899666492082522e-06 -0.054847955522178832 0 1.6325505819447461e-06 -0.054675088632727506 0 1.4965830723433744e-05 -0.054848690283940439 0 -8.2899666492082522e-06 -0.054847955522178832 0 -4.5229360071145072e-06 -0.054910730170205917 0 -8.2899666492082522e-06 -0.054847955522178832 0 -8.9642351613739918e-06 -0.054930483104964671 0 -8.2899666492082522e-06 -0.054847955522178832 0 -7.4540789308020698e-06 -0.054864609307607254 0 3.8207203283864229e-06 -0.054769693235567712 0 -8.2899666492082522e-06 -0.054847955522178832 0 -7.4540789308020698e-06 -0.054864609307607254 0 -8.9642351613739918e-06 -0.054930483104964671 0 1.6325505819447461e-06 -0.054675088632727506 0 -8.2899666492082522e-06 -0.054847955522178832 0 3.8207203283864229e-06 -0.054769693235567712 0 -7.4540789308020698e-06 -0.054864609307607254 0 -8.9642351613739918e-06 -0.054930483104964671 0 6.4839705116100805e-07 -0.054908713221592818 0 -8.9642351613739918e-06 -0.054930483104964671 0 -2.8379822320992965e-08 -0.054999913390909975 0 6.4839705116100805e-07 -0.054908713221592818 0 -2.8379822320992965e-08 -0.054999913390909975 0 6.4839705116100805e-07 -0.054908713221592818 0 5.504079153509631e-09 -0.054999859631340117 0 -8.9642351613739918e-06 -0.054930483104964671 0 -2.8379822320992965e-08 -0.054999913390909975 0 -9.6220239574069086e-06 -0.054961600984116427 0 -2.8379822320992965e-08 -0.054999913390909975 0 -9.6220239574069086e-06 -0.054961600984116427 0 -5.2967854647247104e-09 -0.054999960490223612 0 -4.5229360071145072e-06 -0.054910730170205917 0 -8.9642351613739918e-06 -0.054930483104964671 0 -9.6220239574069086e-06 -0.054961600984116427 0 -9.6220239574069086e-06 -0.054961600984116427 0 -5.2654322040454992e-06 -0.054984357698214074 0 1.2472669596393062e-07 -0.054967708200429496 0 -1.3721968181992675e-06 -0.054947264175930009 0 -9.6220239574069086e-06 -0.054961600984116427 0 1.2472669596393062e-07 -0.054967708200429496 0 -9.6220239574069086e-06 -0.054961600984116427 0 -5.2967854647247104e-09 -0.054999960490223612 0 -5.2654322040454992e-06 -0.054984357698214074 0 -5.2967854647247104e-09 -0.054999960490223612 0 -8.7592962317807152e-09 -0.054999972345901926 0 -5.2654322040454992e-06 -0.054984357698214074 0 -8.7592962317807152e-09 -0.054999972345901926 0 -3.7128159185800424e-06 -0.054984978442226863 0 -5.2654322040454992e-06 -0.054984357698214074 0 -1.3975913249149542e-09 -0.05499999704026267 0 -4.003874028029637e-06 -0.05499093655683563 0 -2.4192782277149676e-06 -0.054993698880296378 0 -2.0655611071717043e-09 -0.054999988452352086 0 -1.7222441480660821e-07 -0.054995164574428143 0 -3.7128159185800424e-06 -0.054984978442226863 0 -6.4767534689728783e-07 -0.054978399442918845 0 -5.2654322040454992e-06 -0.054984357698214074 0 -6.4767534689728783e-07 -0.054978399442918845 0 -5.2654322040454992e-06 -0.054984357698214074 0 1.2472669596393062e-07 -0.054967708200429496 0 1.2472669596393062e-07 -0.054967708200429496 0 7.5348045896940163e-06 -0.054974050567790984 0 1.363020476812166e-05 -0.054967432676629693 0 1.6912879501013803e-05 -0.054957950988991103 0 1.2472669596393062e-07 -0.054967708200429496 0 1.363020476812166e-05 -0.054967432676629693 0 7.5348045896940163e-06 -0.054974050567790984 0 1.363020476812166e-05 -0.054967432676629693 0 1.7267918305898221e-05 -0.054975379676695024 0 -6.4767534689728783e-07 -0.054978399442918845 0 1.2472669596393062e-07 -0.054967708200429496 0 7.5348045896940163e-06 -0.054974050567790984 0 -6.4767534689728783e-07 -0.054978399442918845 0 7.5348045896940163e-06 -0.054974050567790984 0 6.4239770104633864e-06 -0.054980076449096638 0 3.7844638467343901e-05 -0.054961868652991172 0 3.0063546967706384e-05 -0.054959946013077396 0 2.4819926953349325e-05 -0.054967086766389506 0 4.1933332376931194e-05 -0.054958299148766689 0 3.7844638467343901e-05 -0.054961868652991172 0 3.0063546967706384e-05 -0.054959946013077396 0 1.6912879501013803e-05 -0.054957950988991103 0 3.0063546967706384e-05 -0.054959946013077396 0 2.4819926953349325e-05 -0.054967086766389506 0 1.6912879501013803e-05 -0.054957950988991103 0 1.363020476812166e-05 -0.054967432676629693 0 2.4819926953349325e-05 -0.054967086766389506 0 1.363020476812166e-05 -0.054967432676629693 0 2.4819926953349325e-05 -0.054967086766389506 0 1.7267918305898221e-05 -0.054975379676695024 0 2.4819926953349325e-05 -0.054967086766389506 0 2.56903521658552e-05 -0.054970694229043472 0 1.7267918305898221e-05 -0.054975379676695024 0 3.4005541614396111e-05 -0.054965885200323764 0 3.7844638467343901e-05 -0.054961868652991172 0 2.4819926953349325e-05 -0.054967086766389506 0 3.4005541614396111e-05 -0.054965885200323764 0 2.4819926953349325e-05 -0.054967086766389506 0 2.56903521658552e-05 -0.054970694229043472 0 8.2857133554121296e-07 -0.054932514126108688 0 1.0508514898536749e-05 -0.054913500236525692 0 -1.1507512430524732e-05 -0.054941679092418857 0 1.5841855919581731e-05 -0.054948452762430516 0 1.0093931755317273e-05 -0.054957410647754681 0 4.4939014300648005e-05 -0.054964027039105919 0 2.7440516275923442e-05 -0.054974645002859757 0 1.3827522636179007e-05 -0.054990943626883393 0 2.7440516275923442e-05 -0.054974645002859757 0 2.56903521658552e-05 -0.054970694229043472 0 1.7267918305898221e-05 -0.054975379676695024 0 3.4005541614396111e-05 -0.054965885200323764 0 2.7440516275923442e-05 -0.054974645002859757 0 2.56903521658552e-05 -0.054970694229043472 0 2.7440516275923442e-05 -0.054974645002859757 0 1.7267918305898221e-05 -0.054975379676695024 0 1.7586505164991456e-05 -0.054980959243456161 0 1.7267918305898221e-05 -0.054975379676695024 0 1.4513512394420621e-05 -0.054980009173711999 0 1.7586505164991456e-05 -0.054980959243456161 0 2.7440516275923442e-05 -0.054974645002859757 0 1.7586505164991456e-05 -0.054980959243456161 0 1.3827522636179007e-05 -0.054990943626883393 0 1.4513512394420621e-05 -0.054980009173711999 0 1.7586505164991456e-05 -0.054980959243456161 0 1.0696006661844664e-05 -0.054984592167956571 0 1.7586505164991456e-05 -0.054980959243456161 0 1.0696006661844664e-05 -0.054984592167956571 0 1.3827522636179007e-05 -0.054990943626883393 0 -3.7128159185800424e-06 -0.054984978442226863 0 -6.4767534689728783e-07 -0.054978399442918845 0 6.4239770104633864e-06 -0.054980076449096638 0 -1.7222441480660821e-07 -0.054995164574428143 0 3.3546919240318567e-06 -0.054993769037768467 0 -4.003874028029637e-06 -0.05499093655683563 0 1.0696006661844664e-05 -0.054984592167956571 0 2.0997311240187154e-06 -0.054987592431322833 0 -3.7128159185800424e-06 -0.054984978442226863 0 6.4239770104633864e-06 -0.054980076449096638 0 1.0696006661844664e-05 -0.054984592167956571 0 1.7267918305898221e-05 -0.054975379676695024 0 1.4513512394420621e-05 -0.054980009173711999 0 6.4239770104633864e-06 -0.054980076449096638 0 7.5348045896940163e-06 -0.054974050567790984 0 1.7267918305898221e-05 -0.054975379676695024 0 6.4239770104633864e-06 -0.054980076449096638 0 1.0696006661844664e-05 -0.054984592167956571 0 2.0997311240187154e-06 -0.054987592431322833 0 1.3827522636179007e-05 -0.054990943626883393 0 1.4513512394420621e-05 -0.054980009173711999 0 6.4239770104633864e-06 -0.054980076449096638 0 1.0696006661844664e-05 -0.054984592167956571 0 2.0997311240187154e-06 -0.054987592431322833 0 1.3827522636179007e-05 -0.054990943626883393 0 -6.97090926173581e-06 -0.054985400999076742 0 1.0093931755317273e-05 -0.054957410647754681 0 6.5987180289961927e-06 -0.054962437271555309 0 -1.1150295047329406e-05 -0.05496353593269579 0 -1.1507512430524732e-05 -0.054941679092418857 0 -6.97090926173581e-06 -0.054985400999076742 0 -5.8847257096643461e-07 -0.054935316894779519 0 -7.9396687306450878e-06 -0.054950757561069374 0 -3.7833108254059084e-06 -0.054941050039690825 0 8.2857133554121296e-07 -0.054932514126108688 0 -1.1507512430524732e-05 -0.054941679092418857 0 -3.7833108254059084e-06 -0.054941050039690825 0 -1.1150295047329406e-05 -0.05496353593269579 0 -1.1507512430524732e-05 -0.054941679092418857 0 -7.9396687306450878e-06 -0.054950757561069374 0 -1.1507512430524732e-05 -0.054941679092418857 0 -7.9396687306450878e-06 -0.054950757561069374 0 -3.7833108254059084e-06 -0.054941050039690825 0 -5.8847257096643461e-07 -0.054935316894779519 0 -7.9396687306450878e-06 -0.054950757561069374 0 -8.4329673689521919e-06 -0.054953649358587014 0 -7.9396687306450878e-06 -0.054950757561069374 0 -8.4329673689521919e-06 -0.054953649358587014 0 -1.1526868064036237e-05 -0.054964470192450356 0 -1.1150295047329406e-05 -0.05496353593269579 0 -1.0322699596480817e-05 -0.054975974455525177 0 -6.97090926173581e-06 -0.054985400999076742 0 -1.1150295047329406e-05 -0.05496353593269579 0 -1.1526868064036237e-05 -0.054964470192450356 0 -1.0322699596480817e-05 -0.054975974455525177 0 -1.1150295047329406e-05 -0.05496353593269579 0 -7.9396687306450878e-06 -0.054950757561069374 0 -1.1526868064036237e-05 -0.054964470192450356 0 -1.2117201243617596e-05 -0.054974952582808628 0 -1.1526868064036237e-05 -0.054964470192450356 0 -1.0322699596480817e-05 -0.054975974455525177 0 -8.161456802321374e-06 -0.054984189382017837 0 -1.0322699596480817e-05 -0.054975974455525177 0 -4.3168993145272407e-06 -0.054989776902894048 0 -1.0322699596480817e-05 -0.054975974455525177 0 -4.3168993145272407e-06 -0.054989776902894048 0 -6.97090926173581e-06 -0.054985400999076742 0 -6.2429801666818105e-09 -0.054999982192649267 0 -2.3108061298739879e-09 -0.054999980080438021 0 -4.3168993145272407e-06 -0.054989776902894048 0 -2.3108061298739879e-09 -0.054999980080438021 0 -4.3168993145272407e-06 -0.054989776902894048 0 -2.4192782277149676e-06 -0.054993698880296378 0 -1.3975913249149542e-09 -0.05499999704026267 0 -2.3108061298739879e-09 -0.054999980080438021 0 -2.4192782277149676e-06 -0.054993698880296378 0 -4.003874028029637e-06 -0.05499093655683563 0 2.0997311240187154e-06 -0.054987592431322833 0 -6.97090926173581e-06 -0.054985400999076742 0 -4.003874028029637e-06 -0.05499093655683563 0 -2.4192782277149676e-06 -0.054993698880296378 0 -6.97090926173581e-06 -0.054985400999076742 0 -4.3168993145272407e-06 -0.054989776902894048 0 -2.4192782277149676e-06 -0.054993698880296378 0 -6.97090926173581e-06 -0.054985400999076742 0 0.0070363551258913063 -0.015562571551006573 0 0.0073631806803806567 -0.013989684549696201 0 0.0083624764284093676 -0.015701369106419866 0 0.010075350780027669 -0.016577724096490283 0 0.0084521968333444771 -0.015608954944733664 0 0.0097748016324495056 -0.018619491965474036 0 0.0082466473143938731 -0.015216217165339467 0 0.0092618094537003821 -0.017526741229966395 0 0.0070363551258913063 -0.015562571551006573 0 0.0066908807508113529 -0.014683488419106232 0 0.0073631806803806567 -0.013989684549696201 0 0.0070363551258913063 -0.015562571551006573 0 0.0058660289801297999 -0.015777325311800618 0 0.0066908807508113529 -0.014683488419106232 0 0.0066908807508113529 -0.014683488419106232 0 0.0067432415276733586 -0.013881095264350895 0 0.0073631806803806567 -0.013989684549696201 0 0.0066908807508113529 -0.014683488419106232 0 0.0067432415276733586 -0.013881095264350895 0 0.0058594374729618029 -0.013894869941698289 0 0.0067432415276733586 -0.013881095264350895 0 0.0073631806803806567 -0.013989684549696201 0 0.007230038837015648 -0.012642480794118734 0 0.0067432415276733586 -0.013881095264350895 0 0.0058594374729618029 -0.013894869941698289 0 0.0064156681151040585 -0.013473081445190993 0 0.010075350780027669 -0.016577724096490283 0 0.00853563516570152 -0.01478741657902821 0 0.012010324055018794 -0.015955066485605719 0 0.010075350780027669 -0.016577724096490283 0 0.00853563516570152 -0.01478741657902821 0 0.0084521968333444771 -0.015608954944733664 0 0.00853563516570152 -0.01478741657902821 0 0.012010324055018794 -0.015955066485605719 0 0.01208100445928606 -0.013033003488014776 0 0.012010324055018794 -0.015955066485605719 0 0.014345039238847643 -0.017563951787321189 0 0.014906558101918139 -0.01558013796141001 0 0.012010324055018794 -0.015955066485605719 0 0.01208100445928606 -0.013033003488014776 0 0.014906558101918139 -0.01558013796141001 0 0.014345039238847643 -0.017563951787321189 0 0.011578716675864242 -0.017899525401514644 0 0.013188937149226776 -0.01898642217273298 0 0.012010324055018794 -0.015955066485605719 0 0.014345039238847643 -0.017563951787321189 0 0.011578716675864242 -0.017899525401514644 0 0.010075350780027669 -0.016577724096490283 0 0.012010324055018794 -0.015955066485605719 0 0.011578716675864242 -0.017899525401514644 0 0.010075350780027669 -0.016577724096490283 0 0.011578716675864242 -0.017899525401514644 0 0.0097748016324495056 -0.018619491965474036 0 0.011578716675864242 -0.017899525401514644 0 0.01103853166731728 -0.021528345826332857 0 0.0097748016324495056 -0.018619491965474036 0 0.011578716675864242 -0.017899525401514644 0 0.013188937149226776 -0.01898642217273298 0 0.01103853166731728 -0.021528345826332857 0 0.010449634019010954 -0.02024427566926483 0 0.0092618094537003821 -0.017526741229966395 0 0.013188937149226776 -0.01898642217273298 0 0.013162176036805529 -0.020843979696271251 0 0.016422812841775894 -0.018841846979575191 0 0.013188937149226776 -0.01898642217273298 0 0.013162176036805529 -0.020843979696271251 0 0.01103853166731728 -0.021528345826332857 0 0.013162176036805529 -0.020843979696271251 0 0.013166680154523477 -0.022568284279747355 0 0.014493710959187361 -0.022342507096411026 0 0.013162176036805529 -0.020843979696271251 0 0.013166680154523477 -0.022568284279747355 0 0.01103853166731728 -0.021528345826332857 0 0.01044346037928225 -0.018990005374993967 0 0.0081138741386504887 -0.020280859520756821 0 0.0074090880917619976 -0.017664769477965619 0 0.0081138741386504887 -0.020280859520756821 0 0.0074090880917619976 -0.017664769477965619 0 0.0059875585320699294 -0.019574603460149699 0 0.0070363551258913063 -0.015562571551006573 0 0.0074090880917619976 -0.017664769477965619 0 0.0083624764284093676 -0.015701369106419866 0 0.01044346037928225 -0.018990005374993967 0 0.0074090880917619976 -0.017664769477965619 0 0.0083624764284093676 -0.015701369106419866 0 0.0070363551258913063 -0.015562571551006573 0 0.0074090880917619976 -0.017664769477965619 0 0.0063046889871099 -0.01677890471846363 0 0.0058660289801297999 -0.015777325311800618 0 0.0063046889871099 -0.01677890471846363 0 0.0052519969702491415 -0.016692600402844471 0 0.0070363551258913063 -0.015562571551006573 0 0.0058660289801297999 -0.015777325311800618 0 0.0063046889871099 -0.01677890471846363 0 0.0074090880917619976 -0.017664769477965619 0 0.0063046889871099 -0.01677890471846363 0 0.0058288785721029102 -0.018023658720925106 0 0.0063046889871099 -0.01677890471846363 0 0.0058288785721029102 -0.018023658720925106 0 0.0052519969702491415 -0.016692600402844471 0 0.0074090880917619976 -0.017664769477965619 0 0.0058288785721029102 -0.018023658720925106 0 0.0059875585320699294 -0.019574603460149699 0 0.0058288785721029102 -0.018023658720925106 0 0.0059875585320699294 -0.019574603460149699 0 0.0055634064335767022 -0.018838736985216112 0 0.0058288785721029102 -0.018023658720925106 0 0.0055634064335767022 -0.018838736985216112 0 0.0050669963258045082 -0.017954504353264723 0 0.0050669963258045082 -0.017954504353264723 0 0.0051471994071362074 -0.018745531590900442 0 0.0046536202292736476 -0.018228042443965951 0 0.0055634064335767022 -0.018838736985216112 0 0.0050669963258045082 -0.017954504353264723 0 0.0051471994071362074 -0.018745531590900442 0 0.0058288785721029102 -0.018023658720925106 0 0.0050669963258045082 -0.017954504353264723 0 0.0052519969702491415 -0.016692600402844471 0 0.0050669963258045082 -0.017954504353264723 0 0.0041379612525343883 -0.017522532123381805 0 0.0043686071042356453 -0.016731835467008259 0 0.0050669963258045082 -0.017954504353264723 0 0.0041379612525343883 -0.017522532123381805 0 0.0046536202292736476 -0.018228042443965951 0 0.0041379612525343883 -0.017522532123381805 0 0.0035644293873954309 -0.016533174251709502 0 0.0030195763078845598 -0.017485036350854036 0 0.0041379612525343883 -0.017522532123381805 0 0.0030195763078845598 -0.017485036350854036 0 0.0040614596674938726 -0.01823157308275691 0 0.0041379612525343883 -0.017522532123381805 0 0.0040614596674938726 -0.01823157308275691 0 0.0046536202292736476 -0.018228042443965951 0 0.0041379612525343883 -0.017522532123381805 0 0.0035644293873954309 -0.016533174251709502 0 0.0043686071042356453 -0.016731835467008259 0 0.0035644293873954309 -0.016533174251709502 0 0.0029699676877064517 -0.015767467270024049 0 0.0040952662436609649 -0.015204739379811432 0 0.0035644293873954309 -0.016533174251709502 0 0.0043686071042356453 -0.016731835467008259 0 0.0040952662436609649 -0.015204739379811432 0 0.0058660289801297999 -0.015777325311800618 0 0.0052519969702491415 -0.016692600402844471 0 0.0040952662436609649 -0.015204739379811432 0 0.0052519969702491415 -0.016692600402844471 0 0.0043686071042356453 -0.016731835467008259 0 0.0040952662436609649 -0.015204739379811432 0 0.0050669963258045082 -0.017954504353264723 0 0.0052519969702491415 -0.016692600402844471 0 0.0043686071042356453 -0.016731835467008259 0 0.0020931034783929609 -0.016009833036070814 0 0.0026469329796077051 -0.016567428059552643 0 0.0030195763078845598 -0.017485036350854036 0 0.0020931034783929609 -0.016009833036070814 0 0.0023404325329583007 -0.016006549583348687 0 0.0026469329796077051 -0.016567428059552643 0 0.0021539626175615229 -0.015460724630280144 0 0.0023404325329583007 -0.016006549583348687 0 0.0024973227998216661 -0.01600078389637713 0 0.0020931034783929609 -0.016009833036070814 0 0.0021539626175615229 -0.015460724630280144 0 0.0023404325329583007 -0.016006549583348687 0 0.0023404325329583007 -0.016006549583348687 0 0.0024973227998216661 -0.01600078389637713 0 0.0026469329796077051 -0.016567428059552643 0 0.0035644293873954309 -0.016533174251709502 0 0.002907921968047315 -0.016333195911793455 0 0.0030195763078845598 -0.017485036350854036 0 0.0024973227998216661 -0.01600078389637713 0 0.002907921968047315 -0.016333195911793455 0 0.0026469329796077051 -0.016567428059552643 0 0.002907921968047315 -0.016333195911793455 0 0.0026469329796077051 -0.016567428059552643 0 0.0030195763078845598 -0.017485036350854036 0 0.0035644293873954309 -0.016533174251709502 0 0.002907921968047315 -0.016333195911793455 0 0.0029699676877064517 -0.015767467270024049 0 0.0029699676877064517 -0.015767467270024049 0 0.0026605481334719488 -0.015601018272616589 0 0.0026278783463091343 -0.015789195171676242 0 0.0029699676877064517 -0.015767467270024049 0 0.0026261364189620238 -0.015362055554471284 0 0.0026229906549276329 -0.015435235430404204 0 0.0029699676877064517 -0.015767467270024049 0 0.0026605481334719488 -0.015601018272616589 0 0.0026229906549276329 -0.015435235430404204 0 0.0025763395821260136 -0.01546957226013667 0 0.0026605481334719488 -0.015601018272616589 0 0.0026229906549276329 -0.015435235430404204 0 0.0024973227998216661 -0.01600078389637713 0 0.002907921968047315 -0.016333195911793455 0 0.0026278783463091343 -0.015789195171676242 0 0.002907921968047315 -0.016333195911793455 0 0.0029699676877064517 -0.015767467270024049 0 0.0026278783463091343 -0.015789195171676242 0 0.0020999689741403576 -0.015016373854163163 0 0.0021539626175615229 -0.015460724630280144 0 0.0023450787344667656 -0.015530518256308813 0 0.0028120790529759855 -0.014058832062004662 0 0.0038340309221026945 -0.013927872561121489 0 0.0020999689741403576 -0.015016373854163163 0 0.0024755284137823576 -0.015456554490437079 0 0.0026319678384934468 -0.015420549291003033 0 0.0020999689741403576 -0.015016373854163163 0 0.0024755284137823576 -0.015456554490437079 0 0.0023450787344667656 -0.015530518256308813 0 0.0024973227998216661 -0.01600078389637713 0 0.0026278783463091343 -0.015789195171676242 0 0.0023450787344667656 -0.015530518256308813 0 0.0026278783463091343 -0.015789195171676242 0 0.0024755284137823576 -0.015456554490437079 0 0.0023450787344667656 -0.015530518256308813 0 0.0026605481334719488 -0.015601018272616589 0 0.0026278783463091343 -0.015789195171676242 0 0.0024755284137823576 -0.015456554490437079 0 0.0025763395821260136 -0.01546957226013667 0 0.0024755284137823576 -0.015456554490437079 0 0.0026319678384934468 -0.015420549291003033 0 0.0025763395821260136 -0.01546957226013667 0 0.0026605481334719488 -0.015601018272616589 0 0.0024755284137823576 -0.015456554490437079 0 0.0021539626175615229 -0.015460724630280144 0 0.0024973227998216661 -0.01600078389637713 0 0.0023450787344667656 -0.015530518256308813 0 0.0036170605793078487 -0.01308313204941956 0 0.0041311223159861115 -0.012181208509766029 0 0.0047418142812145061 -0.012762932742357984 0 0.0041311223159861115 -0.012181208509766029 0 0.0047418142812145061 -0.012762932742357984 0 0.0046632689367535375 -0.011900292967537252 0 0.0030661868582996608 -0.015557580966264336 0 0.0039563979421035648 -0.01464239853442658 0 0.0033597883431904108 -0.013686824192624207 0 0.0030661868582996608 -0.015557580966264336 0 0.0039563979421035648 -0.01464239853442658 0 0.0050535323001268161 -0.015127649972541233 0 0.0029699676877064517 -0.015767467270024049 0 0.0026261364189620238 -0.015362055554471284 0 0.0040952662436609649 -0.015204739379811432 0 0.0038340309221026945 -0.013927872561121489 0 0.0040906166299247608 -0.012272177545426661 0 0.0025763395821260136 -0.01546957226013667 0 0.0026319678384934468 -0.015420549291003033 0 0.0026229906549276329 -0.015435235430404204 0 0.0038340309221026945 -0.013927872561121489 0 0.0038318995823165415 -0.013934343095604165 0 0.0047418142812145061 -0.012762932742357984 0 0.0050067672866755241 -0.011236246989611585 0 0.0046632689367535375 -0.011900292967537252 0 0.0039563979421035648 -0.01464239853442658 0 0.0033597883431904108 -0.013686824192624207 0 0.0044969187372410476 -0.013882351569782713 0 0.0050067672866755241 -0.011236246989611585 0 0.004669537026107666 -0.011535512747007558 0 0.0044640495267763104 -0.011155201146390674 0 0.0050067672866755241 -0.011236246989611585 0 0.0046632689367535375 -0.011900292967537252 0 0.004669537026107666 -0.011535512747007558 0 0.0034784702115218547 -0.01163767942312304 0 0.0041311223159861115 -0.012181208509766029 0 0.0038801540392182929 -0.010830742110961643 0 0.0038107331488473725 -0.010947938353936162 0 0.0035446928555889893 -0.0098787749578052465 0 0.0041311223159861115 -0.012181208509766029 0 0.0044640495267763104 -0.011155201146390674 0 0.0036207576017027576 -0.010705018165638104 0 0.0041311223159861115 -0.012181208509766029 0 0.004669537026107666 -0.011535512747007558 0 0.0044640495267763104 -0.011155201146390674 0 0.0041311223159861115 -0.012181208509766029 0 0.0046632689367535375 -0.011900292967537252 0 0.004669537026107666 -0.011535512747007558 0 0.0066908807508113529 -0.014683488419106232 0 0.0050535323001268161 -0.015127649972541233 0 0.0058594374729618029 -0.013894869941698289 0 0.0058660289801297999 -0.015777325311800618 0 0.0066908807508113529 -0.014683488419106232 0 0.0040952662436609649 -0.015204739379811432 0 0.005434581935827327 -0.014435800198075169 0 0.0045406812625807856 -0.014439843059045235 0 0.0038340309221026945 -0.013927872561121489 0 0.0045406812625807856 -0.014439843059045235 0 0.0039563979421035648 -0.01464239853442658 0 0.0050535323001268161 -0.015127649972541233 0 0.0044969187372410476 -0.013882351569782713 0 0.0044969187372410476 -0.013882351569782713 0 0.0058594374729618029 -0.013894869941698289 0 0.0051137219545338061 -0.012903733744336851 0 0.0050535323001268161 -0.015127649972541233 0 0.0044969187372410476 -0.013882351569782713 0 0.0058594374729618029 -0.013894869941698289 0 0.0033597883431904108 -0.013686824192624207 0 0.0044969187372410476 -0.013882351569782713 0 0.0042480239859935664 -0.012830003885173717 0 0.0061558206797155185 -0.012871866612221195 0 0.0059182550554668723 -0.011773481028131336 0 0.007230038837015648 -0.012642480794118734 0 0.0058594374729618029 -0.013894869941698289 0 0.0061558206797155185 -0.012871866612221195 0 0.0064156681151040585 -0.013473081445190993 0 0.0061558206797155185 -0.012871866612221195 0 0.0051137219545338061 -0.012903733744336851 0 0.0059182550554668723 -0.011773481028131336 0 0.0058594374729618029 -0.013894869941698289 0 0.0061558206797155185 -0.012871866612221195 0 0.0051137219545338061 -0.012903733744336851 0 0.0044969187372410476 -0.013882351569782713 0 0.0051137219545338061 -0.012903733744336851 0 0.0042480239859935664 -0.012830003885173717 0 0.0051137219545338061 -0.012903733744336851 0 0.0042480239859935664 -0.012830003885173717 0 0.0047367324340526432 -0.011935818471651777 0 0.0047367324340526432 -0.011935818471651777 0 0.0035391699303570653 -0.011638288330597241 0 0.0049825880391367473 -0.010624664389044875 0 0.0042480239859935664 -0.012830003885173717 0 0.0047367324340526432 -0.011935818471651777 0 0.0035391699303570653 -0.011638288330597241 0 0.0047367324340526432 -0.011935818471651777 0 0.0059182550554668723 -0.011773481028131336 0 0.0049825880391367473 -0.010624664389044875 0 0.0059182550554668723 -0.011773481028131336 0 0.0063891221478446746 -0.010040514570595061 0 0.007565798006807279 -0.010920703391449689 0 0.0051137219545338061 -0.012903733744336851 0 0.0047367324340526432 -0.011935818471651777 0 0.0059182550554668723 -0.011773481028131336 0 0.0026934637793899728 -0.0089874167903945031 0 0.0042234202418190972 -0.0097540561901320322 0 0.0030537565367002011 -0.010443847301103077 0 0.0044640495267763104 -0.011155201146390674 0 0.0042234202418190972 -0.0097540561901320322 0 0.0030537565367002011 -0.010443847301103077 0 0.0038077617479665184 -0.010101345962052973 0 0.0035446928555889893 -0.0098787749578052465 0 0.0040906166299247608 -0.012272177545426661 0 0.0043475367607418791 -0.010282214813711492 0 0.0050067672866755241 -0.011236246989611585 0 0.0044640495267763104 -0.011155201146390674 0 0.0042234202418190972 -0.0097540561901320322 0 0.0050067672866755241 -0.011236246989611585 0 0.0042234202418190972 -0.0097540561901320322 0 0.0052059326531354675 -0.0089543808613373223 0 0.0033597883431904108 -0.013686824192624207 0 0.0042480239859935664 -0.012830003885173717 0 0.0035391699303570653 -0.011638288330597241 0 0.0042234202418190972 -0.0097540561901320322 0 0.0052059326531354675 -0.0089543808613373223 0 0.0036758156863094821 -0.0085074138159638522 0 0.0026934637793899728 -0.0089874167903945031 0 0.0042234202418190972 -0.0097540561901320322 0 0.0036758156863094821 -0.0085074138159638522 0 0.0023588374671295598 -0.0075982431323253202 0 0.0036758156863094821 -0.0085074138159638522 0 0.0038764346771515755 -0.0072874092486664667 0 0.0028624705859500383 -0.0073811342740853873 0 0.0031005425536575711 -0.0073465671935870744 0 0.0052059326531354675 -0.0089543808613373223 0 0.0036758156863094821 -0.0085074138159638522 0 0.0038764346771515755 -0.0072874092486664667 0 0.0043475367607418791 -0.010282214813711492 0 0.0046025297723505222 -0.0082197408517198194 0 0.0052059326531354675 -0.0089543808613373223 0 0.0038764346771515755 -0.0072874092486664667 0 0.0052667892929707518 -0.0069495341529335983 0 0.0038764346771515755 -0.0072874092486664667 0 0.0044390898987682293 -0.0061219018097670242 0 0.0052667892929707518 -0.0069495341529335983 0 0.0052353220149614259 -0.0053413176506389749 0 0.0044390898987682293 -0.0061219018097670242 0 0.0052667892929707518 -0.0069495341529335983 0 0.0038764346771515755 -0.0072874092486664667 0 0.0044390898987682293 -0.0061219018097670242 0 0.0034198256644208712 -0.0062915082611642555 0 0.0027057204253474261 -0.0074994377949068212 0 0.0038764346771515755 -0.0072874092486664667 0 0.0034198256644208712 -0.0062915082611642555 0 0.0059182550554668723 -0.011773481028131336 0 0.0063891221478446746 -0.010040514570595061 0 0.0049825880391367473 -0.010624664389044875 0 0.0063891221478446746 -0.010040514570595061 0 0.0049825880391367473 -0.010624664389044875 0 0.0053891196006941103 -0.0088006546826824884 0 0.0049825880391367473 -0.010624664389044875 0 0.0038435501097167615 -0.0091797745794551574 0 0.0053891196006941103 -0.0088006546826824884 0 0.0035391699303570653 -0.011638288330597241 0 0.0049825880391367473 -0.010624664389044875 0 0.0038435501097167615 -0.0091797745794551574 0 0.0048542834078371642 -0.0063828323504543242 0 0.0046025297723505222 -0.0082197408517198194 0 0.0043688724280424116 -0.0065515833908947286 0 0.0038435501097167615 -0.0091797745794551574 0 0.0053891196006941103 -0.0088006546826824884 0 0.0060668872837398311 -0.0076128724231157487 0 0.0053891196006941103 -0.0088006546826824884 0 0.0066390654123263124 -0.0086886121594688132 0 0.0063891221478446746 -0.010040514570595061 0 0.0053891196006941103 -0.0088006546826824884 0 0.0066390654123263124 -0.0086886121594688132 0 0.0060668872837398311 -0.0076128724231157487 0 0.0066390654123263124 -0.0086886121594688132 0 0.0071155819130026667 -0.0079044789163873596 0 0.0063891221478446746 -0.010040514570595061 0 0.0066390654123263124 -0.0086886121594688132 0 0.0080248100357622788 -0.0089051643901723945 0 0.0066390654123263124 -0.0086886121594688132 0 0.0071155819130026667 -0.0079044789163873596 0 0.0080248100357622788 -0.0089051643901723945 0 0.0079534199016433778 -0.0076834686918723707 0 0.0080248100357622788 -0.0089051643901723945 0 0.0087183978059683295 -0.0078747021992829017 0 0.0079534199016433778 -0.0076834686918723707 0 0.0071155819130026667 -0.0079044789163873596 0 0.0080248100357622788 -0.0089051643901723945 0 0.0080248100357622788 -0.0089051643901723945 0 0.0095837551820558593 -0.00840239875835605 0 0.0089983586171447378 -0.010014720518118508 0 0.0094669128057018204 -0.0073793304365811531 0 0.0095837551820558593 -0.00840239875835605 0 0.0087183978059683295 -0.0078747021992829017 0 0.0080248100357622788 -0.0089051643901723945 0 0.0095837551820558593 -0.00840239875835605 0 0.0087183978059683295 -0.0078747021992829017 0 0.0063891221478446746 -0.010040514570595061 0 0.0080248100357622788 -0.0089051643901723945 0 0.007565798006807279 -0.010920703391449689 0 0.0080248100357622788 -0.0089051643901723945 0 0.0089983586171447378 -0.010014720518118508 0 0.007565798006807279 -0.010920703391449689 0 0.0059182550554668723 -0.011773481028131336 0 0.007565798006807279 -0.010920703391449689 0 0.007230038837015648 -0.012642480794118734 0 0.007565798006807279 -0.010920703391449689 0 0.009058473594616933 -0.012258194020911359 0 0.007230038837015648 -0.012642480794118734 0 0.0089983586171447378 -0.010014720518118508 0 0.007565798006807279 -0.010920703391449689 0 0.009058473594616933 -0.012258194020911359 0 0.0089983586171447378 -0.010014720518118508 0 0.009058473594616933 -0.012258194020911359 0 0.010582265992575538 -0.011116323116650574 0 0.00853563516570152 -0.01478741657902821 0 0.009058473594616933 -0.012258194020911359 0 0.007230038837015648 -0.012642480794118734 0 0.00853563516570152 -0.01478741657902821 0 0.009058473594616933 -0.012258194020911359 0 0.011375081658434238 -0.013025309405400139 0 0.0082466473143938731 -0.015216217165339467 0 0.0077743695323617438 -0.01408987136812649 0 0.00853563516570152 -0.01478741657902821 0 0.0084521968333444771 -0.015608954944733664 0 0.007230038837015648 -0.012642480794118734 0 0.0067432415276733586 -0.013881095264350895 0 0.0064156681151040585 -0.013473081445190993 0 0.007230038837015648 -0.012642480794118734 0 0.0061558206797155185 -0.012871866612221195 0 0.0064156681151040585 -0.013473081445190993 0 0.007230038837015648 -0.012642480794118734 0 0.011375081658434238 -0.013025309405400139 0 0.010582265992575538 -0.011116323116650574 0 0.014498877800948468 -0.011496402513447716 0 0.01208100445928606 -0.013033003488014776 0 0.014627235664092979 -0.013383636141554746 0 0.014906558101918139 -0.01558013796141001 0 0.010187153093150953 -0.013952256084242748 0 0.011914560067617526 -0.012999152149892276 0 0.009058473594616933 -0.012258194020911359 0 0.011375081658434238 -0.013025309405400139 0 0.010582265992575538 -0.011116323116650574 0 0.011914560067617526 -0.012999152149892276 0 0.014746733243127679 -0.011455187750893301 0 0.01208100445928606 -0.013033003488014776 0 0.014627235664092979 -0.013383636141554746 0 0.015302663866804529 -0.011381396570794112 0 0.010582265992575538 -0.011116323116650574 0 0.011364390661831699 -0.0092895840974254861 0 0.014498877800948468 -0.011496402513447716 0 0.0095837551820558593 -0.00840239875835605 0 0.0089983586171447378 -0.010014720518118508 0 0.011364390661831699 -0.0092895840974254861 0 0.0089983586171447378 -0.010014720518118508 0 0.010582265992575538 -0.011116323116650574 0 0.011364390661831699 -0.0092895840974254861 0 0.010802862766855296 -0.0072294241451082925 0 0.0095837551820558593 -0.00840239875835605 0 0.011364390661831699 -0.0092895840974254861 0 0.010802862766855296 -0.0072294241451082925 0 0.011364390661831699 -0.0092895840974254861 0 0.012288708595842631 -0.0078279273192365696 0 0.011364390661831699 -0.0092895840974254861 0 0.012288708595842631 -0.0078279273192365696 0 0.013505940573691873 -0.008653958669528318 0 0.013196433486880614 -0.011622921386121915 0 0.014123307658833109 -0.012483228810305409 0 0.013582748856552761 -0.0074538982180923198 0 0.012288708595842631 -0.0078279273192365696 0 0.013505940573691873 -0.008653958669528318 0 0.011364390661831699 -0.0092895840974254861 0 0.015071876674682969 -0.0083460827933134005 0 0.014498877800948468 -0.011496402513447716 0 0.015071876674682969 -0.0083460827933134005 0 0.018220172804804993 -0.0096243327977264311 0 0.014498877800948468 -0.011496402513447716 0 0.016503696041338417 -0.010486925468597478 0 0.014746733243127679 -0.011455187750893301 0 0.014390364255499371 -0.0075128158439058419 0 0.013505940573691873 -0.008653958669528318 0 0.015408154332488251 -0.0081823395551588341 0 0.015071876674682969 -0.0083460827933134005 0 0.01904036682305079 -0.0075438909201341487 0 0.018220172804804993 -0.0096243327977264311 0 0.014390364255499371 -0.0075128158439058419 0 0.013582748856552761 -0.0074538982180923198 0 0.013505940573691873 -0.008653958669528318 0 0.014123307658833109 -0.012483228810305409 0 0.010904802734876108 -0.017236844590250003 0 0.010247370254881333 -0.025962767849627741 0 0.0093043190335004126 -0.025395511260444412 0 0.0099763731594612742 -0.024721124328835178 0 0.010247370254881333 -0.025962767849627741 0 0.008910989468882918 -0.026273090403639062 0 0.0093043190335004126 -0.025395511260444412 0 0.010904802734876108 -0.017236844590250003 0 0.0076685205103944852 -0.02349513515832044 0 0.0093043190335004126 -0.025395511260444412 0 0.0090055317716153938 -0.024503720564891918 0 0.0099763731594612742 -0.024721124328835178 0 0.01904036682305079 -0.0075438909201341487 0 0.019576579295397488 -0.010312438837390669 0 0.018220172804804993 -0.0096243327977264311 0 0.019576579295397488 -0.010312438837390669 0 0.018220172804804993 -0.0096243327977264311 0 0.017962575313798974 -0.011936348182215967 0 0.010904802734876108 -0.017236844590250003 0 0.011510637863955755 -0.019836892171888512 0 0.019576579295397488 -0.010312438837390669 0 0.020144934484077122 -0.012789447608107834 0 0.017962575313798974 -0.011936348182215967 0 0.020144934484077122 -0.012789447608107834 0 0.017962575313798974 -0.011936348182215967 0 0.018275984064145032 -0.015722842963882898 0 0.011510637863955755 -0.019836892171888512 0 0.011368321353239442 -0.025765488853553981 0 0.0090055317716153938 -0.024503720564891918 0 0.0099763731594612742 -0.024721124328835178 0 0.0097186347853001967 -0.023491766157294994 0 0.0076198471800233477 -0.031028156433596629 0 0.011368321353239442 -0.025765488853553981 0 0.0063650404754234009 -0.043926344806497104 0 0.0073848550136906927 -0.04258962221452374 0 0.005929352965519866 -0.042858001927539094 0 0.011368321353239442 -0.025765488853553981 0 0.0099885390411916866 -0.031569778893929243 0 0.0073848550136906927 -0.04258962221452374 0 0.0059267264346056919 -0.041573882569287207 0 0.0070001514839838058 -0.040492762652329845 0 0.0073848550136906927 -0.04258962221452374 0 0.005929352965519866 -0.042858001927539094 0 0.0059267264346056919 -0.041573882569287207 0 0.011368321353239442 -0.025765488853553981 0 0.015769613983381468 -0.019845354587543353 0 0.016190154211132918 -0.013579695234170795 0 0.017962575313798974 -0.011936348182215967 0 0.018275984064145032 -0.015722842963882898 0 0.014627235664092979 -0.013383636141554746 0 0.016190154211132918 -0.013579695234170795 0 0.014906558101918139 -0.01558013796141001 0 0.014627235664092979 -0.013383636141554746 0 0.016190154211132918 -0.013579695234170795 0 0.015302663866804529 -0.011381396570794112 0 0.018220172804804993 -0.0096243327977264311 0 0.015302663866804529 -0.011381396570794112 0 0.017962575313798974 -0.011936348182215967 0 0.016190154211132918 -0.013579695234170795 0 0.015302663866804529 -0.011381396570794112 0 0.017962575313798974 -0.011936348182215967 0 0.0029278859705215011 -0.044866853250470413 0 0.0037101493355366586 -0.044111567583543392 0 0.0023404671022095448 -0.043805327111130145 0 0.0021255045550631546 -0.044639524377474066 0 0.0029278859705215011 -0.044866853250470413 0 0.0023404671022095448 -0.043805327111130145 0 0.0022966620046346864 -0.045291215233826725 0 0.0021255045550631546 -0.044639524377474066 0 0.0029278859705215011 -0.044866853250470413 0 0.0022966620046346864 -0.045291215233826725 0 0.0029278859705215011 -0.044866853250470413 0 0.0027951239651550007 -0.045532224350065965 0 0.0023088579032551067 -0.045960287771101178 0 0.0022966620046346864 -0.045291215233826725 0 0.0027951239651550007 -0.045532224350065965 0 0.0031978252511868756 -0.045722061553529349 0 0.0027951239651550007 -0.045532224350065965 0 0.0032348420064110782 -0.045406430254525197 0 0.0029278859705215011 -0.044866853250470413 0 0.0027951239651550007 -0.045532224350065965 0 0.0032348420064110782 -0.045406430254525197 0 0.0029278859705215011 -0.044866853250470413 0 0.0032348420064110782 -0.045406430254525197 0 0.0037025038105542398 -0.045183098295822705 0 0.0032348420064110782 -0.045406430254525197 0 0.0035454012193956172 -0.045677213226376218 0 0.0037025038105542398 -0.045183098295822705 0 0.0031978252511868756 -0.045722061553529349 0 0.0032348420064110782 -0.045406430254525197 0 0.0035454012193956172 -0.045677213226376218 0 0.0035454012193956172 -0.045677213226376218 0 0.0039032929884852442 -0.045652768387805368 0 0.0037025038105542398 -0.045183098295822705 0 0.0039032929884852442 -0.045652768387805368 0 0.0037025038105542398 -0.045183098295822705 0 0.0044032598889854214 -0.045368699504203407 0 0.0037025038105542398 -0.045183098295822705 0 0.0037101493355366586 -0.044111567583543392 0 0.0043684650292682963 -0.044813682601787794 0 0.0029278859705215011 -0.044866853250470413 0 0.0037025038105542398 -0.045183098295822705 0 0.0037101493355366586 -0.044111567583543392 0 0.0036195664985543803 -0.043919225810808017 0 0.0053207276518749194 -0.044443674372043537 0 0.0048809954386798719 -0.043239483257925301 0 0.0037101493355366586 -0.044111567583543392 0 0.0043684650292682963 -0.044813682601787794 0 0.0053207276518749194 -0.044443674372043537 0 0.0035794651134303519 -0.044043104898410179 0 0.0043517116557441416 -0.044254974788442411 0 0.0043684650292682963 -0.044813682601787794 0 0.0048818288399625929 -0.044897642831309433 0 0.0053207276518749194 -0.044443674372043537 0 0.0053857699661347298 -0.029838237582661603 0 0.0058833995354739665 -0.032159340833905356 0 0.0037025038105542398 -0.045183098295822705 0 0.0043684650292682963 -0.044813682601787794 0 0.0044032598889854214 -0.045368699504203407 0 0.0045137266050506017 -0.045947162611138105 0 0.0044032598889854214 -0.045368699504203407 0 0.0053506226256602009 -0.04506496158766507 0 0.0041165990933373425 -0.045983229328882436 0 0.0039032929884852442 -0.045652768387805368 0 0.0044032598889854214 -0.045368699504203407 0 0.0044032598889854214 -0.045368699504203407 0 0.0048818288399625929 -0.044897642831309433 0 0.0053506226256602009 -0.04506496158766507 0 0.0043684650292682963 -0.044813682601787794 0 0.0044032598889854214 -0.045368699504203407 0 0.0048818288399625929 -0.044897642831309433 0 0.0075456435976046093 -0.026580087138212909 0 0.008910989468882918 -0.026273090403639062 0 0.0082772747182142999 -0.025529023124173492 0 0.008910989468882918 -0.026273090403639062 0 0.0093043190335004126 -0.025395511260444412 0 0.0082772747182142999 -0.025529023124173492 0 0.0076198471800233477 -0.031028156433596629 0 0.0058833995354739665 -0.032159340833905356 0 0.0063650404754234009 -0.043926344806497104 0 0.0053506226256602009 -0.04506496158766507 0 0.0053207276518749194 -0.044443674372043537 0 0.0093043190335004126 -0.025395511260444412 0 0.0090055317716153938 -0.024503720564891918 0 0.0082772747182142999 -0.025529023124173492 0 0.0048818288399625929 -0.044897642831309433 0 0.0053506226256602009 -0.04506496158766507 0 0.0053207276518749194 -0.044443674372043537 0 0.0063650404754234009 -0.043926344806497104 0 0.0053207276518749194 -0.044443674372043537 0 0.0056194637254850617 -0.043622637046554481 0 0.0053207276518749194 -0.044443674372043537 0 0.0056194637254850617 -0.043622637046554481 0 0.0048809954386798719 -0.043239483257925301 0 0.0063650404754234009 -0.043926344806497104 0 0.0056194637254850617 -0.043622637046554481 0 0.005929352965519866 -0.042858001927539094 0 0.0056194637254850617 -0.043622637046554481 0 0.005929352965519866 -0.042858001927539094 0 0.0048809954386798719 -0.043239483257925301 0 0.005929352965519866 -0.042858001927539094 0 0.0050343332945661417 -0.042322808557034006 0 0.0048809954386798719 -0.043239483257925301 0 0.005929352965519866 -0.042858001927539094 0 0.0059267264346056919 -0.041573882569287207 0 0.0050343332945661417 -0.042322808557034006 0 0.0059267264346056919 -0.041573882569287207 0 0.0050343332945661417 -0.042322808557034006 0 0.0046757097767042288 -0.041324168934531454 0 0.0050343332945661417 -0.042322808557034006 0 0.0039986699180915401 -0.042418051010585454 0 0.0048809954386798719 -0.043239483257925301 0 0.0050343332945661417 -0.042322808557034006 0 0.0039986699180915401 -0.042418051010585454 0 0.0046757097767042288 -0.041324168934531454 0 0.0039986699180915401 -0.042418051010585454 0 0.0040182053245560881 -0.041372388445822625 0 0.0046757097767042288 -0.041324168934531454 0 0.0036195664985543803 -0.043919225810808017 0 0.0039986699180915401 -0.042418051010585454 0 0.0048809954386798719 -0.043239483257925301 0 0.0036195664985543803 -0.043919225810808017 0 0.0039986699180915401 -0.042418051010585454 0 0.0029396802730495223 -0.042929551071028957 0 0.0039986699180915401 -0.042418051010585454 0 0.0029908961280917155 -0.041926144841799365 0 0.0040182053245560881 -0.041372388445822625 0 0.0039986699180915401 -0.042418051010585454 0 0.0029396802730495223 -0.042929551071028957 0 0.0029908961280917155 -0.041926144841799365 0 0.001673307339785072 -0.042607006589774093 0 0.0029396802730495223 -0.042929551071028957 0 0.0029908961280917155 -0.041926144841799365 0 0.001673307339785072 -0.042607006589774093 0 0.0029396802730495223 -0.042929551071028957 0 0.0021249541597365275 -0.043562608512564154 0 0.0035794651134303519 -0.044043104898410179 0 0.0023429453404603456 -0.043718987826768592 0 0.0036195664985543803 -0.043919225810808017 0 0.0029396802730495223 -0.042929551071028957 0 0.0021249541597365275 -0.043562608512564154 0 0.0012968913787838581 -0.041114467794851596 0 0.0029908961280917155 -0.041926144841799365 0 0.0032862050226667838 -0.040632073883782809 0 0.0012968913787838581 -0.041114467794851596 0 0.0021356810233005541 -0.039565205626952663 0 0.0032862050226667838 -0.040632073883782809 0 0.0032149512644717021 -0.040830841193969077 0 0.0033093896875934867 -0.039999815827774052 0 0.0029908961280917155 -0.041926144841799365 0 0.0040182053245560881 -0.041372388445822625 0 0.0031641490239356761 -0.039898613514311031 0 0.0031641490239356761 -0.039898613514311031 0 0.0044057300710036414 -0.040323171166962768 0 0.0045921030167888847 -0.038803354997107076 0 0.0040182053245560881 -0.041372388445822625 0 0.0031641490239356761 -0.039898613514311031 0 0.0044057300710036414 -0.040323171166962768 0 0.0044057300710036414 -0.040323171166962768 0 0.0055606490105990529 -0.039674649610951872 0 0.0045921030167888847 -0.038803354997107076 0 0.0044057300710036414 -0.040323171166962768 0 0.0046757097767042288 -0.041324168934531454 0 0.0055606490105990529 -0.039674649610951872 0 0.0040182053245560881 -0.041372388445822625 0 0.0044057300710036414 -0.040323171166962768 0 0.0046757097767042288 -0.041324168934531454 0 0.0046757097767042288 -0.041324168934531454 0 0.0060671851496372333 -0.039019287148945057 0 0.00525803172117233 -0.035826524936209352 0 0.0059267264346056919 -0.041573882569287207 0 0.0046757097767042288 -0.041324168934531454 0 0.0060671851496372333 -0.039019287148945057 0 0.0059267264346056919 -0.041573882569287207 0 0.0060671851496372333 -0.039019287148945057 0 0.0083489727739323987 -0.039102740986860049 0 0.0060671851496372333 -0.039019287148945057 0 0.0064787270067379193 -0.037217405742559037 0 0.0083489727739323987 -0.039102740986860049 0 0.0051953479602662072 -0.039335334121619082 0 0.0055968364417428151 -0.037778860508279118 0 0.0060671851496372333 -0.039019287148945057 0 0.0064787270067379193 -0.037217405742559037 0 0.00525803172117233 -0.035826524936209352 0 0.0064787270067379193 -0.037217405742559037 0 0.00525803172117233 -0.035826524936209352 0 0.0069519605273392513 -0.03554667085811461 0 0.00525803172117233 -0.035826524936209352 0 0.0063111387227477167 -0.033273055175544297 0 0.0069519605273392513 -0.03554667085811461 0 0.0055606490105990529 -0.039674649610951872 0 0.0062876612069667111 -0.037543729534189711 0 0.0045921030167888847 -0.038803354997107076 0 0.0055968364417428151 -0.037778860508279118 0 0.0062254806986007591 -0.035668106777589921 0 0.0062876612069667111 -0.037543729534189711 0 0.0045921030167888847 -0.038803354997107076 0 0.0046221647297137831 -0.03726908978520152 0 0.0031641490239356761 -0.039898613514311031 0 0.0045921030167888847 -0.038803354997107076 0 0.0034324267474306566 -0.038052651325796341 0 0.0033093896875934867 -0.039999815827774052 0 0.0034815160710487936 -0.038532898232996347 0 0.0045921030167888847 -0.038803354997107076 0 0.0034324267474306566 -0.038052651325796341 0 0.0046221647297137831 -0.03726908978520152 0 0.0021356810233005541 -0.039565205626952663 0 0.003695980936499828 -0.038706596285738894 0 0.0025503788607747634 -0.037803510805354296 0 0.0021356810233005541 -0.039565205626952663 0 0.0032862050226667838 -0.040632073883782809 0 0.003695980936499828 -0.038706596285738894 0 0.015322374686677387 -0.021612982195653729 0 0.01533287810053223 -0.021530945948057961 0 0.015231371506708591 -0.021518883733750663 0 0.014906558101918139 -0.01558013796141001 0 0.018275984064145032 -0.015722842963882898 0 0.016422812841775894 -0.018841846979575191 0 0.015769613983381468 -0.019845354587543353 0 0.015568931788742591 -0.020384702046218797 0 0.014345039238847643 -0.017563951787321189 0 0.013188937149226776 -0.01898642217273298 0 0.016422812841775894 -0.018841846979575191 0 0.014345039238847643 -0.017563951787321189 0 0.014906558101918139 -0.01558013796141001 0 0.016422812841775894 -0.018841846979575191 0 0.016190154211132918 -0.013579695234170795 0 0.014906558101918139 -0.01558013796141001 0 0.018275984064145032 -0.015722842963882898 0 0.015171608570779758 -0.021845851195471434 0 0.015322374686677387 -0.021612982195653729 0 0.015152189941234798 -0.021621102247350515 0 0.0075278434520085384 -0.034858184369596451 0 0.0099885390411916866 -0.031569778893929243 0 0.0064787270067379193 -0.037217405742559037 0 0.0083489727739323987 -0.039102740986860049 0 0.0069519605273392513 -0.03554667085811461 0 0.0099885390411916866 -0.031569778893929243 0 0.0098656480245476862 -0.033505417638275928 0 0.0071496717573319157 -0.036354216583305107 0 0.0069519605273392513 -0.03554667085811461 0 0.0080563516753451234 -0.035189826484162981 0 0.015322374686677387 -0.021612982195653729 0 0.015152189941234798 -0.021621102247350515 0 0.01533287810053223 -0.021530945948057961 0 0.0099885390411916866 -0.031569778893929243 0 0.011570776596814653 -0.029131598535857908 0 0.0080563516753451234 -0.035189826484162981 0 0.0074441062702831325 -0.034269414580134439 0 0.0080151116350393077 -0.033902299549102816 0 0.0069519605273392513 -0.03554667085811461 0 0.0080563516753451234 -0.035189826484162981 0 0.0074441062702831325 -0.034269414580134439 0 0.0063111387227477167 -0.033273055175544297 0 0.0069519605273392513 -0.03554667085811461 0 0.0074441062702831325 -0.034269414580134439 0 0.0063111387227477167 -0.033273055175544297 0 0.0074441062702831325 -0.034269414580134439 0 0.007500131690799685 -0.033100950912548492 0 0.0074441062702831325 -0.034269414580134439 0 0.0080151116350393077 -0.033902299549102816 0 0.007500131690799685 -0.033100950912548492 0 0.0080151116350393077 -0.033902299549102816 0 0.0080966658533588951 -0.032999039008639014 0 0.007500131690799685 -0.033100950912548492 0 0.0080151116350393077 -0.033902299549102816 0 0.0088613587784145895 -0.033785347668588178 0 0.0080966658533588951 -0.032999039008639014 0 0.011570776596814653 -0.029131598535857908 0 0.011907025255895749 -0.028379190676103984 0 0.01533287810053223 -0.021530945948057961 0 0.015234350642731541 -0.021933790498070371 0 0.015231371506708591 -0.021518883733750663 0 0.0080563516753451234 -0.035189826484162981 0 0.0080151116350393077 -0.033902299549102816 0 0.0088613587784145895 -0.033785347668588178 0 0.014997876515980925 -0.021309502746332705 0 0.015568931788742591 -0.020384702046218797 0 0.013162176036805529 -0.020843979696271251 0 0.014493710959187361 -0.022342507096411026 0 0.016422812841775894 -0.018841846979575191 0 0.011907025255895749 -0.028379190676103984 0 0.011651888764413011 -0.02842041562012913 0 0.014493710959187361 -0.022342507096411026 0 0.015234350642731541 -0.021933790498070371 0 0.014556572653036918 -0.023522142786138723 0 0.014493710959187361 -0.022342507096411026 0 0.015234350642731541 -0.021933790498070371 0 0.015231371506708591 -0.021518883733750663 0 0.0088613587784145895 -0.033785347668588178 0 0.0092740306574209085 -0.032115581232908259 0 0.0084832332598950549 -0.032202838543997858 0 0.0088613587784145895 -0.033785347668588178 0 0.0092740306574209085 -0.032115581232908259 0 0.010170021694985421 -0.032194736172603051 0 0.0092740306574209085 -0.032115581232908259 0 0.0092329723347150013 -0.031294043828948785 0 0.0084832332598950549 -0.032202838543997858 0 0.0092740306574209085 -0.032115581232908259 0 0.0092329723347150013 -0.031294043828948785 0 0.0098974480335092541 -0.031006340364153302 0 0.0092329723347150013 -0.031294043828948785 0 0.0080606741920810961 -0.031361042906635959 0 0.010507056704716354 -0.029765618974963822 0 0.0092329723347150013 -0.031294043828948785 0 0.0084832332598950549 -0.032202838543997858 0 0.0080606741920810961 -0.031361042906635959 0 0.0077748788436914429 -0.032225800734710895 0 0.0075730165498307288 -0.031980440454880361 0 0.0080606741920810961 -0.031361042906635959 0 0.0084832332598950549 -0.032202838543997858 0 0.0077748788436914429 -0.032225800734710895 0 0.0080606741920810961 -0.031361042906635959 0 0.0088613587784145895 -0.033785347668588178 0 0.0084832332598950549 -0.032202838543997858 0 0.0080966658533588951 -0.032999039008639014 0 0.0084832332598950549 -0.032202838543997858 0 0.0080966658533588951 -0.032999039008639014 0 0.0077748788436914429 -0.032225800734710895 0 0.007500131690799685 -0.033100950912548492 0 0.0070775016269488591 -0.032076074605587451 0 0.0077748788436914429 -0.032225800734710895 0 0.0080966658533588951 -0.032999039008639014 0 0.007500131690799685 -0.033100950912548492 0 0.0077748788436914429 -0.032225800734710895 0 0.0063111387227477167 -0.033273055175544297 0 0.007500131690799685 -0.033100950912548492 0 0.0070775016269488591 -0.032076074605587451 0 0.0070775016269488591 -0.032076074605587451 0 0.0077748788436914429 -0.032225800734710895 0 0.0075730165498307288 -0.031980440454880361 0 0.0075730165498307288 -0.031980440454880361 0 0.0072160444900974726 -0.032654074262044822 0 0.0075981403621573993 -0.032153425302947965 0 0.0070775016269488591 -0.032076074605587451 0 0.0075730165498307288 -0.031980440454880361 0 0.0072160444900974726 -0.032654074262044822 0 0.0067368155103874035 -0.034050544723804331 0 0.006945594352970515 -0.033348585372710071 0 0.0072160444900974726 -0.032654074262044822 0 0.0075981403621573993 -0.032153425302947965 0 0.007455106285606276 -0.032201737430051072 0 0.0075981403621573993 -0.032153425302947965 0 0.0076548862791565976 -0.032129727622606657 0 0.007455106285606276 -0.032201737430051072 0 0.0075981403621573993 -0.032153425302947965 0 0.0076548862791565976 -0.032129727622606657 0 0.0077085972286025962 -0.032027452274720244 0 0.0075981403621573993 -0.032153425302947965 0 0.0077085972286025962 -0.032027452274720244 0 0.0077814341469742247 -0.031864666183001988 0 0.0077085972286025962 -0.032027452274720244 0 0.0076267782972778446 -0.032153338498114505 0 0.0077109245803123816 -0.031836150815870413 0 0.0076548862791565976 -0.032129727622606657 0 0.0077085972286025962 -0.032027452274720244 0 0.0076267782972778446 -0.032153338498114505 0 0.0076548862791565976 -0.032129727622606657 0 0.0076267782972778446 -0.032153338498114505 0 0.0076335512198200742 -0.032113130496698207 0 0.0028155769713057669 -0.033348374219049771 0 0.0037845443041835927 -0.03318438409106355 0 0.0074236139955074628 -0.032175080623148264 0 0.007302360088835831 -0.031570450222151061 0 0.0071582432450937282 -0.031940732231140925 0 0.0074236139955074628 -0.032175080623148264 0 0.0072764168111230758 -0.032278726970933307 0 0.0071582432450937282 -0.031940732231140925 0 0.007302360088835831 -0.031570450222151061 0 0.0080606741920810961 -0.031361042906635959 0 0.0069220641601053052 -0.031341592968529258 0 0.0076267782972778446 -0.032153338498114505 0 0.0077109245803123816 -0.031836150815870413 0 0.007302360088835831 -0.031570450222151061 0 0.0083031415388392666 -0.027464182787018121 0 0.0076408168611409207 -0.026490950844705353 0 0.0077109245803123816 -0.031836150815870413 0 0.007302360088835831 -0.031570450222151061 0 0.0080606741920810961 -0.031361042906635959 0 0.0075730165498307288 -0.031980440454880361 0 0.0080606741920810961 -0.031361042906635959 0 0.0077814341469742247 -0.031864666183001988 0 0.0075730165498307288 -0.031980440454880361 0 0.0075981403621573993 -0.032153425302947965 0 0.0077814341469742247 -0.031864666183001988 0 0.0077085972286025962 -0.032027452274720244 0 0.0077109245803123816 -0.031836150815870413 0 0.0077814341469742247 -0.031864666183001988 0 0.0077109245803123816 -0.031836150815870413 0 0.0080606741920810961 -0.031361042906635959 0 0.0077814341469742247 -0.031864666183001988 0 0.0020539769321056634 -0.036561886615786285 0 0.0038076537600256143 -0.036297915634300085 0 0.0033853482998399396 -0.034882427294166247 0 0.0020539769321056634 -0.036561886615786285 0 0.0015855674340687577 -0.035009449755137083 0 0.0033853482998399396 -0.034882427294166247 0 0.003695980936499828 -0.038706596285738894 0 0.0025503788607747634 -0.037803510805354296 0 0.0038076537600256143 -0.036297915634300085 0 0.0020539769321056634 -0.036561886615786285 0 0.0025503788607747634 -0.037803510805354296 0 0.0038076537600256143 -0.036297915634300085 0 0.0034815160710487936 -0.038532898232996347 0 0.0035805488368939975 -0.037617726170218704 0 0.0034324267474306566 -0.038052651325796341 0 0.0038076537600256143 -0.036297915634300085 0 0.0046221647297137831 -0.03726908978520152 0 0.0038076537600256143 -0.036297915634300085 0 0.0051137809589945774 -0.035694385198455324 0 0.0033853482998399396 -0.034882427294166247 0 0.0038076537600256143 -0.036297915634300085 0 0.0051137809589945774 -0.035694385198455324 0 0.0046221647297137831 -0.03726908978520152 0 0.0062876612069667111 -0.037543729534189711 0 0.0051137809589945774 -0.035694385198455324 0 0.0046221647297137831 -0.03726908978520152 0 0.0062254806986007591 -0.035668106777589921 0 0.0067368155103874035 -0.034050544723804331 0 0.0062876612069667111 -0.037543729534189711 0 0.0068724710594623029 -0.035306666454616963 0 0.0051137809589945774 -0.035694385198455324 0 0.0068724710594623029 -0.035306666454616963 0 0.0072160444900974726 -0.032654074262044822 0 0.005056942502567152 -0.03379322157080656 0 0.0072160444900974726 -0.032654074262044822 0 0.005056942502567152 -0.03379322157080656 0 0.0061891680027539959 -0.032365311264615844 0 0.0068724710594623029 -0.035306666454616963 0 0.0051137809589945774 -0.035694385198455324 0 0.005056942502567152 -0.03379322157080656 0 0.005056942502567152 -0.03379322157080656 0 0.0047115138662513611 -0.032531560779106329 0 0.0061891680027539959 -0.032365311264615844 0 0.0051137809589945774 -0.035694385198455324 0 0.005056942502567152 -0.03379322157080656 0 0.0033853482998399396 -0.034882427294166247 0 0.005056942502567152 -0.03379322157080656 0 0.0028087839868294212 -0.033315845120464246 0 0.0033853482998399396 -0.034882427294166247 0 0.005056942502567152 -0.03379322157080656 0 0.0028087839868294212 -0.033315845120464246 0 0.0047115138662513611 -0.032531560779106329 0 0.0015855674340687577 -0.035009449755137083 0 0.0028087839868294212 -0.033315845120464246 0 0.0033853482998399396 -0.034882427294166247 0 0.0038819311581111304 -0.03187932462218699 0 0.0039528263698142543 -0.03212003734016803 0 0.0041775409582209761 -0.031602099079857573 0 0.0036284023005625898 -0.032225531751060028 0 0.0038819311581111304 -0.03187932462218699 0 0.0039528263698142543 -0.03212003734016803 0 0.0036284023005625898 -0.032225531751060028 0 0.0038023348914387458 -0.032680312543845125 0 0.0039528263698142543 -0.03212003734016803 0 0.0032381578398707174 -0.033467153300054578 0 0.0035352871561001643 -0.032883874758743631 0 0.0028087839868294212 -0.033315845120464246 0 0.0039528263698142543 -0.03212003734016803 0 0.0047115138662513611 -0.032531560779106329 0 0.0039528263698142543 -0.03212003734016803 0 0.0048080043655677274 -0.031781282395924301 0 0.0041775409582209761 -0.031602099079857573 0 0.0039528263698142543 -0.03212003734016803 0 0.0048080043655677274 -0.031781282395924301 0 0.0047115138662513611 -0.032531560779106329 0 0.0048080043655677274 -0.031781282395924301 0 0.0047115138662513611 -0.032531560779106329 0 0.0055500516299575335 -0.031966994773769297 0 0.0048080043655677274 -0.031781282395924301 0 0.0055500516299575335 -0.031966994773769297 0 0.0056293025097351309 -0.031531297860490366 0 0.0047115138662513611 -0.032531560779106329 0 0.0061891680027539959 -0.032365311264615844 0 0.0055500516299575335 -0.031966994773769297 0 0.0061891680027539959 -0.032365311264615844 0 0.006288581312515207 -0.031767484063049932 0 0.0055500516299575335 -0.031966994773769297 0 0.006288581312515207 -0.031767484063049932 0 0.0056293025097351309 -0.031531297860490366 0 0.0065231417595736901 -0.031174655473150896 0 0.006288581312515207 -0.031767484063049932 0 0.0055500516299575335 -0.031966994773769297 0 0.0056293025097351309 -0.031531297860490366 0 0.0015401243518769862 -0.032390362234771201 0 0.00011673218598015777 -0.032512090740840452 0 0.0056293025097351309 -0.031531297860490366 0 0.0050019341379884822 -0.031083358892871303 0 0.0065231417595736901 -0.031174655473150896 0 -0.0036060728489765957 -0.032304171539859837 0 -0.0020534425403956605 -0.031915653741441369 0 -0.0048126381952878234 -0.030988000559316522 0 -0.0036060728489765957 -0.032304171539859837 0 -0.0033564428154008127 -0.033745189136731378 0 -0.0053938451107905204 -0.031772099465603901 0 -0.0036060728489765957 -0.032304171539859837 0 -0.0033564428154008127 -0.033745189136731378 0 -0.0023806594030920374 -0.033135525621784581 0 -0.0033564428154008127 -0.033745189136731378 0 -0.0023806594030920374 -0.033135525621784581 0 -0.0022327177265544259 -0.034387349528060038 0 -0.0036060728489765957 -0.032304171539859837 0 -0.0023806594030920374 -0.033135525621784581 0 -0.0020534425403956605 -0.031915653741441369 0 -0.0010856932885441371 -0.033340150609835445 0 -0.0020534425403956605 -0.031915653741441369 0 0.0012181050204584183 -0.032862939200823962 0 -0.0023806594030920374 -0.033135525621784581 0 -0.0010856932885441371 -0.033340150609835445 0 -0.0020534425403956605 -0.031915653741441369 0 -0.0023806594030920374 -0.033135525621784581 0 -0.0010856932885441371 -0.033340150609835445 0 -0.0022327177265544259 -0.034387349528060038 0 0.0048080043655677274 -0.031781282395924301 0 0.0050019341379884822 -0.031083358892871303 0 0.0041775409582209761 -0.031602099079857573 0 0.0048080043655677274 -0.031781282395924301 0 0.0056293025097351309 -0.031531297860490366 0 0.0050019341379884822 -0.031083358892871303 0 0.0050019341379884822 -0.031083358892871303 0 0.0041775409582209761 -0.031602099079857573 0 0.003812068837693213 -0.031732195900377444 0 0.0015401243518769862 -0.032390362234771201 0 0.003044532026517202 -0.032843490283166979 0 -0.0010856932885441371 -0.033340150609835445 0 0.0012181050204584183 -0.032862939200823962 0 7.4712391788894214e-05 -0.034445155705444382 0 0.0012181050204584183 -0.032862939200823962 0 0.0035614217477913969 -0.034147812507418052 0 0.0054426525641001347 -0.034234242665570916 0 0.003044532026517202 -0.032843490283166979 0 0.0042939115139482885 -0.033376257463734169 0 0.004955867802289622 -0.032449401331826541 0 0.003812068837693213 -0.031732195900377444 0 0.0040677838777486404 -0.031568220588167335 0 0.004955867802289622 -0.032449401331826541 0 0.003812068837693213 -0.031732195900377444 0 0.0054426525641001347 -0.034234242665570916 0 0.0041775409582209761 -0.031602099079857573 0 0.003812068837693213 -0.031732195900377444 0 0.0040677838777486404 -0.031568220588167335 0 0.0035695017522661479 -0.031831250268185403 0 0.0038819311581111304 -0.03187932462218699 0 0.0040677838777486404 -0.031568220588167335 0 0.0038819311581111304 -0.03187932462218699 0 0.0041775409582209761 -0.031602099079857573 0 0.0040677838777486404 -0.031568220588167335 0 -0.011113592108422303 -0.038719360275910511 0 -0.011097610346338153 -0.039550929313153398 0 -0.011669248056104186 -0.040055446069416467 0 -0.011113592108422303 -0.038719360275910511 0 -0.011097610346338153 -0.039550929313153398 0 -0.010633715416163538 -0.039728351038387996 0 -0.010945199040794548 -0.039102502491835611 0 -0.01067433960988106 -0.039439937242946886 0 -0.010577661061805797 -0.039995906843178712 0 0.0010450611768089907 -0.024499676010399103 0 0.00084864570284053759 -0.02456820433337125 0 0.00079977224436945048 -0.025066246267680423 0 -0.0016620664619485023 -0.032332771135628137 0 -0.0038071788755737021 -0.03556673228175166 0 -0.0016620664619485023 -0.032332771135628137 0 -0.0026279112290464239 -0.02922817657052702 0 -0.0016620664619485023 -0.032332771135628137 0 -0.0025487393167199376 -0.033254629544436996 0 0.0077895225225636296 -0.031856494109817647 0 0.0075189577290181312 -0.031933477959594836 0 0.0075705016540054135 -0.031597441287277671 0 -0.010945199040794548 -0.039102502491835611 0 -0.01067433960988106 -0.039439937242946886 0 -0.010476248520265278 -0.039522723356814483 0 -0.01067433960988106 -0.039439937242946886 0 -0.010482829879388558 -0.039525294202016087 0 -0.010577661061805797 -0.039995906843178712 0 -0.0027087845331233052 -0.033258837805080266 0 -0.0025487393167199376 -0.033254629544436996 0 0.0006340841797763167 -0.024659755131759484 0 0.00084864570284053759 -0.02456820433337125 0 0.00079977224436945048 -0.025066246267680423 0 0.0006340841797763167 -0.024659755131759484 0 0.00056887592974221306 -0.024877796089040914 0 0.00046305351699663528 -0.024723301078621921 0 0.0006340841797763167 -0.024659755131759484 0 0.0006790503358585602 -0.024414524470048847 0 0.00037067667955166723 -0.024424517067737583 0 0.0006340841797763167 -0.024659755131759484 0 0.00084864570284053759 -0.02456820433337125 0 0.0006790503358585602 -0.024414524470048847 0 0.0010450611768089907 -0.024499676010399103 0 0.00084864570284053759 -0.02456820433337125 0 0.0006790503358585602 -0.024414524470048847 0 0.0074236139955074628 -0.032175080623148264 0 0.0075502632044967188 -0.032549228299427128 0 0.0072764168111230758 -0.032278726970933307 0 -0.0016620664619485023 -0.032332771135628137 0 0.0017912094059141148 -0.029602692781069428 0 0.0010450611768089907 -0.024499676010399103 0 0.0006790503358585602 -0.024414524470048847 0 0.00059330954233368142 -0.024061262251001015 0 0.0006790503358585602 -0.024414524470048847 0 0.00059330954233368142 -0.024061262251001015 0 0.00037067667955166723 -0.024424517067737583 0 0.0076267782972778446 -0.032153338498114505 0 0.0076291138095065129 -0.032103132707385559 0 0.0076335512198200742 -0.032113130496698207 0 0.0028155769713057669 -0.033348374219049771 0 -0.0016620664619485023 -0.032332771135628137 0 -0.0016620664619485023 -0.032332771135628137 0 -0.0010416419914257772 -0.031873834962417566 0 0.0077895225225636296 -0.031856494109817647 0 0.0076335512198200742 -0.032113130496698207 0 0.0075189577290181312 -0.031933477959594836 0 0.0076548862791565976 -0.032129727622606657 0 0.0076335512198200742 -0.032113130496698207 0 0.007455106285606276 -0.032201737430051072 0 0.007455106285606276 -0.032201737430051072 0 0.0068813805072580466 -0.032073214670402625 0 0.007247159904716167 -0.031897457331144734 0 0.0076335512198200742 -0.032113130496698207 0 0.007455106285606276 -0.032201737430051072 0 0.0075189577290181312 -0.031933477959594836 0 0.007455106285606276 -0.032201737430051072 0 0.0075189577290181312 -0.031933477959594836 0 0.007247159904716167 -0.031897457331144734 0 0.0072160444900974726 -0.032654074262044822 0 0.0061891680027539959 -0.032365311264615844 0 0.0068813805072580466 -0.032073214670402625 0 0.0072160444900974726 -0.032654074262044822 0 0.007455106285606276 -0.032201737430051072 0 0.0068813805072580466 -0.032073214670402625 0 0.0061891680027539959 -0.032365311264615844 0 0.006288581312515207 -0.031767484063049932 0 0.0068813805072580466 -0.032073214670402625 0 0.006288581312515207 -0.031767484063049932 0 0.0068813805072580466 -0.032073214670402625 0 0.0069226236656392565 -0.03170587525671454 0 0.0068813805072580466 -0.032073214670402625 0 0.0069226236656392565 -0.03170587525671454 0 0.007247159904716167 -0.031897457331144734 0 0.006288581312515207 -0.031767484063049932 0 0.0069226236656392565 -0.03170587525671454 0 0.0065231417595736901 -0.031174655473150896 0 0.0069226236656392565 -0.03170587525671454 0 0.0075705016540054135 -0.031597441287277671 0 0.0065231417595736901 -0.031174655473150896 0 -0.0025487393167199376 -0.033254629544436996 0 0.00011673218598015777 -0.032512090740840452 0 0.0069226236656392565 -0.03170587525671454 0 0.007247159904716167 -0.031897457331144734 0 0.0075705016540054135 -0.031597441287277671 0 0.0075189577290181312 -0.031933477959594836 0 0.007247159904716167 -0.031897457331144734 0 0.0075705016540054135 -0.031597441287277671 0 -0.0095249474962553118 -0.040478212051126027 0 -0.010211782021753466 -0.040880794158971501 0 -0.010577661061805797 -0.039995906843178712 0 -0.0044338572998910437 -0.036613115670238519 0 -0.0038071788755737021 -0.03556673228175166 0 -0.0025487393167199376 -0.033254629544436996 0 -0.0052666378473429981 -0.034802248093108341 0 -0.010482829879388558 -0.039525294202016087 0 -0.0095249474962553118 -0.040478212051126027 0 -0.010577661061805797 -0.039995906843178712 0 -0.0036060728489765957 -0.032304171539859837 0 -0.0053938451107905204 -0.031772099465603901 0 -0.0048126381952878234 -0.030988000559316522 0 -0.0072625455447354985 -0.030073874653160353 0 -0.0053938451107905204 -0.031772099465603901 0 -0.0048126381952878234 -0.030988000559316522 0 -0.0095249474962553118 -0.040478212051126027 0 -0.010211782021753466 -0.040880794158971501 0 -0.0094898225178069694 -0.041584878486992681 0 -0.008530908546166574 -0.04153218149661736 0 -0.0095249474962553118 -0.040478212051126027 0 -0.0094898225178069694 -0.041584878486992681 0 -0.0051012107868311663 -0.036922848363370599 0 -0.0052666378473429981 -0.034802248093108341 0 -0.010211782021753466 -0.040880794158971501 0 -0.010653054826446715 -0.04160903659497342 0 -0.0094898225178069694 -0.041584878486992681 0 -0.011021189139848852 -0.040539470957617403 0 -0.011919682759552278 -0.040493718610426124 0 -0.010653054826446715 -0.04160903659497342 0 0.00077551400261944377 -0.019126377072554882 0 0.0012850747305449312 -0.019519682868851203 0 0.00093402559365446424 -0.019762488437689636 0 -0.010211782021753466 -0.040880794158971501 0 -0.011021189139848852 -0.040539470957617403 0 -0.010653054826446715 -0.04160903659497342 0 -0.0015209623176224351 -0.027678275669633656 0 -0.0032730998829278994 -0.029359583193304211 0 -0.011021189139848852 -0.040539470957617403 0 -0.011075954699524188 -0.040024369984269524 0 -0.010633715416163538 -0.039728351038387996 0 -0.010211782021753466 -0.040880794158971501 0 -0.011021189139848852 -0.040539470957617403 0 -0.010633715416163538 -0.039728351038387996 0 -0.011021189139848852 -0.040539470957617403 0 -0.011075954699524188 -0.040024369984269524 0 -0.011772956716428034 -0.040138110834112194 0 -0.011021189139848852 -0.040539470957617403 0 -0.011772956716428034 -0.040138110834112194 0 -0.011919682759552278 -0.040493718610426124 0 -0.0050422806817723457 -0.031531341062290649 0 -0.0026279112290464239 -0.02922817657052702 0 -0.011075954699524188 -0.040024369984269524 0 -0.011097610346338153 -0.039550929313153398 0 -0.011772956716428034 -0.040138110834112194 0 -0.011075954699524188 -0.040024369984269524 0 -0.011097610346338153 -0.039550929313153398 0 -0.010633715416163538 -0.039728351038387996 0 0.00056887592974221306 -0.024877796089040914 0 0.00068573578035952161 -0.025166266448452674 0 0.00026258813972671459 -0.024775638625868655 0 0.0006340841797763167 -0.024659755131759484 0 0.00056887592974221306 -0.024877796089040914 0 0.00079977224436945048 -0.025066246267680423 0 -0.0011047240436541305 -0.026645522633547043 0 -0.0016978212793872639 -0.0280079151347347 0 -0.0021943643229918471 -0.027588743094220741 0 -0.0026279112290464239 -0.02922817657052702 0 -0.0015209623176224351 -0.027678275669633656 0 -0.0026279112290464239 -0.02922817657052702 0 -0.0015771146002800834 -0.027335576900110372 0 -0.0015209623176224351 -0.027678275669633656 0 -0.0015771146002800834 -0.027335576900110372 0 0.00056887592974221306 -0.024877796089040914 0 0.00079977224436945048 -0.025066246267680423 0 0.00068573578035952161 -0.025166266448452674 0 -0.00043266037391855668 -0.023830791744671179 0 -0.00024994933356211143 -0.02398509848182992 0 0.0010272505811624848 -0.022875495961757374 0 -0.00043266037391855668 -0.023830791744671179 0 0.0010272505811624848 -0.022875495961757374 0 0.00051234723187180075 -0.021675677989201159 0 -0.0015771146002800834 -0.027335576900110372 0 0.00061812932034803643 -0.019980899281570812 0 -0.0015209623176224351 -0.027678275669633656 0 0.00059212180527824353 -0.020918274818253334 0 -9.4368210712442776e-05 -0.0097752123793641513 0 -0.00065404878629612149 -0.0098126771146161609 0 -0.00052037239723021114 -0.0088811494013025065 0 0.00060574786083587026 -0.025074284154307715 0 0.00032944315172147952 -0.025310883038183494 0 0.000341420213502796 -0.025034040664400001 0 -0.00065404878629612149 -0.0098126771146161609 0 -0.00098043538989582915 -0.0093146304618260244 0 -0.0017236695465103417 -0.010224358130850576 0 -9.4368210712442776e-05 -0.0097752123793641513 0 -0.00065404878629612149 -0.0098126771146161609 0 -0.00078264525996385762 -0.010401052756203295 0 -0.00065404878629612149 -0.0098126771146161609 0 -0.00098043538989582915 -0.0093146304618260244 0 -0.00052037239723021114 -0.0088811494013025065 0 -0.00098043538989582915 -0.0093146304618260244 0 -0.001031156910437788 -0.0088898631073289283 0 -0.00052037239723021114 -0.0088811494013025065 0 0.00032944315172147952 -0.025310883038183494 0 0.00011805872212363015 -0.024869691423608346 0 0.000341420213502796 -0.025034040664400001 0 0.00060574786083587026 -0.025074284154307715 0 0.000341420213502796 -0.025034040664400001 0 0.00026258813972671459 -0.024775638625868655 0 0.00011805872212363015 -0.024869691423608346 0 0.000341420213502796 -0.025034040664400001 0 0.00026258813972671459 -0.024775638625868655 0 0.00061812932034803643 -0.019980899281570812 0 -0.0002874270892937197 -0.017534846240338617 0 -0.0015771146002800834 -0.027335576900110372 0 -0.0012387039294960796 -0.026877837774948145 0 -0.0018348975904833175 -0.0094330893683635241 0 -0.0015075357054920864 -0.0093715574507472667 0 -0.0018498092887566442 -0.0091631072899073813 0 -0.0018348975904833175 -0.0094330893683635241 0 -0.0015075357054920864 -0.0093715574507472667 0 -0.0015416284120379992 -0.0095739802426096574 0 -0.00098043538989582915 -0.0093146304618260244 0 -0.0015075357054920864 -0.0093715574507472667 0 -0.0015506907901629919 -0.0098756822537753933 0 -0.00044104575924791735 -0.010865801991857349 0 -0.00072631197314614602 -0.011901318517341029 0 -0.00076541608404163367 -0.011121769891103818 0 -0.00072631197314614602 -0.011901318517341029 0 -0.001031156910437788 -0.0088898631073289283 0 -0.0015075357054920864 -0.0093715574507472667 0 -0.0014506891574596983 -0.008736178084114643 0 -0.00098043538989582915 -0.0093146304618260244 0 -0.001031156910437788 -0.0088898631073289283 0 -0.0015075357054920864 -0.0093715574507472667 0 -0.0018498092887566442 -0.0091631072899073813 0 -0.0018716466563944601 -0.0087782520010377414 0 -0.002089913273925503 -0.0090065895042521927 0 -0.0018498092887566442 -0.0091631072899073813 0 -0.0018716466563944601 -0.0087782520010377414 0 -0.0014506891574596983 -0.008736178084114643 0 -0.0015075357054920864 -0.0093715574507472667 0 -0.0018498092887566442 -0.0091631072899073813 0 -0.0014506891574596983 -0.008736178084114643 0 -0.0021297250116200047 -0.0082131990391461438 0 -0.0014506891574596983 -0.008736178084114643 0 -0.0015155341587426187 -0.0078045560765196299 0 -0.0021297250116200047 -0.0082131990391461438 0 -0.0018716466563944601 -0.0087782520010377414 0 -0.002089913273925503 -0.0090065895042521927 0 -0.0021297250116200047 -0.0082131990391461438 0 -0.0018716466563944601 -0.0087782520010377414 0 -0.0014506891574596983 -0.008736178084114643 0 -0.001031156910437788 -0.0088898631073289283 0 -0.0014506891574596983 -0.008736178084114643 0 -0.00085152764260070998 -0.0080648710112864036 0 -0.0014506891574596983 -0.008736178084114643 0 -0.0015155341587426187 -0.0078045560765196299 0 -0.00085152764260070998 -0.0080648710112864036 0 -0.0015155341587426187 -0.0078045560765196299 0 -0.00085152764260070998 -0.0080648710112864036 0 -0.0012313967181381612 -0.0071086264364702478 0 -0.0021297250116200047 -0.0082131990391461438 0 -0.0015155341587426187 -0.0078045560765196299 0 -0.0022288378696914981 -0.0074829835987355988 0 0.00026258813972671459 -0.024775638625868655 0 -0.00012397643078123464 -0.024339164536120783 0 0.00037067667955166723 -0.024424517067737583 0 0.0006340841797763167 -0.024659755131759484 0 0.00046305351699663528 -0.024723301078621921 0 0.00037067667955166723 -0.024424517067737583 0 0.00056887592974221306 -0.024877796089040914 0 0.00046305351699663528 -0.024723301078621921 0 0.00026258813972671459 -0.024775638625868655 0 0.00046305351699663528 -0.024723301078621921 0 0.00026258813972671459 -0.024775638625868655 0 0.00037067667955166723 -0.024424517067737583 0 -0.001031156910437788 -0.0088898631073289283 0 -0.00052037239723021114 -0.0088811494013025065 0 -0.00085152764260070998 -0.0080648710112864036 0 -0.0002874270892937197 -0.017534846240338617 0 -0.0007238301662986674 -0.016623719720496876 0 0.00011805872212363015 -0.024869691423608346 0 0.00026258813972671459 -0.024775638625868655 0 -0.00012397643078123464 -0.024339164536120783 0 -0.0007238301662986674 -0.016623719720496876 0 -0.00099439215051193449 -0.016598321473018252 0 -0.00012397643078123464 -0.024339164536120783 0 0.00013611050864394654 -0.024050529769859719 0 -0.00036175802248140189 -0.023791014925183269 0 0.00059330954233368142 -0.024061262251001015 0 0.00013611050864394654 -0.024050529769859719 0 0.00037067667955166723 -0.024424517067737583 0 -0.00012397643078123464 -0.024339164536120783 0 0.00013611050864394654 -0.024050529769859719 0 0.00037067667955166723 -0.024424517067737583 0 0.00059330954233368142 -0.024061262251001015 0 0.00013611050864394654 -0.024050529769859719 0 0.00015888350538138284 -0.023657553149024145 0 0.0017912094059141148 -0.029602692781069428 0 0.0031559901406411081 -0.027088609236904978 0 0.0072764168111230758 -0.032278726970933307 0 0.0071582432450937282 -0.031940732231140925 0 0.0067288666188558667 -0.03188718649749623 0 0.007302360088835831 -0.031570450222151061 0 0.0071582432450937282 -0.031940732231140925 0 0.0070257498530400704 -0.031713514349083101 0 0.0070257498530400704 -0.031713514349083101 0 0.0067288666188558667 -0.03188718649749623 0 0.0069220641601053052 -0.031341592968529258 0 0.0071582432450937282 -0.031940732231140925 0 0.0070257498530400704 -0.031713514349083101 0 0.0067288666188558667 -0.03188718649749623 0 0.007302360088835831 -0.031570450222151061 0 0.0070257498530400704 -0.031713514349083101 0 0.0069220641601053052 -0.031341592968529258 0 0.00015888350538138284 -0.023657553149024145 0 -0.00036175802248140189 -0.023791014925183269 0 -0.00027921732767890621 -0.023256812238369513 0 0.0067288666188558667 -0.03188718649749623 0 0.006073674737260908 -0.031301799664907461 0 0.0069220641601053052 -0.031341592968529258 0 0.0031559901406411081 -0.027088609236904978 0 0.0033252079068359741 -0.023281907809115248 0 0.00013611050864394654 -0.024050529769859719 0 0.00015888350538138284 -0.023657553149024145 0 -0.00036175802248140189 -0.023791014925183269 0 -0.0015155341587426187 -0.0078045560765196299 0 -0.0012313967181381612 -0.0071086264364702478 0 -0.0022288378696914981 -0.0074829835987355988 0 -0.0012313967181381612 -0.0071086264364702478 0 -0.0022288378696914981 -0.0074829835987355988 0 -0.0020598939964669226 -0.0067885615896083034 0 -0.0022288378696914981 -0.0074829835987355988 0 -0.0020598939964669226 -0.0067885615896083034 0 -0.0028126186156503378 -0.007060725552700901 0 -0.0020598939964669226 -0.0067885615896083034 0 -0.0016537263977769927 -0.0061595452469734215 0 -0.002375169636002334 -0.0061400569680724907 0 -0.0012313967181381612 -0.0071086264364702478 0 -0.0020598939964669226 -0.0067885615896083034 0 -0.0016537263977769927 -0.0061595452469734215 0 -0.00036175802248140189 -0.023791014925183269 0 -0.00027921732767890621 -0.023256812238369513 0 -0.00059687797031510582 -0.023246219998748114 0 -0.00099439215051193449 -0.016598321473018252 0 -0.00048127016715013141 -0.019209450039549183 0 0.001162877169471509 -0.019639453211342174 0 0.00023726977829670627 -0.018998655916617455 0 5.6157102554673525e-05 -0.018645810048389635 0 0.001162877169471509 -0.019639453211342174 0 0.00051027048283813499 -0.019623956431036392 0 0.00023726977829670627 -0.018998655916617455 0 0.0033252079068359741 -0.023281907809115248 0 -0.00048127016715013141 -0.019209450039549183 0 0.0099098419786745034 -0.028597729495826736 0 0.0040992318159069749 -0.023515184383481293 0 0.0090206874781241543 -0.024562076953736422 0 0.0033252079068359741 -0.023281907809115248 0 0.0016016289088328682 -0.020206496042310715 0 -0.00048127016715013141 -0.019209450039549183 0 0.0003021836506762648 -0.015555214835642789 0 0.00049968997836753834 -0.019608506384560097 0 -0.00033836583092818409 -0.019589246303247654 0 0.00023726977829670627 -0.018998655916617455 0 0.0054190508072877583 -0.020018003154029216 0 0.0057717620337173038 -0.019064921777269057 0 0.005247667006368131 -0.019341660588264399 0 -0.00033836583092818409 -0.019589246303247654 0 0.00023726977829670627 -0.018998655916617455 0 5.6157102554673525e-05 -0.018645810048389635 0 0.0003021836506762648 -0.015555214835642789 0 0.0016016289088328682 -0.020206496042310715 0 -0.00048127016715013141 -0.019209450039549183 0 -0.00040235731658815114 -0.019259974139367197 0 0.0053976896008735079 -0.019104855817184782 0 0.005668218281273456 -0.019019014475925005 0 0.0057717620337173038 -0.019064921777269057 0 0.0053976896008735079 -0.019104855817184782 0 0.0057717620337173038 -0.019064921777269057 0 0.005247667006368131 -0.019341660588264399 0 0.0053976896008735079 -0.019104855817184782 0 0.005668218281273456 -0.019019014475925005 0 0.0054556530909344791 -0.018912093786699224 0 0.0016348642891164777 -0.020218968233505146 0 0.0016016289088328682 -0.020206496042310715 0 0.0020189402403992603 -0.019892924274413065 0 0.0016016289088328682 -0.020206496042310715 0 0.0059875585320699294 -0.019574603460149699 0 0.0040992318159069749 -0.023515184383481293 0 0.0069383463434835001 -0.021912448263065116 0 0.0059875585320699294 -0.019574603460149699 0 0.005668218281273456 -0.019019014475925005 0 0.0056084166202512746 -0.018968627420775805 0 0.0059875585320699294 -0.019574603460149699 0 0.0055634064335767022 -0.018838736985216112 0 0.005668218281273456 -0.019019014475925005 0 0.0055634064335767022 -0.018838736985216112 0 0.005668218281273456 -0.019019014475925005 0 0.0054556530909344791 -0.018912093786699224 0 0.01044346037928225 -0.018990005374993967 0 0.0081138741386504887 -0.020280859520756821 0 0.0090206874781241543 -0.024562076953736422 0 0.0040992318159069749 -0.023515184383481293 0 0.0090206874781241543 -0.024562076953736422 0 0.0069383463434835001 -0.021912448263065116 0 0.0081138741386504887 -0.020280859520756821 0 0.0090206874781241543 -0.024562076953736422 0 0.0069383463434835001 -0.021912448263065116 0 0.0081138741386504887 -0.020280859520756821 0 0.0059875585320699294 -0.019574603460149699 0 0.0069383463434835001 -0.021912448263065116 0 0.013166680154523477 -0.022568284279747355 0 0.01103853166731728 -0.021528345826332857 0 0.01219806690775342 -0.024993327914644814 0 0.01044346037928225 -0.018990005374993967 0 0.0090206874781241543 -0.024562076953736422 0 0.01219806690775342 -0.024993327914644814 0 0.010449634019010954 -0.02024427566926483 0 0.011172202259380464 -0.022009320979146256 0 0.0090206874781241543 -0.024562076953736422 0 0.01219806690775342 -0.024993327914644814 0 0.010405844165843009 -0.026316175965207678 0 0.013166680154523477 -0.022568284279747355 0 0.01219806690775342 -0.024993327914644814 0 0.014556572653036918 -0.023522142786138723 0 0.013166680154523477 -0.022568284279747355 0 0.014493710959187361 -0.022342507096411026 0 0.014556572653036918 -0.023522142786138723 0 0.0092740306574209085 -0.032115581232908259 0 0.010170021694985421 -0.032194736172603051 0 0.0098974480335092541 -0.031006340364153302 0 0.010278319537857978 -0.030341093835534433 0 0.010507056704716354 -0.029765618974963822 0 0.010518927387894533 -0.028602870703509593 0 0.01219806690775342 -0.024993327914644814 0 0.014556572653036918 -0.023522142786138723 0 0.010518927387894533 -0.028602870703509593 0 0.010170021694985421 -0.032194736172603051 0 0.010278319537857978 -0.030341093835534433 0 0.010518927387894533 -0.028602870703509593 0 0.011651888764413011 -0.02842041562012913 0 0.011087331256975854 -0.028829810559098078 0 0.010170021694985421 -0.032194736172603051 0 0.010278319537857978 -0.030341093835534433 0 0.0098974480335092541 -0.031006340364153302 0 0.0092329723347150013 -0.031294043828948785 0 0.0098974480335092541 -0.031006340364153302 0 0.010507056704716354 -0.029765618974963822 0 0.010278319537857978 -0.030341093835534433 0 0.0098974480335092541 -0.031006340364153302 0 0.010507056704716354 -0.029765618974963822 0 0.0099098419786745034 -0.028597729495826736 0 0.0090206874781241543 -0.024562076953736422 0 0.010405844165843009 -0.026316175965207678 0 0.0033252079068359741 -0.023281907809115248 0 0.0076408168611409207 -0.026490950844705353 0 0.0099098419786745034 -0.028597729495826736 0 0.010507056704716354 -0.029765618974963822 0 0.010518927387894533 -0.028602870703509593 0 0.0099098419786745034 -0.028597729495826736 0 0.010518927387894533 -0.028602870703509593 0 0.010405844165843009 -0.026316175965207678 0 0.01219806690775342 -0.024993327914644814 0 0.010518927387894533 -0.028602870703509593 0 0.010405844165843009 -0.026316175965207678 0 -0.0046403704532926478 -0.0094423687208630199 0 -0.0043798387361597023 -0.0092125737488876792 0 -0.0047367091272982748 -0.01013765719149363 0 -0.0046403704532926478 -0.0094423687208630199 0 -0.0047367091272982748 -0.01013765719149363 0 -0.0047623654088773306 -0.009359483839425255 0 0.0019249884064821501 -0.01867767820632512 0 0.0036405693126166545 -0.018658877211672583 0 0.0034701142546117109 -0.019725813302258748 0 -0.00031403435757889595 -0.01443439839019185 0 -0.00026386485190834551 -0.01420978847029083 0 -0.0046403704532926478 -0.0094423687208630199 0 -0.0047623654088773306 -0.009359483839425255 0 -0.004589251222607664 -0.0091698903287133048 0 -0.0046403704532926478 -0.0094423687208630199 0 -0.0043798387361597023 -0.0092125737488876792 0 -0.004589251222607664 -0.0091698903287133048 0 -0.0038761495777103585 -0.0094573355936183028 0 -0.0043798387361597023 -0.0092125737488876792 0 -0.0041310526437822919 -0.0089594959471056002 0 -0.0038761495777103585 -0.0094573355936183028 0 -0.0043798387361597023 -0.0092125737488876792 0 -0.0047367091272982748 -0.01013765719149363 0 0.00057707848817551777 -0.015049236432590325 0 0.0020225650946654392 -0.015605975659221765 0 0.00018693131854787112 -0.017470378091194158 0 0.0019249884064821501 -0.01867767820632512 0 0.0030195763078845598 -0.017485036350854036 0 0.00057707848817551777 -0.015049236432590325 0 -0.00031403435757889595 -0.01443439839019185 0 -0.0034887419063722386 -0.011974909914958809 0 -0.0038761495777103585 -0.0094573355936183028 0 -0.0047367091272982748 -0.01013765719149363 0 0.0019249884064821501 -0.01867767820632512 0 0.0030195763078845598 -0.017485036350854036 0 0.0036405693126166545 -0.018658877211672583 0 0.0030195763078845598 -0.017485036350854036 0 0.0040614596674938726 -0.01823157308275691 0 0.0036405693126166545 -0.018658877211672583 0 0.0040614596674938726 -0.01823157308275691 0 0.0046536202292736476 -0.018228042443965951 0 0.0045572011907418124 -0.018785792762849373 0 0.0036405693126166545 -0.018658877211672583 0 0.0045572011907418124 -0.018785792762849373 0 0.0040948644846490016 -0.019327341338834309 0 0.0040614596674938726 -0.01823157308275691 0 0.0036405693126166545 -0.018658877211672583 0 0.0045572011907418124 -0.018785792762849373 0 0.0055634064335767022 -0.018838736985216112 0 0.0054556530909344791 -0.018912093786699224 0 0.0051471994071362074 -0.018745531590900442 0 0.0051471994071362074 -0.018745531590900442 0 0.0046536202292736476 -0.018228042443965951 0 0.0045572011907418124 -0.018785792762849373 0 0.0045572011907418124 -0.018785792762849373 0 0.0049760353757599849 -0.01904835117781107 0 0.004697520048383929 -0.019454999808464265 0 0.0051471994071362074 -0.018745531590900442 0 0.0045572011907418124 -0.018785792762849373 0 0.0049760353757599849 -0.01904835117781107 0 0.0053976896008735079 -0.019104855817184782 0 0.0051471994071362074 -0.018745531590900442 0 0.0049760353757599849 -0.01904835117781107 0 0.0053976896008735079 -0.019104855817184782 0 0.0049760353757599849 -0.01904835117781107 0 0.005247667006368131 -0.019341660588264399 0 0.0053976896008735079 -0.019104855817184782 0 0.0054556530909344791 -0.018912093786699224 0 0.0051471994071362074 -0.018745531590900442 0 0.0054190508072877583 -0.020018003154029216 0 0.004697520048383929 -0.019454999808464265 0 0.0041255909745359053 -0.020088155208563174 0 0.0003021836506762648 -0.015555214835642789 0 -0.0001479192217124309 -0.014077345075744957 0 0.0049760353757599849 -0.01904835117781107 0 0.005247667006368131 -0.019341660588264399 0 0.004697520048383929 -0.019454999808464265 0 0.0054190508072877583 -0.020018003154029216 0 0.005247667006368131 -0.019341660588264399 0 0.004697520048383929 -0.019454999808464265 0 0.0036405693126166545 -0.018658877211672583 0 0.0040948644846490016 -0.019327341338834309 0 0.0034701142546117109 -0.019725813302258748 0 0.004697520048383929 -0.019454999808464265 0 0.0040948644846490016 -0.019327341338834309 0 0.0041255909745359053 -0.020088155208563174 0 0.0045572011907418124 -0.018785792762849373 0 0.004697520048383929 -0.019454999808464265 0 0.0040948644846490016 -0.019327341338834309 0 -0.0047230987490804489 -0.0092165232919157094 0 -0.0047623654088773306 -0.009359483839425255 0 -0.0046665225384292519 -0.0091302255762563747 0 0.0040948644846490016 -0.019327341338834309 0 0.0041255909745359053 -0.020088155208563174 0 0.0034701142546117109 -0.019725813302258748 0 -0.0001479192217124309 -0.014077345075744957 0 -0.00026386485190834551 -0.01420978847029083 0 -0.0047623654088773306 -0.009359483839425255 0 -0.0046665225384292519 -0.0091302255762563747 0 -0.004589251222607664 -0.0091698903287133048 0 -0.0046665225384292519 -0.0091302255762563747 0 -0.0045670187854969947 -0.0090047710416031081 0 -0.004589251222607664 -0.0091698903287133048 0 -0.0046665225384292519 -0.0091302255762563747 0 -0.0046637481869357929 -0.0090073751039716939 0 -0.0047434363509634208 -0.0091468282158048472 0 -0.0047230987490804489 -0.0092165232919157094 0 -0.0046665225384292519 -0.0091302255762563747 0 -0.0047434363509634208 -0.0091468282158048472 0 -0.0001479192217124309 -0.014077345075744957 0 -0.00089437919980581853 -0.013492062105877139 0 -0.0046665225384292519 -0.0091302255762563747 0 -0.0046637481869357929 -0.0090073751039716939 0 -0.0045670187854969947 -0.0090047710416031081 0 -0.0049283813937762771 -0.0092331630920830625 0 -0.0047434363509634208 -0.0091468282158048472 0 -0.0047652335071502079 -0.0088984489262874875 0 -0.0049283813937762771 -0.0092331630920830625 0 -0.0046161658148984666 -0.0092390056342098858 0 -0.0047434363509634208 -0.0091468282158048472 0 0.0003021836506762648 -0.015555214835642789 0 -0.00111362551448364 -0.010488509208272148 0 -0.0020598939964669226 -0.0067885615896083034 0 -0.002375169636002334 -0.0061400569680724907 0 -0.0028126186156503378 -0.007060725552700901 0 -0.0046637481869357929 -0.0090073751039716939 0 -0.0047434363509634208 -0.0091468282158048472 0 -0.0047652335071502079 -0.0088984489262874875 0 -0.0046637481869357929 -0.0090073751039716939 0 -0.0047652335071502079 -0.0088984489262874875 0 -0.0044948529098411839 -0.0087930457704717604 0 -0.0047652335071502079 -0.0088984489262874875 0 -0.0044948529098411839 -0.0087930457704717604 0 -0.0044241220753699914 -0.0086203577737109603 0 -0.0046637481869357929 -0.0090073751039716939 0 -0.0045670187854969947 -0.0090047710416031081 0 -0.0044948529098411839 -0.0087930457704717604 0 -0.0045670187854969947 -0.0090047710416031081 0 -0.0044948529098411839 -0.0087930457704717604 0 -0.0044110576451551631 -0.0088157385993953095 0 -0.0044110576451551631 -0.0088157385993953095 0 -0.0043256572199434074 -0.0088510869590538704 0 -0.0042707158813203574 -0.0086498646092311726 0 -0.0044948529098411839 -0.0087930457704717604 0 -0.0044110576451551631 -0.0088157385993953095 0 -0.0042707158813203574 -0.0086498646092311726 0 -0.0045670187854969947 -0.0090047710416031081 0 -0.0044110576451551631 -0.0088157385993953095 0 -0.0043256572199434074 -0.0088510869590538704 0 -0.0045670187854969947 -0.0090047710416031081 0 -0.004589251222607664 -0.0091698903287133048 0 -0.0043256572199434074 -0.0088510869590538704 0 -0.0043798387361597023 -0.0092125737488876792 0 -0.004589251222607664 -0.0091698903287133048 0 -0.0043256572199434074 -0.0088510869590538704 0 -0.0043798387361597023 -0.0092125737488876792 0 -0.0041310526437822919 -0.0089594959471056002 0 -0.0043256572199434074 -0.0088510869590538704 0 -0.0043256572199434074 -0.0088510869590538704 0 -0.0041969525262284015 -0.0086820167615931781 0 -0.0042707158813203574 -0.0086498646092311726 0 -0.0041310526437822919 -0.0089594959471056002 0 -0.0043256572199434074 -0.0088510869590538704 0 -0.0041969525262284015 -0.0086820167615931781 0 -0.004196771291349221 -0.008554922163287907 0 -0.0041969525262284015 -0.0086820167615931781 0 -0.0042707158813203574 -0.0086498646092311726 0 -0.0042707158813203574 -0.0086498646092311726 0 -0.004192505689075695 -0.0086053593121081726 0 -0.0044241220753699914 -0.0086203577737109603 0 -0.0042707158813203574 -0.0086498646092311726 0 -0.0041692830188002211 -0.0085992097119697887 0 -0.004192505689075695 -0.0086053593121081726 0 -0.0041692830188002211 -0.0085992097119697887 0 -0.004192505689075695 -0.0086053593121081726 0 -0.0039558745782481766 -0.0086603094759470142 0 -0.004196771291349221 -0.008554922163287907 0 -0.0042707158813203574 -0.0086498646092311726 0 -0.0041692830188002211 -0.0085992097119697887 0 -0.004196771291349221 -0.008554922163287907 0 -0.004209112494421398 -0.0085640129655582646 0 -0.0041692830188002211 -0.0085992097119697887 0 -0.0022288378696914981 -0.0074829835987355988 0 -0.0028126186156503378 -0.007060725552700901 0 -0.0033609652424230313 -0.0079706571244665177 0 -0.0021297250116200047 -0.0082131990391461438 0 -0.0022288378696914981 -0.0074829835987355988 0 -0.0033609652424230313 -0.0079706571244665177 0 -0.00111362551448364 -0.010488509208272148 0 -0.0022179843352519613 -0.0093889164994335108 0 -0.0044948529098411839 -0.0087930457704717604 0 -0.0042707158813203574 -0.0086498646092311726 0 -0.0044241220753699914 -0.0086203577737109603 0 -0.0022179843352519613 -0.0093889164994335108 0 -0.0026039095897187783 -0.0092694380622041755 0 -0.004192505689075695 -0.0086053593121081726 0 -0.0044241220753699914 -0.0086203577737109603 0 -0.0039558745782481766 -0.0086603094759470142 0 -0.0033609652424230313 -0.0079706571244665177 0 -0.0030987791367032588 -0.0087363203029069015 0 -0.0039558745782481766 -0.0086603094759470142 0 -0.002242473178113681 -0.0084563703660137709 0 -0.0024227840431509753 -0.0086961989118799383 0 -0.0021297250116200047 -0.0082131990391461438 0 -0.0033609652424230313 -0.0079706571244665177 0 -0.0030987791367032588 -0.0087363203029069015 0 -0.002089913273925503 -0.0090065895042521927 0 -0.001851091275476825 -0.0092914820016883701 0 -0.0019002146308747859 -0.0093009703899364447 0 -0.0018498092887566442 -0.0091631072899073813 0 -0.002089913273925503 -0.0090065895042521927 0 -0.0019002146308747859 -0.0093009703899364447 0 -0.0024227840431509753 -0.0086961989118799383 0 -0.0026936948168442623 -0.009076097337044009 0 -0.0039558745782481766 -0.0086603094759470142 0 -0.003847130535233635 -0.00894994320793213 0 -0.0040742532198857779 -0.0087157767052476846 0 -0.0030987791367032588 -0.0087363203029069015 0 -0.0039558745782481766 -0.0086603094759470142 0 -0.003847130535233635 -0.00894994320793213 0 -0.0026936948168442623 -0.009076097337044009 0 -0.002961686832482764 -0.0095239015613382497 0 -0.001851091275476825 -0.0092914820016883701 0 -0.0018278727277362948 -0.0093707278098434914 0 -0.0017379990390210087 -0.0094801036388689232 0 -0.001851091275476825 -0.0092914820016883701 0 -0.0018278727277362948 -0.0093707278098434914 0 -0.0019002146308747859 -0.0093009703899364447 0 -0.0018348975904833175 -0.0094330893683635241 0 -0.0018498092887566442 -0.0091631072899073813 0 -0.0019002146308747859 -0.0093009703899364447 0 -0.0018278727277362948 -0.0093707278098434914 0 -0.0019002146308747859 -0.0093009703899364447 0 -0.0018294941665238163 -0.0094123819738443949 0 -0.0018348975904833175 -0.0094330893683635241 0 -0.0019002146308747859 -0.0093009703899364447 0 -0.0018294941665238163 -0.0094123819738443949 0 -0.004209112494421398 -0.0085640129655582646 0 -0.0041692830188002211 -0.0085992097119697887 0 -0.0041407684060644724 -0.0087180047308576154 0 -0.0041692830188002211 -0.0085992097119697887 0 -0.0039558745782481766 -0.0086603094759470142 0 -0.0040742532198857779 -0.0087157767052476846 0 -0.0041692830188002211 -0.0085992097119697887 0 -0.0041407684060644724 -0.0087180047308576154 0 -0.0040742532198857779 -0.0087157767052476846 0 -0.003847130535233635 -0.00894994320793213 0 -0.0040742532198857779 -0.0087157767052476846 0 -0.0040345483385524454 -0.0088517303976082574 0 -0.0041407684060644724 -0.0087180047308576154 0 -0.0040742532198857779 -0.0087157767052476846 0 -0.0040345483385524454 -0.0088517303976082574 0 -0.003847130535233635 -0.00894994320793213 0 -0.0040345483385524454 -0.0088517303976082574 0 -0.0040258201308671577 -0.0089232515244552831 0 -0.0041969681213405614 -0.0087298640911915391 0 -0.0041407684060644724 -0.0087180047308576154 0 -0.0041165077439216822 -0.0088582135853934527 0 -0.0041969681213405614 -0.0087298640911915391 0 -0.0041165077439216822 -0.0088582135853934527 0 -0.0042196901574274278 -0.008881018461807947 0 -0.0041407684060644724 -0.0087180047308576154 0 -0.0040345483385524454 -0.0088517303976082574 0 -0.0041165077439216822 -0.0088582135853934527 0 -0.0041165077439216822 -0.0088582135853934527 0 -0.0040258201308671577 -0.0089232515244552831 0 -0.0041167463370492385 -0.0090260052285881971 0 -0.0041165077439216822 -0.0088582135853934527 0 -0.0041167463370492385 -0.0090260052285881971 0 -0.0042196901574274278 -0.008881018461807947 0 -0.0040345483385524454 -0.0088517303976082574 0 -0.0041165077439216822 -0.0088582135853934527 0 -0.0040258201308671577 -0.0089232515244552831 0 -0.0020676550872127221 -0.0095844933893099518 0 -0.0019730513250857556 -0.010515178018061025 0 -0.0016217139029781032 -0.010037252188149824 0 -0.0019730513250857556 -0.010515178018061025 0 -0.0029035851612160104 -0.01057845840249313 0 -0.0023178257130434189 -0.011310562913243966 0 -0.0020676550872127221 -0.0095844933893099518 0 -0.0019730513250857556 -0.010515178018061025 0 -0.0029035851612160104 -0.01057845840249313 0 -0.002961686832482764 -0.0095239015613382497 0 -0.0032927051079116808 -0.010216047040522883 0 -0.0032927051079116808 -0.010216047040522883 0 -0.0038357839592671156 -0.0093612845235816079 0 -0.0013861285199080024 -0.012164491711623968 0 -0.0017858781769535647 -0.011364279702262548 0 -0.0018348975904833175 -0.0094330893683635241 0 -0.0018632336169037407 -0.0093611578600683344 0 -0.0018294941665238163 -0.0094123819738443949 0 -0.0018632336169037407 -0.0093611578600683344 0 -0.0018294941665238163 -0.0094123819738443949 0 -0.0017379990390210087 -0.0094801036388689232 0 1.2734173123255707e-05 -0.0099571508021931363 0 -0.0017379990390210087 -0.0094801036388689232 0 -0.0010230897434173156 -0.010106214224150388 0 -0.001851091275476825 -0.0092914820016883701 0 -0.0020676550872127221 -0.0095844933893099518 0 -0.0017379990390210087 -0.0094801036388689232 0 -0.0018278727277362948 -0.0093707278098434914 0 -0.0018294941665238163 -0.0094123819738443949 0 -0.0017379990390210087 -0.0094801036388689232 0 -0.0017379990390210087 -0.0094801036388689232 0 -0.0016217139029781032 -0.010037252188149824 0 -0.0010230897434173156 -0.010106214224150388 0 -0.0020676550872127221 -0.0095844933893099518 0 -0.0017379990390210087 -0.0094801036388689232 0 -0.0016217139029781032 -0.010037252188149824 0 -0.0019730513250857556 -0.010515178018061025 0 -0.0016217139029781032 -0.010037252188149824 0 -0.0012791732273780675 -0.010615977213500435 0 -0.0019730513250857556 -0.010515178018061025 0 -0.0012791732273780675 -0.010615977213500435 0 -0.0014070239225838794 -0.011314318670711974 0 -0.0016217139029781032 -0.010037252188149824 0 -0.0012791732273780675 -0.010615977213500435 0 -0.0010230897434173156 -0.010106214224150388 0 -0.0012791732273780675 -0.010615977213500435 0 -0.0010230897434173156 -0.010106214224150388 0 -0.0004445221342825711 -0.010399541105645024 0 1.2734173123255707e-05 -0.0099571508021931363 0 -0.0010230897434173156 -0.010106214224150388 0 -0.0004445221342825711 -0.010399541105645024 0 1.2734173123255707e-05 -0.0099571508021931363 0 -0.0004445221342825711 -0.010399541105645024 0 -0.00014318847603762632 -0.010900211314837998 0 -0.0013861285199080024 -0.012164491711623968 0 -0.00090948229600842792 -0.013108865710750255 0 -0.0004445221342825711 -0.010399541105645024 0 -0.00014318847603762632 -0.010900211314837998 0 -0.00081147883471649159 -0.011014462234075954 0 -0.0012791732273780675 -0.010615977213500435 0 -0.0004445221342825711 -0.010399541105645024 0 -0.00081147883471649159 -0.011014462234075954 0 -0.00014318847603762632 -0.010900211314837998 0 -0.00081147883471649159 -0.011014462234075954 0 -0.000779076522974139 -0.011811825685265422 0 -0.00090948229600842792 -0.013108865710750255 0 -0.00059220531295762731 -0.015040735302685732 0 -0.00036492227691140732 -0.014957267682333096 0 -0.00027250936075699301 -0.014268862391186941 0 -0.00073841673956013068 -0.015068900194932896 0 -4.1776747304493767e-05 -0.012461869919887054 0 -0.00071610452270323721 -0.013278771120970876 0 -0.00014928656228783532 -0.013317551333852644 0 -0.00090948229600842792 -0.013108865710750255 0 -0.00092832733828364963 -0.013042172542099472 0 -0.0014070239225838794 -0.011314318670711974 0 -0.000779076522974139 -0.011811825685265422 0 -0.0015808436061784605 -0.012070053666708016 0 -0.00081147883471649159 -0.011014462234075954 0 -0.0014070239225838794 -0.011314318670711974 0 -0.000779076522974139 -0.011811825685265422 0 -0.0012791732273780675 -0.010615977213500435 0 -0.00081147883471649159 -0.011014462234075954 0 -0.0014070239225838794 -0.011314318670711974 0 -0.00097339218624374754 -0.014039677317281731 0 -0.00071610452270323721 -0.013278771120970876 0 -0.0014384990179136389 -0.014114266094552585 0 -0.00092832733828364963 -0.013042172542099472 0 -0.0014285617163301825 -0.013657869624356852 0 -0.000779076522974139 -0.011811825685265422 0 -0.0015808436061784605 -0.012070053666708016 0 -0.001290822465356684 -0.013010599794512348 0 -0.00043171278351620846 -0.013524425608750777 0 0.0011047293281105112 -0.012198945073087329 0 0.00082996187818693424 -0.014441914964330782 0 -0.00059220531295762731 -0.015040735302685732 0 -0.0001882197409516672 -0.016067244384460284 0 -0.00054892845628587157 -0.014494111632879374 0 -0.00059220531295762731 -0.015040735302685732 0 -0.00097339218624374754 -0.014039677317281731 0 -0.00071610452270323721 -0.013278771120970876 0 -0.00014928656228783532 -0.013317551333852644 0 0.00011921996381467823 -0.01890980610842357 0 0.00023177161628972444 -0.018335679900496133 0 -8.1750467036743692e-05 -0.018616173026883145 0 -0.0029687482480867124 -0.011215390631550097 0 -0.0022485671099505347 -0.011086733014480514 0 -0.0024102084735939887 -0.012075639836065799 0 -0.0029687482480867124 -0.011215390631550097 0 -0.0034488797448854478 -0.011561619396813456 0 -0.003613914819636074 -0.011139670418989481 0 -0.0032927051079116808 -0.010216047040522883 0 -0.0034020063925081175 -0.010420243385953295 0 -0.0029208863628274696 -0.0102838884657925 0 -0.0029687482480867124 -0.011215390631550097 0 -0.003613914819636074 -0.011139670418989481 0 -0.0029208863628274696 -0.0102838884657925 0 -0.0029687482480867124 -0.011215390631550097 0 -0.0022485671099505347 -0.011086733014480514 0 -0.0032927051079116808 -0.010216047040522883 0 -0.0027068382994634879 -0.01087969978398561 0 -0.0019730513250857556 -0.010515178018061025 0 -0.0014070239225838794 -0.011314318670711974 0 -0.0023178257130434189 -0.011310562913243966 0 -0.0027068382994634879 -0.01087969978398561 0 -0.0024521199353198767 -0.011176135097200356 0 -0.0014070239225838794 -0.011314318670711974 0 -0.0023178257130434189 -0.011310562913243966 0 -0.0015808436061784605 -0.012070053666708016 0 -0.0022485671099505347 -0.011086733014480514 0 -0.0024102084735939887 -0.012075639836065799 0 -0.0015808436061784605 -0.012070053666708016 0 -0.0015808436061784605 -0.012070053666708016 0 -0.0019933638850110928 -0.012902912702491293 0 -0.001290822465356684 -0.013010599794512348 0 -0.0024102084735939887 -0.012075639836065799 0 -0.0019933638850110928 -0.012902912702491293 0 -0.0026327802700118128 -0.013167694641122309 0 -0.0024102084735939887 -0.012075639836065799 0 -0.0015808436061784605 -0.012070053666708016 0 -0.0019933638850110928 -0.012902912702491293 0 -0.0031588074984553248 -0.012293523938815661 0 -0.0036206474876345025 -0.014255514299655934 0 -0.0040128686580873886 -0.011632277744520952 0 -0.0024102084735939887 -0.012075639836065799 0 -0.0031588074984553248 -0.012293523938815661 0 -0.0026327802700118128 -0.013167694641122309 0 -0.0029687482480867124 -0.011215390631550097 0 -0.0024102084735939887 -0.012075639836065799 0 -0.0031588074984553248 -0.012293523938815661 0 -0.0034488797448854478 -0.011561619396813456 0 -0.0031588074984553248 -0.012293523938815661 0 -0.0040128686580873886 -0.011632277744520952 0 -0.0029687482480867124 -0.011215390631550097 0 -0.0034488797448854478 -0.011561619396813456 0 -0.0031588074984553248 -0.012293523938815661 0 -0.0036206474876345025 -0.014255514299655934 0 -0.0026327802700118128 -0.013167694641122309 0 -0.0023127697739356093 -0.014919923209981097 0 -0.0031588074984553248 -0.012293523938815661 0 -0.0036206474876345025 -0.014255514299655934 0 -0.0026327802700118128 -0.013167694641122309 0 -0.0032594198278682626 -0.013366569221531925 0 -0.002523256251314616 -0.014422767720618197 0 -0.0037062217576292397 -0.012335281255355518 0 -0.0033766943527366216 -0.013084162536050081 0 -0.0040023003429933632 -0.012999263533368834 0 -0.0036206474876345025 -0.014255514299655934 0 -0.0023127697739356093 -0.014919923209981097 0 -0.0025161928947583776 -0.016966583489301301 0 -0.0015588667744129115 -0.015775769272421004 0 -0.0023127697739356093 -0.014919923209981097 0 -0.0025161928947583776 -0.016966583489301301 0 -0.0015588667744129115 -0.015775769272421004 0 -0.0023127697739356093 -0.014919923209981097 0 -0.0019230117732452028 -0.014753682625617954 0 -0.0015588667744129115 -0.015775769272421004 0 -0.0019230117732452028 -0.014753682625617954 0 -0.0011729740288257374 -0.015333284114861139 0 -0.0023127697739356093 -0.014919923209981097 0 -0.0019230117732452028 -0.014753682625617954 0 -0.0014384990179136389 -0.014114266094552585 0 -0.0019933638850110928 -0.012902912702491293 0 -0.0026327802700118128 -0.013167694641122309 0 -0.0023127697739356093 -0.014919923209981097 0 -0.0017875301716635253 -0.014113506835695965 0 -0.0014285617163301825 -0.013657869624356852 0 -0.0019933638850110928 -0.012902912702491293 0 -0.0023127697739356093 -0.014919923209981097 0 -0.001290822465356684 -0.013010599794512348 0 -0.00054892845628587157 -0.014494111632879374 0 -0.00088696263236628112 -0.014632634557783188 0 -0.00043171278351620846 -0.013524425608750777 0 -0.0019230117732452028 -0.014753682625617954 0 -0.00065682675396593125 -0.014804698782368526 0 -0.00097339218624374754 -0.014039677317281731 0 -0.0019230117732452028 -0.014753682625617954 0 -0.0014384990179136389 -0.014114266094552585 0 -0.00043171278351620846 -0.013524425608750777 0 -0.00065682675396593125 -0.014804698782368526 0 0.00082996187818693424 -0.014441914964330782 0 0.00082996187818693424 -0.014441914964330782 0 -0.00053654378511031379 -0.015977931431061802 0 0.00035211724248212519 -0.017105191452356585 0 -0.0001882197409516672 -0.016067244384460284 0 -9.6649357695914232e-05 -0.016490409177466789 0 0.00023177161628972444 -0.018335679900496133 0 0.00035211724248212519 -0.017105191452356585 0 -0.00026240211686246845 -0.017756334088976505 0 -0.00065682675396593125 -0.014804698782368526 0 0.00082996187818693424 -0.014441914964330782 0 -0.00053654378511031379 -0.015977931431061802 0 -0.00065682675396593125 -0.014804698782368526 0 -0.0011729740288257374 -0.015333284114861139 0 -0.00053654378511031379 -0.015977931431061802 0 -0.0019230117732452028 -0.014753682625617954 0 -0.00065682675396593125 -0.014804698782368526 0 -0.0011729740288257374 -0.015333284114861139 0 -0.0015588667744129115 -0.015775769272421004 0 -0.00053654378511031379 -0.015977931431061802 0 -0.0011226776909439911 -0.016766265184542856 0 -0.0015588667744129115 -0.015775769272421004 0 -0.0011729740288257374 -0.015333284114861139 0 -0.00053654378511031379 -0.015977931431061802 0 -0.0011226776909439911 -0.016766265184542856 0 -0.00036510910862391766 -0.016933505935103548 0 -0.00059761358905615985 -0.017402898214249736 0 -0.00053654378511031379 -0.015977931431061802 0 -0.0011226776909439911 -0.016766265184542856 0 -0.00036510910862391766 -0.016933505935103548 0 -0.00053654378511031379 -0.015977931431061802 0 -0.00036510910862391766 -0.016933505935103548 0 0.00035211724248212519 -0.017105191452356585 0 -0.00036510910862391766 -0.016933505935103548 0 -1.9674148864407172e-05 -0.01726019190033273 0 0.00035211724248212519 -0.017105191452356585 0 -1.9674148864407172e-05 -0.01726019190033273 0 -0.00011622233504206244 -0.017540883058751063 0 -0.00059761358905615985 -0.017402898214249736 0 -0.00036510910862391766 -0.016933505935103548 0 -1.9674148864407172e-05 -0.01726019190033273 0 -0.00059761358905615985 -0.017402898214249736 0 -0.0011226776909439911 -0.016766265184542856 0 -0.00059761358905615985 -0.017402898214249736 0 -0.0013827948810396042 -0.017524649744650411 0 -0.00059761358905615985 -0.017402898214249736 0 -0.00078290813277610513 -0.017945773741376975 0 -0.0013827948810396042 -0.017524649744650411 0 0.00020834949880644741 -0.017255822911799286 0 0.00018340879211576708 -0.017180443628560686 0 -0.00026240211686246845 -0.017756334088976505 0 0.00020834949880644741 -0.017255822911799286 0 0.00035211724248212519 -0.017105191452356585 0 -0.00026240211686246845 -0.017756334088976505 0 0.00020834949880644741 -0.017255822911799286 0 0.00035211724248212519 -0.017105191452356585 0 0.00021526725185487045 -0.017251915692003579 0 -1.9674148864407172e-05 -0.01726019190033273 0 0.00035211724248212519 -0.017105191452356585 0 0.00021526725185487045 -0.017251915692003579 0 -1.9674148864407172e-05 -0.01726019190033273 0 6.6334549587762634e-05 -0.017420136591167246 0 0.00021526725185487045 -0.017251915692003579 0 -1.9674148864407172e-05 -0.01726019190033273 0 -0.00011622233504206244 -0.017540883058751063 0 6.6334549587762634e-05 -0.017420136591167246 0 6.6334549587762634e-05 -0.017420136591167246 0 0.00021526725185487045 -0.017251915692003579 0 0.00026097768099332376 -0.017241782824081286 0 0.00020834949880644741 -0.017255822911799286 0 0.00021526725185487045 -0.017251915692003579 0 0.00026097768099332376 -0.017241782824081286 0 0.00020834949880644741 -0.017255822911799286 0 0.00026097768099332376 -0.017241782824081286 0 0.00018340879211576708 -0.017180443628560686 0 -0.00080087290079993855 -0.017070168107967288 0 -0.00087518703160669527 -0.016263947709648899 0 0.00026097768099332376 -0.017241782824081286 0 0.00018340879211576708 -0.017180443628560686 0 0.00029899517381639534 -0.017011383240378632 0 -0.00051973310446057884 -0.017936033543262057 0 -0.00050223705739307781 -0.018004875177024527 0 -0.00058207625456329812 -0.018030595468095052 0 0.00026097768099332376 -0.017241782824081286 0 0.00038881222889598446 -0.017153777519118382 0 0.00029899517381639534 -0.017011383240378632 0 -0.0013540528478941064 -0.015769528259487294 0 -0.0014794762933339088 -0.015691011297610916 0 6.6334549587762634e-05 -0.017420136591167246 0 0.00026097768099332376 -0.017241782824081286 0 -0.00013162258476075061 -0.01796592457327403 0 -0.0014794762933339088 -0.015691011297610916 0 -0.00087518703160669527 -0.016263947709648899 0 -0.0010644057360235967 -0.013945252431731024 0 -0.0016103861119592512 -0.014308687176246561 0 -0.0012051923143632463 -0.014426465363609206 0 -0.00078290813277610513 -0.017945773741376975 0 -0.00013510565737527347 -0.018053378008372114 0 -0.0014623137386731084 -0.019012137517740828 0 -0.00078290813277610513 -0.017945773741376975 0 -0.0013827948810396042 -0.017524649744650411 0 -0.0014623137386731084 -0.019012137517740828 0 -0.0014794762933339088 -0.015691011297610916 0 -0.001971459681841101 -0.014037257982713037 0 -0.00011622233504206244 -0.017540883058751063 0 -0.00059761358905615985 -0.017402898214249736 0 -0.00025440803796096908 -0.017845279249115165 0 -0.00078290813277610513 -0.017945773741376975 0 -0.00025440803796096908 -0.017845279249115165 0 -0.00013510565737527347 -0.018053378008372114 0 -0.00059761358905615985 -0.017402898214249736 0 -0.00078290813277610513 -0.017945773741376975 0 -0.00025440803796096908 -0.017845279249115165 0 -0.00011622233504206244 -0.017540883058751063 0 6.6334549587762634e-05 -0.017420136591167246 0 -0.00013162258476075061 -0.01796592457327403 0 -0.00011622233504206244 -0.017540883058751063 0 -0.00025440803796096908 -0.017845279249115165 0 -0.00013162258476075061 -0.01796592457327403 0 -0.001464380155215352 -0.015715175963929556 0 -0.0014794762933339088 -0.015691011297610916 0 -0.0010644057360235967 -0.013945252431731024 0 -0.0012051923143632463 -0.014426465363609206 0 -0.00082117948119710474 -0.014318991003984581 0 -0.0036497188213309422 -0.013575648040816153 0 -0.0033766943527366216 -0.013084162536050081 0 -0.003060802706132305 -0.013788543509199919 0 -0.002523256251314616 -0.014422767720618197 0 -0.001971459681841101 -0.014037257982713037 0 -0.0025161928947583776 -0.016966583489301301 0 -0.0013827948810396042 -0.017524649744650411 0 -0.0014623137386731084 -0.019012137517740828 0 -0.0036497188213309422 -0.013575648040816153 0 -0.0033766943527366216 -0.013084162536050081 0 -0.0040023003429933632 -0.012999263533368834 0 -0.0015588667744129115 -0.015775769272421004 0 -0.0011226776909439911 -0.016766265184542856 0 -0.0025161928947583776 -0.016966583489301301 0 -0.0011226776909439911 -0.016766265184542856 0 -0.0025161928947583776 -0.016966583489301301 0 -0.0013827948810396042 -0.017524649744650411 0 -0.00061440488241977357 -0.018044863160526985 0 -0.00056411327512747797 -0.018084082111855818 0 -0.00059398170013315625 -0.017995707904231262 0 -0.00026618838384945661 -0.019635797975264154 0 -0.00075616930420866575 -0.019966083043186915 0 -0.0011838393360350803 -0.018925073886452776 0 -0.00070646408521392377 -0.018312374993115995 0 -0.0011838393360350803 -0.018925073886452776 0 -0.00087084612811954751 -0.017891087965887079 0 -0.00026618838384945661 -0.019635797975264154 0 -0.00070646408521392377 -0.018312374993115995 0 -0.0011838393360350803 -0.018925073886452776 0 -0.00061937469921608435 -0.018872509181650975 0 -0.00068866532179254951 -0.018641497916320512 0 -0.00061440488241977357 -0.018044863160526985 0 -0.00070646408521392377 -0.018312374993115995 0 -0.00056411327512747797 -0.018084082111855818 0 -0.00056411327512747797 -0.018084082111855818 0 -0.00048938290556616981 -0.017972472365850398 0 -0.00045075192126922469 -0.018022544793011609 0 -0.00045789619198412067 -0.017965814590438715 0 -0.00048938290556616981 -0.017972472365850398 0 -0.00045075192126922469 -0.018022544793011609 0 -0.00050223705739307781 -0.018004875177024527 0 -0.00045789619198412067 -0.017965814590438715 0 -0.00045075192126922469 -0.018022544793011609 0 -0.00051973310446057884 -0.017936033543262057 0 -0.00050223705739307781 -0.018004875177024527 0 -0.00045789619198412067 -0.017965814590438715 0 -0.00080087290079993855 -0.017070168107967288 0 -0.00077841951008270386 -0.017308760169705242 0 -0.00039317171510639266 -0.017884761080949968 0 -0.00048938290556616981 -0.017972472365850398 0 -0.00047936363501623085 -0.017940998392732214 0 -0.00051973310446057884 -0.017936033543262057 0 -0.00039317171510639266 -0.017884761080949968 0 -0.00026240211686246845 -0.017756334088976505 0 -0.00051973310446057884 -0.017936033543262057 0 -0.00045789619198412067 -0.017965814590438715 0 -0.00039317171510639266 -0.017884761080949968 0 -0.00045789619198412067 -0.017965814590438715 0 -0.00039317171510639266 -0.017884761080949968 0 -0.00048938290556616981 -0.017972472365850398 0 -0.00056411327512747797 -0.018084082111855818 0 -0.00059398170013315625 -0.017995707904231262 0 -0.00048938290556616981 -0.017972472365850398 0 -0.00059398170013315625 -0.017995707904231262 0 -0.00048938290556616981 -0.017972472365850398 0 -0.00047936363501623085 -0.017940998392732214 0 -0.00059398170013315625 -0.017995707904231262 0 -0.00047936363501623085 -0.017940998392732214 0 -0.00078861776677160913 -0.018130230850711099 0 -0.00047936363501623085 -0.017940998392732214 0 -0.00033096832760550442 -0.018352167640677975 0 -0.00078861776677160913 -0.018130230850711099 0 -0.00047936363501623085 -0.017940998392732214 0 -0.00026240211686246845 -0.017756334088976505 0 -0.00033096832760550442 -0.018352167640677975 0 -0.00039317171510639266 -0.017884761080949968 0 -0.00047936363501623085 -0.017940998392732214 0 -0.00026240211686246845 -0.017756334088976505 0 0.00023177161628972444 -0.018335679900496133 0 -0.00026240211686246845 -0.017756334088976505 0 -0.00033096832760550442 -0.018352167640677975 0 0.00023177161628972444 -0.018335679900496133 0 -0.00033096832760550442 -0.018352167640677975 0 -8.1750467036743692e-05 -0.018616173026883145 0 -0.00033096832760550442 -0.018352167640677975 0 -0.00078861776677160913 -0.018130230850711099 0 -0.00077685736252335936 -0.018901879759411544 0 -0.0005112672207524977 -0.020538695697578283 0 -0.00050267496668280134 -0.020552474733882008 0 -0.00044924055950348288 -0.020564844423701444 0 -0.00054077941441155772 -0.019268630555036335 0 -0.00045969340630706493 -0.01965828249045529 0 -0.0005112672207524977 -0.020538695697578283 0 -0.00032571581024953844 -0.020424761507624411 0 -0.00065962018515806952 -0.02045020695944802 0 -0.0005112672207524977 -0.020538695697578283 0 -0.00032571581024953844 -0.020424761507624411 0 -0.00044924055950348288 -0.020564844423701444 0 -0.0005112672207524977 -0.020538695697578283 0 -0.00057627923106309039 -0.020576895808359346 0 -0.00050267496668280134 -0.020552474733882008 0 -0.00026618838384945661 -0.019635797975264154 0 -0.00032571581024953844 -0.020424761507624411 0 -0.00065962018515806952 -0.02045020695944802 0 -0.00061937469921608435 -0.018872509181650975 0 -0.00054077941441155772 -0.019268630555036335 0 -0.00061440488241977357 -0.018044863160526985 0 -0.00059398170013315625 -0.017995707904231262 0 -0.00078861776677160913 -0.018130230850711099 0 -0.00026618838384945661 -0.019635797975264154 0 -0.00075616930420866575 -0.019966083043186915 0 -0.00065962018515806952 -0.02045020695944802 0 -0.00075616930420866575 -0.019966083043186915 0 -0.00065962018515806952 -0.02045020695944802 0 -0.0010698683020276122 -0.020643416427332816 0 -0.00065962018515806952 -0.02045020695944802 0 -0.00079714017932884138 -0.020547944746104715 0 -0.0010698683020276122 -0.020643416427332816 0 -0.00065962018515806952 -0.02045020695944802 0 -0.00079714017932884138 -0.020547944746104715 0 -0.00065419768923046418 -0.02056077441739378 0 -0.0005112672207524977 -0.020538695697578283 0 -0.00065962018515806952 -0.02045020695944802 0 -0.00065419768923046418 -0.02056077441739378 0 -0.00065419768923046418 -0.02056077441739378 0 -0.00057627923106309039 -0.020576895808359346 0 -0.00065991523891740589 -0.02063972818533498 0 -0.0005112672207524977 -0.020538695697578283 0 -0.00065419768923046418 -0.02056077441739378 0 -0.00057627923106309039 -0.020576895808359346 0 -0.00079714017932884138 -0.020547944746104715 0 -0.00065419768923046418 -0.02056077441739378 0 -0.00065991523891740589 -0.02063972818533498 0 0.00023098575759532454 -0.020831666888373294 0 -0.00018167221001378039 -0.020481603546026239 0 4.6697571543960878e-05 -0.020480646904774486 0 6.1478406596816488e-05 -0.020657441454713613 0 -5.487148096741103e-05 -0.02070402028109878 0 -0.00036896567139188129 -0.020426983063241578 0 0.00023098575759532454 -0.020831666888373294 0 0.00027303931516207145 -0.020574776304246957 0 4.6697571543960878e-05 -0.020480646904774486 0 0.00026335557889815842 -0.020779933144585878 0 -5.2717170004918573e-05 -0.020646868761053396 0 0.00023098575759532454 -0.020831666888373294 0 -0.00036896567139188129 -0.020426983063241578 0 -0.00018167221001378039 -0.020481603546026239 0 -0.00065991523891740589 -0.02063972818533498 0 -0.00050267496668280134 -0.020552474733882008 0 -0.00039940339127434989 -0.020435245517245248 0 -0.00057627923106309039 -0.020576895808359346 0 -0.00065991523891740589 -0.02063972818533498 0 -0.00050267496668280134 -0.020552474733882008 0 -5.487148096741103e-05 -0.02070402028109878 0 -0.00036896567139188129 -0.020426983063241578 0 -0.00039940339127434989 -0.020435245517245248 0 -0.00026512494855941216 -0.020659604871810035 0 -0.00037992907986453305 -0.020583585428558347 0 -0.00050267496668280134 -0.020552474733882008 0 -0.00044924055950348288 -0.020564844423701444 0 -0.00039940339127434989 -0.020435245517245248 0 -0.00018167221001378039 -0.020481603546026239 0 -0.00018151932051611847 -0.020181540484534907 0 4.6697571543960878e-05 -0.020480646904774486 0 -0.00018167221001378039 -0.020481603546026239 0 -0.0002939660333782715 -0.020317458052275136 0 -0.00018151932051611847 -0.020181540484534907 0 -0.00036896567139188129 -0.020426983063241578 0 -0.00018167221001378039 -0.020481603546026239 0 -0.00030061023944285171 -0.020393698491215983 0 -0.00035206806902842743 -0.020357093101311997 0 -0.0002939660333782715 -0.020317458052275136 0 -0.00039697841665084217 -0.020293163075713407 0 -0.00036896567139188129 -0.020426983063241578 0 -0.00035206806902842743 -0.020357093101311997 0 -0.00039385585317515458 -0.020327458115017079 0 -0.00036896567139188129 -0.020426983063241578 0 -0.00035206806902842743 -0.020357093101311997 0 -0.00030061023944285171 -0.020393698491215983 0 -0.00018167221001378039 -0.020481603546026239 0 -0.00030061023944285171 -0.020393698491215983 0 -0.0002939660333782715 -0.020317458052275136 0 -0.00035206806902842743 -0.020357093101311997 0 -0.00030061023944285171 -0.020393698491215983 0 -0.0002939660333782715 -0.020317458052275136 0 -0.0002939660333782715 -0.020317458052275136 0 -0.00039697841665084217 -0.020293163075713407 0 -0.00037292077301370041 -0.020272183980033016 0 -0.0002939660333782715 -0.020317458052275136 0 -0.00018151932051611847 -0.020181540484534907 0 -0.00037292077301370041 -0.020272183980033016 0 -0.00018151932051611847 -0.020181540484534907 0 4.6697571543960878e-05 -0.020480646904774486 0 0.00041225443626520867 -0.02035055104543464 0 0.00010324398108712475 -0.020229550364565543 0 0.00040893442910520575 -0.020127383012407758 0 0.00060877027637221289 -0.020439537909513795 0 0.00047371842634456158 -0.018253959895265029 0 0.0008191857885311881 -0.01921668464243198 0 0.00027303931516207145 -0.020574776304246957 0 4.6697571543960878e-05 -0.020480646904774486 0 0.00041225443626520867 -0.02035055104543464 0 -0.00033096832760550442 -0.018352167640677975 0 -0.00033943976381547048 -0.018847334564443968 0 -8.1750467036743692e-05 -0.018616173026883145 0 -0.0005380096161663471 -0.018432290523771648 0 -0.00056866913189985589 -0.018229307666421699 0 0.00011921996381467823 -0.01890980610842357 0 -0.00033943976381547048 -0.018847334564443968 0 -8.1750467036743692e-05 -0.018616173026883145 0 -0.00044924055950348288 -0.020564844423701444 0 -0.00039940339127434989 -0.020435245517245248 0 -0.00040106743126198415 -0.020082673269371229 0 -0.00023646677239465386 -0.01943553677700309 0 -0.00077685736252335936 -0.018901879759411544 0 -0.00040106743126198415 -0.020082673269371229 0 -0.00045969340630706493 -0.01965828249045529 0 -0.00040019592013117405 -0.019857083569121178 0 -0.00033096832760550442 -0.018352167640677975 0 -0.00023646677239465386 -0.01943553677700309 0 -0.00077685736252335936 -0.018901879759411544 0 -0.00023646677239465386 -0.01943553677700309 0 -0.00040106743126198415 -0.020082673269371229 0 -0.00036588980200218411 -0.020461577395183225 0 -0.00039385585317515458 -0.020327458115017079 0 -0.00039697841665084217 -0.020293163075713407 0 -0.00040106743126198415 -0.020082673269371229 0 -0.00039940339127434989 -0.020435245517245248 0 -0.00039385585317515458 -0.020327458115017079 0 -0.00040106743126198415 -0.020082673269371229 0 -0.00036896567139188129 -0.020426983063241578 0 -0.00039940339127434989 -0.020435245517245248 0 -0.00039385585317515458 -0.020327458115017079 0 -0.00035206806902842743 -0.020357093101311997 0 -0.00039385585317515458 -0.020327458115017079 0 -0.00039697841665084217 -0.020293163075713407 0 -0.00039697841665084217 -0.020293163075713407 0 -0.00037292077301370041 -0.020272183980033016 0 -0.00043297804493323166 -0.020237955456482808 0 -0.00037292077301370041 -0.020272183980033016 0 -0.00043297804493323166 -0.020237955456482808 0 -0.00042583717199697659 -0.020316062706863095 0 -0.00039697841665084217 -0.020293163075713407 0 -0.00043297804493323166 -0.020237955456482808 0 -0.00040106743126198415 -0.020082673269371229 0 -0.00043297804493323166 -0.020237955456482808 0 -0.00040106743126198415 -0.020082673269371229 0 -0.00036588980200218411 -0.020461577395183225 0 -0.00043297804493323166 -0.020237955456482808 0 -0.00036588980200218411 -0.020461577395183225 0 -0.00042583717199697659 -0.020316062706863095 0 -0.00027250936075699301 -0.014268862391186941 0 -0.00073841673956013068 -0.015068900194932896 0 -0.0011219522199424946 -0.014999720953233091 0 0.00011921996381467823 -0.01890980610842357 0 -0.00033943976381547048 -0.018847334564443968 0 -0.0003749104220088177 -0.019316999914860734 0 -0.00056866913189985589 -0.018229307666421699 0 -0.00060051777387829994 -0.01630272766297515 0 -0.00059220531295762731 -0.015040735302685732 0 -0.00060051777387829994 -0.01630272766297515 0 -0.00071268244417455084 -0.013470265811782189 0 -0.00062231365797798426 -0.012787520462372916 0 -0.0010717760455489233 -0.013331470936549017 0 -0.0013861285199080024 -0.012164491711623968 0 -0.00110647990832625 -0.013159568050071499 0 -0.00090948229600842792 -0.013108865710750255 0 -0.00110647990832625 -0.013159568050071499 0 -0.00036492227691140732 -0.014957267682333096 0 -0.000777370888190262 -0.01545538393471178 0 -0.00073841673956013068 -0.015068900194932896 0 -0.00073841673956013068 -0.015068900194932896 0 -0.0011453592508341654 -0.015314033837334111 0 -0.0011219522199424946 -0.014999720953233091 0 -0.000777370888190262 -0.01545538393471178 0 -0.00073841673956013068 -0.015068900194932896 0 -0.0011453592508341654 -0.015314033837334111 0 -0.00110647990832625 -0.013159568050071499 0 -0.00073416601594561914 -0.014762815856758173 0 -0.00019228554455815984 -0.016195698204158903 0 0.00049967837303651523 -0.017222279191049288 0 -0.0017758031515863349 -0.010950875981422692 0 -0.0015118099440817484 -0.011053877470211863 0 -0.0014933453645773543 -0.010604445421367579 0 -0.00073416601594561914 -0.014762815856758173 0 -0.00019228554455815984 -0.016195698204158903 0 0.00078521218144538116 -0.017727435960790332 0 0.00099211094445287207 -0.014864813522087079 0 -0.0013556217437628215 -0.016898218513081566 0 -0.00073416601594561914 -0.014762815856758173 0 -0.00060051777387829994 -0.01630272766297515 0 -0.00036588980200218411 -0.020461577395183225 0 -0.00042583717199697659 -0.020316062706863095 0 -0.00043873576162613444 -0.020291582347625209 0 -0.00060051777387829994 -0.01630272766297515 0 -0.00019228554455815984 -0.016195698204158903 0 -0.00037292077301370041 -0.020272183980033016 0 -0.00042583717199697659 -0.020316062706863095 0 -0.00043873576162613444 -0.020291582347625209 0 -0.0015118099440817484 -0.011053877470211863 0 -0.0014933453645773543 -0.010604445421367579 0 -0.00078264525996385762 -0.010401052756203295 0 -0.0017236695465103417 -0.010224358130850576 0 -0.0014933453645773543 -0.010604445421367579 0 -0.00078264525996385762 -0.010401052756203295 0 -0.00073416601594561914 -0.014762815856758173 0 -0.00072631197314614602 -0.011901318517341029 0 -0.0017758031515863349 -0.010950875981422692 0 -0.0017236695465103417 -0.010224358130850576 0 -0.0014933453645773543 -0.010604445421367579 0 -0.0013532801953280995 -0.011321390648054624 0 -0.0013861285199080024 -0.012164491711623968 0 -0.0018348975904833175 -0.0094330893683635241 0 -0.0018805347679628065 -0.009742029198907461 0 -0.0017407819725225914 -0.0096184076577964395 0 -0.00095817886719676683 -0.012701654276302559 0 -0.0015830927540391767 -0.012460159128125628 0 -0.0016623302808561411 -0.013552812710584859 0 -0.0018348975904833175 -0.0094330893683635241 0 -0.0015416284120379992 -0.0095739802426096574 0 -0.0017407819725225914 -0.0096184076577964395 0 -0.0017248216860271481 -0.0097974009365878311 0 -0.0015416284120379992 -0.0095739802426096574 0 -0.0017407819725225914 -0.0096184076577964395 0 -0.00110647990832625 -0.013159568050071499 0 -0.00072631197314614602 -0.011901318517341029 0 -0.0018805347679628065 -0.009742029198907461 0 -0.0017248216860271481 -0.0097974009365878311 0 -0.0017407819725225914 -0.0096184076577964395 0 0.00020118344147771237 -0.019934757713789823 0 0.00043236909451764268 -0.019887416702202503 0 0.00040893442910520575 -0.020127383012407758 0 0.00043236909451764268 -0.019887416702202503 0 0.00040893442910520575 -0.020127383012407758 0 0.00073476595245261761 -0.020150579892748825 0 0.00010324398108712475 -0.020229550364565543 0 0.00020118344147771237 -0.019934757713789823 0 0.00040893442910520575 -0.020127383012407758 0 -0.00018151932051611847 -0.020181540484534907 0 -0.00037292077301370041 -0.020272183980033016 0 -0.00043873576162613444 -0.020291582347625209 0 -0.00039588094193608781 -0.020025203593252657 0 -3.228150326693685e-05 -0.019969109477391389 0 -4.1093693802867633e-06 -0.019691040597390332 0 0.00047371842634456158 -0.018253959895265029 0 -0.00019228554455815984 -0.016195698204158903 0 0.00010324398108712475 -0.020229550364565543 0 -0.00039588094193608781 -0.020025203593252657 0 -3.228150326693685e-05 -0.019969109477391389 0 0.00010324398108712475 -0.020229550364565543 0 0.00020118344147771237 -0.019934757713789823 0 -3.228150326693685e-05 -0.019969109477391389 0 0.00020118344147771237 -0.019934757713789823 0 -3.228150326693685e-05 -0.019969109477391389 0 -4.1093693802867633e-06 -0.019691040597390332 0 -0.00065404878629612149 -0.0098126771146161609 0 -0.0017236695465103417 -0.010224358130850576 0 -0.00078264525996385762 -0.010401052756203295 0 0.00020118344147771237 -0.019934757713789823 0 -4.1093693802867633e-06 -0.019691040597390332 0 0.00030232939609418561 -0.01970545536283826 0 0.00061812932034803643 -0.019980899281570812 0 0.00049967837303651523 -0.017222279191049288 0 0.00038936412350085766 -0.019350936754415484 0 -4.1093693802867633e-06 -0.019691040597390332 0 0.00030232939609418561 -0.01970545536283826 0 0.00020118344147771237 -0.019934757713789823 0 0.00043236909451764268 -0.019887416702202503 0 0.00030232939609418561 -0.01970545536283826 0 0.00062800901468406344 -0.020780980616342187 0 0.00059212180527824353 -0.020918274818253334 0 0.00043236909451764268 -0.019887416702202503 0 0.00030232939609418561 -0.01970545536283826 0 0.00052726459230466132 -0.019667873523728101 0 0.00038936412350085766 -0.019350936754415484 0 0.00030232939609418561 -0.01970545536283826 0 0.00052726459230466132 -0.019667873523728101 0 0.00061812932034803643 -0.019980899281570812 0 0.00059212180527824353 -0.020918274818253334 0 0.00077551400261944377 -0.019126377072554882 0 0.00053309444991354979 -0.019678851518615155 0 0.00093402559365446424 -0.019762488437689636 0 0.00043236909451764268 -0.019887416702202503 0 0.0005294461818462923 -0.019666614578652729 0 0.00073476595245261761 -0.020150579892748825 0 0.00059212180527824353 -0.020918274818253334 0 0.00049516766028719474 -0.020508898031772471 0 0.00053309444991354979 -0.019678851518615155 0 0.00073476595245261761 -0.020150579892748825 0 0.00093402559365446424 -0.019762488437689636 0 0.00073476595245261761 -0.020150579892748825 0 0.0012151736327378525 -0.020117225825153687 0 0.00091431107680100003 -0.020342553111556427 0 0.00073476595245261761 -0.020150579892748825 0 0.0012151736327378525 -0.020117225825153687 0 0.00093402559365446424 -0.019762488437689636 0 0.0012151736327378525 -0.020117225825153687 0 0.0012850747305449312 -0.019519682868851203 0 0.00093402559365446424 -0.019762488437689636 0 -0.010653054826446715 -0.04160903659497342 0 -0.0094898225178069694 -0.041584878486992681 0 -0.0095793566196198093 -0.042638523247005615 0 -0.0032730998829278994 -0.029359583193304211 0 -0.003378513092687305 -0.03085115229685376 0 -0.0094898225178069694 -0.041584878486992681 0 -0.0095793566196198093 -0.042638523247005615 0 -0.0085473796099088378 -0.042619303170308619 0 -0.003378513092687305 -0.03085115229685376 0 -0.003061311872822472 -0.032144629555760147 0 0.0012151736327378525 -0.020117225825153687 0 0.0012850747305449312 -0.019519682868851203 0 0.0018490158635757856 -0.019923014472700149 0 0.0012151736327378525 -0.020117225825153687 0 0.0018490158635757856 -0.019923014472700149 0 0.0017282111931100587 -0.020417770570528973 0 0.0012151736327378525 -0.020117225825153687 0 0.0017282111931100587 -0.020417770570528973 0 0.0011066133944129287 -0.020657555806541342 0 0.0018490158635757856 -0.019923014472700149 0 0.0017282111931100587 -0.020417770570528973 0 0.0024844286092405446 -0.020370393345736735 0 0.0017282111931100587 -0.020417770570528973 0 0.0020372785152655793 -0.020856507538285118 0 0.0024844286092405446 -0.020370393345736735 0 0.0020372785152655793 -0.020856507538285118 0 0.0015787034001163019 -0.020913528173794046 0 0.0018606403698525156 -0.021485359714749221 0 0.0017282111931100587 -0.020417770570528973 0 0.0020372785152655793 -0.020856507538285118 0 0.0015787034001163019 -0.020913528173794046 0 0.0017282111931100587 -0.020417770570528973 0 0.0015787034001163019 -0.020913528173794046 0 0.0011066133944129287 -0.020657555806541342 0 0.0011066133944129287 -0.020657555806541342 0 0.00072317628667720147 -0.020833702730299969 0 0.0010850553469901106 -0.021185512271984605 0 0.0015787034001163019 -0.020913528173794046 0 0.0011066133944129287 -0.020657555806541342 0 0.0010850553469901106 -0.021185512271984605 0 0.0011066133944129287 -0.020657555806541342 0 0.00072317628667720147 -0.020833702730299969 0 0.00049576674249093985 -0.020653617509551411 0 6.1478406596816488e-05 -0.020657441454713613 0 -5.487148096741103e-05 -0.02070402028109878 0 0.00038575631903238044 -0.020990771498867744 0 0.00023098575759532454 -0.020831666888373294 0 0.00072317628667720147 -0.020833702730299969 0 0.0010850553469901106 -0.021185512271984605 0 0.00026335557889815842 -0.020779933144585878 0 0.00090786447811862627 -0.021035271366321672 0 0.00023098575759532454 -0.020831666888373294 0 0.00027303931516207145 -0.020574776304246957 0 0.00049576674249093985 -0.020653617509551411 0 0.00023098575759532454 -0.020831666888373294 0 0.00072317628667720147 -0.020833702730299969 0 0.00049576674249093985 -0.020653617509551411 0 0.0010221644630124278 -0.019537195909665857 0 0.0008191857885311881 -0.01921668464243198 0 0.0011066133944129287 -0.020657555806541342 0 0.00060877027637221289 -0.020439537909513795 0 0.00091431107680100003 -0.020342553111556427 0 0.0011066133944129287 -0.020657555806541342 0 0.00049576674249093985 -0.020653617509551411 0 0.00041225443626520867 -0.02035055104543464 0 0.00027303931516207145 -0.020574776304246957 0 0.00049576674249093985 -0.020653617509551411 0 0.00041225443626520867 -0.02035055104543464 0 0.00040893442910520575 -0.020127383012407758 0 0.00073476595245261761 -0.020150579892748825 0 0.00060877027637221289 -0.020439537909513795 0 0.00073476595245261761 -0.020150579892748825 0 0.00060877027637221289 -0.020439537909513795 0 0.00091431107680100003 -0.020342553111556427 0 0.0012151736327378525 -0.020117225825153687 0 0.0011066133944129287 -0.020657555806541342 0 0.00091431107680100003 -0.020342553111556427 0 0.00015653527922550729 -0.036305785399835207 0 0.00077120774593146416 -0.037814663122946041 0 0.0024828668979714388 -0.038086786458903517 0 0.0030333343677224909 -0.036583809670031948 0 0.00080136881452938307 -0.036776917821379609 0 0.0040552195223335242 -0.037791994600086025 0 0.00080136881452938307 -0.036776917821379609 0 0.0040552195223335242 -0.037791994600086025 0 0.0041180011968158896 -0.039183745275522958 0 0.00048559917904684676 -0.037084265409656918 0 0.0027793245079070473 -0.039299312643753914 0 0.0030333343677224909 -0.036583809670031948 0 0.0018163124668791539 -0.035084339490780762 0 0.00080136881452938307 -0.036776917821379609 0 0.0030333343677224909 -0.036583809670031948 0 0.0033590329070650928 -0.035761546040416523 0 0.0018163124668791539 -0.035084339490780762 0 0.0033590329070650928 -0.035761546040416523 0 0.0035614217477913969 -0.034147812507418052 0 0.0018163124668791539 -0.035084339490780762 0 0.0012181050204584183 -0.032862939200823962 0 0.0035614217477913969 -0.034147812507418052 0 0.0018163124668791539 -0.035084339490780762 0 0.0018163124668791539 -0.035084339490780762 0 7.4712391788894214e-05 -0.034445155705444382 0 0.00080136881452938307 -0.036776917821379609 0 7.4712391788894214e-05 -0.034445155705444382 0 0.00080136881452938307 -0.036776917821379609 0 -0.0022327177265544259 -0.034387349528060038 0 0.0012181050204584183 -0.032862939200823962 0 0.0018163124668791539 -0.035084339490780762 0 7.4712391788894214e-05 -0.034445155705444382 0 -0.0075773206046769225 -0.042607454656141019 0 -0.0075951775246153796 -0.043667448776514267 0 -0.0066906852829328265 -0.043692392635396607 0 0.00015653527922550729 -0.036305785399835207 0 -0.0012778885559684274 -0.035851467611286728 0 0.00077120774593146416 -0.037814663122946041 0 -0.0041228170549757297 -0.038865797862976392 0 -0.0029257737847586951 -0.040617333460091221 0 -0.0085473796099088378 -0.042619303170308619 0 -0.0085386918085746735 -0.043681965139900539 0 -0.0075951775246153796 -0.043667448776514267 0 -0.0075773206046769225 -0.042607454656141019 0 -0.0085473796099088378 -0.042619303170308619 0 -0.0075951775246153796 -0.043667448776514267 0 0.00048559917904684676 -0.037084265409656918 0 -0.0008833612086564537 -0.035925186484817358 0 -0.0010856932885441371 -0.033340150609835445 0 7.4712391788894214e-05 -0.034445155705444382 0 -0.0022327177265544259 -0.034387349528060038 0 -0.0051012107868311663 -0.036922848363370599 0 -0.0041228170549757297 -0.038865797862976392 0 -0.0033564428154008127 -0.033745189136731378 0 -0.0012778885559684274 -0.035851467611286728 0 -0.0022327177265544259 -0.034387349528060038 0 0.00015653527922550729 -0.036305785399835207 0 -0.0012778885559684274 -0.035851467611286728 0 -0.0022327177265544259 -0.034387349528060038 0 -0.008530908546166574 -0.04153218149661736 0 -0.0075773206046769225 -0.042607454656141019 0 -0.0085473796099088378 -0.042619303170308619 0 -0.008530908546166574 -0.04153218149661736 0 -0.0094898225178069694 -0.041584878486992681 0 -0.0085473796099088378 -0.042619303170308619 0 -0.0095793566196198093 -0.042638523247005615 0 -0.0085473796099088378 -0.042619303170308619 0 -0.0085386918085746735 -0.043681965139900539 0 0.0020372785152655793 -0.020856507538285118 0 0.0024844286092405446 -0.020370393345736735 0 0.0025434882458582296 -0.021123166032221665 0 0.0024844286092405446 -0.020370393345736735 0 0.0031699921103646813 -0.020868171425201559 0 0.0025434882458582296 -0.021123166032221665 0 -0.003061311872822472 -0.032144629555760147 0 -0.0027769610798360498 -0.033507199749318449 0 -0.0085386918085746735 -0.043681965139900539 0 -0.0075318521749355343 -0.044692089635492212 0 -0.0075951775246153796 -0.043667448776514267 0 -0.0075318521749355343 -0.044692089635492212 0 -0.0075951775246153796 -0.043667448776514267 0 -0.0066906852829328265 -0.043692392635396607 0 -0.0075318521749355343 -0.044692089635492212 0 -0.006563617452698213 -0.044804070210340385 0 -0.0066906852829328265 -0.043692392635396607 0 -0.0075318521749355343 -0.044692089635492212 0 -0.006563617452698213 -0.044804070210340385 0 -0.0065879927141344894 -0.045600076867212194 0 -0.006563617452698213 -0.044804070210340385 0 -0.0066906852829328265 -0.043692392635396607 0 -0.0059617239025657413 -0.04472767920111885 0 -0.006563617452698213 -0.044804070210340385 0 -0.0059617239025657413 -0.04472767920111885 0 -0.0061296282319908404 -0.045251285321992352 0 0.00077120774593146416 -0.037814663122946041 0 0.0024828668979714388 -0.038086786458903517 0 0.0027719997743365079 -0.039662548759920258 0 -0.0029257737847586951 -0.040617333460091221 0 -0.0016755824864030145 -0.042313626173604714 0 0.0039028824468474712 -0.021392344087504501 0 0.0035828035677596356 -0.022105871949327328 0 0.0047164266124728798 -0.022016025266564737 0 -0.0029549414286210995 -0.035293063925999742 0 -0.0043709002711379971 -0.038121979090133082 0 -0.006563617452698213 -0.044804070210340385 0 -0.0065879927141344894 -0.045600076867212194 0 -0.0061296282319908404 -0.045251285321992352 0 -0.0065879927141344894 -0.045600076867212194 0 -0.0061296282319908404 -0.045251285321992352 0 -0.0060794134707720503 -0.045694990428323805 0 -0.0027769610798360498 -0.033507199749318449 0 -0.0029549414286210995 -0.035293063925999742 0 0.0031699921103646813 -0.020868171425201559 0 0.0039028824468474712 -0.021392344087504501 0 0.0032666976209527318 -0.021559906607037011 0 0.0039028824468474712 -0.021392344087504501 0 0.0032666976209527318 -0.021559906607037011 0 0.0035828035677596356 -0.022105871949327328 0 0.0024341353125937153 -0.02151888423639851 0 0.0029934249435875537 -0.022333225873256174 0 0.0035828035677596356 -0.022105871949327328 0 0.0024918916826116759 -0.021635444964565664 0 0.0029950410989566106 -0.021826648063435709 0 0.0032666976209527318 -0.021559906607037011 0 0.0026870396386514655 -0.021801386115566403 0 0.0035828035677596356 -0.022105871949327328 0 0.0032666976209527318 -0.021559906607037011 0 0.0025434882458582296 -0.021123166032221665 0 0.0026870396386514655 -0.021801386115566403 0 0.0031699921103646813 -0.020868171425201559 0 0.0032666976209527318 -0.021559906607037011 0 0.0025434882458582296 -0.021123166032221665 0 0.0025434882458582296 -0.021123166032221665 0 0.0026870396386514655 -0.021801386115566403 0 0.0018606403698525156 -0.021485359714749221 0 0.0024918916826116759 -0.021635444964565664 0 0.001675180739277233 -0.021327041277567297 0 0.0024341353125937153 -0.02151888423639851 0 0.0020296215533541963 -0.022233102118523879 0 0.0016534086867831797 -0.021778083050341273 0 0.0024341353125937153 -0.02151888423639851 0 0.0020296215533541963 -0.022233102118523879 0 0.0024974509745944989 -0.022335558984032691 0 0.0020296215533541963 -0.022233102118523879 0 0.0023138231380431151 -0.022681971416777674 0 0.0024974509745944989 -0.022335558984032691 0 0.0020296215533541963 -0.022233102118523879 0 0.0019213002772783482 -0.022762861794130538 0 0.0023138231380431151 -0.022681971416777674 0 0.0020296215533541963 -0.022233102118523879 0 0.0019213002772783482 -0.022762861794130538 0 0.0014886168339017707 -0.02234618420934684 0 0.00084469806534777066 -0.029284814514228426 0 0.0010531258252030025 -0.029952827852529226 0 0.0019213002772783482 -0.022762861794130538 0 0.0021587741394354684 -0.023145472452369732 0 0.0015884420507033866 -0.023061856795905698 0 0.0020675001677508292 -0.023177282673145297 0 0.0024194258102004625 -0.023118623036529867 0 0.0023040412559147089 -0.023733898284527804 0 0.0019213002772783482 -0.022762861794130538 0 0.0020675001677508292 -0.023177282673145297 0 0.0024194258102004625 -0.023118623036529867 0 0.0019213002772783482 -0.022762861794130538 0 0.0024194258102004625 -0.023118623036529867 0 0.0023138231380431151 -0.022681971416777674 0 0.0024194258102004625 -0.023118623036529867 0 0.0023138231380431151 -0.022681971416777674 0 0.0027648828389232501 -0.022910428061465933 0 0.0024194258102004625 -0.023118623036529867 0 0.0027648828389232501 -0.022910428061465933 0 0.0028105481164900315 -0.023491225879080046 0 0.0027648828389232501 -0.022910428061465933 0 0.0033757229977865806 -0.023580241354245086 0 0.0028105481164900315 -0.023491225879080046 0 0.0027648828389232501 -0.022910428061465933 0 0.0029934249435875537 -0.022333225873256174 0 0.0035113733172046947 -0.022830043510399779 0 0.0024341353125937153 -0.02151888423639851 0 0.0024974509745944989 -0.022335558984032691 0 0.0029934249435875537 -0.022333225873256174 0 0.0023138231380431151 -0.022681971416777674 0 0.0027648828389232501 -0.022910428061465933 0 0.0024974509745944989 -0.022335558984032691 0 0.0027648828389232501 -0.022910428061465933 0 0.0024974509745944989 -0.022335558984032691 0 0.0029934249435875537 -0.022333225873256174 0 0.0029934249435875537 -0.022333225873256174 0 0.0035828035677596356 -0.022105871949327328 0 0.0035113733172046947 -0.022830043510399779 0 0.0027648828389232501 -0.022910428061465933 0 0.0035113733172046947 -0.022830043510399779 0 0.0033757229977865806 -0.023580241354245086 0 0.0035113733172046947 -0.022830043510399779 0 0.0033757229977865806 -0.023580241354245086 0 0.0044786458018672062 -0.02303671486481261 0 0.0035828035677596356 -0.022105871949327328 0 0.0047164266124728798 -0.022016025266564737 0 0.0044786458018672062 -0.02303671486481261 0 0.0035828035677596356 -0.022105871949327328 0 0.0035113733172046947 -0.022830043510399779 0 0.0044786458018672062 -0.02303671486481261 0 -0.00039018263909313956 -0.021004284965934362 0 -0.00077053932099062545 -0.020415446573765105 0 0.00044179651443038929 -0.020890323674585678 0 -0.00039018263909313956 -0.021004284965934362 0 0.00044179651443038929 -0.020890323674585678 0 4.2871718383011928e-05 -0.021752566432020847 0 -0.00039018263909313956 -0.021004284965934362 0 -0.0010698683020276122 -0.020643416427332816 0 -0.00054964457260085157 -0.021659467746427803 0 -0.00039018263909313956 -0.021004284965934362 0 -0.0010698683020276122 -0.020643416427332816 0 -0.00077053932099062545 -0.020415446573765105 0 -0.00079714017932884138 -0.020547944746104715 0 -0.00065991523891740589 -0.02063972818533498 0 -0.00077053932099062545 -0.020415446573765105 0 -0.00026512494855941216 -0.020659604871810035 0 5.7355941645032804e-05 -0.020831873069322909 0 6.1478406596816488e-05 -0.020657441454713613 0 0.00038575631903238044 -0.020990771498867744 0 0.00063818664025485532 -0.020880425856482965 0 -0.00079714017932884138 -0.020547944746104715 0 -0.0010698683020276122 -0.020643416427332816 0 -0.00077053932099062545 -0.020415446573765105 0 5.7355941645032804e-05 -0.020831873069322909 0 0.00064447019968964748 -0.02113680764789545 0 0.00038575631903238044 -0.020990771498867744 0 0.00063818664025485532 -0.020880425856482965 0 0.00094711263635269142 -0.021342798814520374 0 0.0015787034001163019 -0.020913528173794046 0 0.0010850553469901106 -0.021185512271984605 0 0.0018606403698525156 -0.021485359714749221 0 0.00063818664025485532 -0.020880425856482965 0 0.0014075495178605165 -0.021135366779732611 0 0.00094711263635269142 -0.021342798814520374 0 0.00090786447811862627 -0.021035271366321672 0 0.001675180739277233 -0.021327041277567297 0 0.0020372785152655793 -0.020856507538285118 0 0.0025434882458582296 -0.021123166032221665 0 0.0018606403698525156 -0.021485359714749221 0 0.0014075495178605165 -0.021135366779732611 0 0.0016534086867831797 -0.021778083050341273 0 0.00094711263635269142 -0.021342798814520374 0 0.0024341353125937153 -0.02151888423639851 0 0.0014075495178605165 -0.021135366779732611 0 0.0016534086867831797 -0.021778083050341273 0 0.0016534086867831797 -0.021778083050341273 0 0.00044179651443038929 -0.020890323674585678 0 0.00085924210695222981 -0.022080047209730416 0 0.0010498714187628503 -0.021356260989144071 0 0.00064447019968964748 -0.02113680764789545 0 0.00044179651443038929 -0.020890323674585678 0 0.00085924210695222981 -0.022080047209730416 0 4.2871718383011928e-05 -0.021752566432020847 0 0.00085924210695222981 -0.022080047209730416 0 0.00028465792201095094 -0.022439705292275465 0 4.2871718383011928e-05 -0.021752566432020847 0 0.0020296215533541963 -0.022233102118523879 0 0.0016534086867831797 -0.021778083050341273 0 0.0014886168339017707 -0.02234618420934684 0 0.0016534086867831797 -0.021778083050341273 0 0.00085924210695222981 -0.022080047209730416 0 0.0014886168339017707 -0.02234618420934684 0 0.00085924210695222981 -0.022080047209730416 0 0.0014886168339017707 -0.02234618420934684 0 0.0012114341325251408 -0.022774267038230753 0 0.0019213002772783482 -0.022762861794130538 0 0.0015579071530058123 -0.022743924030561809 0 0.0015884420507033866 -0.023061856795905698 0 0.0019213002772783482 -0.022762861794130538 0 0.0014886168339017707 -0.02234618420934684 0 0.0015579071530058123 -0.022743924030561809 0 0.0014886168339017707 -0.02234618420934684 0 0.0015579071530058123 -0.022743924030561809 0 0.0012114341325251408 -0.022774267038230753 0 0.0015579071530058123 -0.022743924030561809 0 0.0012114341325251408 -0.022774267038230753 0 0.0015884420507033866 -0.023061856795905698 0 0.0012114341325251408 -0.022774267038230753 0 0.0011586496376555522 -0.023221504513010416 0 0.0015884420507033866 -0.023061856795905698 0 0.0011586496376555522 -0.023221504513010416 0 0.0015884420507033866 -0.023061856795905698 0 0.0014488365492406133 -0.023681356691182161 0 0.0021587741394354684 -0.023145472452369732 0 0.0015884420507033866 -0.023061856795905698 0 0.0014488365492406133 -0.023681356691182161 0 0.00085924210695222981 -0.022080047209730416 0 0.0012114341325251408 -0.022774267038230753 0 0.00065232156495608341 -0.02294997357949799 0 0.00085924210695222981 -0.022080047209730416 0 0.00028465792201095094 -0.022439705292275465 0 0.00065232156495608341 -0.02294997357949799 0 0.00028465792201095094 -0.022439705292275465 0 0.00065232156495608341 -0.02294997357949799 0 0.00015956223409787471 -0.023092711624616673 0 0.0012114341325251408 -0.022774267038230753 0 0.0011586496376555522 -0.023221504513010416 0 0.00065232156495608341 -0.02294997357949799 0 0.0011586496376555522 -0.023221504513010416 0 0.00065232156495608341 -0.02294997357949799 0 0.00074738126821561419 -0.023522836515640234 0 0.00065232156495608341 -0.02294997357949799 0 0.00015956223409787471 -0.023092711624616673 0 0.00074738126821561419 -0.023522836515640234 0 0.00015956223409787471 -0.023092711624616673 0 -0.00049625793825781178 -0.023217028471288658 0 -0.00032081037806541327 -0.022467507786084136 0 0.00028465792201095094 -0.022439705292275465 0 0.00015956223409787471 -0.023092711624616673 0 -0.00032081037806541327 -0.022467507786084136 0 0.00028465792201095094 -0.022439705292275465 0 -0.00032081037806541327 -0.022467507786084136 0 4.2871718383011928e-05 -0.021752566432020847 0 -0.00032081037806541327 -0.022467507786084136 0 -0.00054964457260085157 -0.021659467746427803 0 4.2871718383011928e-05 -0.021752566432020847 0 -0.00039018263909313956 -0.021004284965934362 0 -0.00054964457260085157 -0.021659467746427803 0 4.2871718383011928e-05 -0.021752566432020847 0 -0.00066727076862509529 -0.020822448589046905 0 -0.00051832238466625955 -0.021092290427839465 0 -0.00075616930420866575 -0.019966083043186915 0 -0.0010698683020276122 -0.020643416427332816 0 -0.0011838393360350803 -0.018925073886452776 0 -0.0010698683020276122 -0.020643416427332816 0 -0.00054964457260085157 -0.021659467746427803 0 -0.0014291615325144169 -0.022522903254330092 0 -0.00032081037806541327 -0.022467507786084136 0 -0.00054964457260085157 -0.021659467746427803 0 -0.0014291615325144169 -0.022522903254330092 0 -0.00049625793825781178 -0.023217028471288658 0 -0.00032081037806541327 -0.022467507786084136 0 -0.0014291615325144169 -0.022522903254330092 0 -0.00049625793825781178 -0.023217028471288658 0 -0.0014291615325144169 -0.022522903254330092 0 -0.00083961285565584533 -0.023803874227368269 0 -0.0014291615325144169 -0.022522903254330092 0 -0.00083961285565584533 -0.023803874227368269 0 -0.0015351507816959477 -0.024124856524002838 0 -0.00051832238466625955 -0.021092290427839465 0 6.549756211427845e-05 -0.022479240434958418 0 -0.00083961285565584533 -0.023803874227368269 0 -0.00066681469619997284 -0.024588535094257534 0 -0.0015351507816959477 -0.024124856524002838 0 -0.00066681469619997284 -0.024588535094257534 0 -0.0015351507816959477 -0.024124856524002838 0 -0.0016436984658154718 -0.025685016176699726 0 -0.00066681469619997284 -0.024588535094257534 0 0.00019540826527840034 -0.024672336591690117 0 -0.00032079412335318808 -0.025447448862251504 0 -0.00066681469619997284 -0.024588535094257534 0 0.00019540826527840034 -0.024672336591690117 0 6.1297385656418441e-05 -0.023947782979658622 0 -0.00049625793825781178 -0.023217028471288658 0 -0.00083961285565584533 -0.023803874227368269 0 6.1297385656418441e-05 -0.023947782979658622 0 -0.00083961285565584533 -0.023803874227368269 0 -0.00066681469619997284 -0.024588535094257534 0 6.1297385656418441e-05 -0.023947782979658622 0 0.00015956223409787471 -0.023092711624616673 0 -0.00049625793825781178 -0.023217028471288658 0 6.1297385656418441e-05 -0.023947782979658622 0 0.00015956223409787471 -0.023092711624616673 0 6.1297385656418441e-05 -0.023947782979658622 0 0.00074738126821561419 -0.023522836515640234 0 6.1297385656418441e-05 -0.023947782979658622 0 0.00074738126821561419 -0.023522836515640234 0 0.00090897775634648126 -0.024166592418746767 0 0.00074738126821561419 -0.023522836515640234 0 0.00090897775634648126 -0.024166592418746767 0 0.0014488365492406133 -0.023681356691182161 0 0.0021587741394354684 -0.023145472452369732 0 0.0014488365492406133 -0.023681356691182161 0 0.0015399964853616019 -0.024198445070874354 0 0.0011586496376555522 -0.023221504513010416 0 0.00074738126821561419 -0.023522836515640234 0 0.0014488365492406133 -0.023681356691182161 0 0.00090897775634648126 -0.024166592418746767 0 0.0014488365492406133 -0.023681356691182161 0 0.0015645411914927735 -0.024253516844208942 0 0.0014264716355224497 -0.032600245751837655 0 0.001624275756074861 -0.034147799880948355 0 0.00092541636556557421 -0.038995315600087233 0 0.0015028571906936727 -0.03809738594965336 0 0.00079209147026683977 -0.038217570903523623 0 0.001624275756074861 -0.034147799880948355 0 0.0023377443840690414 -0.038992095807646295 0 0.00090897775634648126 -0.024166592418746767 0 0.0015645411914927735 -0.024253516844208942 0 0.00098377414989114938 -0.025214614597776529 0 0.00090964920640674424 -0.036430346284676451 0 0.00097737409227620906 -0.036835997324083616 0 0.0011765488532004976 -0.036584608751268788 0 0.001624275756074861 -0.034147799880948355 0 0.0016137283615132918 -0.040240955948578079 0 0.00019540826527840034 -0.024672336591690117 0 0.00090897775634648126 -0.024166592418746767 0 0.00098377414989114938 -0.025214614597776529 0 0.00019540826527840034 -0.024672336591690117 0 6.1297385656418441e-05 -0.023947782979658622 0 0.00090897775634648126 -0.024166592418746767 0 0.00019540826527840034 -0.024672336591690117 0 0.00098377414989114938 -0.025214614597776529 0 -0.00032079412335318808 -0.025447448862251504 0 0.0044302833428377297 -0.047973333398683669 0 0.0050464914875353525 -0.047025511139646224 0 0.0053995723277762689 -0.047834519851455558 0 0.0023377443840690414 -0.038992095807646295 0 0.0020475292047690084 -0.034611399227052086 0 0.0023377443840690414 -0.038992095807646295 0 0.0025128137986660834 -0.044864756000501556 0 0.0031452535457721837 -0.049853908201465812 0 0.0021187710561192631 -0.05002413659714551 0 0.0028746823023538246 -0.048742479588036201 0 0.0016137283615132918 -0.040240955948578079 0 0.0020394404326441982 -0.046038018796638928 0 0.0021187710561192631 -0.05002413659714551 0 0.0028746823023538246 -0.048742479588036201 0 0.0018322086433953696 -0.048411163971866719 0 0.0023377443840690414 -0.038992095807646295 0 0.0016137283615132918 -0.040240955948578079 0 0.0028746823023538246 -0.048742479588036201 0 0.0018322086433953696 -0.048411163971866719 0 0.0029427857129308219 -0.047380888502435076 0 0.0031452535457721837 -0.049853908201465812 0 0.0028746823023538246 -0.048742479588036201 0 0.004353998781504869 -0.048023980513196243 0 0.0028746823023538246 -0.048742479588036201 0 0.004353998781504869 -0.048023980513196243 0 0.0029427857129308219 -0.047380888502435076 0 0.0050464914875353525 -0.047025511139646224 0 0.0058577281075068172 -0.047108885259578424 0 0.0053995723277762689 -0.047834519851455558 0 0.0058577281075068172 -0.047108885259578424 0 0.0065794404658879859 -0.046616024181424291 0 0.0063973882107161116 -0.047680757600961216 0 0.0020475292047690084 -0.034611399227052086 0 0.0011907425190048728 -0.029255960758736509 0 -0.00066681469619997284 -0.024588535094257534 0 -0.00032079412335318808 -0.025447448862251504 0 -0.0016436984658154718 -0.025685016176699726 0 0.0058577281075068172 -0.047108885259578424 0 0.0053995723277762689 -0.047834519851455558 0 0.0063973882107161116 -0.047680757600961216 0 -4.1723625420089009e-05 -0.037123461930488433 0 0.00085584222391170655 -0.041678038321678143 0 -4.1723625420089009e-05 -0.037123461930488433 0 -0.0014468341152693142 -0.036015346037029411 0 0.0042011809793167628 -0.02423220331178394 0 0.0033757229977865806 -0.023580241354245086 0 0.0044786458018672062 -0.02303671486481261 0 0.0042011809793167628 -0.02423220331178394 0 0.0033757229977865806 -0.023580241354245086 0 0.0032845615728709426 -0.024210051401099029 0 0.0033757229977865806 -0.023580241354245086 0 0.0032845615728709426 -0.024210051401099029 0 0.0027946465836959562 -0.024056343001209055 0 0.0042011809793167628 -0.02423220331178394 0 0.0032845615728709426 -0.024210051401099029 0 0.0038441583450333043 -0.025498329334868744 0 0.0032845615728709426 -0.024210051401099029 0 0.0029016736317834095 -0.024648057176057853 0 0.0038441583450333043 -0.025498329334868744 0 0.0006144124781692459 -0.038858900414871764 0 0.00065951003015565356 -0.032183304035899189 0 0.002743274860061806 -0.024671844326060139 0 0.0027946465836959562 -0.024056343001209055 0 0.0023040412559147089 -0.023733898284527804 0 0.0029016736317834095 -0.024648057176057853 0 0.002743274860061806 -0.024671844326060139 0 0.002955083731862066 -0.024355310245085436 0 0.00068726750302156524 -0.038779970753008652 0 0.0006144124781692459 -0.038858900414871764 0 0.002743274860061806 -0.024671844326060139 0 0.002955083731862066 -0.024355310245085436 0 0.0027946465836959562 -0.024056343001209055 0 0.0032845615728709426 -0.024210051401099029 0 0.0029016736317834095 -0.024648057176057853 0 0.002955083731862066 -0.024355310245085436 0 0.0032845615728709426 -0.024210051401099029 0 0.002955083731862066 -0.024355310245085436 0 0.0027946465836959562 -0.024056343001209055 0 0.0033757229977865806 -0.023580241354245086 0 0.0027946465836959562 -0.024056343001209055 0 0.0028105481164900315 -0.023491225879080046 0 0.0024194258102004625 -0.023118623036529867 0 0.0028105481164900315 -0.023491225879080046 0 0.0023040412559147089 -0.023733898284527804 0 0.0027946465836959562 -0.024056343001209055 0 0.0028105481164900315 -0.023491225879080046 0 0.0023040412559147089 -0.023733898284527804 0 0.0012590480223416856 -0.035872069275391737 0 0.0014181074184650465 -0.036180867491894052 0 0.0011895231288899875 -0.036331894317106594 0 0.0012590480223416856 -0.035872069275391737 0 0.00090964920640674424 -0.036430346284676451 0 0.0011895231288899875 -0.036331894317106594 0 0.0010531258252030025 -0.029952827852529226 0 0.001624275756074861 -0.034147799880948355 0 0.0010531258252030025 -0.029952827852529226 0 0.00065951003015565356 -0.032183304035899189 0 0.00097737409227620906 -0.036835997324083616 0 0.0017124569132342946 -0.036711801512177282 0 0.0011765488532004976 -0.036584608751268788 0 0.00090964920640674424 -0.036430346284676451 0 0.0011895231288899875 -0.036331894317106594 0 0.0011765488532004976 -0.036584608751268788 0 0.0017124569132342946 -0.036711801512177282 0 0.0011895231288899875 -0.036331894317106594 0 0.0011765488532004976 -0.036584608751268788 0 0.0016137283615132918 -0.040240955948578079 0 0.0006144124781692459 -0.038858900414871764 0 0.0016790837292770175 -0.036697242456352135 0 0.0014181074184650465 -0.036180867491894052 0 0.0011895231288899875 -0.036331894317106594 0 0.0006144124781692459 -0.038858900414871764 0 0.0005260982762784242 -0.038221524853146956 0 0.0020271140434870716 -0.051070280583052519 0 0.0017137755038916602 -0.04918860676447262 0 0.00014163052089164352 -0.049838982913858763 0 0.0020271140434870716 -0.051070280583052519 0 -0.00041297392773688993 -0.05150222182788141 0 0.00014163052089164352 -0.049838982913858763 0 0.0017137755038916602 -0.04918860676447262 0 4.4107161932769856e-05 -0.048399541895367486 0 0.00014163052089164352 -0.049838982913858763 0 4.4107161932769856e-05 -0.048399541895367486 0 -0.00090828177374664373 -0.048901280006197492 0 0.00014163052089164352 -0.049838982913858763 0 -0.00090828177374664373 -0.048901280006197492 0 0.00014163052089164352 -0.049838982913858763 0 -0.0012775667529310519 -0.049942623449519712 0 0.0006144124781692459 -0.038858900414871764 0 0.00065410454554032512 -0.04500144046205154 0 -0.00041297392773688993 -0.05150222182788141 0 0.00014163052089164352 -0.049838982913858763 0 -0.0012775667529310519 -0.049942623449519712 0 0.0006144124781692459 -0.038858900414871764 0 0.00085584222391170655 -0.041678038321678143 0 -0.0015839144492783934 -0.050079143548510119 0 -0.002166273974475985 -0.049073461233081393 0 -0.0030496800269994291 -0.049133045119852004 0 0.0029016736317834095 -0.024648057176057853 0 0.002741216578222527 -0.024673047759126057 0 0.0038441583450333043 -0.025498329334868744 0 -0.002166273974475985 -0.049073461233081393 0 -0.0029820541471399569 -0.048889022554259073 0 -0.0030496800269994291 -0.049133045119852004 0 -0.00090828177374664373 -0.048901280006197492 0 -0.0012775667529310519 -0.049942623449519712 0 -0.0021910384326443316 -0.048395166266971344 0 -0.002166273974475985 -0.049073461233081393 0 -0.002743377446615511 -0.047939410987129012 0 -0.0029820541471399569 -0.048889022554259073 0 0.00065410454554032512 -0.04500144046205154 0 -0.00025561952682640797 -0.046267936579888293 0 0.00085584222391170655 -0.041678038321678143 0 -0.00092956933013215544 -0.0432627543728131 0 -0.003546580046654437 -0.048260660413953417 0 -0.0030697649339470785 -0.049206097043192204 0 -0.0048762558129152771 -0.047968148111419334 0 -0.0029820541471399569 -0.048889022554259073 0 -0.003546580046654437 -0.048260660413953417 0 -0.0030697649339470785 -0.049206097043192204 0 -0.002743377446615511 -0.047939410987129012 0 -0.0029820541471399569 -0.048889022554259073 0 -0.003546580046654437 -0.048260660413953417 0 -0.0053017784563096004 -0.048033636681594688 0 -0.0051520683225643625 -0.048043514528924691 0 -0.0051576733902239042 -0.048059131610873947 0 0.0007715883608709473 -0.041908893151182597 0 0.00085584222391170655 -0.041678038321678143 0 -0.0032369068842680636 -0.046764049565863768 0 -0.0022473655211855685 -0.044958770641008956 0 -0.0041631043160199133 -0.045957615623735341 0 -0.0032369068842680636 -0.046764049565863768 0 -0.0040593403950871972 -0.046806876246927302 0 -0.0041631043160199133 -0.045957615623735341 0 -0.0032369068842680636 -0.046764049565863768 0 -0.0040593403950871972 -0.046806876246927302 0 -0.0040294941296327288 -0.047415049882931722 0 -0.002743377446615511 -0.047939410987129012 0 -0.003546580046654437 -0.048260660413953417 0 -0.0040294941296327288 -0.047415049882931722 0 -0.00025561952682640797 -0.046267936579888293 0 -0.00073933043049275663 -0.046255868916680702 0 -0.003546580046654437 -0.048260660413953417 0 -0.0040294941296327288 -0.047415049882931722 0 -0.0048762558129152771 -0.047968148111419334 0 -0.002743377446615511 -0.047939410987129012 0 -0.0032369068842680636 -0.046764049565863768 0 -0.0040294941296327288 -0.047415049882931722 0 -0.0021910384326443316 -0.048395166266971344 0 -0.0032369068842680636 -0.046764049565863768 0 -0.0019363834105624626 -0.047134452750675356 0 -0.00090828177374664373 -0.048901280006197492 0 -0.0021910384326443316 -0.048395166266971344 0 -0.0009703693939157067 -0.047755978774775651 0 -0.0021910384326443316 -0.048395166266971344 0 -0.0019363834105624626 -0.047134452750675356 0 -0.0009703693939157067 -0.047755978774775651 0 -0.0019363834105624626 -0.047134452750675356 0 -0.0010209467612134235 -0.046415149942882886 0 -0.0009703693939157067 -0.047755978774775651 0 -0.0032369068842680636 -0.046764049565863768 0 -0.002001965596774017 -0.046158367562337044 0 -0.0022473655211855685 -0.044958770641008956 0 -0.0019363834105624626 -0.047134452750675356 0 -0.002001965596774017 -0.046158367562337044 0 -0.0010209467612134235 -0.046415149942882886 0 -0.0032369068842680636 -0.046764049565863768 0 -0.0019363834105624626 -0.047134452750675356 0 -0.002001965596774017 -0.046158367562337044 0 -0.002001965596774017 -0.046158367562337044 0 -0.0010209467612134235 -0.046415149942882886 0 -0.0015469953924841131 -0.045234613689239117 0 0.00017841199507759284 -0.046146600796919381 0 -0.0010209467612134235 -0.046415149942882886 0 -0.00058165446547821665 -0.044996365844749267 0 -0.0010209467612134235 -0.046415149942882886 0 -0.00058165446547821665 -0.044996365844749267 0 -0.0015469953924841131 -0.045234613689239117 0 0.00017841199507759284 -0.046146600796919381 0 -0.0010209467612134235 -0.046415149942882886 0 8.2444870177056563e-05 -0.047216840768351927 0 -0.0010209467612134235 -0.046415149942882886 0 -0.0009703693939157067 -0.047755978774775651 0 8.2444870177056563e-05 -0.047216840768351927 0 4.4107161932769856e-05 -0.048399541895367486 0 -0.00090828177374664373 -0.048901280006197492 0 -0.0009703693939157067 -0.047755978774775651 0 4.4107161932769856e-05 -0.048399541895367486 0 -0.0009703693939157067 -0.047755978774775651 0 8.2444870177056563e-05 -0.047216840768351927 0 4.4107161932769856e-05 -0.048399541895367486 0 8.2444870177056563e-05 -0.047216840768351927 0 0.0014272321903846281 -0.047268145621599998 0 0.0020394404326441982 -0.046038018796638928 0 0.001849081224567842 -0.046505340783364026 0 0.0017137755038916602 -0.04918860676447262 0 4.4107161932769856e-05 -0.048399541895367486 0 0.0014272321903846281 -0.047268145621599998 0 0.00017841199507759284 -0.046146600796919381 0 0.0014272321903846281 -0.047268145621599998 0 0.0011397794631938748 -0.045229480406251764 0 0.001849081224567842 -0.046505340783364026 0 0.0017015813532486367 -0.046116388855099805 0 0.00017841199507759284 -0.046146600796919381 0 8.2444870177056563e-05 -0.047216840768351927 0 0.0014272321903846281 -0.047268145621599998 0 0.0011397794631938748 -0.045229480406251764 0 0.0012967516445069043 -0.043430659009821501 0 0.00018955766006502098 -0.044300967413631737 0 0.0011397794631938748 -0.045229480406251764 0 0.0012967516445069043 -0.043430659009821501 0 0.0024472912716466491 -0.044441932944984421 0 0.0014323331717563206 -0.043557542756366696 0 0.00035320544512529474 -0.043575702243133181 0 0.0011368129638008593 -0.043684771109954654 0 -0.0010761592087147986 -0.043578101277280804 0 0.00036993123000055381 -0.042609522902259209 0 0.0012967516445069043 -0.043430659009821501 0 -0.0010761592087147986 -0.043578101277280804 0 0.00018955766006502098 -0.044300967413631737 0 -0.0010761592087147986 -0.043578101277280804 0 -0.00082800101652401889 -0.042634841851944112 0 0.00036993123000055381 -0.042609522902259209 0 -0.0010761592087147986 -0.043578101277280804 0 -0.00058165446547821665 -0.044996365844749267 0 -0.001396425871496787 -0.044476520447774261 0 0.00017841199507759284 -0.046146600796919381 0 0.0011397794631938748 -0.045229480406251764 0 -0.00058165446547821665 -0.044996365844749267 0 0.0011397794631938748 -0.045229480406251764 0 0.00018955766006502098 -0.044300967413631737 0 -0.00058165446547821665 -0.044996365844749267 0 -0.0010761592087147986 -0.043578101277280804 0 0.00018955766006502098 -0.044300967413631737 0 -0.00058165446547821665 -0.044996365844749267 0 -0.00058165446547821665 -0.044996365844749267 0 -0.0015469953924841131 -0.045234613689239117 0 -0.001396425871496787 -0.044476520447774261 0 -0.0015469953924841131 -0.045234613689239117 0 -0.0022473655211855685 -0.044958770641008956 0 -0.0020290199366119702 -0.044481476659603766 0 -0.002001965596774017 -0.046158367562337044 0 -0.0015469953924841131 -0.045234613689239117 0 -0.0022473655211855685 -0.044958770641008956 0 -0.0020290199366119702 -0.044481476659603766 0 -0.0024177319956553761 -0.044134001568652305 0 -0.001550670354644469 -0.043846911956293581 0 -0.0020290199366119702 -0.044481476659603766 0 -0.0024177319956553761 -0.044134001568652305 0 -0.0026580502507948002 -0.044848745678382006 0 -0.0022473655211855685 -0.044958770641008956 0 -0.0020290199366119702 -0.044481476659603766 0 -0.0026580502507948002 -0.044848745678382006 0 -0.0020290199366119702 -0.044481476659603766 0 -0.001396425871496787 -0.044476520447774261 0 -0.001550670354644469 -0.043846911956293581 0 -0.0015469953924841131 -0.045234613689239117 0 -0.0020290199366119702 -0.044481476659603766 0 -0.001396425871496787 -0.044476520447774261 0 -0.0010761592087147986 -0.043578101277280804 0 -0.001396425871496787 -0.044476520447774261 0 -0.001550670354644469 -0.043846911956293581 0 -0.0010761592087147986 -0.043578101277280804 0 -0.001550670354644469 -0.043846911956293581 0 -0.00082800101652401889 -0.042634841851944112 0 -0.0019935912341683621 -0.044961212971579165 0 -0.0017986767796742374 -0.04381993422584364 0 -0.00076531392031428279 -0.043374879051636332 0 -0.0024177319956553761 -0.044134001568652305 0 -0.001550670354644469 -0.043846911956293581 0 -0.00082800101652401889 -0.042634841851944112 0 -0.0022608762574890091 -0.044532581340930702 0 -0.0010655375800714077 -0.043202662812387306 0 -0.0017986767796742374 -0.04381993422584364 0 -0.0021297066874569706 -0.044574691823386796 0 -0.0021718141163100291 -0.043972545161043083 0 -0.0019935912341683621 -0.044961212971579165 0 -0.0017986767796742374 -0.04381993422584364 0 -0.0021297066874569706 -0.044574691823386796 0 -0.0019935912341683621 -0.044961212971579165 0 -0.0021302710177907667 -0.044843346849727114 0 -0.002119530598439924 -0.044979517057651582 0 -0.0021302710177907667 -0.044843346849727114 0 -0.0024614651191262626 -0.044803640386014219 0 -0.002119530598439924 -0.044979517057651582 0 -0.0024614651191262626 -0.044803640386014219 0 -0.0021297066874569706 -0.044574691823386796 0 -0.0025692578957755116 -0.04415626734014684 0 -0.0021302710177907667 -0.044843346849727114 0 -0.0024614651191262626 -0.044803640386014219 0 -0.0021297066874569706 -0.044574691823386796 0 -0.0019935912341683621 -0.044961212971579165 0 -0.0021302710177907667 -0.044843346849727114 0 -0.0021297066874569706 -0.044574691823386796 0 -0.0025692578957755116 -0.04415626734014684 0 -0.0021718141163100291 -0.043972545161043083 0 -0.0023355618872347036 -0.043390886325981086 0 -0.0021297066874569706 -0.044574691823386796 0 -0.0025692578957755116 -0.04415626734014684 0 -0.0021718141163100291 -0.043972545161043083 0 -0.0025692578957755116 -0.04415626734014684 0 -0.0030464374067859712 -0.044605978493796827 0 -0.0032541287000473285 -0.043552530183212437 0 -0.0024614651191262626 -0.044803640386014219 0 -0.0025692578957755116 -0.04415626734014684 0 -0.0030464374067859712 -0.044605978493796827 0 -0.0024614651191262626 -0.044803640386014219 0 -0.0032106478083092343 -0.045207677230392665 0 -0.0030464374067859712 -0.044605978493796827 0 -0.002119530598439924 -0.044979517057651582 0 -0.003497162104410193 -0.045925024504855985 0 -0.0029732607217255991 -0.046062870459447541 0 -0.0019935912341683621 -0.044961212971579165 0 -0.002119530598439924 -0.044979517057651582 0 -0.0029732607217255991 -0.046062870459447541 0 -0.0022608762574890091 -0.044532581340930702 0 -0.0035275020257716444 -0.045893823303658259 0 -0.0031456750486613351 -0.045651429238492712 0 -0.0035275020257716444 -0.045893823303658259 0 -0.0024177319956553761 -0.044134001568652305 0 -0.0026580502507948002 -0.044848745678382006 0 -0.0039165773379332422 -0.045823504339389955 0 -0.002119530598439924 -0.044979517057651582 0 -0.0034742764958696336 -0.046200961714996887 0 -0.0032106478083092343 -0.045207677230392665 0 -0.0024614651191262626 -0.044803640386014219 0 -0.002119530598439924 -0.044979517057651582 0 -0.0032106478083092343 -0.045207677230392665 0 -0.0028646214791189597 -0.045620559193290812 0 -0.0035743019477520346 -0.046141427430865377 0 -0.0022473655211855685 -0.044958770641008956 0 -0.0026580502507948002 -0.044848745678382006 0 -0.0039165773379332422 -0.045823504339389955 0 0.005607310124014382 -0.04600846063753361 0 0.0041614857439486574 -0.046403254127190964 0 0.0045971146032886207 -0.044566091603090642 0 0.005607310124014382 -0.04600846063753361 0 0.0060468572995792929 -0.044577630461324749 0 0.0069192656805804349 -0.045145049118607512 0 0.005607310124014382 -0.04600846063753361 0 0.0069192656805804349 -0.045145049118607512 0 0.0065794404658879859 -0.046616024181424291 0 0.0058577281075068172 -0.047108885259578424 0 0.005607310124014382 -0.04600846063753361 0 0.0065794404658879859 -0.046616024181424291 0 0.0025128137986660834 -0.044864756000501556 0 0.0032938036531663596 -0.045267601452832706 0 0.0050464914875353525 -0.047025511139646224 0 0.0058577281075068172 -0.047108885259578424 0 0.005607310124014382 -0.04600846063753361 0 0.004353998781504869 -0.048023980513196243 0 0.005607310124014382 -0.04600846063753361 0 0.0041614857439486574 -0.046403254127190964 0 0.004353998781504869 -0.048023980513196243 0 0.0029427857129308219 -0.047380888502435076 0 0.0041614857439486574 -0.046403254127190964 0 0.0029427857129308219 -0.047380888502435076 0 0.0030986311097113265 -0.045732732971195469 0 0.0041614857439486574 -0.046403254127190964 0 0.0015183696489898873 -0.0468027928887726 0 0.0029427857129308219 -0.047380888502435076 0 0.0030986311097113265 -0.045732732971195469 0 0.0018322086433953696 -0.048411163971866719 0 0.0015183696489898873 -0.0468027928887726 0 0.0029427857129308219 -0.047380888502435076 0 0.0015183696489898873 -0.0468027928887726 0 0.0011397794631938748 -0.045229480406251764 0 0.0030986311097113265 -0.045732732971195469 0 0.0030986311097113265 -0.045732732971195469 0 0.0041614857439486574 -0.046403254127190964 0 0.0045971146032886207 -0.044566091603090642 0 0.0024472912716466491 -0.044441932944984421 0 0.0035189168996301273 -0.043422912190353595 0 0.0045971146032886207 -0.044566091603090642 0 0.0030986311097113265 -0.045732732971195469 0 0.0024472912716466491 -0.044441932944984421 0 0.0045971146032886207 -0.044566091603090642 0 0.0011397794631938748 -0.045229480406251764 0 0.0030986311097113265 -0.045732732971195469 0 0.0024472912716466491 -0.044441932944984421 0 0.0014323331717563206 -0.043557542756366696 0 0.0032127359483347345 -0.043527265973522043 0 0.0011368129638008593 -0.043684771109954654 0 0.0034198289939557469 -0.043640349201189081 0 0.0018752877508312377 -0.042174156041663281 0 0.0012967516445069043 -0.043430659009821501 0 0.0024472912716466491 -0.044441932944984421 0 0.0035189168996301273 -0.043422912190353595 0 0.0032127359483347345 -0.043527265973522043 0 0.0042553609332238408 -0.043508396870936002 0 0.0034198289939557469 -0.043640349201189081 0 0.0056025533253524088 -0.043496923785246965 0 0.0045835936721242108 -0.042558876281287558 0 0.0045971146032886207 -0.044566091603090642 0 0.0059176394236648867 -0.043971542621645349 0 0.0056025533253524088 -0.043496923785246965 0 0.0035189168996301273 -0.043422912190353595 0 0.0045971146032886207 -0.044566091603090642 0 0.0056025533253524088 -0.043496923785246965 0 0.005607310124014382 -0.04600846063753361 0 0.0045971146032886207 -0.044566091603090642 0 0.0060468572995792929 -0.044577630461324749 0 0.0060468572995792929 -0.044577630461324749 0 0.0063685179631159912 -0.043413003232074823 0 0.0069192656805804349 -0.045145049118607512 0 0.0045971146032886207 -0.044566091603090642 0 0.0060468572995792929 -0.044577630461324749 0 0.0059176394236648867 -0.043971542621645349 0 0.0060468572995792929 -0.044577630461324749 0 0.0059176394236648867 -0.043971542621645349 0 0.0063685179631159912 -0.043413003232074823 0 0.0059176394236648867 -0.043971542621645349 0 0.0056025533253524088 -0.043496923785246965 0 0.0063685179631159912 -0.043413003232074823 0 0.0047041125421884962 -0.031517140799914828 0 0.0047247644727242844 -0.031478666143772538 0 0.0047295537081599058 -0.031558691938117667 0 0.0066530987029064228 -0.04291386652463159 0 0.0072787195383579315 -0.043213494257481833 0 0.0073899657195813043 -0.042267179101057865 0 0.0057500403539189008 -0.036136770454497688 0 0.0065553111986037275 -0.033692097508569753 0 0.0047247644727242844 -0.031478666143772538 0 0.0046952904036655085 -0.031489470998431315 0 0.0046815698329138429 -0.031464441179039307 0 0.0047041125421884962 -0.031517140799914828 0 0.0047247644727242844 -0.031478666143772538 0 0.0046952904036655085 -0.031489470998431315 0 0.0034040260125947248 -0.026550348105055875 0 0.0038382719030283941 -0.027644583229970154 0 0.0044614699497060213 -0.026095368582250752 0 0.0035057806896934608 -0.026493856209114909 0 0.0038563799108505248 -0.024649122986516205 0 0.0034040260125947248 -0.026550348105055875 0 0.0044614699497060213 -0.026095368582250752 0 0.003990057782698021 -0.025512922726573642 0 0.0046384615869449197 -0.028792129700221398 0 0.0049261186707810177 -0.027493442826580825 0 0.0047041125421884962 -0.031517140799914828 0 0.0046685131585864443 -0.03149339699741862 0 0.0047006171452381607 -0.031564261801540622 0 0.0046384615869449197 -0.028792129700221398 0 0.0061679123205548164 -0.032357657662145253 0 0.0047041125421884962 -0.031517140799914828 0 0.0046952904036655085 -0.031489470998431315 0 0.0046685131585864443 -0.03149339699741862 0 0.0046815698329138429 -0.031464441179039307 0 0.0046710239512082145 -0.031482757132120308 0 0.0046468061583704208 -0.031435605213417289 0 0.0046952904036655085 -0.031489470998431315 0 0.0046815698329138429 -0.031464441179039307 0 0.0046685131585864443 -0.03149339699741862 0 0.0045718156755376769 -0.028968543389100192 0 0.0046384615869449197 -0.028792129700221398 0 0.0046384615869449197 -0.028792129700221398 0 0.0035057806896934608 -0.026493856209114909 0 0.0046815698329138429 -0.031464441179039307 0 0.0046468061583704208 -0.031435605213417289 0 0.0046868608360498588 -0.031425788453795657 0 0.0057500403539189008 -0.036136770454497688 0 0.0049637627628426936 -0.037196612184943793 0 0.0047247644727242844 -0.031478666143772538 0 0.0047151939912843371 -0.031414121470926877 0 0.0046868608360498588 -0.031425788453795657 0 0.0066530987029064228 -0.04291386652463159 0 0.0072787195383579315 -0.043213494257481833 0 0.0072106446549915736 -0.044034711282674388 0 0.0064389543716620876 -0.041599326362567267 0 0.0049637627628426936 -0.037196612184943793 0 0.0047247644727242844 -0.031478666143772538 0 0.0046815698329138429 -0.031464441179039307 0 0.0046868608360498588 -0.031425788453795657 0 0.0029971526423359361 -0.034690377082613397 0 0.0022491358349835166 -0.033102866847414689 0 0.003134347059301656 -0.032578053128165439 0 0.0049637627628426936 -0.037196612184943793 0 0.0026940651228080587 -0.029279421574108913 0 0.0049637627628426936 -0.037196612184943793 0 0.0033089167668631579 -0.037222225658641653 0 0.0047151939912843371 -0.031414121470926877 0 0.0046868608360498588 -0.031425788453795657 0 0.0046695217188707635 -0.031338062154274239 0 0.0046468061583704208 -0.031435605213417289 0 0.0046868608360498588 -0.031425788453795657 0 0.0046695217188707635 -0.031338062154274239 0 0.0024411170704042714 -0.027114140644571561 0 0.0034776670476043404 -0.024491485508497862 0 0.0014290857539853595 -0.024606312689670746 0 0.0035057806896934608 -0.026493856209114909 0 0.0026940651228080587 -0.029279421574108913 0 0.0023949948252949649 -0.026969392706070308 0 0.0024069557412602556 -0.026923780086500416 0 0.0023743112459035528 -0.026926060890141282 0 0.0034776670476043404 -0.024491485508497862 0 0.0014290857539853595 -0.024606312689670746 0 0.0028522074054065532 -0.023136986796576581 0 0.0026940651228080587 -0.029279421574108913 0 0.0016104503449547787 -0.025830549174864013 0 0.0022491358349835166 -0.033102866847414689 0 0.003134347059301656 -0.032578053128165439 0 0.0027425052148404945 -0.031824711133970306 0 0.0026940651228080587 -0.029279421574108913 0 0.0020525085127292035 -0.02924265311572892 0 0.0015509255002710805 -0.018607586024900709 0 0.0031966305736648281 -0.019482032799261507 0 0.0018401255264759967 -0.021689428165946472 0 0.0015509255002710805 -0.018607586024900709 0 0.0018401255264759967 -0.021689428165946472 0 0.00020686052349386919 -0.019664304676420517 0 0.0015509255002710805 -0.018607586024900709 0 0.0031966305736648281 -0.019482032799261507 0 0.0022124065717295132 -0.017031756999994086 0 0.0019358383602411362 -0.022404274234090117 0 0.00037194854290448117 -0.019286398913764206 0 0.0014290857539853595 -0.024606312689670746 0 0.0028522074054065532 -0.023136986796576581 0 0.0012952612719876865 -0.022514602743735138 0 0.0041840343833992738 -0.021941383395958785 0 0.0031966305736648281 -0.019482032799261507 0 0.0018401255264759967 -0.021689428165946472 0 0.0035057806896934608 -0.026493856209114909 0 0.0019358383602411362 -0.022404274234090117 0 0.0020760996626258015 -0.019956542822408954 0 0.0010139651640601926 -0.016859495625122192 0 0.0041840343833992738 -0.021941383395958785 0 0.0018401255264759967 -0.021689428165946472 0 0.0034811509750237685 -0.023716601279757332 0 0.0020760996626258015 -0.019956542822408954 0 0.0038563799108505248 -0.024649122986516205 0 0.0028089168429714256 -0.016825383515634087 0 0.0042964753406136633 -0.018671845983986655 0 0.0027375356633875252 -0.018778881047477693 0 0.0028089168429714256 -0.016825383515634087 0 0.0027375356633875252 -0.018778881047477693 0 0.0011484383870666826 -0.018565896009669951 0 0.0019499789099148934 -0.014037615784446648 0 0.0012177756416370884 -0.012801057722480823 0 0.0021661446225152881 -0.0085812027722043764 0 0.0020705888121648813 -0.0085945773417413791 0 0.0020710866873288971 -0.0084507164750012801 0 0.00089570137392403415 -0.010198578600432292 0 0.0011629975772371153 -0.0090880151137927839 0 0.0020705888121648813 -0.0085945773417413791 0 0.0020710866873288971 -0.0084507164750012801 0 0.0020244349272152155 -0.0084137247068170311 0 0.0020710866873288971 -0.0084507164750012801 0 0.0020244349272152155 -0.0084137247068170311 0 0.0020572283886475303 -0.0084796279672987307 0 0.0028089168429714256 -0.016825383515634087 0 0.0011484383870666826 -0.018565896009669951 0 0.00041904062940425595 -0.01680269485067187 0 0.0024453634199596216 -0.0072785614428362384 0 0.0027081846726488535 -0.0065456237930294403 0 0.0034500872980049082 -0.0068599857843961382 0 0.0024453634199596216 -0.0072785614428362384 0 0.0020856101857601376 -0.0064950795779944457 0 0.0027081846726488535 -0.0065456237930294403 0 0.00091279223981534483 -0.0067463607437160738 0 0.0016162818834622816 -0.0067944381488752592 0 0.0016590950065975478 -0.0076328093762603657 0 0.0024453634199596216 -0.0072785614428362384 0 0.0016162818834622816 -0.0067944381488752592 0 0.0020856101857601376 -0.0064950795779944457 0 0.0024453634199596216 -0.0072785614428362384 0 0.0016162818834622816 -0.0067944381488752592 0 0.0016590950065975478 -0.0076328093762603657 0 0.0020244349272152155 -0.0084137247068170311 0 0.0020830541875742933 -0.0085416768923308271 0 0.0020572283886475303 -0.0084796279672987307 0 0.0011629975772371153 -0.0090880151137927839 0 0.001457107764519695 -0.0090097234447289679 0 0.0016590950065975478 -0.0076328093762603657 0 0.0025515445942882408 -0.0078891871366135648 0 0.0024862138348779729 -0.0085300133434003198 0 0.0024453634199596216 -0.0072785614428362384 0 0.0025515445942882408 -0.0078891871366135648 0 0.0032131735315169925 -0.0076430886160627686 0 0.0024453634199596216 -0.0072785614428362384 0 0.0016590950065975478 -0.0076328093762603657 0 0.0025515445942882408 -0.0078891871366135648 0 0.0024862138348779729 -0.0085300133434003198 0 0.0020830541875742933 -0.0085416768923308271 0 0.0031005763257361155 -0.0087509881037654974 0 0.0020830541875742933 -0.0085416768923308271 0 0.0019721540900576834 -0.0084540785759547078 0 0.001826475476208365 -0.0085025124756097862 0 0.0025577060402775164 -0.0063444726509505663 0 0.002470982391945552 -0.0054801008038784455 0 0.0025515445942882408 -0.0078891871366135648 0 0.0024862138348779729 -0.0085300133434003198 0 0.0030383400581817026 -0.008190872142132247 0 0.0020244349272152155 -0.0084137247068170311 0 0.0024862138348779729 -0.0085300133434003198 0 0.0020830541875742933 -0.0085416768923308271 0 0.0020830541875742933 -0.0085416768923308271 0 0.0020622159249337932 -0.0084682658238338284 0 0.0019721540900576834 -0.0084540785759547078 0 0.0020830541875742933 -0.0085416768923308271 0 0.0020572283886475303 -0.0084796279672987307 0 0.0020834536942393252 -0.0084988303580153576 0 0.0020830541875742933 -0.0085416768923308271 0 0.0020622159249337932 -0.0084682658238338284 0 0.0020834536942393252 -0.0084988303580153576 0 0.0020622159249337932 -0.0084682658238338284 0 0.0020834536942393252 -0.0084988303580153576 0 0.0020837384947674747 -0.0083709280660997261 0 0.0020622159249337932 -0.0084682658238338284 0 0.0019721540900576834 -0.0084540785759547078 0 0.0020837384947674747 -0.0083709280660997261 0 0.0019721540900576834 -0.0084540785759547078 0 0.001826475476208365 -0.0085025124756097862 0 0.0018688533830789661 -0.0083517231376041452 0 0.0019721540900576834 -0.0084540785759547078 0 0.0020837384947674747 -0.0083709280660997261 0 0.0018688533830789661 -0.0083517231376041452 0 0.0028089168429714256 -0.016825383515634087 0 0.00041904062940425595 -0.01680269485067187 0 0.0013145290755012442 -0.014971484378861722 0 0.0012177756416370884 -0.012801057722480823 0 0.00055719624190140595 -0.011847103590114122 0 0.0020710866873288971 -0.0084507164750012801 0 0.0020572283886475303 -0.0084796279672987307 0 0.0020834536942393252 -0.0084988303580153576 0 0.00041904062940425595 -0.01680269485067187 0 0.0013145290755012442 -0.014971484378861722 0 -0.00031114501713698338 -0.015033517825999239 0 -0.00031114501713698338 -0.015033517825999239 0 -0.0001843726554787809 -0.01311548771332563 0 -0.0010396606758037157 -0.0132608236175813 0 0.0013145290755012442 -0.014971484378861722 0 -0.00031114501713698338 -0.015033517825999239 0 -0.0001843726554787809 -0.01311548771332563 0 0.0010139651640601926 -0.016859495625122192 0 -0.00032448895465694638 -0.012877648316257531 0 0.00055719624190140595 -0.011847103590114122 0 -0.00026675743669254503 -0.010887207223069035 0 0.00020686052349386919 -0.019664304676420517 0 0.00039634110533066219 -0.017339383919642678 0 -0.0014196953421349058 -0.017644036990787974 0 0.0015509255002710805 -0.018607586024900709 0 0.00020686052349386919 -0.019664304676420517 0 0.00039634110533066219 -0.017339383919642678 0 -8.746653547525392e-05 -0.01618507009746498 0 -0.00032448895465694638 -0.012877648316257531 0 -0.00070898921689469549 -0.016039990921264593 0 -0.0013175575809726142 -0.016144246547278526 0 -0.0013277281629753873 -0.015566435660940977 0 -0.00032448895465694638 -0.012877648316257531 0 -0.00026675743669254503 -0.010887207223069035 0 -0.0013175575809726142 -0.016144246547278526 0 -0.0013277281629753873 -0.015566435660940977 0 -0.0018547519024154227 -0.015503310067423448 0 -0.00070898921689469549 -0.016039990921264593 0 -0.0013277281629753873 -0.015566435660940977 0 -0.00082922441809688224 -0.015459804643139093 0 -0.00070898921689469549 -0.016039990921264593 0 -0.00082922441809688224 -0.015459804643139093 0 -0.00044777660352510781 -0.015676195042633772 0 -0.00082922441809688224 -0.015459804643139093 0 -0.00040419726858091117 -0.015188412048032111 0 -0.00044777660352510781 -0.015676195042633772 0 -0.0016877958477728692 -0.0054637931645642067 0 -0.0022205471842733655 -0.0055767235987432776 0 -0.0022131380443440761 -0.0060951467543237312 0 -0.00026675743669254503 -0.010887207223069035 0 -0.00037386416724490706 -0.0066702578077434353 0 -0.0010936379168790243 -0.0059406348378645644 0 -0.0016877958477728692 -0.0054637931645642067 0 -0.0022131380443440761 -0.0060951467543237312 0 -0.00066118779560737288 -0.0059113204496644501 0 -0.0012604811234866369 -0.0055349712121469151 0 -0.0013300230614084598 -0.0050883357521268324 0 -0.00032448895465694638 -0.012877648316257531 0 -0.0016411631214492595 -0.010770297726721568 0 -0.0012604811234866369 -0.0055349712121469151 0 -0.0010936379168790243 -0.0059406348378645644 0 -0.0016877958477728692 -0.0054637931645642067 0 -0.00057584135722483424 -0.0099877023634583513 0 -0.00026675743669254503 -0.010887207223069035 0 -0.00066118779560737288 -0.0059113204496644501 0 -0.0012604811234866369 -0.0055349712121469151 0 -0.0010812556261274515 -0.0059848219064120353 0 -0.0013277281629753873 -0.015566435660940977 0 -0.0018547519024154227 -0.015503310067423448 0 -0.0015164318960934175 -0.015104647706212773 0 -0.0012604811234866369 -0.0055349712121469151 0 -0.0013300230614084598 -0.0050883357521268324 0 -0.0016877958477728692 -0.0054637931645642067 0 -0.0013300230614084598 -0.0050883357521268324 0 -0.0016877958477728692 -0.0054637931645642067 0 -0.0017406143328035151 -0.0049605730846787261 0 -0.0016877958477728692 -0.0054637931645642067 0 -0.0017406143328035151 -0.0049605730846787261 0 -0.0020820907033045227 -0.0051124205337817665 0 -0.0017406143328035151 -0.0049605730846787261 0 -0.0020820907033045227 -0.0051124205337817665 0 -0.0020181848987545531 -0.0047995423555368885 0 -0.0016877958477728692 -0.0054637931645642067 0 -0.0020820907033045227 -0.0051124205337817665 0 -0.0022205471842733655 -0.0055767235987432776 0 -0.0016411631214492595 -0.010770297726721568 0 -0.0024280169685964178 -0.009622779001309088 0 -0.0017406143328035151 -0.0049605730846787261 0 -0.0019549096207930766 -0.0043345869064254318 0 -0.0020181848987545531 -0.0047995423555368885 0 -0.0019549096207930766 -0.0043345869064254318 0 -0.0020181848987545531 -0.0047995423555368885 0 -0.0023721571304810441 -0.0049440300426703476 0 -0.0013300230614084598 -0.0050883357521268324 0 -0.0017406143328035151 -0.0049605730846787261 0 -0.0019549096207930766 -0.0043345869064254318 0 -0.0018547519024154227 -0.015503310067423448 0 -0.0024144013891089213 -0.014814238347172919 0 -0.0018132118164785596 -0.014858828271050976 0 -0.0018547519024154227 -0.015503310067423448 0 -0.0018132118164785596 -0.014858828271050976 0 -0.0015164318960934175 -0.015104647706212773 0 -0.0018132118164785596 -0.014858828271050976 0 -0.0015164318960934175 -0.015104647706212773 0 -0.0014590061371557485 -0.014637573796723287 0 -0.0018132118164785596 -0.014858828271050976 0 -0.0016186116459715237 -0.01428861502437022 0 -0.0014590061371557485 -0.014637573796723287 0 -0.0024144013891089213 -0.014814238347172919 0 -0.0018132118164785596 -0.014858828271050976 0 -0.0016186116459715237 -0.01428861502437022 0 -0.0036823290767484368 -0.01418785767096375 0 -0.003060802706132305 -0.013788543509199919 0 -0.0034160404859627817 -0.013935865507616984 0 -0.0024280169685964178 -0.009622779001309088 0 -0.001971459681841101 -0.014037257982713037 0 -0.0036497188213309422 -0.013575648040816153 0 -0.003060802706132305 -0.013788543509199919 0 -0.0034160404859627817 -0.013935865507616984 0 -0.001971459681841101 -0.014037257982713037 0 -0.0019159892056746525 -0.014133007301403452 0 -0.0036497188213309422 -0.013575648040816153 0 -0.0034160404859627817 -0.013935865507616984 0 -0.0038029986758437795 -0.01407952734206353 0 -0.0034022321495692596 -0.0093989185299314295 0 -0.002904982470861879 -0.0088133914942300686 0 -0.0036823290767484368 -0.01418785767096375 0 -0.0034160404859627817 -0.013935865507616984 0 -0.0037845363762816645 -0.0140582118293325 0 -0.0024280169685964178 -0.009622779001309088 0 -0.002904982470861879 -0.0088133914942300686 0 -0.00082922441809688224 -0.015459804643139093 0 -0.0010897639905637459 -0.015031616711488305 0 -0.00040419726858091117 -0.015188412048032111 0 -0.0010897639905637459 -0.015031616711488305 0 -0.00086305407983966378 -0.014488124528669197 0 -0.00040419726858091117 -0.015188412048032111 0 -0.0013277281629753873 -0.015566435660940977 0 -0.0015164318960934175 -0.015104647706212773 0 -0.00106660403551211 -0.01493010829046114 0 -0.0013277281629753873 -0.015566435660940977 0 -0.00082922441809688224 -0.015459804643139093 0 -0.0010897639905637459 -0.015031616711488305 0 -0.0008806039892173867 -0.015526772565104624 0 -0.00081909149411382557 -0.015551596032015932 0 -0.0015164318960934175 -0.015104647706212773 0 -0.00106660403551211 -0.01493010829046114 0 -0.0014590061371557485 -0.014637573796723287 0 -0.00106660403551211 -0.01493010829046114 0 -0.0012051923143632463 -0.014426465363609206 0 -0.00082117948119710474 -0.014318991003984581 0 -0.00106660403551211 -0.01493010829046114 0 -0.0014590061371557485 -0.014637573796723287 0 -0.0012051923143632463 -0.014426465363609206 0 -0.0016103861119592512 -0.014308687176246561 0 -0.0014590061371557485 -0.014637573796723287 0 -0.0012051923143632463 -0.014426465363609206 0 -0.00058207625456329812 -0.018030595468095052 0 -0.00050823932516295923 -0.018062606547274866 0 -0.00050043952278771512 -0.018205731505703867 0 -0.00081909149411382557 -0.015551596032015932 0 -0.00087518703160669527 -0.016263947709648899 0 -0.00087518703160669527 -0.016263947709648899 0 -0.00056810683711769686 -0.017271114721542666 0 -0.00050223705739307781 -0.018004875177024527 0 -0.00058207625456329812 -0.018030595468095052 0 -0.00050823932516295923 -0.018062606547274866 0 -0.00050823932516295923 -0.018062606547274866 0 -0.00045075192126922469 -0.018022544793011609 0 -0.00050043952278771512 -0.018205731505703867 0 -0.00050223705739307781 -0.018004875177024527 0 -0.00050823932516295923 -0.018062606547274866 0 -0.00045075192126922469 -0.018022544793011609 0 -0.00045075192126922469 -0.018022544793011609 0 -0.00050043952278771512 -0.018205731505703867 0 -0.00034711274168485969 -0.01820295892011559 0 -0.00056411327512747797 -0.018084082111855818 0 -0.00045075192126922469 -0.018022544793011609 0 -0.00052581140627039943 -0.017997646331025585 0 -0.0004862040913448276 -0.01789236415547955 0 -0.00052581140627039943 -0.017997646331025585 0 -0.00059995584971095286 -0.017984524772448548 0 -0.00075282036058922988 -0.018641189531065704 0 -0.0006250970193453462 -0.019262418355484791 0 -0.00045075192126922469 -0.018022544793011609 0 -0.0004862040913448276 -0.01789236415547955 0 -0.00052581140627039943 -0.017997646331025585 0 -0.00070646408521392377 -0.018312374993115995 0 -0.00056411327512747797 -0.018084082111855818 0 -0.00059995584971095286 -0.017984524772448548 0 -0.00056411327512747797 -0.018084082111855818 0 -0.00052581140627039943 -0.017997646331025585 0 -0.00059995584971095286 -0.017984524772448548 0 -0.00070646408521392377 -0.018312374993115995 0 -0.00059995584971095286 -0.017984524772448548 0 -0.00087084612811954751 -0.017891087965887079 0 -0.00087084612811954751 -0.017891087965887079 0 -0.00072432138480091389 -0.017846371837661214 0 -0.0007898831580484076 -0.017736232383089402 0 6.549756211427845e-05 -0.022479240434958418 0 0.0011907425190048728 -0.029255960758736509 0 -0.00059995584971095286 -0.017984524772448548 0 -0.00087084612811954751 -0.017891087965887079 0 -0.00072432138480091389 -0.017846371837661214 0 -0.0004862040913448276 -0.01789236415547955 0 -0.00059995584971095286 -0.017984524772448548 0 -0.00060930402173117824 -0.017823079822510347 0 -0.00059995584971095286 -0.017984524772448548 0 -0.00072432138480091389 -0.017846371837661214 0 -0.00060930402173117824 -0.017823079822510347 0 -0.00060930402173117824 -0.017823079822510347 0 -0.00056514232325576149 -0.017699188684405714 0 -0.0007898831580484076 -0.017736232383089402 0 0.00041183896305820619 -0.022741196409849906 0 0.0011907425190048728 -0.029255960758736509 0 -0.0004862040913448276 -0.01789236415547955 0 -0.00060930402173117824 -0.017823079822510347 0 -0.00056514232325576149 -0.017699188684405714 0 -0.00072432138480091389 -0.017846371837661214 0 -0.00060930402173117824 -0.017823079822510347 0 -0.0007898831580484076 -0.017736232383089402 0 0.0011907425190048728 -0.029255960758736509 0 0.0020525085127292035 -0.02924265311572892 0 0.0023561371068312365 -0.026885853901619367 0 0.0024205224815100073 -0.026883314212016184 0 0.0024069557412602556 -0.026923780086500416 0 0.0033089167668631579 -0.037222225658641653 0 0.0011907425190048728 -0.029255960758736509 0 0.003134347059301656 -0.032578053128165439 0 0.0032635963272793856 -0.030472204397553299 0 0.0027425052148404945 -0.031824711133970306 0 0.0023561371068312365 -0.026885853901619367 0 0.0024069557412602556 -0.026923780086500416 0 0.0023743112459035528 -0.026926060890141282 0 0.0022260709931403934 -0.021782102156317502 0 0.0028522074054065532 -0.023136986796576581 0 0.0012952612719876865 -0.022514602743735138 0 0.00041183896305820619 -0.022741196409849906 0 0.0016104503449547787 -0.025830549174864013 0 0.0014290857539853595 -0.024606312689670746 0 0.0012952612719876865 -0.022514602743735138 0 0.00041661549608833893 -0.022087021051759456 0 0.00041183896305820619 -0.022741196409849906 0 0.0004534174757822039 -0.019920561252695559 0 0.0022260709931403934 -0.021782102156317502 0 0.0012952612719876865 -0.022514602743735138 0 0.00096196677478511809 -0.021997159351051197 0 0.0012952612719876865 -0.022514602743735138 0 0.00096149269333192799 -0.021993196110555831 0 0.00041661549608833893 -0.022087021051759456 0 0.0004534174757822039 -0.019920561252695559 0 0.00037194854290448117 -0.019286398913764206 0 0.00052883379567575492 -0.020059217028745305 0 0.0004534174757822039 -0.019920561252695559 0 -8.746653547525392e-05 -0.01618507009746498 0 0.00037194854290448117 -0.019286398913764206 0 0.0015509255002710805 -0.018607586024900709 0 0.00039634110533066219 -0.017339383919642678 0 0.0022124065717295132 -0.017031756999994086 0 -0.00070898921689469549 -0.016039990921264593 0 -0.00010896360102638821 -0.015945975971615407 0 -0.00044777660352510781 -0.015676195042633772 0 7.0870210572749698e-05 -0.015920964895770568 0 -0.0001079984149773437 -0.015952855597904481 0 -0.00018977946908983506 -0.015744421595995418 0 -0.00040419726858091117 -0.015188412048032111 0 -0.00018977946908983506 -0.015744421595995418 0 -0.00044777660352510781 -0.015676195042633772 0 -0.00010896360102638821 -0.015945975971615407 0 -0.00018977946908983506 -0.015744421595995418 0 -0.00044777660352510781 -0.015676195042633772 0 -0.00040419726858091117 -0.015188412048032111 0 7.0870210572749698e-05 -0.015920964895770568 0 -0.00018977946908983506 -0.015744421595995418 0 0.00037194854290448117 -0.019286398913764206 0 0.00028902046755806005 -0.019036452259920785 0 -0.00056810683711769686 -0.017271114721542666 0 0.0004534174757822039 -0.019920561252695559 0 -0.0006250970193453462 -0.019262418355484791 0 0.00041183896305820619 -0.022741196409849906 0 -0.00034711274168485969 -0.01820295892011559 0 -0.00024655044317089397 -0.018419049455996768 0 -0.00037071356111780446 -0.018435659609417687 0 -0.00050043952278771512 -0.018205731505703867 0 -0.00034711274168485969 -0.01820295892011559 0 -0.00037071356111780446 -0.018435659609417687 0 1.3045512552397963e-05 -0.054963000637259965 0 7.536915192511171e-09 -0.054999966899926193 0 9.2856563558052438e-06 -0.054981144207059782 0 7.536915192511171e-09 -0.054999966899926193 0 9.2856563558052438e-06 -0.054981144207059782 0 3.5587935348146168e-09 -0.054999979850301486 0 0.00018467027925474008 -0.054021862028478362 0 0.00029787848625580901 -0.053121324721474808 0 1.3045512552397963e-05 -0.054963000637259965 0 9.2856563558052438e-06 -0.054981144207059782 0 2.5245982606031366e-06 -0.054965220618820698 0 0.00018467027925474008 -0.054021862028478362 0 1.5487755907613799e-05 -0.052623085578867732 0 0.00074468710607023675 -0.052226687131391593 0 0.00032016441733109173 -0.052029948002155005 0 0.00019053269688894795 -0.052128610402864282 0 0.00029787848625580901 -0.053121324721474808 0 0.00043144414504859511 -0.052022792142587877 0 0.00032016441733109173 -0.052029948002155005 0 0.00019053269688894795 -0.052128610402864282 0 -0.00010548662340727108 -0.051836629771496757 0 2.5245982606031366e-06 -0.054965220618820698 0 -1.2483980042149608e-07 -0.054942892141478961 0 -2.1045032494588928e-05 -0.054944832282229877 0 1.3045512552397963e-05 -0.054963000637259965 0 2.5245982606031366e-06 -0.054965220618820698 0 -1.2483980042149608e-07 -0.054942892141478961 0 1.3045512552397963e-05 -0.054963000637259965 0 8.4807036036712656e-06 -0.054907964762664963 0 1.5418427774079557e-05 -0.05492871525151239 0 1.3045512552397963e-05 -0.054963000637259965 0 -1.2483980042149608e-07 -0.054942892141478961 0 8.4807036036712656e-06 -0.054907964762664963 0 -1.2483980042149608e-07 -0.054942892141478961 0 8.4807036036712656e-06 -0.054907964762664963 0 -2.9250484072101843e-05 -0.054913814447373394 0 -0.00027713641749002485 -0.053243773787191653 0 -5.5127164913950533e-05 -0.052676940925213731 0 8.4807036036712656e-06 -0.054907964762664963 0 6.0790930493668936e-06 -0.054827130033231801 0 -2.4967747340104413e-05 -0.054837034829641959 0 8.4807036036712656e-06 -0.054907964762664963 0 1.5418427774079557e-05 -0.05492871525151239 0 1.7348581972523213e-05 -0.054859593529229443 0 1.3045512552397963e-05 -0.054963000637259965 0 1.5418427774079557e-05 -0.05492871525151239 0 2.9281132105953394e-08 -0.054999923852565989 0 1.3045512552397963e-05 -0.054963000637259965 0 7.536915192511171e-09 -0.054999966899926193 0 2.9281132105953394e-08 -0.054999923852565989 0 2.9281132105953394e-08 -0.054999923852565989 0 1.5583712451101454e-05 -0.05491311487497131 0 8.9123296444060065e-09 -0.05499989814089333 0 1.5418427774079557e-05 -0.05492871525151239 0 2.9281132105953394e-08 -0.054999923852565989 0 1.5583712451101454e-05 -0.05491311487497131 0 8.9123296444060065e-09 -0.05499989814089333 0 6.4839705116100805e-07 -0.054908713221592818 0 5.504079153509631e-09 -0.054999859631340117 0 1.5583712451101454e-05 -0.05491311487497131 0 8.9123296444060065e-09 -0.05499989814089333 0 6.4839705116100805e-07 -0.054908713221592818 0 1.5583712451101454e-05 -0.05491311487497131 0 6.4839705116100805e-07 -0.054908713221592818 0 1.6057882369071694e-05 -0.054812973687633965 0 1.6325505819447461e-06 -0.054675088632727506 0 3.8207203283864229e-06 -0.054769693235567712 0 4.6094996688000935e-06 -0.054630076531998646 0 3.8207203283864229e-06 -0.054769693235567712 0 1.2972390583763507e-05 -0.054718942693915251 0 4.6094996688000935e-06 -0.054630076531998646 0 -7.4540789308020698e-06 -0.054864609307607254 0 6.4839705116100805e-07 -0.054908713221592818 0 3.8207203283864229e-06 -0.054769693235567712 0 6.4839705116100805e-07 -0.054908713221592818 0 3.8207203283864229e-06 -0.054769693235567712 0 1.6057882369071694e-05 -0.054812973687633965 0 1.6057882369071694e-05 -0.054812973687633965 0 1.2972390583763507e-05 -0.054718942693915251 0 1.4718647882731415e-05 -0.054771846125527351 0 3.8207203283864229e-06 -0.054769693235567712 0 1.6057882369071694e-05 -0.054812973687633965 0 1.2972390583763507e-05 -0.054718942693915251 0 1.6057882369071694e-05 -0.054812973687633965 0 1.4718647882731415e-05 -0.054771846125527351 0 1.7348581972523213e-05 -0.054859593529229443 0 1.5583712451101454e-05 -0.05491311487497131 0 1.6057882369071694e-05 -0.054812973687633965 0 1.7348581972523213e-05 -0.054859593529229443 0 1.5418427774079557e-05 -0.05492871525151239 0 1.5583712451101454e-05 -0.05491311487497131 0 1.7348581972523213e-05 -0.054859593529229443 0 1.4718647882731415e-05 -0.054771846125527351 0 1.7348581972523213e-05 -0.054859593529229443 0 6.0790930493668936e-06 -0.054827130033231801 0 8.4807036036712656e-06 -0.054907964762664963 0 1.7348581972523213e-05 -0.054859593529229443 0 6.0790930493668936e-06 -0.054827130033231801 0 6.0790930493668936e-06 -0.054827130033231801 0 -7.9711400629809112e-06 -0.054737959040291218 0 -2.4967747340104413e-05 -0.054837034829641959 0 -5.850659078124921e-05 -0.054767285533907049 0 -9.3307533134296455e-05 -0.054818483005037257 0 -2.4967747340104413e-05 -0.054837034829641959 0 -5.850659078124921e-05 -0.054767285533907049 0 -7.9711400629809112e-06 -0.054737959040291218 0 -7.3515012544097817e-05 -0.054683020272951466 0 -5.850659078124921e-05 -0.054767285533907049 0 -7.9711400629809112e-06 -0.054737959040291218 0 -2.4967747340104413e-05 -0.054837034829641959 0 -5.850659078124921e-05 -0.054767285533907049 0 -0.00010768218395453381 -0.05474825788658752 0 -9.3307533134296455e-05 -0.054818483005037257 0 -5.850659078124921e-05 -0.054767285533907049 0 -7.3515012544097817e-05 -0.054683020272951466 0 -0.00010768218395453381 -0.05474825788658752 0 -2.0708129782990936e-05 -0.054600980453431598 0 -7.9711400629809112e-06 -0.054737959040291218 0 -7.3515012544097817e-05 -0.054683020272951466 0 -2.0708129782990936e-05 -0.054600980453431598 0 -7.9711400629809112e-06 -0.054737959040291218 0 2.6936246366488784e-06 -0.054662010341093276 0 1.4718647882731415e-05 -0.054771846125527351 0 6.0790930493668936e-06 -0.054827130033231801 0 -7.9711400629809112e-06 -0.054737959040291218 0 1.4718647882731415e-05 -0.054771846125527351 0 -7.9711400629809112e-06 -0.054737959040291218 0 2.6936246366488784e-06 -0.054662010341093276 0 1.2972390583763507e-05 -0.054718942693915251 0 1.4718647882731415e-05 -0.054771846125527351 0 2.6936246366488784e-06 -0.054662010341093276 0 1.2972390583763507e-05 -0.054718942693915251 0 2.6936246366488784e-06 -0.054662010341093276 0 4.6094996688000935e-06 -0.054630076531998646 0 2.6936246366488784e-06 -0.054662010341093276 0 -1.7926282410677303e-05 -0.054544484971728986 0 4.6094996688000935e-06 -0.054630076531998646 0 -2.0708129782990936e-05 -0.054600980453431598 0 2.6936246366488784e-06 -0.054662010341093276 0 -1.7926282410677303e-05 -0.054544484971728986 0 -2.0708129782990936e-05 -0.054600980453431598 0 -1.7926282410677303e-05 -0.054544484971728986 0 -2.1709942187330429e-05 -0.054427271957353279 0 -1.7926282410677303e-05 -0.054544484971728986 0 -5.6205394401935008e-05 -0.054420173883889991 0 -2.1709942187330429e-05 -0.054427271957353279 0 -1.7926282410677303e-05 -0.054544484971728986 0 -5.6205394401935008e-05 -0.054420173883889991 0 4.6094996688000935e-06 -0.054630076531998646 0 1.6325505819447461e-06 -0.054675088632727506 0 -5.6205394401935008e-05 -0.054420173883889991 0 4.6094996688000935e-06 -0.054630076531998646 0 0.00011847054437421149 -0.054480024739102718 0 0.00094740058654126341 -0.053760565177723832 0 -6.8717259219156597e-06 -0.054031673645518655 0 0.00094740058654126341 -0.053760565177723832 0 -6.8717259219156597e-06 -0.054031673645518655 0 0.00088194481773324468 -0.053023467874455513 0 0.00094740058654126341 -0.053760565177723832 0 0.00088194481773324468 -0.053023467874455513 0 0.0014666635617989034 -0.053023455804482929 0 0.00011847054437421149 -0.054480024739102718 0 -5.6205394401935008e-05 -0.054420173883889991 0 -6.8717259219156597e-06 -0.054031673645518655 0 -5.6205394401935008e-05 -0.054420173883889991 0 -6.8717259219156597e-06 -0.054031673645518655 0 -2.1709942187330429e-05 -0.054427271957353279 0 -6.8717259219156597e-06 -0.054031673645518655 0 -2.1709942187330429e-05 -0.054427271957353279 0 -0.0001355798740614671 -0.054484060081291981 0 -2.0708129782990936e-05 -0.054600980453431598 0 -2.1709942187330429e-05 -0.054427271957353279 0 -0.00011325826067810491 -0.054602234173956717 0 -2.1709942187330429e-05 -0.054427271957353279 0 -0.0001355798740614671 -0.054484060081291981 0 -0.00011325826067810491 -0.054602234173956717 0 -6.8717259219156597e-06 -0.054031673645518655 0 -0.0001355798740614671 -0.054484060081291981 0 -0.00032815482724165716 -0.054613358698078047 0 0.00088194481773324468 -0.053023467874455513 0 0.00036044235111896777 -0.051690393667731836 0 0.0014149015635655177 -0.05242276430156842 0 -6.8717259219156597e-06 -0.054031673645518655 0 0.00088194481773324468 -0.053023467874455513 0 0.00036044235111896777 -0.051690393667731836 0 0.0011869399571408155 -0.053621324041144815 0 0.0018901142315192285 -0.052887842635354433 0 -0.0001355798740614671 -0.054484060081291981 0 -0.00026669337630920957 -0.054599084827712398 0 -0.00032815482724165716 -0.054613358698078047 0 -0.0001355798740614671 -0.054484060081291981 0 -0.00026669337630920957 -0.054599084827712398 0 -0.00017482489627234613 -0.054580647854871871 0 -0.0002671381462061051 -0.054604001859399634 0 -0.00021192729143195113 -0.054659054499668139 0 -0.0002682584989268947 -0.054751827259505816 0 0.0018901142315192285 -0.052887842635354433 0 0.0026611015225295265 -0.052270367742875322 0 0.001864139567237607 -0.052896945362237942 0 0.0018901142315192285 -0.052887842635354433 0 -0.00026669337630920957 -0.054599084827712398 0 -0.00021192729143195113 -0.054659054499668139 0 -0.00017482489627234613 -0.054580647854871871 0 -0.00026669337630920957 -0.054599084827712398 0 -0.0002671381462061051 -0.054604001859399634 0 -0.00021192729143195113 -0.054659054499668139 0 -2.0708129782990936e-05 -0.054600980453431598 0 -0.00011325826067810491 -0.054602234173956717 0 -7.3515012544097817e-05 -0.054683020272951466 0 -0.00021192729143195113 -0.054659054499668139 0 -0.00011325826067810491 -0.054602234173956717 0 -0.00017482489627234613 -0.054580647854871871 0 -0.0001355798740614671 -0.054484060081291981 0 -0.00011325826067810491 -0.054602234173956717 0 -0.00017482489627234613 -0.054580647854871871 0 -0.00021192729143195113 -0.054659054499668139 0 -0.00011325826067810491 -0.054602234173956717 0 -0.00013583216732645061 -0.054690561838009737 0 -0.00021192729143195113 -0.054659054499668139 0 -0.00013583216732645061 -0.054690561838009737 0 -0.00018433377582504948 -0.054734036048164056 0 -0.00013583216732645061 -0.054690561838009737 0 -7.3515012544097817e-05 -0.054683020272951466 0 -0.00010768218395453381 -0.05474825788658752 0 -0.00011325826067810491 -0.054602234173956717 0 -0.00013583216732645061 -0.054690561838009737 0 -7.3515012544097817e-05 -0.054683020272951466 0 -0.00010768218395453381 -0.05474825788658752 0 -0.00018482405283297155 -0.054810397138037668 0 -9.3307533134296455e-05 -0.054818483005037257 0 -0.00013583216732645061 -0.054690561838009737 0 -0.00010768218395453381 -0.05474825788658752 0 -0.00018433377582504948 -0.054734036048164056 0 -0.00010768218395453381 -0.05474825788658752 0 -0.00018433377582504948 -0.054734036048164056 0 -0.00018482405283297155 -0.054810397138037668 0 -0.00018433377582504948 -0.054734036048164056 0 -0.00018482405283297155 -0.054810397138037668 0 -0.0002682584989268947 -0.054751827259505816 0 -0.00021192729143195113 -0.054659054499668139 0 -0.00018433377582504948 -0.054734036048164056 0 -0.0002682584989268947 -0.054751827259505816 0 -0.00018482405283297155 -0.054810397138037668 0 -0.00023789824249929029 -0.054828229475790378 0 -0.0002682584989268947 -0.054751827259505816 0 -0.00018482405283297155 -0.054810397138037668 0 -0.00023789824249929029 -0.054828229475790378 0 -0.00020497853649912844 -0.054895484959449257 0 -0.00018482405283297155 -0.054810397138037668 0 -0.00020497853649912844 -0.054895484959449257 0 -0.00013595255592380545 -0.054868460374245878 0 0.0051043303488767771 -0.046140790527605065 0 0.0038163523943683217 -0.045594288370946777 0 0.0056941184295150847 -0.044983435477999982 0 0.0051043303488767771 -0.046140790527605065 0 0.0056941184295150847 -0.044983435477999982 0 0.0060065316526266843 -0.045781944860575033 0 0.0029233130047959669 -0.050092356258479208 0 0.0017775247465172622 -0.05032559319215079 0 -0.00020497853649912844 -0.054895484959449257 0 -0.00011164519263427383 -0.054929280356147282 0 -0.00013595255592380545 -0.054868460374245878 0 -0.00011164519263427383 -0.054929280356147282 0 -0.00013595255592380545 -0.054868460374245878 0 -7.5505974626946222e-05 -0.054869866884181349 0 -0.00018482405283297155 -0.054810397138037668 0 -0.00013595255592380545 -0.054868460374245878 0 -9.3307533134296455e-05 -0.054818483005037257 0 -0.00013595255592380545 -0.054868460374245878 0 -9.3307533134296455e-05 -0.054818483005037257 0 -7.5505974626946222e-05 -0.054869866884181349 0 -9.3307533134296455e-05 -0.054818483005037257 0 -7.5505974626946222e-05 -0.054869866884181349 0 -2.4967747340104413e-05 -0.054837034829641959 0 -7.5505974626946222e-05 -0.054869866884181349 0 -2.4967747340104413e-05 -0.054837034829641959 0 -2.3667585059474329e-05 -0.054893914904696813 0 8.4807036036712656e-06 -0.054907964762664963 0 -2.4967747340104413e-05 -0.054837034829641959 0 -2.3667585059474329e-05 -0.054893914904696813 0 0.0017775247465172622 -0.05032559319215079 0 -5.5127164913950533e-05 -0.052676940925213731 0 -0.00011164519263427383 -0.054929280356147282 0 -7.5505974626946222e-05 -0.054869866884181349 0 -2.3667585059474329e-05 -0.054893914904696813 0 -5.3817132350390009e-05 -0.054910239233956298 0 -2.9250484072101843e-05 -0.054913814447373394 0 -4.5666138281547447e-05 -0.054919151109608912 0 0.00060118254911030206 -0.05019118517218988 0 0.00043144414504859511 -0.052022792142587877 0 -5.0011060941899435e-05 -0.049177090148851008 0 -0.00014913474859284454 -0.048948240582086071 0 9.7979082734618261e-05 -0.048983570109761544 0 -0.00053025407676170265 -0.051644016423408372 0 -0.00010548662340727108 -0.051836629771496757 0 -0.00036576279266754521 -0.052035742730166513 0 0.00060118254911030206 -0.05019118517218988 0 -0.00077348109303245524 -0.050572125270604167 0 -2.9250484072101843e-05 -0.054913814447373394 0 -4.5666138281547447e-05 -0.054919151109608912 0 -2.1045032494588928e-05 -0.054944832282229877 0 -1.2483980042149608e-07 -0.054942892141478961 0 -2.9250484072101843e-05 -0.054913814447373394 0 -2.1045032494588928e-05 -0.054944832282229877 0 1.5487755907613799e-05 -0.052623085578867732 0 -0.00077348109303245524 -0.050572125270604167 0 0.00019053269688894795 -0.052128610402864282 0 -0.00010548662340727108 -0.051836629771496757 0 -0.00036576279266754521 -0.052035742730166513 0 -0.00077348109303245524 -0.050572125270604167 0 -0.0014738379695357366 -0.049144807800071091 0 -0.0039936465053974591 -0.047035285145111072 0 -0.0047455751423417271 -0.04761123116969164 0 -0.0040728019668051958 -0.047643431659094244 0 -0.0028849607422128045 -0.047018796626589206 0 -0.0039936465053974591 -0.047035285145111072 0 -0.0040728019668051958 -0.047643431659094244 0 -0.0014738379695357366 -0.049144807800071091 0 -0.0012060748941041138 -0.048271443368533139 0 -0.0039936465053974591 -0.047035285145111072 0 -0.0048802453048863255 -0.047230480622635913 0 -0.0047455751423417271 -0.04761123116969164 0 0.0037775198290401078 -0.045597884457311472 0 0.005112574887443491 -0.044985453148164864 0 0.0056941184295150847 -0.044983435477999982 0 9.7979082734618261e-05 -0.048983570109761544 0 0.00034774938294747468 -0.049020548717686539 0 0.00027441796319754998 -0.049117169867101039 0 0.0017775247465172622 -0.05032559319215079 0 0.0045815228143402031 -0.048330672622261886 0 0.0037775198290401078 -0.045597884457311472 0 0.0031655543447751335 -0.045345867769760864 0 0.005112574887443491 -0.044985453148164864 0 0.00060118254911030206 -0.05019118517218988 0 0.0021676893458439182 -0.04827392396027215 0 -5.0011060941899435e-05 -0.049177090148851008 0 9.7979082734618261e-05 -0.048983570109761544 0 0.00027441796319754998 -0.049117169867101039 0 0.0017775247465172622 -0.05032559319215079 0 0.00060118254911030206 -0.05019118517218988 0 0.00085433957918058768 -0.047666949609110172 0 0.0018226785194743872 -0.047461051014280907 0 0.0070066485800444238 -0.044689862768152913 0 0.0074029522084488736 -0.045333613132893684 0 0.0068433793559360447 -0.045685569928631917 0 0.00077791554598358398 -0.047448601574295764 0 0.00089608692053201036 -0.047429464217161751 0 0.0010009924723158178 -0.047487098305249963 0 0.0070066485800444238 -0.044689862768152913 0 0.0074029522084488736 -0.045333613132893684 0 0.0079216740672770364 -0.044916900428844914 0 0.00085433957918058768 -0.047666949609110172 0 0.00040191274800159863 -0.047370461590984216 0 0.00040191274800159863 -0.047370461590984216 0 0.00019806602650174413 -0.047298925494922664 0 -0.0054380413194155333 -0.047465349790573638 0 -0.0056433838105261107 -0.047554342535472117 0 -0.005524904031472472 -0.04761442543578194 0 0.0070066485800444238 -0.044689862768152913 0 0.0063928517489594662 -0.045280113006916797 0 0.0068433793559360447 -0.045685569928631917 0 -0.0012060748941041138 -0.048271443368533139 0 0.00085433957918058768 -0.047666949609110172 0 0.00034774938294747468 -0.049020548717686539 0 0.00027441796319754998 -0.049117169867101039 0 0.00059962428785750909 -0.049060669319693551 0 0.0070066485800444238 -0.044689862768152913 0 0.0063928517489594662 -0.045280113006916797 0 0.0056941184295150847 -0.044983435477999982 0 0.0021676893458439182 -0.04827392396027215 0 0.00085433957918058768 -0.047666949609110172 0 0.005112574887443491 -0.044985453148164864 0 0.0070066485800444238 -0.044689862768152913 0 0.0056941184295150847 -0.044983435477999982 0 0.0063928517489594662 -0.045280113006916797 0 0.0056941184295150847 -0.044983435477999982 0 0.0060065316526266843 -0.045781944860575033 0 -0.0047455751423417271 -0.04761123116969164 0 -0.005284613292085071 -0.04762494838449062 0 -0.0052781364036090283 -0.04798458120425092 0 -0.0048802453048863255 -0.047230480622635913 0 -0.0054380413194155333 -0.047465349790573638 0 -0.005284613292085071 -0.04762494838449062 0 -0.0048802453048863255 -0.047230480622635913 0 -0.0047455751423417271 -0.04761123116969164 0 -0.005284613292085071 -0.04762494838449062 0 -0.005284613292085071 -0.04762494838449062 0 -0.0055141258894009617 -0.047843698725071541 0 -0.0052781364036090283 -0.04798458120425092 0 -0.0054380413194155333 -0.047465349790573638 0 -0.005284613292085071 -0.04762494838449062 0 -0.005524904031472472 -0.04761442543578194 0 -0.005284613292085071 -0.04762494838449062 0 -0.0055141258894009617 -0.047843698725071541 0 -0.005524904031472472 -0.04761442543578194 0 -0.0055801726451014865 -0.047677737803318083 0 -0.005524904031472472 -0.04761442543578194 0 -0.0055943473698120659 -0.047799913926189673 0 -0.0055141258894009617 -0.047843698725071541 0 -0.005524904031472472 -0.04761442543578194 0 -0.0055943473698120659 -0.047799913926189673 0 -0.0055141258894009617 -0.047843698725071541 0 -0.0055943473698120659 -0.047799913926189673 0 -0.0056507718622151974 -0.047968335328648477 0 -0.0055801726451014865 -0.047677737803318083 0 -0.0056422376744996901 -0.047896211491812453 0 -0.0056619159515675227 -0.047983680396744569 0 0.00040191274800159863 -0.047370461590984216 0 -0.0010210335198534534 -0.047544126396891921 0 -0.0055943473698120659 -0.047799913926189673 0 -0.0056422376744996901 -0.047896211491812453 0 -0.0056507718622151974 -0.047968335328648477 0 -0.0056422376744996901 -0.047896211491812453 0 -0.0056504819907385604 -0.048006931838414729 0 -0.0056507718622151974 -0.047968335328648477 0 -0.0056422376744996901 -0.047896211491812453 0 -0.0056504819907385604 -0.048006931838414729 0 -0.0056619159515675227 -0.047983680396744569 0 -0.0055801726451014865 -0.047677737803318083 0 -0.0055943473698120659 -0.047799913926189673 0 -0.0056422376744996901 -0.047896211491812453 0 -0.0010210335198534534 -0.047544126396891921 0 -0.00085948878799085762 -0.047612920365080184 0 0.0013499722718752103 -0.046458643321750884 0 0.0013131504067076692 -0.046452030942380658 0 0.001252245589913079 -0.046484757694824415 0 -0.0055250263250056211 -0.048044506562358556 0 -0.0056619159515675227 -0.047983680396744569 0 -0.0054199493673514291 -0.04812683842293404 0 -0.0055250263250056211 -0.048044506562358556 0 -0.0056504819907385604 -0.048006931838414729 0 -0.0055739073875422556 -0.048053768817660082 0 -0.0055250263250056211 -0.048044506562358556 0 -0.0056504819907385604 -0.048006931838414729 0 -0.0056619159515675227 -0.047983680396744569 0 0.0018226785194743872 -0.047461051014280907 0 0.0040567351289956307 -0.046817886697691637 0 0.001377235398550338 -0.046436469099069115 0 0.0013521802365599616 -0.046434828018161615 0 0.0013118010271331399 -0.04641011816193831 0 0.0013269107644332913 -0.046434623597123546 0 0.0013521802365599616 -0.046434828018161615 0 0.0013118010271331399 -0.04641011816193831 0 0.0013131504067076692 -0.046452030942380658 0 0.0013269107644332913 -0.046434623597123546 0 0.0013140598746620921 -0.046428414935270966 0 0.0013131504067076692 -0.046452030942380658 0 0.0013140598746620921 -0.046428414935270966 0 0.0013021443654429859 -0.046419682045290532 0 0.0013499722718752103 -0.046458643321750884 0 0.0013131504067076692 -0.046452030942380658 0 0.0013269107644332913 -0.046434623597123546 0 0.0013499722718752103 -0.046458643321750884 0 0.0013269107644332913 -0.046434623597123546 0 0.0013521802365599616 -0.046434828018161615 0 0.0013269107644332913 -0.046434623597123546 0 0.0013140598746620921 -0.046428414935270966 0 0.0013118010271331399 -0.04641011816193831 0 0.0074029522084488736 -0.045333613132893684 0 0.0079216740672770364 -0.044916900428844914 0 0.007848027527880214 -0.045885053890462782 0 0.0013873077630818865 -0.046444886351167149 0 0.0013499722718752103 -0.046458643321750884 0 0.0013735333987368052 -0.046438917727938213 0 0.00040191274800159863 -0.047370461590984216 0 0.0018226785194743872 -0.047461051014280907 0 0.0013499722718752103 -0.046458643321750884 0 0.0013735333987368052 -0.046438917727938213 0 0.0013521802365599616 -0.046434828018161615 0 0.0018226785194743872 -0.047461051014280907 0 0.0017404314126159221 -0.047411268366234341 0 0.0079216740672770364 -0.044916900428844914 0 0.007848027527880214 -0.045885053890462782 0 0.009269414620921344 -0.045733789496073207 0 0.007848027527880214 -0.045885053890462782 0 0.009269414620921344 -0.045733789496073207 0 0.0086035330627650345 -0.046444411835016297 0 0.0086035330627650345 -0.046444411835016297 0 0.0086940280104590307 -0.047134519638961321 0 0.0094706246347061301 -0.046700802214132087 0 0.009269414620921344 -0.045733789496073207 0 0.0086035330627650345 -0.046444411835016297 0 0.0094706246347061301 -0.046700802214132087 0 0.0059115219036559672 -0.049506567085368956 0 0.007050749456207565 -0.049580957949051242 0 0.007848027527880214 -0.045885053890462782 0 0.0086035330627650345 -0.046444411835016297 0 0.00765817560988596 -0.046796916748277961 0 0.0086035330627650345 -0.046444411835016297 0 0.00765817560988596 -0.046796916748277961 0 0.0086940280104590307 -0.047134519638961321 0 0.00765817560988596 -0.046796916748277961 0 0.0072471340573796927 -0.046125731628630422 0 0.006575500472636003 -0.046392551552753958 0 0.0059115219036559672 -0.049506567085368956 0 0.0045626692051652399 -0.049852381569787607 0 0.0051554469723950232 -0.050146349078248893 0 0.0041471019102657207 -0.049709060301837117 0 0.0044933541441212962 -0.050607099073480898 0 0.007848027527880214 -0.045885053890462782 0 0.00765817560988596 -0.046796916748277961 0 0.0072471340573796927 -0.046125731628630422 0 0.0072471340573796927 -0.046125731628630422 0 0.0068433793559360447 -0.045685569928631917 0 0.006575500472636003 -0.046392551552753958 0 0.0074029522084488736 -0.045333613132893684 0 0.0072471340573796927 -0.046125731628630422 0 0.0068433793559360447 -0.045685569928631917 0 0.0074029522084488736 -0.045333613132893684 0 0.007848027527880214 -0.045885053890462782 0 0.0072471340573796927 -0.046125731628630422 0 0.0051043303488767771 -0.046140790527605065 0 0.0060065316526266843 -0.045781944860575033 0 0.006410238219533476 -0.046710071804066895 0 0.0029233130047959669 -0.050092356258479208 0 0.0045626692051652399 -0.049852381569787607 0 0.0063928517489594662 -0.045280113006916797 0 0.0068433793559360447 -0.045685569928631917 0 0.0060065316526266843 -0.045781944860575033 0 0.0068433793559360447 -0.045685569928631917 0 0.0060065316526266843 -0.045781944860575033 0 0.006410238219533476 -0.046710071804066895 0 0.0051157638893705518 -0.048665096560472028 0 0.0045626692051652399 -0.049852381569787607 0 0.0041471019102657207 -0.049709060301837117 0 0.0036744167883787232 -0.050800600656431043 0 0.0044933541441212962 -0.050607099073480898 0 -0.00023789824249929029 -0.054828229475790378 0 -0.00020497853649912844 -0.054895484959449257 0 -0.00029327064215067008 -0.054851368341968611 0 -0.00023789824249929029 -0.054828229475790378 0 -0.00029327064215067008 -0.054851368341968611 0 -0.0002682584989268947 -0.054751827259505816 0 0.0045626692051652399 -0.049852381569787607 0 0.0026611015225295265 -0.052270367742875322 0 0.0036744167883787232 -0.050800600656431043 0 0.0044933541441212962 -0.050607099073480898 0 0.0045281034334428141 -0.051603450974205205 0 0.0051554469723950232 -0.050146349078248893 0 0.0044933541441212962 -0.050607099073480898 0 0.005086753894803551 -0.050978305429800981 0 0.0044933541441212962 -0.050607099073480898 0 0.005086753894803551 -0.050978305429800981 0 0.0045281034334428141 -0.051603450974205205 0 0.002720632679806408 -0.050772918589831982 0 0.0020075042863793987 -0.051746551965405424 0 0.0051380011146607207 -0.051768958574064328 0 0.005086753894803551 -0.050978305429800981 0 0.0045281034334428141 -0.051603450974205205 0 0.0058537124788541279 -0.051311314599092668 0 0.00036044235111896777 -0.051690393667731836 0 0.002720632679806408 -0.050772918589831982 0 0.0020075042863793987 -0.051746551965405424 0 0.0031999936926371346 -0.051895708094502391 0 0.0036744167883787232 -0.050800600656431043 0 0.0045281034334428141 -0.051603450974205205 0 0.0018901142315192285 -0.052887842635354433 0 0.0038959404969641288 -0.05161912444305216 0 0.00036044235111896777 -0.051690393667731836 0 0.0020075042863793987 -0.051746551965405424 0 0.0014149015635655177 -0.05242276430156842 0 0.00088194481773324468 -0.053023467874455513 0 0.0014149015635655177 -0.05242276430156842 0 0.0014666635617989034 -0.053023455804482929 0 0.0014149015635655177 -0.05242276430156842 0 0.0019221811540261525 -0.052674171095984074 0 0.0014666635617989034 -0.053023455804482929 0 0.0020075042863793987 -0.051746551965405424 0 0.0019221811540261525 -0.052674171095984074 0 0.0023804368319766522 -0.052656340669003224 0 0.0020075042863793987 -0.051746551965405424 0 0.0014149015635655177 -0.05242276430156842 0 0.0019221811540261525 -0.052674171095984074 0 0.0029864003292069136 -0.051371548689166734 0 0.0042742904575052533 -0.051398988148894896 0 0.0020075042863793987 -0.051746551965405424 0 0.0023804368319766522 -0.052656340669003224 0 0.0027923869990290162 -0.052616685225641648 0 0.0019221811540261525 -0.052674171095984074 0 0.0023804368319766522 -0.052656340669003224 0 0.0022718149647790965 -0.05301747792604522 0 0.0022718149647790965 -0.05301747792604522 0 0.0023111910577443225 -0.053300585229738871 0 0.0019703859478877538 -0.053337060845136564 0 0.0025311994939328985 -0.053170356201574571 0 0.0025402579465740841 -0.053054883404530503 0 0.0023111910577443225 -0.053300585229738871 0 0.0022718149647790965 -0.05301747792604522 0 0.0025402579465740841 -0.053054883404530503 0 0.0023111910577443225 -0.053300585229738871 0 0.0023804368319766522 -0.052656340669003224 0 0.0022718149647790965 -0.05301747792604522 0 0.0025402579465740841 -0.053054883404530503 0 0.0019566424558714662 -0.053609773018730419 0 0.0023111910577443225 -0.053300585229738871 0 0.0019703859478877538 -0.053337060845136564 0 0.00087992474248017091 -0.054570524744912231 0 0.00094740058654126341 -0.053760565177723832 0 0.0019703859478877538 -0.053337060845136564 0 0.00094740058654126341 -0.053760565177723832 0 0.0019703859478877538 -0.053337060845136564 0 0.0014666635617989034 -0.053023455804482929 0 0.0019221811540261525 -0.052674171095984074 0 0.0019703859478877538 -0.053337060845136564 0 0.0014666635617989034 -0.053023455804482929 0 0.0019221811540261525 -0.052674171095984074 0 0.0022718149647790965 -0.05301747792604522 0 0.0019703859478877538 -0.053337060845136564 0 0.0031732672286840218 -0.053285086659355593 0 0.0028653388184278409 -0.05292443137892771 0 0.0031803116937207717 -0.05273746850803774 0 0.0025000942284136196 -0.053196095194877821 0 0.0025402579465740841 -0.053054883404530503 0 0.0028653388184278409 -0.05292443137892771 0 0.0025402579465740841 -0.053054883404530503 0 0.0028653388184278409 -0.05292443137892771 0 0.0027923869990290162 -0.052616685225641648 0 0.0023804368319766522 -0.052656340669003224 0 0.0025402579465740841 -0.053054883404530503 0 0.0027923869990290162 -0.052616685225641648 0 0.0042742904575052533 -0.051398988148894896 0 0.0073212411218175578 -0.051131264783021622 0 0.0051380011146607207 -0.051768958574064328 0 0.0074909818088360336 -0.050445451378367721 0 0.0086837698484220419 -0.052191385822956501 0 0.0028653388184278409 -0.05292443137892771 0 0.0027923869990290162 -0.052616685225641648 0 0.0031803116937207717 -0.05273746850803774 0 0.0074909818088360336 -0.050445451378367721 0 0.0056829562494245516 -0.049447724792021558 0 0.0088851321692040228 -0.048338688343929001 0 0.0051380011146607207 -0.051768958574064328 0 0.0074909818088360336 -0.050445451378367721 0 0.0056829562494245516 -0.049447724792021558 0 0.002720632679806408 -0.050772918589831982 0 0.0051380011146607207 -0.051768958574064328 0 0.0056829562494245516 -0.049447724792021558 0 0.0038959404969641288 -0.05161912444305216 0 0.005951723064171196 -0.050666574433853091 0 0.0051554469723950232 -0.050146349078248893 0 0.005086753894803551 -0.050978305429800981 0 0.0061672731969332709 -0.050582519383659791 0 0.005086753894803551 -0.050978305429800981 0 0.0058537124788541279 -0.051311314599092668 0 0.0061672731969332709 -0.050582519383659791 0 0.005951723064171196 -0.050666574433853091 0 0.0079704315616528423 -0.049916214519695787 0 0.0058537124788541279 -0.051311314599092668 0 0.0061672731969332709 -0.050582519383659791 0 0.0071805046566708764 -0.051019081590169851 0 0.007050749456207565 -0.049580957949051242 0 0.0079704315616528423 -0.049916214519695787 0 0.0086940280104590307 -0.047134519638961321 0 0.0096201297225337913 -0.04758456882066131 0 0.0094706246347061301 -0.046700802214132087 0 0.0097766590169397569 -0.047042058194633689 0 0.0096201297225337913 -0.04758456882066131 0 0.0094706246347061301 -0.046700802214132087 0 0.0096972192360924754 -0.048579706444306203 0 0.0086537441162071876 -0.048127402133524094 0 0.010107375882619514 -0.047794828923813822 0 0.0097766590169397569 -0.047042058194633689 0 0.0096201297225337913 -0.04758456882066131 0 0.010107375882619514 -0.047794828923813822 0 0.0079704315616528423 -0.049916214519695787 0 0.0082722651461680109 -0.049790106126938537 0 0.0080440869383568581 -0.049905978274553731 0 0.0079704315616528423 -0.049916214519695787 0 0.010107375882619514 -0.047794828923813822 0 0.011488720354966167 -0.050004718605810336 0 0.010312971829049304 -0.046457627251347187 0 0.010069918463384992 -0.041861305376016004 0 0.0092316034396526039 -0.04395764232051496 0 0.010312971829049304 -0.046457627251347187 0 0.0095486829307965676 -0.045539534955873533 0 0.009853040852098139 -0.045909581210366666 0 0.0092316034396526039 -0.04395764232051496 0 0.00883005189555283 -0.04520158734620601 0 0.010312971829049304 -0.046457627251347187 0 0.0097766590169397569 -0.047042058194633689 0 0.010107375882619514 -0.047794828923813822 0 0.010312971829049304 -0.046457627251347187 0 0.0096972192360924754 -0.048579706444306203 0 0.0099169934268323098 -0.050099632724277504 0 0.011488720354966167 -0.050004718605810336 0 0.0096972192360924754 -0.048579706444306203 0 0.010107375882619514 -0.047794828923813822 0 0.011488720354966167 -0.050004718605810336 0 0.0099169934268323098 -0.050099632724277504 0 0.011488720354966167 -0.050004718605810336 0 0.0098673691131335416 -0.051085946033820037 0 0.0074909818088360336 -0.050445451378367721 0 0.0088851321692040228 -0.048338688343929001 0 0.0089020757600407636 -0.049703815523239221 0 0.0096972192360924754 -0.048579706444306203 0 0.0088851321692040228 -0.048338688343929001 0 0.0089020757600407636 -0.049703815523239221 0 0.0096972192360924754 -0.048579706444306203 0 0.0099169934268323098 -0.050099632724277504 0 0.0089020757600407636 -0.049703815523239221 0 0.0099169934268323098 -0.050099632724277504 0 0.0089020757600407636 -0.049703815523239221 0 0.0087741008410351321 -0.051075537417392493 0 0.0074909818088360336 -0.050445451378367721 0 0.0089020757600407636 -0.049703815523239221 0 0.0087741008410351321 -0.051075537417392493 0 0.0074909818088360336 -0.050445451378367721 0 0.0087741008410351321 -0.051075537417392493 0 0.0086837698484220419 -0.052191385822956501 0 0.007364023218285656 -0.051151531531056824 0 0.0073212411218175578 -0.051131264783021622 0 0.0087484669021616387 -0.051988487257677733 0 0.0098673691131335416 -0.051085946033820037 0 0.010462685077540829 -0.052211937527706594 0 0.0073212411218175578 -0.051131264783021622 0 0.0092912724954832548 -0.05161143044756205 0 0.0099169934268323098 -0.050099632724277504 0 0.0087741008410351321 -0.051075537417392493 0 0.0098673691131335416 -0.051085946033820037 0 0.0087741008410351321 -0.051075537417392493 0 0.0087484669021616387 -0.051988487257677733 0 0.0098673691131335416 -0.051085946033820037 0 0.011488720354966167 -0.050004718605810336 0 0.010462685077540829 -0.052211937527706594 0 0.011994073767969907 -0.052393674789407645 0 0.011488720354966167 -0.050004718605810336 0 0.0098673691131335416 -0.051085946033820037 0 0.010462685077540829 -0.052211937527706594 0 0.011092702923908715 -0.052238832613963664 0 0.011786724010378818 -0.052826577769636736 0 0.011994073767969907 -0.052393674789407645 0 0.0092912724954832548 -0.05161143044756205 0 0.0099844779745867258 -0.051774173950505376 0 0.011092702923908715 -0.052238832613963664 0 0.011414356999833923 -0.053113152754168058 0 0.011786724010378818 -0.052826577769636736 0 0.011092702923908715 -0.052238832613963664 0 0.011414356999833923 -0.053113152754168058 0 0.010760523816337356 -0.053017486061512624 0 0.010196040762568099 -0.052055991396985225 0 0.011092702923908715 -0.052238832613963664 0 0.010760523816337356 -0.053017486061512624 0 0.0063845908009477663 -0.047563951013696218 0 0.0073212411218175578 -0.051131264783021622 0 0.010087306174183358 -0.053784166867244292 0 0.010196040762568099 -0.052055991396985225 0 0.010760523816337356 -0.053017486061512624 0 0.0033590329070650928 -0.035761546040416523 0 0.0035614217477913969 -0.034147812507418052 0 0.0054352123264839111 -0.037863670178264981 0 0.0035614217477913969 -0.034147812507418052 0 0.0059490220656472645 -0.036284646943953711 0 0.005586318720602842 -0.039478713065742195 0 0.003872604999897522 -0.037083104799637695 0 0.0046333086339319512 -0.039289573428369091 0 0.0059490220656472645 -0.036284646943953711 0 0.0065177776049208363 -0.035094190720503946 0 0.0070554559115649871 -0.036451287890598254 0 0.0035614217477913969 -0.034147812507418052 0 0.0059490220656472645 -0.036284646943953711 0 0.0054426525641001347 -0.034234242665570916 0 0.0059490220656472645 -0.036284646943953711 0 0.0054426525641001347 -0.034234242665570916 0 0.0065177776049208363 -0.035094190720503946 0 0.00615177931108799 -0.033785588633839313 0 0.0054426525641001347 -0.034234242665570916 0 0.0065177776049208363 -0.035094190720503946 0 0.00615177931108799 -0.033785588633839313 0 0.0065177776049208363 -0.035094190720503946 0 0.0081978752696464721 -0.035867963829473479 0 0.011916623399921552 -0.053333364707064956 0 0.011786724010378818 -0.052826577769636736 0 0.012230439424307432 -0.052680195590697199 0 0.011916623399921552 -0.053333364707064956 0 0.011414356999833923 -0.053113152754168058 0 0.011786724010378818 -0.052826577769636736 0 0.011786724010378818 -0.052826577769636736 0 0.011994073767969907 -0.052393674789407645 0 0.012230439424307432 -0.052680195590697199 0 0.0081978752696464721 -0.035867963829473479 0 0.0070554559115649871 -0.036451287890598254 0 0.0073852147334867611 -0.038440705132475467 0 0.0065177776049208363 -0.035094190720503946 0 0.0081978752696464721 -0.035867963829473479 0 0.0070554559115649871 -0.036451287890598254 0 0.010069918463384992 -0.041861305376016004 0 0.0081978752696464721 -0.035867963829473479 0 0.0073852147334867611 -0.038440705132475467 0 0.0059490220656472645 -0.036284646943953711 0 0.0070554559115649871 -0.036451287890598254 0 0.0073852147334867611 -0.038440705132475467 0 0.011488720354966167 -0.050004718605810336 0 0.011994073767969907 -0.052393674789407645 0 0.012230439424307432 -0.052680195590697199 0 0.0095486829307965676 -0.045539534955873533 0 0.0081725030399548999 -0.044134019122167044 0 0.010069918463384992 -0.041861305376016004 0 0.0073852147334867611 -0.038440705132475467 0 0.0078548495268809561 -0.040669404526313208 0 0.0073852147334867611 -0.038440705132475467 0 0.005586318720602842 -0.039478713065742195 0 0.0078548495268809561 -0.040669404526313208 0 0.0030333343677224909 -0.036583809670031948 0 0.0033590329070650928 -0.035761546040416523 0 0.0054352123264839111 -0.037863670178264981 0 0.0030333343677224909 -0.036583809670031948 0 0.0054352123264839111 -0.037863670178264981 0 0.0040552195223335242 -0.037791994600086025 0 0.0059490220656472645 -0.036284646943953711 0 0.0073852147334867611 -0.038440705132475467 0 0.005586318720602842 -0.039478713065742195 0 0.0054352123264839111 -0.037863670178264981 0 0.0040552195223335242 -0.037791994600086025 0 0.0041180011968158896 -0.039183745275522958 0 0.0054352123264839111 -0.037863670178264981 0 0.0041180011968158896 -0.039183745275522958 0 0.0073575587547347757 -0.041520790083480801 0 0.0027793245079070473 -0.039299312643753914 0 0.0047064454265584857 -0.041976837028797211 0 0.005586318720602842 -0.039478713065742195 0 0.0082170501465898983 -0.042182788302971973 0 0.008257521896063132 -0.04489169391636471 0 0.0046333086339319512 -0.039289573428369091 0 0.0047064454265584857 -0.041976837028797211 0 0.010069918463384992 -0.041861305376016004 0 0.0078548495268809561 -0.040669404526313208 0 0.0082170501465898983 -0.042182788302971973 0 0.005586318720602842 -0.039478713065742195 0 0.0078548495268809561 -0.040669404526313208 0 0.0082170501465898983 -0.042182788302971973 0 0.0082170501465898983 -0.042182788302971973 0 0.0092316034396526039 -0.04395764232051496 0 0.008257521896063132 -0.04489169391636471 0 0.010069918463384992 -0.041861305376016004 0 0.0082170501465898983 -0.042182788302971973 0 0.0092316034396526039 -0.04395764232051496 0 0.0047593843193422672 -0.03977580306046169 0 0.0027719997743365079 -0.039662548759920258 0 0.0047359513767597531 -0.041456863036418233 0 0.0085312158121231361 -0.045079025999768589 0 0.00883005189555283 -0.04520158734620601 0 0.010232354882202229 -0.046622091090951834 0 0.0092316034396526039 -0.04395764232051496 0 0.008257521896063132 -0.04489169391636471 0 0.00883005189555283 -0.04520158734620601 0 0.0047064454265584857 -0.041976837028797211 0 0.0047797751075937915 -0.042030943621597809 0 -0.0016755824864030145 -0.042313626173604714 0 -0.00024053908774258765 -0.044297505272397855 0 0.0024828668979714388 -0.038086786458903517 0 0.0047593843193422672 -0.03977580306046169 0 0.0027719997743365079 -0.039662548759920258 0 -0.0059617239025657413 -0.04472767920111885 0 -0.005791015462240744 -0.045271236926922961 0 -0.0053111714770110487 -0.045650073936734148 0 -0.0059617239025657413 -0.04472767920111885 0 -0.005791015462240744 -0.045271236926922961 0 -0.0061296282319908404 -0.045251285321992352 0 -0.0058763866479602045 -0.045626171905462046 0 -0.005834110611481029 -0.046162094542123486 0 -0.0056408633798047938 -0.045592666427474692 0 -0.0061296282319908404 -0.045251285321992352 0 -0.0058763866479602045 -0.045626171905462046 0 -0.0060794134707720503 -0.045694990428323805 0 -0.005791015462240744 -0.045271236926922961 0 -0.0061296282319908404 -0.045251285321992352 0 -0.0058763866479602045 -0.045626171905462046 0 -0.005791015462240744 -0.045271236926922961 0 -0.0058763866479602045 -0.045626171905462046 0 -0.0056408633798047938 -0.045592666427474692 0 -0.0058763866479602045 -0.045626171905462046 0 -0.0060794134707720503 -0.045694990428323805 0 -0.005834110611481029 -0.046162094542123486 0 -0.0065879927141344894 -0.045600076867212194 0 -0.0060794134707720503 -0.045694990428323805 0 -0.005834110611481029 -0.046162094542123486 0 -0.0043709002711379971 -0.038121979090133082 0 -0.0055230707564520587 -0.042466637571541586 0 -0.0062510742810153661 -0.047035946309839156 0 -0.0054503117846271152 -0.046775301103810465 0 -0.0056408633798047938 -0.045592666427474692 0 -0.0054503117846271152 -0.046775301103810465 0 -0.0053851502229267118 -0.045852909948442482 0 -0.0048375588418815346 -0.046934225391279061 0 -0.0054503117846271152 -0.046775301103810465 0 -0.0051524512018508379 -0.047382784548637917 0 -0.00550941422824893 -0.047587963409216692 0 -0.0062510742810153661 -0.047035946309839156 0 -0.0054503117846271152 -0.046775301103810465 0 -0.00550941422824893 -0.047587963409216692 0 -0.0054503117846271152 -0.046775301103810465 0 -0.0056408633798047938 -0.045592666427474692 0 -0.0053851502229267118 -0.045852909948442482 0 0.0047593843193422672 -0.03977580306046169 0 0.0047359513767597531 -0.041456863036418233 0 0.0059884382919687933 -0.04213144214284311 0 0.0047064454265584857 -0.041976837028797211 0 0.0026262288280710765 -0.045336006816410056 0 -0.00024053908774258765 -0.044297505272397855 0 0.0026262288280710765 -0.045336006816410056 0 -0.0014767937768734606 -0.04397593166528993 0 -0.00024053908774258765 -0.044297505272397855 0 -0.005791015462240744 -0.045271236926922961 0 -0.0056408633798047938 -0.045592666427474692 0 -0.0053851502229267118 -0.045852909948442482 0 -0.00024053908774258765 -0.044297505272397855 0 0.0010441624166711459 -0.045436152758724049 0 0.00045896025952353337 -0.045008768185877665 0 0.0010792024941589182 -0.045332128476663687 0 0.0013158604789092743 -0.045768922343772583 0 0.010312971829049304 -0.046457627251347187 0 0.010232354882202229 -0.046622091090951834 0 0.0094706246347061301 -0.046700802214132087 0 0.00883005189555283 -0.04520158734620601 0 0.010312971829049304 -0.046457627251347187 0 0.010232354882202229 -0.046622091090951834 0 0.009269414620921344 -0.045733789496073207 0 0.010232354882202229 -0.046622091090951834 0 0.0094706246347061301 -0.046700802214132087 0 0.0097766590169397569 -0.047042058194633689 0 0.010312971829049304 -0.046457627251347187 0 0.0094706246347061301 -0.046700802214132087 0 0.0013118010271331399 -0.04641011816193831 0 0.0012877599609071053 -0.046399268533821598 0 0.0012915304445057197 -0.046406462497598819 0 0.0040567351289956307 -0.046817886697691637 0 0.0026262288280710765 -0.045336006816410056 0 0.0013118010271331399 -0.04641011816193831 0 0.0012915304445057197 -0.046406462497598819 0 0.0013021443654429859 -0.046419682045290532 0 0.0010441624166711459 -0.045436152758724049 0 0.0013176412206724053 -0.045901384477546221 0 -0.0054503117846271152 -0.046775301103810465 0 -0.0048375588418815346 -0.046934225391279061 0 -0.0051524512018508379 -0.047382784548637917 0 0.0026262288280710765 -0.045336006816410056 0 0.0010441624166711459 -0.045436152758724049 0 -0.0048375588418815346 -0.046934225391279061 0 -0.0051524512018508379 -0.047382784548637917 0 -0.0049166285489670126 -0.04756295991883279 0 0.0010441624166711459 -0.045436152758724049 0 -0.0002014455992593306 -0.04641726949995708 0 -0.0051524512018508379 -0.047382784548637917 0 -0.0052431767039794932 -0.047763714053692508 0 -0.0049166285489670126 -0.04756295991883279 0 -0.0052431767039794932 -0.047763714053692508 0 -0.0049166285489670126 -0.04756295991883279 0 -0.0050903484838643997 -0.047811327568205164 0 0.0013140598746620921 -0.046428414935270966 0 0.0013118010271331399 -0.04641011816193831 0 0.0013021443654429859 -0.046419682045290532 0 0.0011241577057671428 -0.04626507615428968 0 0.0012324784668736124 -0.046366554385752504 0 0.0011899753779623637 -0.046387963496905188 0 0.0012324784668736124 -0.046366554385752504 0 0.0011899753779623637 -0.046387963496905188 0 0.0012483385807595939 -0.046423181468828421 0 -0.0049166285489670126 -0.04756295991883279 0 -0.0049940293175652316 -0.047973041172319895 0 -0.0050903484838643997 -0.047811327568205164 0 -0.0002014455992593306 -0.04641726949995708 0 -0.00085948878799085762 -0.047612920365080184 0 0.0013131504067076692 -0.046452030942380658 0 0.0012324784668736124 -0.046366554385752504 0 0.0012483385807595939 -0.046423181468828421 0 0.0011899753779623637 -0.046387963496905188 0 0.0012483385807595939 -0.046423181468828421 0 0.001252245589913079 -0.046484757694824415 0 0.0013846246001469164 -0.046029208956670106 0 0.0013176412206724053 -0.045901384477546221 0 0.0013131504067076692 -0.046452030942380658 0 0.0012483385807595939 -0.046423181468828421 0 0.001252245589913079 -0.046484757694824415 0 -0.0054199493673514291 -0.04812683842293404 0 -0.0051600825536050566 -0.048009764388677829 0 -0.0053619837722742149 -0.048054828631924083 0 -0.0049940293175652316 -0.047973041172319895 0 -0.0050903484838643997 -0.047811327568205164 0 -0.0051600825536050566 -0.048009764388677829 0 -0.0050903484838643997 -0.047811327568205164 0 -0.0051600825536050566 -0.048009764388677829 0 -0.0052266304957937311 -0.047940144536311374 0 -0.00085948878799085762 -0.047612920365080184 0 -0.0011071017652014054 -0.047652361288930113 0 -0.0051600825536050566 -0.048009764388677829 0 -0.0052668763650649255 -0.048024306384051932 0 -0.0052266304957937311 -0.047940144536311374 0 -0.0052668763650649255 -0.048024306384051932 0 -0.0053056431517365622 -0.048024701428637004 0 -0.0053706712297425267 -0.048035435445186146 0 -0.0051600825536050566 -0.048009764388677829 0 -0.0052668763650649255 -0.048024306384051932 0 -0.0053056431517365622 -0.048024701428637004 0 -0.0051600825536050566 -0.048009764388677829 0 -0.0053056431517365622 -0.048024701428637004 0 -0.0053619837722742149 -0.048054828631924083 0 -0.0053056431517365622 -0.048024701428637004 0 -0.0053619837722742149 -0.048054828631924083 0 -0.0054120521339911225 -0.048044154319549982 0 -0.0054199493673514291 -0.04812683842293404 0 -0.0053619837722742149 -0.048054828631924083 0 -0.0054356770105082539 -0.048063458448747286 0 -0.0053619837722742149 -0.048054828631924083 0 -0.0054120521339911225 -0.048044154319549982 0 -0.0054356770105082539 -0.048063458448747286 0 -0.0053706712297425267 -0.048035435445186146 0 -0.0054120521339911225 -0.048044154319549982 0 -0.0054461065665850107 -0.048044381225515215 0 -0.0053056431517365622 -0.048024701428637004 0 -0.0053706712297425267 -0.048035435445186146 0 -0.0054120521339911225 -0.048044154319549982 0 -0.0055250263250056211 -0.048044506562358556 0 -0.0054461065665850107 -0.048044381225515215 0 -0.0054777438680400914 -0.048052418388931067 0 -0.0055250263250056211 -0.048044506562358556 0 -0.0054120521339911225 -0.048044154319549982 0 -0.0054461065665850107 -0.048044381225515215 0 -0.0055250263250056211 -0.048044506562358556 0 -0.0054199493673514291 -0.04812683842293404 0 -0.0054356770105082539 -0.048063458448747286 0 -0.0055250263250056211 -0.048044506562358556 0 -0.0054120521339911225 -0.048044154319549982 0 -0.0054356770105082539 -0.048063458448747286 0 -0.0052431767039794932 -0.047763714053692508 0 -0.0052266304957937311 -0.047940144536311374 0 -0.0053370371516210787 -0.047959226166900688 0 -0.0052431767039794932 -0.047763714053692508 0 -0.0050903484838643997 -0.047811327568205164 0 -0.0052266304957937311 -0.047940144536311374 0 -0.0052668763650649255 -0.048024306384051932 0 -0.0052266304957937311 -0.047940144536311374 0 -0.0053104872045501286 -0.04802701925989418 0 -0.0052266304957937311 -0.047940144536311374 0 -0.0053370371516210787 -0.047959226166900688 0 -0.0053104872045501286 -0.04802701925989418 0 -0.0052431767039794932 -0.047763714053692508 0 -0.0053370371516210787 -0.047959226166900688 0 -0.0054331026197921616 -0.047848765579701656 0 -0.0053370371516210787 -0.047959226166900688 0 -0.0054331026197921616 -0.047848765579701656 0 -0.0054012247636027995 -0.047987966706041281 0 -0.0054331026197921616 -0.047848765579701656 0 -0.0055324995176191704 -0.047859342479784191 0 -0.00550941422824893 -0.047587963409216692 0 -0.0054331026197921616 -0.047848765579701656 0 -0.0055324995176191704 -0.047859342479784191 0 -0.0054012247636027995 -0.047987966706041281 0 -0.0043709002711379971 -0.038121979090133082 0 -0.0014468341152693142 -0.036015346037029411 0 -0.0055897800268811292 -0.047504708219938845 0 -0.0055324995176191704 -0.047859342479784191 0 -0.00550941422824893 -0.047587963409216692 0 -0.0043709002711379971 -0.038121979090133082 0 -0.0036406571182710395 -0.039712090520946292 0 -0.0051524512018508379 -0.047382784548637917 0 -0.0052431767039794932 -0.047763714053692508 0 -0.00550941422824893 -0.047587963409216692 0 -0.0052431767039794932 -0.047763714053692508 0 -0.0054331026197921616 -0.047848765579701656 0 -0.00550941422824893 -0.047587963409216692 0 -0.0053126244844547621 -0.048082372895082465 0 -0.0053543830721401149 -0.048091043302215655 0 -0.0053513796732268101 -0.048051843660550694 0 -0.0053126244844547621 -0.048082372895082465 0 -0.0053543830721401149 -0.048091043302215655 0 -0.0053462319745743205 -0.048108105356188716 0 -0.0053126244844547621 -0.048082372895082465 0 -0.0053462319745743205 -0.048108105356188716 0 -0.0052683293971780374 -0.048082433239146731 0 -0.0053017784563096004 -0.048033636681594688 0 -0.0053126244844547621 -0.048082372895082465 0 -0.0051576733902239042 -0.048059131610873947 0 -0.0053017784563096004 -0.048033636681594688 0 -0.0055324995176191704 -0.047859342479784191 0 -0.0054012247636027995 -0.047987966706041281 0 -0.0053017784563096004 -0.048033636681594688 0 -0.0053126244844547621 -0.048082372895082465 0 -0.0054012247636027995 -0.047987966706041281 0 -0.0053126244844547621 -0.048082372895082465 0 -0.0054012247636027995 -0.047987966706041281 0 -0.0053513796732268101 -0.048051843660550694 0 -0.0053370371516210787 -0.047959226166900688 0 -0.0054012247636027995 -0.047987966706041281 0 -0.0053513796732268101 -0.048051843660550694 0 -0.0053513796732268101 -0.048051843660550694 0 -0.0053104872045501286 -0.04802701925989418 0 -0.0053568358292652189 -0.048075803579549742 0 -0.0053370371516210787 -0.047959226166900688 0 -0.0053513796732268101 -0.048051843660550694 0 -0.0053104872045501286 -0.04802701925989418 0 -0.0052668763650649255 -0.048024306384051932 0 -0.0053104872045501286 -0.04802701925989418 0 -0.0053386708895971809 -0.048054172314262449 0 -0.0053104872045501286 -0.04802701925989418 0 -0.0053386708895971809 -0.048054172314262449 0 -0.0053568358292652189 -0.048075803579549742 0 -0.0053568358292652189 -0.048075803579549742 0 -0.0054017085546779206 -0.048082626938877972 0 -0.0054178377958898714 -0.048107219834314686 0 -0.0053386708895971809 -0.048054172314262449 0 -0.0053568358292652189 -0.048075803579549742 0 -0.0054017085546779206 -0.048082626938877972 0 -0.0053543830721401149 -0.048091043302215655 0 -0.0053513796732268101 -0.048051843660550694 0 -0.0053568358292652189 -0.048075803579549742 0 -0.0053706712297425267 -0.048035435445186146 0 -0.0054461065665850107 -0.048044381225515215 0 -0.0054777438680400914 -0.048052418388931067 0 -0.0053706712297425267 -0.048035435445186146 0 -0.0054777438680400914 -0.048052418388931067 0 -0.0053798336208879284 -0.048052075821990115 0 -0.0054777438680400914 -0.048052418388931067 0 -0.0053798336208879284 -0.048052075821990115 0 -0.0054473134103729471 -0.048076693392740934 0 -0.0052668763650649255 -0.048024306384051932 0 -0.0053706712297425267 -0.048035435445186146 0 -0.0053798336208879284 -0.048052075821990115 0 -0.0052668763650649255 -0.048024306384051932 0 -0.0053386708895971809 -0.048054172314262449 0 -0.0053798336208879284 -0.048052075821990115 0 -0.0053386708895971809 -0.048054172314262449 0 -0.0053798336208879284 -0.048052075821990115 0 -0.0054017085546779206 -0.048082626938877972 0 -0.0054017085546779206 -0.048082626938877972 0 -0.0054838588892386119 -0.048117357122668847 0 -0.0054178377958898714 -0.048107219834314686 0 -0.0054017085546779206 -0.048082626938877972 0 -0.0054473134103729471 -0.048076693392740934 0 -0.0054838588892386119 -0.048117357122668847 0 -0.0053798336208879284 -0.048052075821990115 0 -0.0054017085546779206 -0.048082626938877972 0 -0.0054473134103729471 -0.048076693392740934 0 -0.0055155462811914257 -0.04809173350587273 0 -0.0055575155652517211 -0.048128834504664604 0 -0.0054838588892386119 -0.048117357122668847 0 -0.0054777438680400914 -0.048052418388931067 0 -0.0054473134103729471 -0.048076693392740934 0 -0.0055155462811914257 -0.04809173350587273 0 -0.0054473134103729471 -0.048076693392740934 0 -0.0055155462811914257 -0.04809173350587273 0 -0.0054838588892386119 -0.048117357122668847 0 -0.0055155462811914257 -0.04809173350587273 0 -0.0055575155652517211 -0.048128834504664604 0 -0.0055758683740477887 -0.048092200170457428 0 -0.0054777438680400914 -0.048052418388931067 0 -0.0055155462811914257 -0.04809173350587273 0 -0.0055758683740477887 -0.048092200170457428 0 -0.0055844896001222338 -0.048171300650274564 0 -0.0055575155652517211 -0.048128834504664604 0 -0.0054838588892386119 -0.048117357122668847 0 -0.0055844896001222338 -0.048171300650274564 0 -0.0054838588892386119 -0.048117357122668847 0 -0.0055311089930610274 -0.048160780076599567 0 -0.0054838588892386119 -0.048117357122668847 0 -0.0054622473411711451 -0.048135965994172074 0 -0.0055311089930610274 -0.048160780076599567 0 -0.0054838588892386119 -0.048117357122668847 0 -0.0054622473411711451 -0.048135965994172074 0 -0.0054178377958898714 -0.048107219834314686 0 -0.0055311089930610274 -0.048160780076599567 0 -0.0055974145771480847 -0.048204908478477818 0 -0.0055119271769431197 -0.048158498097810927 0 -0.0054622473411711451 -0.048135965994172074 0 -0.0055311089930610274 -0.048160780076599567 0 -0.0055119271769431197 -0.048158498097810927 0 -0.0055844896001222338 -0.048171300650274564 0 -0.0055311089930610274 -0.048160780076599567 0 -0.0055974145771480847 -0.048204908478477818 0 -0.0055844896001222338 -0.048171300650274564 0 -0.0055974145771480847 -0.048204908478477818 0 -0.0056557243126377221 -0.048225962960091469 0 -0.0053543830721401149 -0.048091043302215655 0 -0.0053462319745743205 -0.048108105356188716 0 -0.0053979254486664361 -0.048117000418922598 0 -0.0053543830721401149 -0.048091043302215655 0 -0.0053568358292652189 -0.048075803579549742 0 -0.0053979254486664361 -0.048117000418922598 0 -0.0054622473411711451 -0.048135965994172074 0 -0.0053979254486664361 -0.048117000418922598 0 -0.0054178377958898714 -0.048107219834314686 0 -0.0053568358292652189 -0.048075803579549742 0 -0.0053979254486664361 -0.048117000418922598 0 -0.0054178377958898714 -0.048107219834314686 0 -0.0054622473411711451 -0.048135965994172074 0 -0.0054375838558505408 -0.048129952993418906 0 -0.0055119271769431197 -0.048158498097810927 0 -0.0054622473411711451 -0.048135965994172074 0 -0.0053979254486664361 -0.048117000418922598 0 -0.0054375838558505408 -0.048129952993418906 0 -0.0053462319745743205 -0.048108105356188716 0 -0.0053979254486664361 -0.048117000418922598 0 -0.0054375838558505408 -0.048129952993418906 0 -0.0053462319745743205 -0.048108105356188716 0 -0.0054375838558505408 -0.048129952993418906 0 -0.0053485819801564992 -0.048087940540855641 0 -0.0054375838558505408 -0.048129952993418906 0 -0.0054417281971818141 -0.04808649974633996 0 -0.0053485819801564992 -0.048087940540855641 0 -0.0054375838558505408 -0.048129952993418906 0 -0.0054417281971818141 -0.04808649974633996 0 -0.0055305730986695825 -0.048140315099528874 0 -0.0054417281971818141 -0.04808649974633996 0 -0.0055305730986695825 -0.048140315099528874 0 -0.0054920615527315119 -0.048011636843590853 0 -0.0054417281971818141 -0.04808649974633996 0 -0.0053809835788901248 -0.048022590145271146 0 -0.0053485819801564992 -0.048087940540855641 0 -0.0054375838558505408 -0.048129952993418906 0 -0.0055119271769431197 -0.048158498097810927 0 -0.0055305730986695825 -0.048140315099528874 0 -0.0055974145771480847 -0.048204908478477818 0 -0.0055119271769431197 -0.048158498097810927 0 -0.0055305730986695825 -0.048140315099528874 0 -0.0055305730986695825 -0.048140315099528874 0 -0.0055524916877264146 -0.04809070253870331 0 -0.0056461472750239834 -0.048230727739875551 0 -0.0055974145771480847 -0.048204908478477818 0 -0.0055305730986695825 -0.048140315099528874 0 -0.0056461472750239834 -0.048230727739875551 0 -0.0055524916877264146 -0.04809070253870331 0 -0.0055545195011651397 -0.048102542620476363 0 -0.0056461472750239834 -0.048230727739875551 0 -0.0055305730986695825 -0.048140315099528874 0 -0.0055524916877264146 -0.04809070253870331 0 -0.0054920615527315119 -0.048011636843590853 0 -0.0055524916877264146 -0.04809070253870331 0 -0.0055545195011651397 -0.048102542620476363 0 -0.0055957904922038894 -0.047926645651982819 0 -0.0051755503202103852 -0.047294603049887113 0 -0.0050922861237539963 -0.047212272968779785 0 -0.0055524916877264146 -0.04809070253870331 0 -0.0054920615527315119 -0.048011636843590853 0 -0.0055957904922038894 -0.047926645651982819 0 -0.0053809835788901248 -0.048022590145271146 0 -0.0054920615527315119 -0.048011636843590853 0 -0.0053713887854743301 -0.047860336754764365 0 -0.0054417281971818141 -0.04808649974633996 0 -0.0053809835788901248 -0.048022590145271146 0 -0.0054920615527315119 -0.048011636843590853 0 -0.0054920615527315119 -0.048011636843590853 0 -0.0054613847129973284 -0.047861485182863844 0 -0.0055957904922038894 -0.047926645651982819 0 -0.0054920615527315119 -0.048011636843590853 0 -0.0054613847129973284 -0.047861485182863844 0 -0.0053713887854743301 -0.047860336754764365 0 -0.0053713887854743301 -0.047860336754764365 0 -0.0052087489638089251 -0.048029380942067754 0 -0.0052005583363556214 -0.047716772613880097 0 -0.0052087489638089251 -0.048029380942067754 0 -0.0048762558129152771 -0.047968148111419334 0 -0.0052005583363556214 -0.047716772613880097 0 -0.0053809835788901248 -0.048022590145271146 0 -0.0053713887854743301 -0.047860336754764365 0 -0.0052087489638089251 -0.048029380942067754 0 -0.0052087489638089251 -0.048029380942067754 0 -0.0053485819801564992 -0.048087940540855641 0 -0.0052683293971780374 -0.048082433239146731 0 -0.0053809835788901248 -0.048022590145271146 0 -0.0052087489638089251 -0.048029380942067754 0 -0.0053485819801564992 -0.048087940540855641 0 -0.0052087489638089251 -0.048029380942067754 0 -0.0052683293971780374 -0.048082433239146731 0 -0.0051576733902239042 -0.048059131610873947 0 -0.0053462319745743205 -0.048108105356188716 0 -0.0053485819801564992 -0.048087940540855641 0 -0.0052683293971780374 -0.048082433239146731 0 -0.0053126244844547621 -0.048082372895082465 0 -0.0052683293971780374 -0.048082433239146731 0 -0.0051576733902239042 -0.048059131610873947 0 -0.0051520683225643625 -0.048043514528924691 0 -0.0051576733902239042 -0.048059131610873947 0 -0.0048762558129152771 -0.047968148111419334 0 -0.0052087489638089251 -0.048029380942067754 0 -0.0051576733902239042 -0.048059131610873947 0 -0.0048762558129152771 -0.047968148111419334 0 -0.0040294941296327288 -0.047415049882931722 0 -0.0048762558129152771 -0.047968148111419334 0 -0.0047522218199622908 -0.046972677367758876 0 -0.0048762558129152771 -0.047968148111419334 0 -0.0052005583363556214 -0.047716772613880097 0 -0.0047522218199622908 -0.046972677367758876 0 -0.0040593403950871972 -0.046806876246927302 0 -0.0040294941296327288 -0.047415049882931722 0 -0.0047522218199622908 -0.046972677367758876 0 -0.0052005583363556214 -0.047716772613880097 0 -0.005332226062448567 -0.047295117855654843 0 -0.0053941581983704438 -0.047693467357862042 0 -0.0053713887854743301 -0.047860336754764365 0 -0.0052005583363556214 -0.047716772613880097 0 -0.0053941581983704438 -0.047693467357862042 0 -0.0052005583363556214 -0.047716772613880097 0 -0.005332226062448567 -0.047295117855654843 0 -0.0047522218199622908 -0.046972677367758876 0 -0.0042700845308208286 -0.046404568608892131 0 -0.0034742764958696336 -0.046200961714996887 0 -0.0039288994460713097 -0.045929719475787431 0 -0.0043302450499897423 -0.046756437163690739 0 -0.003497162104410193 -0.045925024504855985 0 -0.0048411729570863923 -0.046854093934190079 0 -0.0035743019477520346 -0.046141427430865377 0 -0.004637126172306702 -0.046913372315857835 0 -0.0042700845308208286 -0.046404568608892131 0 -0.0034742764958696336 -0.046200961714996887 0 -0.0045616113438407737 -0.04732523460842683 0 -0.005332226062448567 -0.047295117855654843 0 -0.0047522218199622908 -0.046972677367758876 0 -0.0044327198654044676 -0.046437373321383271 0 -0.0043302450499897423 -0.046756437163690739 0 -0.003497162104410193 -0.045925024504855985 0 -0.0029732607217255991 -0.046062870459447541 0 -0.0046000693166647665 -0.046756015223006597 0 -0.0035275020257716444 -0.045893823303658259 0 -0.0040593403950871972 -0.046806876246927302 0 -0.0047522218199622908 -0.046972677367758876 0 -0.0041631043160199133 -0.045957615623735341 0 -0.0037360010842676168 -0.046106291139329243 0 -0.0035275020257716444 -0.045893823303658259 0 -0.0032106478083092343 -0.045207677230392665 0 -0.0039080489974543334 -0.045467003033947399 0 -0.0037509714361057826 -0.044641145692077354 0 -0.0032106478083092343 -0.045207677230392665 0 -0.0036251763524143008 -0.045717183722331543 0 -0.0039080489974543334 -0.045467003033947399 0 -0.0034742764958696336 -0.046200961714996887 0 -0.0036251763524143008 -0.045717183722331543 0 -0.0039288994460713097 -0.045929719475787431 0 -0.0034742764958696336 -0.046200961714996887 0 -0.0032106478083092343 -0.045207677230392665 0 -0.0036251763524143008 -0.045717183722331543 0 -0.0039288994460713097 -0.045929719475787431 0 -0.0043654923821525452 -0.045816861592486206 0 -0.0039080489974543334 -0.045467003033947399 0 -0.0036251763524143008 -0.045717183722331543 0 -0.0039288994460713097 -0.045929719475787431 0 -0.0039080489974543334 -0.045467003033947399 0 -0.0042700845308208286 -0.046404568608892131 0 -0.0043654923821525452 -0.045816861592486206 0 -0.0048476416295336134 -0.046292010713573722 0 -0.0042700845308208286 -0.046404568608892131 0 -0.0039288994460713097 -0.045929719475787431 0 -0.0043654923821525452 -0.045816861592486206 0 -0.0043654923821525452 -0.045816861592486206 0 -0.004433833012050776 -0.045121478172764219 0 -0.0048393303145742514 -0.045598362395268897 0 -0.0043654923821525452 -0.045816861592486206 0 -0.0039080489974543334 -0.045467003033947399 0 -0.004433833012050776 -0.045121478172764219 0 -0.004433833012050776 -0.045121478172764219 0 -0.0044309425033160045 -0.044250303287404452 0 -0.0037509714361057826 -0.044641145692077354 0 -0.0039080489974543334 -0.045467003033947399 0 -0.004433833012050776 -0.045121478172764219 0 -0.0037509714361057826 -0.044641145692077354 0 -0.0044309425033160045 -0.044250303287404452 0 -0.0037509714361057826 -0.044641145692077354 0 -0.0040672972918950404 -0.043599806940979438 0 -0.0030464374067859712 -0.044605978493796827 0 -0.0037509714361057826 -0.044641145692077354 0 -0.0032541287000473285 -0.043552530183212437 0 -0.0032106478083092343 -0.045207677230392665 0 -0.0030464374067859712 -0.044605978493796827 0 -0.0037509714361057826 -0.044641145692077354 0 -0.0056608245549200735 -0.045541276947827114 0 -0.0051660633929265396 -0.044725489059426776 0 -0.0057737933021472926 -0.044722430210439514 0 -0.0056608245549200735 -0.045541276947827114 0 -0.0051660633929265396 -0.044725489059426776 0 -0.0053349764523254132 -0.045966209173361486 0 -0.0051660633929265396 -0.044725489059426776 0 -0.0048393303145742514 -0.045598362395268897 0 -0.0053349764523254132 -0.045966209173361486 0 -0.004433833012050776 -0.045121478172764219 0 -0.0044309425033160045 -0.044250303287404452 0 -0.0051660633929265396 -0.044725489059426776 0 -0.004433833012050776 -0.045121478172764219 0 -0.0051660633929265396 -0.044725489059426776 0 -0.0048393303145742514 -0.045598362395268897 0 -0.0043654923821525452 -0.045816861592486206 0 -0.0048393303145742514 -0.045598362395268897 0 -0.0048476416295336134 -0.046292010713573722 0 -0.0048393303145742514 -0.045598362395268897 0 -0.0048476416295336134 -0.046292010713573722 0 -0.0053349764523254132 -0.045966209173361486 0 -0.0053349764523254132 -0.045966209173361486 0 -0.0055713960917610364 -0.046724115444646684 0 -0.0058522758077858934 -0.046306421004572287 0 -0.0048476416295336134 -0.046292010713573722 0 -0.0053349764523254132 -0.045966209173361486 0 -0.0052799826662337183 -0.046645868144239558 0 -0.0056608245549200735 -0.045541276947827114 0 -0.0053349764523254132 -0.045966209173361486 0 -0.0058522758077858934 -0.046306421004572287 0 -0.0053349764523254132 -0.045966209173361486 0 -0.0055713960917610364 -0.046724115444646684 0 -0.0052799826662337183 -0.046645868144239558 0 -0.0055713960917610364 -0.046724115444646684 0 -0.0052799826662337183 -0.046645868144239558 0 -0.0054065980508996008 -0.047250790631531731 0 -0.0052799826662337183 -0.046645868144239558 0 -0.0054065980508996008 -0.047250790631531731 0 -0.0049922737362759796 -0.046825014119134471 0 -0.0054065980508996008 -0.047250790631531731 0 -0.0049922737362759796 -0.046825014119134471 0 -0.0049524037780222718 -0.047191006924606017 0 -0.0042700845308208286 -0.046404568608892131 0 -0.0048476416295336134 -0.046292010713573722 0 -0.0046967209360001096 -0.046795740595788053 0 -0.0048476416295336134 -0.046292010713573722 0 -0.0049922737362759796 -0.046825014119134471 0 -0.0046967209360001096 -0.046795740595788053 0 -0.0048476416295336134 -0.046292010713573722 0 -0.0052799826662337183 -0.046645868144239558 0 -0.0049922737362759796 -0.046825014119134471 0 -0.0049922737362759796 -0.046825014119134471 0 -0.0049524037780222718 -0.047191006924606017 0 -0.0046967209360001096 -0.046795740595788053 0 -0.0049524037780222718 -0.047191006924606017 0 -0.0046967209360001096 -0.046795740595788053 0 -0.0045616113438407737 -0.04732523460842683 0 -0.0042700845308208286 -0.046404568608892131 0 -0.0046967209360001096 -0.046795740595788053 0 -0.0045616113438407737 -0.04732523460842683 0 -0.0043302450499897423 -0.046756437163690739 0 -0.0048411729570863923 -0.046854093934190079 0 -0.0056843048139739016 -0.047436899815659975 0 -0.0054613847129973284 -0.047861485182863844 0 -0.0053941581983704438 -0.047693467357862042 0 -0.0055957904922038894 -0.047926645651982819 0 -0.0045616113438407737 -0.04732523460842683 0 -0.0052031557579170279 -0.047568840128306339 0 -0.0051740107081827301 -0.047876448764151626 0 -0.0049524037780222718 -0.047191006924606017 0 -0.0045616113438407737 -0.04732523460842683 0 -0.0052031557579170279 -0.047568840128306339 0 -0.0046000693166647665 -0.046756015223006597 0 -0.0050922861237539963 -0.047212272968779785 0 -0.005332226062448567 -0.047295117855654843 0 -0.0053941581983704438 -0.047693467357862042 0 -0.0055957904922038894 -0.047926645651982819 0 -0.004637126172306702 -0.046913372315857835 0 -0.0050922861237539963 -0.047212272968779785 0 -0.0054613847129973284 -0.047861485182863844 0 -0.0053713887854743301 -0.047860336754764365 0 -0.0053941581983704438 -0.047693467357862042 0 -0.0054065980508996008 -0.047250790631531731 0 -0.0054982431594360528 -0.047797117013161541 0 -0.0057241457725423564 -0.047890963628781091 0 -0.0054065980508996008 -0.047250790631531731 0 -0.0052031557579170279 -0.047568840128306339 0 -0.0054982431594360528 -0.047797117013161541 0 -0.0054065980508996008 -0.047250790631531731 0 -0.0049524037780222718 -0.047191006924606017 0 -0.0052031557579170279 -0.047568840128306339 0 -0.0055545195011651397 -0.048102542620476363 0 -0.0052031557579170279 -0.047568840128306339 0 -0.0051740107081827301 -0.047876448764151626 0 -0.0055545195011651397 -0.048102542620476363 0 -0.0054982431594360528 -0.047797117013161541 0 -0.0057241457725423564 -0.047890963628781091 0 -0.0055545195011651397 -0.048102542620476363 0 -0.0052031557579170279 -0.047568840128306339 0 -0.0054982431594360528 -0.047797117013161541 0 -0.0057241457725423564 -0.047890963628781091 0 -0.0059926271952037312 -0.048309307709921839 0 -0.0058715489757323932 -0.047382743259665738 0 -0.0057241457725423564 -0.047890963628781091 0 -0.0059926271952037312 -0.048309307709921839 0 -0.0057931181438972273 -0.048295948896895619 0 -0.0059926271952037312 -0.048309307709921839 0 -0.0062625304508154957 -0.048166426776292959 0 -0.0062227050484671862 -0.048993437329271763 0 -0.0059926271952037312 -0.048309307709921839 0 -0.0058715489757323932 -0.047382743259665738 0 -0.0062625304508154957 -0.048166426776292959 0 -0.0058715489757323932 -0.047382743259665738 0 -0.0062787513396364968 -0.046668871870947988 0 -0.0062625304508154957 -0.048166426776292959 0 -0.0054065980508996008 -0.047250790631531731 0 -0.0057241457725423564 -0.047890963628781091 0 -0.0058715489757323932 -0.047382743259665738 0 -0.0055713960917610364 -0.046724115444646684 0 -0.0054065980508996008 -0.047250790631531731 0 -0.0058715489757323932 -0.047382743259665738 0 -0.0058715489757323932 -0.047382743259665738 0 -0.0058522758077858934 -0.046306421004572287 0 -0.0062787513396364968 -0.046668871870947988 0 -0.0055713960917610364 -0.046724115444646684 0 -0.0058715489757323932 -0.047382743259665738 0 -0.0058522758077858934 -0.046306421004572287 0 -0.0058522758077858934 -0.046306421004572287 0 -0.0062787513396364968 -0.046668871870947988 0 -0.0061787055826227483 -0.045400117301405168 0 -0.0062787513396364968 -0.046668871870947988 0 -0.0061787055826227483 -0.045400117301405168 0 -0.0068976063652860173 -0.045614011043966847 0 -0.0056608245549200735 -0.045541276947827114 0 -0.0058522758077858934 -0.046306421004572287 0 -0.0061787055826227483 -0.045400117301405168 0 -0.0056608245549200735 -0.045541276947827114 0 -0.0061787055826227483 -0.045400117301405168 0 -0.0057737933021472926 -0.044722430210439514 0 -0.0077871179488407435 -0.045810348785684428 0 -0.0068976063652860173 -0.045614011043966847 0 -0.0069195906909882221 -0.047041927912669083 0 -0.0062787513396364968 -0.046668871870947988 0 -0.0068976063652860173 -0.045614011043966847 0 -0.0069195906909882221 -0.047041927912669083 0 -0.0062787513396364968 -0.046668871870947988 0 -0.0069195906909882221 -0.047041927912669083 0 -0.0062625304508154957 -0.048166426776292959 0 -0.0069195906909882221 -0.047041927912669083 0 -0.0066067152289803069 -0.049617956254526557 0 -0.0086323718170666728 -0.04686084761049706 0 -0.0077871179488407435 -0.045810348785684428 0 -0.0069195906909882221 -0.047041927912669083 0 -0.0086323718170666728 -0.04686084761049706 0 -0.0060410287864248007 -0.04955443605528486 0 -0.005676465426610872 -0.049636488381298374 0 -0.0069195906909882221 -0.047041927912669083 0 -0.0062625304508154957 -0.048166426776292959 0 -0.0066067152289803069 -0.049617956254526557 0 -0.0062625304508154957 -0.048166426776292959 0 -0.0062227050484671862 -0.048993437329271763 0 -0.0066067152289803069 -0.049617956254526557 0 -0.0062227050484671862 -0.048993437329271763 0 -0.0066067152289803069 -0.049617956254526557 0 -0.0053945281644028889 -0.049287487517105807 0 -0.0062227050484671862 -0.048993437329271763 0 -0.0053945281644028889 -0.049287487517105807 0 -0.0058266494256816155 -0.048767213466114769 0 -0.005342057093900056 -0.048726358408465599 0 -0.0058266494256816155 -0.048767213466114769 0 -0.0054859809535120962 -0.048411170430541182 0 -0.0053945281644028889 -0.049287487517105807 0 -0.005342057093900056 -0.048726358408465599 0 -0.0058266494256816155 -0.048767213466114769 0 -0.0058266494256816155 -0.048767213466114769 0 -0.0059746299041789691 -0.048604456515895525 0 -0.0058272257714846124 -0.048488748659467056 0 -0.0058266494256816155 -0.048767213466114769 0 -0.0054859809535120962 -0.048411170430541182 0 -0.0057122749393575542 -0.048436396775464421 0 -0.0058266494256816155 -0.048767213466114769 0 -0.0058272257714846124 -0.048488748659467056 0 -0.0057122749393575542 -0.048436396775464421 0 -0.0062227050484671862 -0.048993437329271763 0 -0.0058266494256816155 -0.048767213466114769 0 -0.0059746299041789691 -0.048604456515895525 0 -0.0059926271952037312 -0.048309307709921839 0 -0.0059746299041789691 -0.048604456515895525 0 -0.0057931181438972273 -0.048295948896895619 0 -0.0059926271952037312 -0.048309307709921839 0 -0.0062227050484671862 -0.048993437329271763 0 -0.0059746299041789691 -0.048604456515895525 0 -0.0059746299041789691 -0.048604456515895525 0 -0.0057931181438972273 -0.048295948896895619 0 -0.0057890825950945579 -0.048379137565484037 0 -0.0057931181438972273 -0.048295948896895619 0 -0.0056461472750239834 -0.048230727739875551 0 -0.0057890825950945579 -0.048379137565484037 0 -0.0055545195011651397 -0.048102542620476363 0 -0.0057241457725423564 -0.047890963628781091 0 -0.0057931181438972273 -0.048295948896895619 0 -0.0055545195011651397 -0.048102542620476363 0 -0.0057931181438972273 -0.048295948896895619 0 -0.0056461472750239834 -0.048230727739875551 0 -0.0056461472750239834 -0.048230727739875551 0 -0.0057890825950945579 -0.048379137565484037 0 -0.0056864447424294683 -0.048273058694589477 0 -0.0057890825950945579 -0.048379137565484037 0 -0.0057189487664690347 -0.048285087609276182 0 -0.0056864447424294683 -0.048273058694589477 0 -0.0057890825950945579 -0.048379137565484037 0 -0.0057189487664690347 -0.048285087609276182 0 -0.005753828180323722 -0.048314517333346331 0 -0.0055974145771480847 -0.048204908478477818 0 -0.0056461472750239834 -0.048230727739875551 0 -0.0056864447424294683 -0.048273058694589477 0 -0.0055974145771480847 -0.048204908478477818 0 -0.0056864447424294683 -0.048273058694589477 0 -0.0056557243126377221 -0.048225962960091469 0 -0.0057189487664690347 -0.048285087609276182 0 -0.0056864447424294683 -0.048273058694589477 0 -0.0056557243126377221 -0.048225962960091469 0 -0.0059746299041789691 -0.048604456515895525 0 -0.0057890825950945579 -0.048379137565484037 0 -0.0058272257714846124 -0.048488748659467056 0 -0.0057890825950945579 -0.048379137565484037 0 -0.0058272257714846124 -0.048488748659467056 0 -0.005753828180323722 -0.048314517333346331 0 -0.0058272257714846124 -0.048488748659467056 0 -0.0057102862439528624 -0.048253746421243554 0 -0.0057122749393575542 -0.048436396775464421 0 -0.0058272257714846124 -0.048488748659467056 0 -0.005753828180323722 -0.048314517333346331 0 -0.0057102862439528624 -0.048253746421243554 0 -0.005753828180323722 -0.048314517333346331 0 -0.0057037052228576966 -0.048188844694778341 0 -0.0056924816837919572 -0.048223282520685022 0 -0.005753828180323722 -0.048314517333346331 0 -0.0057037052228576966 -0.048188844694778341 0 -0.0057102862439528624 -0.048253746421243554 0 -0.0057037052228576966 -0.048188844694778341 0 -0.0057102862439528624 -0.048253746421243554 0 -0.0056772431012988862 -0.048117521879182716 0 -0.0055844896001222338 -0.048171300650274564 0 -0.0056557243126377221 -0.048225962960091469 0 -0.0056237410643732843 -0.048167394540449784 0 -0.0056557243126377221 -0.048225962960091469 0 -0.0056924816837919572 -0.048223282520685022 0 -0.0056237410643732843 -0.048167394540449784 0 -0.0057189487664690347 -0.048285087609276182 0 -0.005753828180323722 -0.048314517333346331 0 -0.0056924816837919572 -0.048223282520685022 0 -0.0057189487664690347 -0.048285087609276182 0 -0.0056557243126377221 -0.048225962960091469 0 -0.0056924816837919572 -0.048223282520685022 0 -0.0057037052228576966 -0.048188844694778341 0 -0.0056924816837919572 -0.048223282520685022 0 -0.0056549320683425665 -0.048143616094196581 0 -0.0056924816837919572 -0.048223282520685022 0 -0.0056237410643732843 -0.048167394540449784 0 -0.0056549320683425665 -0.048143616094196581 0 -0.0055844896001222338 -0.048171300650274564 0 -0.0055575155652517211 -0.048128834504664604 0 -0.0056237410643732843 -0.048167394540449784 0 -0.0055575155652517211 -0.048128834504664604 0 -0.0056237410643732843 -0.048167394540449784 0 -0.0055758683740477887 -0.048092200170457428 0 -0.0056237410643732843 -0.048167394540449784 0 -0.0055758683740477887 -0.048092200170457428 0 -0.0056549320683425665 -0.048143616094196581 0 -0.0055758683740477887 -0.048092200170457428 0 -0.0056307933108007864 -0.048081214739671571 0 -0.0056549320683425665 -0.048143616094196581 0 -0.0056307933108007864 -0.048081214739671571 0 -0.0056549320683425665 -0.048143616094196581 0 -0.005673219473464464 -0.048079811118149407 0 -0.0056504819907385604 -0.048006931838414729 0 -0.0056307933108007864 -0.048081214739671571 0 -0.005673219473464464 -0.048079811118149407 0 -0.0056504819907385604 -0.048006931838414729 0 -0.0056307933108007864 -0.048081214739671571 0 -0.0055739073875422556 -0.048053768817660082 0 -0.0055758683740477887 -0.048092200170457428 0 -0.0056307933108007864 -0.048081214739671571 0 -0.0055739073875422556 -0.048053768817660082 0 -0.0055250263250056211 -0.048044506562358556 0 -0.0054777438680400914 -0.048052418388931067 0 -0.0055739073875422556 -0.048053768817660082 0 -0.0054777438680400914 -0.048052418388931067 0 -0.0055758683740477887 -0.048092200170457428 0 -0.0055739073875422556 -0.048053768817660082 0 -0.0057102862439528624 -0.048253746421243554 0 -0.0056772431012988862 -0.048117521879182716 0 -0.0055980633812578772 -0.048113166668634709 0 -0.0056772431012988862 -0.048117521879182716 0 -0.0056507718622151974 -0.047968335328648477 0 -0.0055980633812578772 -0.048113166668634709 0 -0.0057037052228576966 -0.048188844694778341 0 -0.0056772431012988862 -0.048117521879182716 0 -0.005673219473464464 -0.048079811118149407 0 -0.0057037052228576966 -0.048188844694778341 0 -0.0056549320683425665 -0.048143616094196581 0 -0.005673219473464464 -0.048079811118149407 0 -0.0056504819907385604 -0.048006931838414729 0 -0.005673219473464464 -0.048079811118149407 0 -0.0056507718622151974 -0.047968335328648477 0 -0.0056772431012988862 -0.048117521879182716 0 -0.005673219473464464 -0.048079811118149407 0 -0.0056507718622151974 -0.047968335328648477 0 -0.0055141258894009617 -0.047843698725071541 0 -0.0055980633812578772 -0.048113166668634709 0 -0.0052781364036090283 -0.04798458120425092 0 -0.0055141258894009617 -0.047843698725071541 0 -0.0056507718622151974 -0.047968335328648477 0 -0.0055980633812578772 -0.048113166668634709 0 -0.0055980633812578772 -0.048113166668634709 0 -0.0052781364036090283 -0.04798458120425092 0 -0.0054859809535120962 -0.048411170430541182 0 -0.0052781364036090283 -0.04798458120425092 0 -0.0050962498134944087 -0.048385358125381688 0 -0.0046036880925098148 -0.04810662717000002 0 -0.0052781364036090283 -0.04798458120425092 0 -0.0050962498134944087 -0.048385358125381688 0 -0.0054859809535120962 -0.048411170430541182 0 -0.005342057093900056 -0.048726358408465599 0 -0.0050962498134944087 -0.048385358125381688 0 -0.0054859809535120962 -0.048411170430541182 0 -0.0057102862439528624 -0.048253746421243554 0 -0.0055980633812578772 -0.048113166668634709 0 -0.0057122749393575542 -0.048436396775464421 0 -0.0055980633812578772 -0.048113166668634709 0 -0.0054859809535120962 -0.048411170430541182 0 -0.0057122749393575542 -0.048436396775464421 0 -0.0040728712743115063 -0.04869714868488647 0 -0.0035199494907054915 -0.048187345586581061 0 -0.0034587993995391429 -0.049273230446268475 0 -0.0040728712743115063 -0.04869714868488647 0 -0.0046036880925098148 -0.04810662717000002 0 -0.0035199494907054915 -0.048187345586581061 0 -0.0040728712743115063 -0.04869714868488647 0 -0.0047182259147237719 -0.048753634788456304 0 -0.0046036880925098148 -0.04810662717000002 0 -0.0050962498134944087 -0.048385358125381688 0 -0.0047182259147237719 -0.048753634788456304 0 -0.0046036880925098148 -0.04810662717000002 0 -0.005342057093900056 -0.048726358408465599 0 -0.0050962498134944087 -0.048385358125381688 0 -0.0047182259147237719 -0.048753634788456304 0 -0.0047455751423417271 -0.04761123116969164 0 -0.0052781364036090283 -0.04798458120425092 0 -0.0046036880925098148 -0.04810662717000002 0 -0.0047455751423417271 -0.04761123116969164 0 -0.0046036880925098148 -0.04810662717000002 0 -0.0040728019668051958 -0.047643431659094244 0 -0.0046036880925098148 -0.04810662717000002 0 -0.0040728019668051958 -0.047643431659094244 0 -0.0035199494907054915 -0.048187345586581061 0 -0.0028849607422128045 -0.047018796626589206 0 -0.0040728019668051958 -0.047643431659094244 0 -0.0035199494907054915 -0.048187345586581061 0 -0.0028849607422128045 -0.047018796626589206 0 -0.0035199494907054915 -0.048187345586581061 0 -0.0019919784185465179 -0.048360823139964641 0 -0.00077348109303245524 -0.050572125270604167 0 -0.00077434537868697421 -0.051604838161410989 0 -8.0983807977131646e-05 -0.054676082777544835 0 -0.00040105540134672478 -0.054624827174859107 0 -0.00021171349573243734 -0.054891427785557091 0 -0.00040105540134672478 -0.054624827174859107 0 -0.00021171349573243734 -0.054891427785557091 0 -0.00024837685930243874 -0.054932019398933003 0 -0.0035199494907054915 -0.048187345586581061 0 -0.0034587993995391429 -0.049273230446268475 0 -0.0024490983356521487 -0.049265186642169286 0 -0.0035199494907054915 -0.048187345586581061 0 -0.0019919784185465179 -0.048360823139964641 0 -0.0024490983356521487 -0.049265186642169286 0 -0.0034587993995391429 -0.049273230446268475 0 -0.0021512041677804869 -0.050603003549912415 0 -0.0033788165636987073 -0.050197426858498345 0 -0.0034587993995391429 -0.049273230446268475 0 -0.0024490983356521487 -0.049265186642169286 0 -0.0021512041677804869 -0.050603003549912415 0 -0.0024490983356521487 -0.049265186642169286 0 -0.0021512041677804869 -0.050603003549912415 0 -0.00090766297542790462 -0.050258140530127969 0 -0.00077434537868697421 -0.051604838161410989 0 -0.00047985119155048771 -0.052620706055676855 0 -0.0019919784185465179 -0.048360823139964641 0 -0.0024490983356521487 -0.049265186642169286 0 -0.00090766297542790462 -0.050258140530127969 0 -0.0021512041677804869 -0.050603003549912415 0 -0.0011154587602577864 -0.051910700487916309 0 -0.00064023156517933053 -0.051017270285898482 0 -0.00093829574921229638 -0.052443040455553189 0 -0.00047985119155048771 -0.052620706055676855 0 -0.0021512041677804869 -0.050603003549912415 0 -0.0027771390549289178 -0.051266102811304178 0 -0.0016019387605361406 -0.05203791593177115 0 -0.0021512041677804869 -0.050603003549912415 0 -0.0011154587602577864 -0.051910700487916309 0 -0.0016019387605361406 -0.05203791593177115 0 -0.0021512041677804869 -0.050603003549912415 0 -0.0033788165636987073 -0.050197426858498345 0 -0.0027771390549289178 -0.051266102811304178 0 -0.0033788165636987073 -0.050197426858498345 0 -0.0042553665198306681 -0.049460604530257891 0 -0.0041414853225794175 -0.050404854082886252 0 -0.0033788165636987073 -0.050197426858498345 0 -0.0041414853225794175 -0.050404854082886252 0 -0.0027771390549289178 -0.051266102811304178 0 -0.0040728712743115063 -0.04869714868488647 0 -0.0047182259147237719 -0.048753634788456304 0 -0.0042553665198306681 -0.049460604530257891 0 -0.0040728712743115063 -0.04869714868488647 0 -0.0034587993995391429 -0.049273230446268475 0 -0.0042553665198306681 -0.049460604530257891 0 -0.0034587993995391429 -0.049273230446268475 0 -0.0033788165636987073 -0.050197426858498345 0 -0.0042553665198306681 -0.049460604530257891 0 -0.0053945281644028889 -0.049287487517105807 0 -0.005342057093900056 -0.048726358408465599 0 -0.0047182259147237719 -0.048753634788456304 0 -0.0053945281644028889 -0.049287487517105807 0 -0.0047182259147237719 -0.048753634788456304 0 -0.0042553665198306681 -0.049460604530257891 0 -0.0053945281644028889 -0.049287487517105807 0 -0.0042553665198306681 -0.049460604530257891 0 -0.0041414853225794175 -0.050404854082886252 0 -0.0066067152289803069 -0.049617956254526557 0 -0.0041414853225794175 -0.050404854082886252 0 -0.0042266693486026812 -0.051737069623493136 0 -0.0066067152289803069 -0.049617956254526557 0 -0.0053945281644028889 -0.049287487517105807 0 -0.0041414853225794175 -0.050404854082886252 0 -0.0041414853225794175 -0.050404854082886252 0 -0.0042266693486026812 -0.051737069623493136 0 -0.0030553318309223844 -0.051981325462924936 0 -0.0041414853225794175 -0.050404854082886252 0 -0.0030553318309223844 -0.051981325462924936 0 -0.0027771390549289178 -0.051266102811304178 0 -0.0042266693486026812 -0.051737069623493136 0 -0.0028819269193605386 -0.053333073784887233 0 -0.0030553318309223844 -0.051981325462924936 0 -0.0066067152289803069 -0.049617956254526557 0 -0.0042266693486026812 -0.051737069623493136 0 -0.0052499537003630956 -0.053497180941487407 0 -0.0042266693486026812 -0.051737069623493136 0 -0.0052499537003630956 -0.053497180941487407 0 -0.0028819269193605386 -0.053333073784887233 0 -0.0028819269193605386 -0.053333073784887233 0 -0.0018035569824718857 -0.05487882002501316 0 -0.0038553362665088393 -0.055573746135551147 0 -0.0052499537003630956 -0.053497180941487407 0 -0.0028819269193605386 -0.053333073784887233 0 -0.0038553362665088393 -0.055573746135551147 0 -0.005676465426610872 -0.049636488381298374 0 -0.0041037658806233153 -0.049883588997985506 0 -0.0077871179488407435 -0.045810348785684428 0 -0.0086323718170666728 -0.04686084761049706 0 -0.0094461624674895481 -0.045054541872551125 0 -0.0018035569824718857 -0.05487882002501316 0 -0.0015676996418714649 -0.053962739475223342 0 -0.00093937597702544069 -0.054611021911043597 0 -0.0028819269193605386 -0.053333073784887233 0 -0.0018035569824718857 -0.05487882002501316 0 -0.0015676996418714649 -0.053962739475223342 0 -0.0028819269193605386 -0.053333073784887233 0 -0.0015676996418714649 -0.053962739475223342 0 -0.0016293038789593486 -0.052877027255479964 0 -0.0015676996418714649 -0.053962739475223342 0 -0.0016293038789593486 -0.052877027255479964 0 -0.00096862998557420963 -0.05387109276341695 0 -0.0015676996418714649 -0.053962739475223342 0 -0.00096862998557420963 -0.05387109276341695 0 -0.00093937597702544069 -0.054611021911043597 0 -0.0028819269193605386 -0.053333073784887233 0 -0.0016293038789593486 -0.052877027255479964 0 -0.0030553318309223844 -0.051981325462924936 0 -0.0016293038789593486 -0.052877027255479964 0 -0.0030553318309223844 -0.051981325462924936 0 -0.0027771390549289178 -0.051266102811304178 0 -0.0016293038789593486 -0.052877027255479964 0 -0.0016019387605361406 -0.05203791593177115 0 -0.00075459891223700175 -0.052863268447915647 0 -0.0016293038789593486 -0.052877027255479964 0 -0.0027771390549289178 -0.051266102811304178 0 -0.0016019387605361406 -0.05203791593177115 0 -0.0011154587602577864 -0.051910700487916309 0 -0.0016019387605361406 -0.05203791593177115 0 -0.00075459891223700175 -0.052863268447915647 0 -0.00075459891223700175 -0.052863268447915647 0 -0.0003439583714664166 -0.053376356449019224 0 -0.00034780041417962332 -0.052705985018873504 0 -0.00075459891223700175 -0.052863268447915647 0 -0.0003439583714664166 -0.053376356449019224 0 -0.00057447138264709859 -0.053570154807794437 0 -0.0003439583714664166 -0.053376356449019224 0 -0.00057447138264709859 -0.053570154807794437 0 -0.00013385601449742384 -0.054123499690882489 0 -0.0003439583714664166 -0.053376356449019224 0 -0.00013385601449742384 -0.054123499690882489 0 -0.00021200233540696472 -0.053801625693135936 0 -0.0003439583714664166 -0.053376356449019224 0 -0.00021200233540696472 -0.053801625693135936 0 -0.00034780041417962332 -0.052705985018873504 0 -0.00057447138264709859 -0.053570154807794437 0 -0.00040999763333495365 -0.054307702499882933 0 -0.00013385601449742384 -0.054123499690882489 0 -0.0016293038789593486 -0.052877027255479964 0 -0.00075459891223700175 -0.052863268447915647 0 -0.00057447138264709859 -0.053570154807794437 0 -0.0016293038789593486 -0.052877027255479964 0 -0.00057447138264709859 -0.053570154807794437 0 -0.00096862998557420963 -0.05387109276341695 0 -0.00096862998557420963 -0.05387109276341695 0 -0.00040999763333495365 -0.054307702499882933 0 -0.00093937597702544069 -0.054611021911043597 0 -0.00057447138264709859 -0.053570154807794437 0 -0.00096862998557420963 -0.05387109276341695 0 -0.00040999763333495365 -0.054307702499882933 0 -0.00040999763333495365 -0.054307702499882933 0 -0.0005300080354255233 -0.054702330965448326 0 -0.00020616023243239854 -0.054817901814151006 0 -0.00040999763333495365 -0.054307702499882933 0 -0.0005300080354255233 -0.054702330965448326 0 -0.00093937597702544069 -0.054611021911043597 0 1.7699193229491848e-09 -0.054999780976512883 0 -0.00010235514583791812 -0.054628620023070014 0 -0.00020616023243239854 -0.054817901814151006 0 -0.00040999763333495365 -0.054307702499882933 0 -0.00010235514583791812 -0.054628620023070014 0 -0.00020616023243239854 -0.054817901814151006 0 -0.00040999763333495365 -0.054307702499882933 0 -0.00010235514583791812 -0.054628620023070014 0 -0.00013385601449742384 -0.054123499690882489 0 1.7699193229491848e-09 -0.054999780976512883 0 -0.00010235514583791812 -0.054628620023070014 0 4.3613016716330873e-08 -0.05499933942737955 0 -0.00013385601449742384 -0.054123499690882489 0 -9.2954113405084824e-08 -0.054998873510550411 0 -0.00021200233540696472 -0.053801625693135936 0 4.3613016716330873e-08 -0.05499933942737955 0 -0.00013385601449742384 -0.054123499690882489 0 -9.2954113405084824e-08 -0.054998873510550411 0 -0.00010235514583791812 -0.054628620023070014 0 4.3613016716330873e-08 -0.05499933942737955 0 -0.00013385601449742384 -0.054123499690882489 0 -9.2954113405084824e-08 -0.054998873510550411 0 -0.000262303184986352 -0.054030947705868596 0 -0.00021200233540696472 -0.053801625693135936 0 -9.2954113405084824e-08 -0.054998873510550411 0 -1.1339183204785146e-07 -0.05499918772920466 0 -0.000262303184986352 -0.054030947705868596 0 -6.7388100668849182e-07 -0.054998466603588474 0 -0.00037379136711105206 -0.054040861233156511 0 9.7490329175035478e-09 -0.055000081722265434 0 -5.454875148309436e-05 -0.05502758251101688 0 -3.7588759145019985e-05 -0.054982797426229968 0 -0.000262303184986352 -0.054030947705868596 0 -0.00021200233540696472 -0.053801625693135936 0 -0.00034780041417962332 -0.052705985018873504 0 -0.000262303184986352 -0.054030947705868596 0 -0.00034780041417962332 -0.052705985018873504 0 -0.00017411543086878992 -0.05305383480566505 0 -0.0011154587602577864 -0.051910700487916309 0 -0.00075459891223700175 -0.052863268447915647 0 -0.00034780041417962332 -0.052705985018873504 0 -0.00049474897990227265 -0.052563967331151193 0 -0.00047985119155048771 -0.052620706055676855 0 -0.0011154587602577864 -0.051910700487916309 0 -0.00034780041417962332 -0.052705985018873504 0 -0.00064023156517933053 -0.051017270285898482 0 -0.00037379136711105206 -0.054040861233156511 0 -0.00047985119155048771 -0.052620706055676855 0 -5.454875148309436e-05 -0.05502758251101688 0 -0.00017216560414111767 -0.055060155753836652 0 -0.0001328058109770107 -0.054972505008869951 0 -5.454875148309436e-05 -0.05502758251101688 0 -7.5708660482640694e-05 -0.054978450068494285 0 -0.0001328058109770107 -0.054972505008869951 0 -7.5708660482640694e-05 -0.054978450068494285 0 -0.0001328058109770107 -0.054972505008869951 0 -8.2264635514335869e-05 -0.054928512270612177 0 -0.00021171349573243734 -0.054891427785557091 0 -0.00024837685930243874 -0.054932019398933003 0 -0.0001328058109770107 -0.054972505008869951 0 -0.00024837685930243874 -0.054932019398933003 0 -0.00017216560414111767 -0.055060155753836652 0 -0.0001328058109770107 -0.054972505008869951 0 -0.00021171349573243734 -0.054891427785557091 0 -0.0001328058109770107 -0.054972505008869951 0 -8.2264635514335869e-05 -0.054928512270612177 0 -0.00010888119205116173 -0.054866171977892432 0 -1.4269524862447878e-05 -0.054846594616892119 0 -8.0983807977131646e-05 -0.054676082777544835 0 -0.00021171349573243734 -0.054891427785557091 0 9.8508664516369597e-05 -0.054843041178148526 0 0.00023118734486923714 -0.054725397749777346 0 -8.0983807977131646e-05 -0.054676082777544835 0 9.8508664516369597e-05 -0.054843041178148526 0 -1.4269524862447878e-05 -0.054846594616892119 0 8.1243579291774117e-05 -0.054797938998622432 0 0.00023118734486923714 -0.054725397749777346 0 9.8508664516369597e-05 -0.054843041178148526 0 0.00040179326529096498 -0.05479959546693499 0 -8.2264635514335869e-05 -0.054928512270612177 0 -1.2040864539845392e-05 -0.054968128636704514 0 -3.7588759145019985e-05 -0.054982797426229968 0 0.00018467027925474008 -0.054021862028478362 0 8.1243579291774117e-05 -0.054797938998622432 0 0.00018467027925474008 -0.054021862028478362 0 2.9605598612941919e-07 -0.054998246966710913 0 6.5772300696062808e-06 -0.054992663403006639 0 2.4946532378751406e-06 -0.054996491847371501 0 -1.4642760587504926e-10 -0.055000002215701733 0 8.1243579291774117e-05 -0.054797938998622432 0 1.3028518001925306e-07 -0.05499902621069911 0 2.0389330642747274e-07 -0.054999603624042305 0 8.1473025779020605e-11 -0.054999999779026337 0 2.5763670430123096e-13 -0.054999999823984409 0 2.4946532378751406e-06 -0.054996491847371501 0 -1.4642760587504926e-10 -0.055000002215701733 0 6.7113866162269814e-10 -0.054999995608169108 0 -1.2040864539845392e-05 -0.054968128636704514 0 -1.8922847027175065e-08 -0.054999873557410588 0 -1.2490290329453325e-05 -0.054989382747795204 0 8.1243579291774117e-05 -0.054797938998622432 0 3.8281079362941387e-07 -0.054999068189449607 0 9.7490329175035478e-09 -0.055000081722265434 0 -1.8922847027175065e-08 -0.054999873557410588 0 -1.2490290329453325e-05 -0.054989382747795204 0 9.7490329175035478e-09 -0.055000081722265434 0 -1.2490290329453325e-05 -0.054989382747795204 0 -3.7588759145019985e-05 -0.054982797426229968 0 -1.2040864539845392e-05 -0.054968128636704514 0 -1.2490290329453325e-05 -0.054989382747795204 0 -3.7588759145019985e-05 -0.054982797426229968 0 -5.454875148309436e-05 -0.05502758251101688 0 -7.5708660482640694e-05 -0.054978450068494285 0 -3.7588759145019985e-05 -0.054982797426229968 0 -7.5708660482640694e-05 -0.054978450068494285 0 -8.2264635514335869e-05 -0.054928512270612177 0 -3.7588759145019985e-05 -0.054982797426229968 0 -4.242890733688839e-05 -0.055005621775576018 0 -8.9674765686027774e-05 -0.054817347033636325 0 9.6340762321223483e-05 -0.054750579575064004 0 -4.242890733688839e-05 -0.055005621775576018 0 -6.9037011326489629e-05 -0.054991646791966303 0 -8.9674765686027774e-05 -0.054817347033636325 0 -6.9037011326489629e-05 -0.054991646791966303 0 6.6600654433263855e-08 -0.055000087865255252 0 -8.9674765686027774e-05 -0.054817347033636325 0 -6.9037011326489629e-05 -0.054991646791966303 0 6.6600654433263855e-08 -0.055000087865255252 0 -1.573273416396147e-07 -0.055000068491601994 0 6.6600654433263855e-08 -0.055000087865255252 0 -8.9674765686027774e-05 -0.054817347033636325 0 -0.00015035015646814033 -0.054660512882804657 0 -8.9674765686027774e-05 -0.054817347033636325 0 7.4201046961615533e-06 -0.054430913503887499 0 -0.00015035015646814033 -0.054660512882804657 0 -8.9674765686027774e-05 -0.054817347033636325 0 9.6340762321223483e-05 -0.054750579575064004 0 7.4201046961615533e-06 -0.054430913503887499 0 9.6340762321223483e-05 -0.054750579575064004 0 0.00047472417148242726 -0.054168821988066156 0 7.4201046961615533e-06 -0.054430913503887499 0 9.6340762321223483e-05 -0.054750579575064004 0 0.00045019579432923658 -0.054922393185482248 0 0.00047472417148242726 -0.054168821988066156 0 0.00045019579432923658 -0.054922393185482248 0 0.0010327058756801357 -0.054567939403554248 0 0.00047472417148242726 -0.054168821988066156 0 0.00037341056806350614 -0.054079078739900678 0 0.00011297398015367534 -0.053440375972771348 0 0.00045019579432923658 -0.054922393185482248 0 0.00016851242089989919 -0.055138336841403957 0 0.0003864071498931218 -0.055169798190753232 0 9.6340762321223483e-05 -0.054750579575064004 0 0.00045019579432923658 -0.054922393185482248 0 0.00012635558456106568 -0.055004222654457216 0 0.00045019579432923658 -0.054922393185482248 0 0.00012635558456106568 -0.055004222654457216 0 0.00016851242089989919 -0.055138336841403957 0 -4.242890733688839e-05 -0.055005621775576018 0 9.6340762321223483e-05 -0.054750579575064004 0 0.00012635558456106568 -0.055004222654457216 0 -4.242890733688839e-05 -0.055005621775576018 0 0.00012635558456106568 -0.055004222654457216 0 -1.8912799006926128e-05 -0.05515248100276688 0 -1.8912799006926128e-05 -0.05515248100276688 0 -0.00013432666465379496 -0.055339702729805637 0 -9.990636455333579e-05 -0.055170078881369898 0 -4.242890733688839e-05 -0.055005621775576018 0 -1.8912799006926128e-05 -0.05515248100276688 0 -9.990636455333579e-05 -0.055170078881369898 0 0.00016851242089989919 -0.055138336841403957 0 -0.00013432666465379496 -0.055339702729805637 0 0.00037759156924488011 -0.055220133163976663 0 -0.00024623216490493214 -0.0537877482487671 0 -1.6228149404096728e-05 -0.053417353415227381 0 0.00016851242089989919 -0.055138336841403957 0 0.00037759156924488011 -0.055220133163976663 0 0.0003864071498931218 -0.055169798190753232 0 0.00012635558456106568 -0.055004222654457216 0 -1.8912799006926128e-05 -0.05515248100276688 0 0.00016851242089989919 -0.055138336841403957 0 -1.8912799006926128e-05 -0.05515248100276688 0 0.00016851242089989919 -0.055138336841403957 0 -0.00013432666465379496 -0.055339702729805637 0 -0.00013432666465379496 -0.055339702729805637 0 -0.00055772980037312875 -0.055357685148929671 0 -0.00027954845046248563 -0.055422133867954755 0 -0.00013432666465379496 -0.055339702729805637 0 -0.00026825603928784644 -0.055282711656646513 0 -0.00055772980037312875 -0.055357685148929671 0 -0.00013432666465379496 -0.055339702729805637 0 -9.990636455333579e-05 -0.055170078881369898 0 -0.00026825603928784644 -0.055282711656646513 0 -9.990636455333579e-05 -0.055170078881369898 0 -0.00017932759101390246 -0.055166066420848307 0 -7.7536194151860168e-05 -0.055102699159258618 0 -4.242890733688839e-05 -0.055005621775576018 0 -6.9037011326489629e-05 -0.054991646791966303 0 -9.990636455333579e-05 -0.055170078881369898 0 -6.9037011326489629e-05 -0.054991646791966303 0 -9.990636455333579e-05 -0.055170078881369898 0 -1.573273416396147e-07 -0.055000068491601994 0 -9.990636455333579e-05 -0.055170078881369898 0 -1.573273416396147e-07 -0.055000068491601994 0 -7.7536194151860168e-05 -0.055102699159258618 0 -1.573273416396147e-07 -0.055000068491601994 0 -4.0974728052620566e-08 -0.055000210479748422 0 -7.7536194151860168e-05 -0.055102699159258618 0 -4.0974728052620566e-08 -0.055000210479748422 0 -7.7536194151860168e-05 -0.055102699159258618 0 -7.6278025058866417e-05 -0.05505957678298929 0 -0.00017932759101390246 -0.055166066420848307 0 -7.7536194151860168e-05 -0.055102699159258618 0 -7.6278025058866417e-05 -0.05505957678298929 0 -0.00017932759101390246 -0.055166066420848307 0 -7.6278025058866417e-05 -0.05505957678298929 0 -0.00018200698854187384 -0.055035761240422316 0 -4.0974728052620566e-08 -0.055000210479748422 0 -7.6278025058866417e-05 -0.05505957678298929 0 -6.4691757026366865e-08 -0.055000030949368006 0 -6.4691757026366865e-08 -0.055000030949368006 0 -0.00018200698854187384 -0.055035761240422316 0 -7.6547262782090519e-05 -0.054959857246983171 0 -7.6278025058866417e-05 -0.05505957678298929 0 -6.4691757026366865e-08 -0.055000030949368006 0 -0.00018200698854187384 -0.055035761240422316 0 -0.00018200698854187384 -0.055035761240422316 0 -0.00020616023243239854 -0.054817901814151006 0 -7.6547262782090519e-05 -0.054959857246983171 0 1.7699193229491848e-09 -0.054999780976512883 0 -0.00020616023243239854 -0.054817901814151006 0 -7.6547262782090519e-05 -0.054959857246983171 0 1.7699193229491848e-09 -0.054999780976512883 0 -6.4691757026366865e-08 -0.055000030949368006 0 -7.6547262782090519e-05 -0.054959857246983171 0 -0.0005300080354255233 -0.054702330965448326 0 -0.00093937597702544069 -0.054611021911043597 0 -0.00058087060390867322 -0.054987971658857888 0 -0.00093937597702544069 -0.054611021911043597 0 -0.00058087060390867322 -0.054987971658857888 0 -0.0011833057881052642 -0.05501103029203995 0 -0.0005300080354255233 -0.054702330965448326 0 -0.00020616023243239854 -0.054817901814151006 0 -0.00058087060390867322 -0.054987971658857888 0 -0.00018200698854187384 -0.055035761240422316 0 -0.00020616023243239854 -0.054817901814151006 0 -0.00058087060390867322 -0.054987971658857888 0 -0.00018200698854187384 -0.055035761240422316 0 -0.00058087060390867322 -0.054987971658857888 0 -0.00044767180208757541 -0.055173333414124184 0 -0.00058087060390867322 -0.054987971658857888 0 -0.00044767180208757541 -0.055173333414124184 0 -0.00089986085891302777 -0.055171432776242958 0 -0.00044767180208757541 -0.055173333414124184 0 -0.00055772980037312875 -0.055357685148929671 0 -0.00089986085891302777 -0.055171432776242958 0 -0.00017932759101390246 -0.055166066420848307 0 -0.00018200698854187384 -0.055035761240422316 0 -0.00044767180208757541 -0.055173333414124184 0 -9.990636455333579e-05 -0.055170078881369898 0 -0.00017932759101390246 -0.055166066420848307 0 -0.00026825603928784644 -0.055282711656646513 0 -0.00017932759101390246 -0.055166066420848307 0 -0.00044767180208757541 -0.055173333414124184 0 -0.00026825603928784644 -0.055282711656646513 0 -0.00044767180208757541 -0.055173333414124184 0 -0.00026825603928784644 -0.055282711656646513 0 -0.00055772980037312875 -0.055357685148929671 0 -0.00055772980037312875 -0.055357685148929671 0 -0.0010652260578658753 -0.055468815851969312 0 -0.00089986085891302777 -0.055171432776242958 0 -0.0023985936518155135 -0.047418310119758479 0 -0.0020602789408287726 -0.047465152602189066 0 -0.0024888509210196511 -0.047262404880343743 0 -0.0022872179842801737 -0.047524229654130494 0 -0.0023985936518155135 -0.047418310119758479 0 -0.0025558411254158991 -0.047498554138637551 0 -0.0022872179842801737 -0.047524229654130494 0 -0.0023985936518155135 -0.047418310119758479 0 -0.0020602789408287726 -0.047465152602189066 0 -0.0020602789408287726 -0.047465152602189066 0 -0.0024665691337420934 -0.047065704484155486 0 -0.0024888509210196511 -0.047262404880343743 0 -0.0014595304090331161 -0.051594480228300613 0 -0.0024686360314764969 -0.050941780873902373 0 -0.0020602789408287726 -0.047465152602189066 0 -0.0024709069549661033 -0.046613824677274811 0 -0.0024665691337420934 -0.047065704484155486 0 -0.0010652260578658753 -0.055468815851969312 0 -0.00089986085891302777 -0.055171432776242958 0 -0.0015116535567507039 -0.055134181517243357 0 -0.0018035569824718857 -0.05487882002501316 0 -0.0011833057881052642 -0.05501103029203995 0 -0.0015116535567507039 -0.055134181517243357 0 -0.00058087060390867322 -0.054987971658857888 0 -0.00089986085891302777 -0.055171432776242958 0 -0.0011833057881052642 -0.05501103029203995 0 -0.00089986085891302777 -0.055171432776242958 0 -0.0011833057881052642 -0.05501103029203995 0 -0.0015116535567507039 -0.055134181517243357 0 -0.0018035569824718857 -0.05487882002501316 0 -0.00093937597702544069 -0.054611021911043597 0 -0.0011833057881052642 -0.05501103029203995 0 -0.0018035569824718857 -0.05487882002501316 0 -0.0018056341395650138 -0.054930958019135147 0 -0.0015116535567507039 -0.055134181517243357 0 -0.0041037658806233153 -0.049883588997985506 0 -0.0051688593334594038 -0.047338300917502386 0 -0.0029348382948922594 -0.045691272282559224 0 -0.0031972072241737651 -0.046333016973153944 0 -0.0037843638711619991 -0.045906385032380363 0 -0.0077871179488407435 -0.045810348785684428 0 -0.0094461624674895481 -0.045054541872551125 0 -0.0078572522516422751 -0.044677348397696985 0 -0.0035449045921303393 -0.050818601898548005 0 -0.0041037658806233153 -0.049883588997985506 0 -0.0031972072241737651 -0.046333016973153944 0 -0.0024709069549661033 -0.046613824677274811 0 -0.0029469837831148172 -0.046793944734847943 0 -0.0041037658806233153 -0.049883588997985506 0 -0.0024686360314764969 -0.050941780873902373 0 -0.0029348382948922594 -0.045691272282559224 0 -0.0031972072241737651 -0.046333016973153944 0 -0.0024709069549661033 -0.046613824677274811 0 -0.0031972072241737651 -0.046333016973153944 0 -0.0034978626526004607 -0.04667093984163237 0 -0.0035720840995121183 -0.046317813584893681 0 -0.0031972072241737651 -0.046333016973153944 0 -0.0034978626526004607 -0.04667093984163237 0 -0.0029469837831148172 -0.046793944734847943 0 -0.0033898924564745555 -0.047014126460033896 0 -0.0029469837831148172 -0.046793944734847943 0 -0.0026864524915831351 -0.047216068312873984 0 -0.0034978626526004607 -0.04667093984163237 0 -0.0033898924564745555 -0.047014126460033896 0 -0.0029469837831148172 -0.046793944734847943 0 -0.0024709069549661033 -0.046613824677274811 0 -0.0029469837831148172 -0.046793944734847943 0 -0.0026410214906520996 -0.046974767255972216 0 -0.0029469837831148172 -0.046793944734847943 0 -0.0026410214906520996 -0.046974767255972216 0 -0.0026864524915831351 -0.047216068312873984 0 -0.0024709069549661033 -0.046613824677274811 0 -0.0026410214906520996 -0.046974767255972216 0 -0.0024665691337420934 -0.047065704484155486 0 -0.0026410214906520996 -0.046974767255972216 0 -0.0024665691337420934 -0.047065704484155486 0 -0.0026297747402998809 -0.047210395078405673 0 -0.0024665691337420934 -0.047065704484155486 0 -0.0024888509210196511 -0.047262404880343743 0 -0.0026297747402998809 -0.047210395078405673 0 -0.0026410214906520996 -0.046974767255972216 0 -0.0026297747402998809 -0.047210395078405673 0 -0.0026864524915831351 -0.047216068312873984 0 -0.0031895771783801087 -0.046097243640923012 0 -0.0031917887579857997 -0.046096092189803595 0 -0.0031452147490704679 -0.046124543083607146 0 -0.0031917887579857997 -0.046096092189803595 0 -0.0024888509210196511 -0.047262404880343743 0 -0.0026574759908083914 -0.047203753379123546 0 -0.00261460052700906 -0.047319800433116455 0 -0.0024888509210196511 -0.047262404880343743 0 -0.0026297747402998809 -0.047210395078405673 0 -0.0026860129186801118 -0.047216231749934931 0 -0.0031917887579857997 -0.046096092189803595 0 -0.0033517154623630137 -0.045984879602442845 0 -0.0026574759908083914 -0.047203753379123546 0 -0.00261460052700906 -0.047319800433116455 0 -0.0029835861841561646 -0.047216546190715671 0 -0.0028220741164360925 -0.047231724885687811 0 -0.0028884101991856694 -0.04723428051121846 0 -0.0025649936610655172 -0.047545526637158594 0 -0.002695932094197702 -0.046653720524990568 0 -0.0033517154623630137 -0.045984879602442845 0 -0.0034560690064922334 -0.045849315583723418 0 -0.002773470253807368 -0.046707633800110344 0 -0.00261460052700906 -0.047319800433116455 0 -0.0025558411254158991 -0.047498554138637551 0 -0.0029835861841561646 -0.047216546190715671 0 -0.0024585289672495211 -0.047483400787206413 0 -0.0028220741164360925 -0.047231724885687811 0 -0.0025649936610655172 -0.047545526637158594 0 -0.0023985936518155135 -0.047418310119758479 0 -0.0024888509210196511 -0.047262404880343743 0 -0.00261460052700906 -0.047319800433116455 0 -0.0023985936518155135 -0.047418310119758479 0 -0.00261460052700906 -0.047319800433116455 0 -0.0025558411254158991 -0.047498554138637551 0 -0.0035843837174373257 -0.045989497525995245 0 -0.0031917887579857997 -0.046096092189803595 0 -0.0034844681353252463 -0.04602267437552704 0 -0.0032940178342481456 -0.046082671653154432 0 -0.003392358028391032 -0.04608708312448271 0 -0.0034560690064922334 -0.045849315583723418 0 -0.0045543487762726336 -0.044209104398518766 0 -0.0029096099506956607 -0.047158382548252172 0 -0.0029052079995933061 -0.047450478148788777 0 -0.0033722161762298787 -0.047172793632299606 0 -0.0042104191863351521 -0.045080030152515098 0 -0.0039069127740351192 -0.045367469474384942 0 -0.004505664812139828 -0.045394823747608296 0 -0.0035843837174373257 -0.045989497525995245 0 -0.0034560690064922334 -0.045849315583723418 0 -0.0035458748430565812 -0.04603453967386345 0 -0.0035890272239494704 -0.04600328423792812 0 -0.0035781482448003234 -0.046002851881984323 0 -0.0035843837174373257 -0.045989497525995245 0 -0.0033517154623630137 -0.045984879602442845 0 -0.0033517154623630137 -0.045984879602442845 0 -0.0034560690064922334 -0.045849315583723418 0 -0.0029096099506956607 -0.047158382548252172 0 -0.0029052079995933061 -0.047450478148788777 0 -0.0025483885746660317 -0.047519674695052645 0 -0.0032917250305378653 -0.04448042102700546 0 -0.0045543487762726336 -0.044209104398518766 0 -0.0013847499093127915 -0.039709536266879022 0 -0.0020943682929065142 -0.040022787597560526 0 -0.0020829311490657364 -0.039281939302062273 0 -0.0032917250305378653 -0.04448042102700546 0 -0.0017560088574453524 -0.045105176603882108 0 -0.0013847499093127915 -0.039709536266879022 0 -0.0018527607800969889 -0.040995388480962659 0 -0.0020943682929065142 -0.040022787597560526 0 -0.0027941294180727325 -0.047506842845883801 0 -0.0029859787107376894 -0.048108924523111926 0 -0.0025359813433149456 -0.048059951026785487 0 -0.0029859787107376894 -0.048108924523111926 0 -0.0025359813433149456 -0.048059951026785487 0 -0.0027381498813531268 -0.048350853885260836 0 -0.0025359813433149456 -0.048059951026785487 0 -0.0022292674242269943 -0.048099283302103411 0 -0.0023024505937108601 -0.04838583820836978 0 -0.0025359813433149456 -0.048059951026785487 0 -0.0022604019629085086 -0.047826097400758584 0 -0.0022292674242269943 -0.048099283302103411 0 -0.0025359813433149456 -0.048059951026785487 0 -0.0024807261119842209 -0.047696813955328252 0 -0.0022604019629085086 -0.047826097400758584 0 -0.0027941294180727325 -0.047506842845883801 0 -0.0025359813433149456 -0.048059951026785487 0 -0.0024807261119842209 -0.047696813955328252 0 -0.0032917250305378653 -0.04448042102700546 0 -0.0027572685028232472 -0.045088051421297022 0 -0.0029052079995933061 -0.047450478148788777 0 -0.0025483885746660317 -0.047519674695052645 0 -0.0024807261119842209 -0.047696813955328252 0 -0.002773470253807368 -0.046707633800110344 0 -0.0025582534611686063 -0.046977563008191829 0 -0.0024585289672495211 -0.047483400787206413 0 -0.0025649936610655172 -0.047545526637158594 0 -0.0022604019629085086 -0.047826097400758584 0 -0.0025483885746660317 -0.047519674695052645 0 -0.0024807261119842209 -0.047696813955328252 0 -0.0022604019629085086 -0.047826097400758584 0 -0.0024585289672495211 -0.047483400787206413 0 -0.0021339650898417836 -0.04771847682950893 0 -0.0022604019629085086 -0.047826097400758584 0 -0.0022872179842801737 -0.047524229654130494 0 -0.0025558411254158991 -0.047498554138637551 0 -0.0021339650898417836 -0.04771847682950893 0 -0.0020602789408287726 -0.047465152602189066 0 -0.0021339650898417836 -0.04771847682950893 0 -0.0020355034559133389 -0.047940767435791086 0 -0.002695932094197702 -0.046653720524990568 0 -0.0024783661073274118 -0.046869828874403829 0 -0.0022872179842801737 -0.047524229654130494 0 -0.0020602789408287726 -0.047465152602189066 0 -0.0021339650898417836 -0.04771847682950893 0 -0.0021339650898417836 -0.04771847682950893 0 -0.0022604019629085086 -0.047826097400758584 0 -0.0020355034559133389 -0.047940767435791086 0 -0.0010652260578658753 -0.055468815851969312 0 -0.00066663333229756807 -0.056106215737088891 0 -0.00070270280091077773 -0.056127321528142975 0 -0.0014595304090331161 -0.051594480228300613 0 6.3791940310289267e-05 -0.053171704756125676 0 -0.00055772980037312875 -0.055357685148929671 0 -0.0010652260578658753 -0.055468815851969312 0 -0.00066663333229756807 -0.056106215737088891 0 -0.0020602789408287726 -0.047465152602189066 0 -0.0017592786700363202 -0.048091842552844717 0 -0.0020355034559133389 -0.047940767435791086 0 -0.00028295523922823606 -0.054847772908279531 0 -1.6228149404096728e-05 -0.053417353415227381 0 0.00043864634454851299 -0.052696846722790118 0 0.00035189315060305627 -0.052748648166955986 0 0.00041353642081645844 -0.052870637594685063 0 -1.6228149404096728e-05 -0.053417353415227381 0 6.3791940310289267e-05 -0.053171704756125676 0 0.0012706598504193438 -0.054066624133248017 0 0.0012502986386575704 -0.054026203204518244 0 0.0014485918998553477 -0.053776585637729503 0 6.3791940310289267e-05 -0.053171704756125676 0 0.00011297398015367534 -0.053440375972771348 0 -1.6228149404096728e-05 -0.053417353415227381 0 0.00011297398015367534 -0.053440375972771348 0 -0.0017592786700363202 -0.048091842552844717 0 -0.0022292674242269943 -0.048099283302103411 0 -0.0023024505937108601 -0.04838583820836978 0 -0.0017592786700363202 -0.048091842552844717 0 -0.0020355034559133389 -0.047940767435791086 0 -0.0022292674242269943 -0.048099283302103411 0 6.3791940310289267e-05 -0.053171704756125676 0 9.5042177642688661e-06 -0.051426305876850556 0 -0.0022604019629085086 -0.047826097400758584 0 -0.0020355034559133389 -0.047940767435791086 0 -0.0022292674242269943 -0.048099283302103411 0 0.0012706598504193438 -0.054066624133248017 0 0.0017663914458355052 -0.053789757095989918 0 0.0014485918998553477 -0.053776585637729503 0 0.0017663914458355052 -0.053789757095989918 0 0.0016073883462733123 -0.053547835582538714 0 0.0020149976400853195 -0.053499002156231691 0 0.0017663914458355052 -0.053789757095989918 0 0.0014485918998553477 -0.053776585637729503 0 0.0016073883462733123 -0.053547835582538714 0 0.00045019579432923658 -0.054922393185482248 0 0.00078428463820663446 -0.055597417525707155 0 0.0010327058756801357 -0.054567939403554248 0 0.0012502986386575704 -0.054026203204518244 0 0.0014485918998553477 -0.053776585637729503 0 0.0013543243683608727 -0.053463893090898634 0 0.00011297398015367534 -0.053440375972771348 0 0.0006384617371233952 -0.05377764716974074 0 0.0014485918998553477 -0.053776585637729503 0 0.0013543243683608727 -0.053463893090898634 0 0.0016073883462733123 -0.053547835582538714 0 0.0013543243683608727 -0.053463893090898634 0 0.0016073883462733123 -0.053547835582538714 0 0.0016238693325541652 -0.053256130563436303 0 0.0016073883462733123 -0.053547835582538714 0 0.0020149976400853195 -0.053499002156231691 0 0.0016238693325541652 -0.053256130563436303 0 0.0020149976400853195 -0.053499002156231691 0 0.0022339602749189128 -0.052991470847486975 0 0.0016238693325541652 -0.053256130563436303 0 0.0017663914458355052 -0.053789757095989918 0 0.0020149976400853195 -0.053499002156231691 0 0.0022970949797679902 -0.05349310011305871 0 0.0024473277650235662 -0.053486914871328957 0 0.002755221282449755 -0.052983426489309572 0 0.0022339602749189128 -0.052991470847486975 0 0.0024473277650235662 -0.053486914871328957 0 0.0031188828388031193 -0.053485724157625522 0 0.002755221282449755 -0.052983426489309572 0 0.0020149976400853195 -0.053499002156231691 0 0.0024473277650235662 -0.053486914871328957 0 0.0022339602749189128 -0.052991470847486975 0 0.00030841263993599356 -0.049828382516050762 0 -0.00015018534439747476 -0.047337316203032415 0 0.00072938462101592057 -0.050069322820652511 0 0.00030841263993599356 -0.049828382516050762 0 -0.0029859787107376894 -0.048108924523111926 0 -0.0027381498813531268 -0.048350853885260836 0 -0.0031736145020107944 -0.048683026702820077 0 -0.002815989317228981 -0.048677010024000253 0 -0.0027381498813531268 -0.048350853885260836 0 -0.0031736145020107944 -0.048683026702820077 0 -0.0025359813433149456 -0.048059951026785487 0 -0.0023024505937108601 -0.04838583820836978 0 -0.0027381498813531268 -0.048350853885260836 0 9.5042177642688661e-06 -0.051426305876850556 0 0.00030841263993599356 -0.049828382516050762 0 -0.0023024505937108601 -0.04838583820836978 0 -0.002815989317228981 -0.048677010024000253 0 -0.0027381498813531268 -0.048350853885260836 0 -0.0028029589934443688 -0.041420894316762255 0 -0.0023014694181473045 -0.042213950735449 0 -0.0032335306451104053 -0.042209837703002372 0 -0.0028029589934443688 -0.041420894316762255 0 -0.0032335306451104053 -0.042209837703002372 0 -0.0034358491054627162 -0.041467515681238527 0 -0.0018527607800969889 -0.040995388480962659 0 -0.0028029589934443688 -0.041420894316762255 0 -0.0023014694181473045 -0.042213950735449 0 -0.0017560088574453524 -0.045105176603882108 0 -0.00015018534439747476 -0.047337316203032415 0 -0.00015018534439747476 -0.047337316203032415 0 -0.00082125509420197446 -0.045260885112739742 0 0.0062023288990287386 -0.042450364066602762 0 0.0022737551132818762 -0.042535299767965468 0 0.0049028768355616021 -0.046221038572992555 0 -0.00082125509420197446 -0.045260885112739742 0 -0.0023491599916848661 -0.044323791172737818 0 -0.0032335306451104053 -0.042209837703002372 0 -0.0040265279143772885 -0.042280326381478245 0 -0.0034358491054627162 -0.041467515681238527 0 0.0022737551132818762 -0.042535299767965468 0 -0.0013657188165890329 -0.042745161837125102 0 -0.00064647413707289716 -0.045321351204319515 0 -0.0013657188165890329 -0.042745161837125102 0 -0.0046379818120510065 -0.042825647245789501 0 -0.0027990453367129019 -0.045364569593101346 0 -0.0023491599916848661 -0.044323791172737818 0 -0.0032228054032556411 -0.044073771365176387 0 -0.0040265279143772885 -0.042280326381478245 0 -0.0041403003919492634 -0.04117773306880862 0 -0.0045161992750411672 -0.041671261759027599 0 -0.0040265279143772885 -0.042280326381478245 0 -0.0034358491054627162 -0.041467515681238527 0 -0.0041403003919492634 -0.04117773306880862 0 -0.0034358491054627162 -0.041467515681238527 0 -0.0034370804202462765 -0.040677639562944692 0 -0.0041403003919492634 -0.04117773306880862 0 -0.0034370804202462765 -0.040677639562944692 0 -0.0041403003919492634 -0.04117773306880862 0 -0.0046059118218881737 -0.040186640702964273 0 -0.0041403003919492634 -0.04117773306880862 0 -0.0048380162032160409 -0.040713340546675372 0 -0.0045161992750411672 -0.041671261759027599 0 -0.0041403003919492634 -0.04117773306880862 0 -0.0046059118218881737 -0.040186640702964273 0 -0.0048380162032160409 -0.040713340546675372 0 -0.0046059118218881737 -0.040186640702964273 0 -0.003693993447278898 -0.039868292519508117 0 -0.0042601514394435235 -0.039327415463475977 0 -0.0034370804202462765 -0.040677639562944692 0 -0.0046059118218881737 -0.040186640702964273 0 -0.003693993447278898 -0.039868292519508117 0 -0.0034370804202462765 -0.040677639562944692 0 -0.003693993447278898 -0.039868292519508117 0 -0.0030735850399534006 -0.039953916412275629 0 -0.0034370804202462765 -0.040677639562944692 0 -0.0030735850399534006 -0.039953916412275629 0 -0.0025966137602693191 -0.040371066201483528 0 -0.0030735850399534006 -0.039953916412275629 0 -0.0025966137602693191 -0.040371066201483528 0 -0.0025636820489873648 -0.039744074029193902 0 -0.0028029589934443688 -0.041420894316762255 0 -0.0034358491054627162 -0.041467515681238527 0 -0.0034370804202462765 -0.040677639562944692 0 -0.0028029589934443688 -0.041420894316762255 0 -0.0034370804202462765 -0.040677639562944692 0 -0.0025966137602693191 -0.040371066201483528 0 -0.0018527607800969889 -0.040995388480962659 0 -0.0028029589934443688 -0.041420894316762255 0 -0.0025966137602693191 -0.040371066201483528 0 -0.0018527607800969889 -0.040995388480962659 0 -0.0025966137602693191 -0.040371066201483528 0 -0.0020943682929065142 -0.040022787597560526 0 -0.0025966137602693191 -0.040371066201483528 0 -0.0020943682929065142 -0.040022787597560526 0 -0.0025636820489873648 -0.039744074029193902 0 -0.0045543487762726336 -0.044209104398518766 0 -0.0055837436344940879 -0.04229533843900455 0 -0.0020943682929065142 -0.040022787597560526 0 -0.0025636820489873648 -0.039744074029193902 0 -0.0020829311490657364 -0.039281939302062273 0 -0.0025636820489873648 -0.039744074029193902 0 -0.0020829311490657364 -0.039281939302062273 0 -0.0031100179421701879 -0.039288697071003346 0 -0.010493125082335035 -0.040088170243545634 0 -0.0091804537186508488 -0.040002134159227334 0 -0.0093755487934094814 -0.040759437731083981 0 -0.003693993447278898 -0.039868292519508117 0 -0.0030735850399534006 -0.039953916412275629 0 -0.0031100179421701879 -0.039288697071003346 0 -0.0030735850399534006 -0.039953916412275629 0 -0.0025636820489873648 -0.039744074029193902 0 -0.0031100179421701879 -0.039288697071003346 0 -0.0052485679389049165 -0.044960185251906225 0 -0.0051212481087613351 -0.04479636211485611 0 -0.0059907188374458157 -0.044531243817485702 0 -0.004664548221737016 -0.045382153503514426 0 -0.0058832765458217461 -0.044589412864424402 0 -0.004184183996160276 -0.046690983495488565 0 -0.0046404551906114285 -0.046362349104513881 0 -0.0048659451827175763 -0.046486470956217094 0 -0.0062617177155701118 -0.043735502965307753 0 -0.0058832765458217461 -0.044589412864424402 0 -0.0091804537186508488 -0.040002134159227334 0 -0.0093755487934094814 -0.040759437731083981 0 -0.0084619026670037685 -0.040586849595830997 0 -0.004184183996160276 -0.046690983495488565 0 -0.0039558467480080043 -0.046613655686401308 0 -0.0043796731952726589 -0.046330821064272047 0 -0.003508594780615536 -0.046890548136219651 0 -0.004184183996160276 -0.046690983495488565 0 -0.0039558467480080043 -0.046613655686401308 0 -0.0035843837174373257 -0.045989497525995245 0 -0.004664548221737016 -0.045382153503514426 0 -0.0045543487762726336 -0.044209104398518766 0 -0.0062617177155701118 -0.043735502965307753 0 -0.0042104191863351521 -0.045080030152515098 0 -0.004505664812139828 -0.045394823747608296 0 -0.0051212481087613351 -0.04479636211485611 0 -0.004505664812139828 -0.045394823747608296 0 -0.0052485679389049165 -0.044960185251906225 0 -0.0051212481087613351 -0.04479636211485611 0 -0.0035843837174373257 -0.045989497525995245 0 -0.0037152451388928749 -0.046129905418255505 0 -0.0034978626526004607 -0.04667093984163237 0 -0.0038527425659478729 -0.046584586762849323 0 -0.0036693614662156974 -0.046496605435785827 0 -0.0035843837174373257 -0.045989497525995245 0 -0.0036704984169219851 -0.046147061393365871 0 -0.0034978626526004607 -0.04667093984163237 0 -0.0033898924564745555 -0.047014126460033896 0 -0.0038527425659478729 -0.046584586762849323 0 -0.003537548738595919 -0.046867749845319863 0 -0.0039627338760709107 -0.046600271377430065 0 -0.0039175845363616044 -0.046509997612727415 0 -0.0034978626526004607 -0.04667093984163237 0 -0.0036693614662156974 -0.046496605435785827 0 -0.0035720840995121183 -0.046317813584893681 0 -0.0037564266029686873 -0.046414454142772552 0 -0.0035720840995121183 -0.046317813584893681 0 -0.0039506507991464773 -0.046223214744579126 0 -0.0031972072241737651 -0.046333016973153944 0 -0.0035720840995121183 -0.046317813584893681 0 -0.0037843638711619991 -0.045906385032380363 0 -0.0038527425659478729 -0.046584586762849323 0 -0.0036693614662156974 -0.046496605435785827 0 -0.0037564266029686873 -0.046414454142772552 0 -0.0036693614662156974 -0.046496605435785827 0 -0.0037564266029686873 -0.046414454142772552 0 -0.0035720840995121183 -0.046317813584893681 0 -0.0035720840995121183 -0.046317813584893681 0 -0.0039506507991464773 -0.046223214744579126 0 -0.0037843638711619991 -0.045906385032380363 0 -0.0039506507991464773 -0.046223214744579126 0 -0.0043083717305915908 -0.046132510251930624 0 -0.0037843638711619991 -0.045906385032380363 0 -0.0038527425659478729 -0.046584586762849323 0 -0.0039506507991464773 -0.046223214744579126 0 -0.0043083717305915908 -0.046132510251930624 0 -0.0038527425659478729 -0.046584586762849323 0 -0.0037564266029686873 -0.046414454142772552 0 -0.0039506507991464773 -0.046223214744579126 0 -0.0039627338760709107 -0.046600271377430065 0 -0.0039175845363616044 -0.046509997612727415 0 -0.0043796731952726589 -0.046330821064272047 0 -0.0036704984169219851 -0.046147061393365871 0 -0.003783867585889022 -0.046111876502441751 0 -0.0037152451388928749 -0.046129905418255505 0 -0.0038231603236694085 -0.046123284318082464 0 -0.0043083717305915908 -0.046132510251930624 0 -0.0037843638711619991 -0.045906385032380363 0 -0.004619471294736866 -0.046108074306631108 0 -0.0039175845363616044 -0.046509997612727415 0 -0.0043796731952726589 -0.046330821064272047 0 -0.0043083717305915908 -0.046132510251930624 0 -0.004184183996160276 -0.046690983495488565 0 -0.0043796731952726589 -0.046330821064272047 0 -0.0046404551906114285 -0.046362349104513881 0 -0.0043796731952726589 -0.046330821064272047 0 -0.004619471294736866 -0.046108074306631108 0 -0.0046404551906114285 -0.046362349104513881 0 -0.0043796731952726589 -0.046330821064272047 0 -0.0043083717305915908 -0.046132510251930624 0 -0.004619471294736866 -0.046108074306631108 0 -0.0051688593334594038 -0.047338300917502386 0 -0.00551146114925412 -0.045860758478514722 0 -0.0068976063652860173 -0.045614011043966847 0 -0.0078572522516422751 -0.044677348397696985 0 -0.0066578186478126727 -0.044318411442675391 0 -0.0077871179488407435 -0.045810348785684428 0 -0.0068976063652860173 -0.045614011043966847 0 -0.0078572522516422751 -0.044677348397696985 0 -0.0061787055826227483 -0.045400117301405168 0 -0.0060697495562745127 -0.044479887388272167 0 -0.0057737933021472926 -0.044722430210439514 0 -0.0060697495562745127 -0.044479887388272167 0 -0.0057737933021472926 -0.044722430210439514 0 -0.0058179340047473842 -0.044047738533279313 0 -0.0061787055826227483 -0.045400117301405168 0 -0.0060697495562745127 -0.044479887388272167 0 -0.0066578186478126727 -0.044318411442675391 0 -0.0061787055826227483 -0.045400117301405168 0 -0.0068976063652860173 -0.045614011043966847 0 -0.0066578186478126727 -0.044318411442675391 0 -0.0060697495562745127 -0.044479887388272167 0 -0.0066578186478126727 -0.044318411442675391 0 -0.0059350178546752367 -0.043957290991617326 0 -0.00551146114925412 -0.045860758478514722 0 -0.0058527269126661501 -0.044774299904097682 0 -0.004619471294736866 -0.046108074306631108 0 -0.0050029992992263999 -0.046404528630933771 0 -0.0054041462347601066 -0.046312642309947277 0 -0.004619471294736866 -0.046108074306631108 0 -0.0046404551906114285 -0.046362349104513881 0 -0.0050029992992263999 -0.046404528630933771 0 -0.0046404551906114285 -0.046362349104513881 0 -0.0048659451827175763 -0.046486470956217094 0 -0.0050029992992263999 -0.046404528630933771 0 -0.0058832765458217461 -0.044589412864424402 0 -0.005833024150091631 -0.044631409092174855 0 -0.0048686639015548374 -0.046484635665034177 0 -0.0050029992992263999 -0.046404528630933771 0 -0.0054041462347601066 -0.046312642309947277 0 -0.0058832765458217461 -0.044589412864424402 0 -0.0058527269126661501 -0.044774299904097682 0 -0.0060697495562745127 -0.044479887388272167 0 -0.0059350178546752367 -0.043957290991617326 0 -0.0058179340047473842 -0.044047738533279313 0 -0.0069218095355419425 -0.041843821666648365 0 -0.0070712926324902892 -0.041895351457732301 0 -0.0067031061469180562 -0.041299069654277536 0 -0.0058614131792209716 -0.044765637322545106 0 -0.0058527269126661501 -0.044774299904097682 0 -0.0081522717568904644 -0.041527201155619198 0 -0.0070712926324902892 -0.041895351457732301 0 -0.0074157662911672794 -0.040962440057876581 0 -0.0070712926324902892 -0.041895351457732301 0 -0.0067031061469180562 -0.041299069654277536 0 -0.0074157662911672794 -0.040962440057876581 0 -0.0067031061469180562 -0.041299069654277536 0 -0.0074157662911672794 -0.040962440057876581 0 -0.0066919548469084227 -0.040559145806698046 0 -0.0074157662911672794 -0.040962440057876581 0 -0.0066919548469084227 -0.040559145806698046 0 -0.0077684494412042383 -0.039839225380672527 0 -0.0093755487934094814 -0.040759437731083981 0 -0.0081522717568904644 -0.041527201155619198 0 -0.0084619026670037685 -0.040586849595830997 0 -0.0081522717568904644 -0.041527201155619198 0 -0.0074157662911672794 -0.040962440057876581 0 -0.0084619026670037685 -0.040586849595830997 0 -0.0074157662911672794 -0.040962440057876581 0 -0.0084619026670037685 -0.040586849595830997 0 -0.0077684494412042383 -0.039839225380672527 0 -0.0091804537186508488 -0.040002134159227334 0 -0.0084619026670037685 -0.040586849595830997 0 -0.0077684494412042383 -0.039839225380672527 0 -0.003693993447278898 -0.039868292519508117 0 -0.0031100179421701879 -0.039288697071003346 0 -0.0042601514394435235 -0.039327415463475977 0 -0.0055837436344940879 -0.04229533843900455 0 -0.00575818775017275 -0.041361451330761669 0 -0.0066919548469084227 -0.040559145806698046 0 -0.0077684494412042383 -0.039839225380672527 0 -0.0057708111851497339 -0.039698177641175406 0 -0.0046059118218881737 -0.040186640702964273 0 -0.0042601514394435235 -0.039327415463475977 0 -0.0057708111851497339 -0.039698177641175406 0 -0.00575818775017275 -0.041361451330761669 0 -0.0057281291094528394 -0.041087461299384682 0 -0.0057708111851497339 -0.039698177641175406 0 -0.005662029182236095 -0.04013731289388299 0 -0.0056850105211155039 -0.039587439595907326 0 -0.0057708111851497339 -0.039698177641175406 0 -0.005662029182236095 -0.04013731289388299 0 -0.0060587451934468661 -0.040762471742742015 0 -0.005662029182236095 -0.04013731289388299 0 -0.0054002722969645521 -0.040105066493163234 0 -0.0056850105211155039 -0.039587439595907326 0 -0.005662029182236095 -0.04013731289388299 0 -0.0054217870268778766 -0.041515747309158427 0 -0.0054002722969645521 -0.040105066493163234 0 -0.005662029182236095 -0.04013731289388299 0 -0.0054217870268778766 -0.041515747309158427 0 -0.0060587451934468661 -0.040762471742742015 0 -0.0066919548469084227 -0.040559145806698046 0 -0.0057708111851497339 -0.039698177641175406 0 -0.0060587451934468661 -0.040762471742742015 0 -0.0067031061469180562 -0.041299069654277536 0 -0.0066919548469084227 -0.040559145806698046 0 -0.0060587451934468661 -0.040762471742742015 0 -0.0054217870268778766 -0.041515747309158427 0 -0.0060587451934468661 -0.040762471742742015 0 -0.0061417257845500931 -0.041644653909212341 0 -0.0067031061469180562 -0.041299069654277536 0 -0.0060587451934468661 -0.040762471742742015 0 -0.0061417257845500931 -0.041644653909212341 0 -0.0069218095355419425 -0.041843821666648365 0 -0.0067031061469180562 -0.041299069654277536 0 -0.0061417257845500931 -0.041644653909212341 0 -0.0069218095355419425 -0.041843821666648365 0 -0.0061417257845500931 -0.041644653909212341 0 -0.0054539841875036622 -0.043096429496903628 0 -0.0058527269126661501 -0.044774299904097682 0 -0.0057912445784610951 -0.044364064785853329 0 -0.0059350178546752367 -0.043957290991617326 0 -0.0054539841875036622 -0.043096429496903628 0 -0.0058179340047473842 -0.044047738533279313 0 -0.0069218095355419425 -0.041843821666648365 0 -0.007108486731666531 -0.041843597988463793 0 -0.0054539841875036622 -0.043096429496903628 0 -0.0054217870268778766 -0.041515747309158427 0 -0.0054539841875036622 -0.043096429496903628 0 -0.0047316026526109502 -0.04326447143875331 0 -0.0054217870268778766 -0.041515747309158427 0 -0.0061417257845500931 -0.041644653909212341 0 -0.0054539841875036622 -0.043096429496903628 0 -0.0051660633929265396 -0.044725489059426776 0 -0.0054539841875036622 -0.043096429496903628 0 -0.0047316026526109502 -0.04326447143875331 0 -0.0044309425033160045 -0.044250303287404452 0 -0.0051660633929265396 -0.044725489059426776 0 -0.0047316026526109502 -0.04326447143875331 0 -0.0054539841875036622 -0.043096429496903628 0 -0.0057737933021472926 -0.044722430210439514 0 -0.0058179340047473842 -0.044047738533279313 0 -0.0051660633929265396 -0.044725489059426776 0 -0.0054539841875036622 -0.043096429496903628 0 -0.0057737933021472926 -0.044722430210439514 0 -0.0032541287000473285 -0.043552530183212437 0 -0.0040672972918950404 -0.043599806940979438 0 -0.0041494588836033701 -0.04227101273241201 0 -0.0037509714361057826 -0.044641145692077354 0 -0.0032541287000473285 -0.043552530183212437 0 -0.0040672972918950404 -0.043599806940979438 0 -0.0040672972918950404 -0.043599806940979438 0 -0.0047316026526109502 -0.04326447143875331 0 -0.0041494588836033701 -0.04227101273241201 0 -0.0044309425033160045 -0.044250303287404452 0 -0.0040672972918950404 -0.043599806940979438 0 -0.0047316026526109502 -0.04326447143875331 0 -0.0054217870268778766 -0.041515747309158427 0 -0.0047316026526109502 -0.04326447143875331 0 -0.0041494588836033701 -0.04227101273241201 0 -0.0032541287000473285 -0.043552530183212437 0 -0.0041494588836033701 -0.04227101273241201 0 -0.0029523100526417357 -0.041874116831356431 0 -0.0041494588836033701 -0.04227101273241201 0 -0.0041880420244488235 -0.040075777592287976 0 -0.0029523100526417357 -0.041874116831356431 0 -0.0041494588836033701 -0.04227101273241201 0 -0.0054002722969645521 -0.040105066493163234 0 -0.0041880420244488235 -0.040075777592287976 0 -0.0054217870268778766 -0.041515747309158427 0 -0.0041494588836033701 -0.04227101273241201 0 -0.0054002722969645521 -0.040105066493163234 0 -0.0054002722969645521 -0.040105066493163234 0 -0.0041880420244488235 -0.040075777592287976 0 -0.0061442617324984775 -0.038601105228230452 0 -0.0041880420244488235 -0.040075777592287976 0 -0.0061442617324984775 -0.038601105228230452 0 -0.0035763033075390835 -0.037298043582060798 0 -0.0061828973637411359 -0.034289159980672626 0 -0.0035763033075390835 -0.037298043582060798 0 -0.0037116887418426861 -0.033807665237737539 0 -0.0061442617324984775 -0.038601105228230452 0 -0.0061828973637411359 -0.034289159980672626 0 -0.0035763033075390835 -0.037298043582060798 0 -0.0061442617324984775 -0.038601105228230452 0 -0.005633535746542317 -0.040993315471702707 0 -0.0077091289914552911 -0.041219645890716056 0 -0.0065455574024514181 -0.038316474475629844 0 -0.0065555457683878198 -0.038070312064005539 0 -0.0054002722969645521 -0.040105066493163234 0 -0.0061442617324984775 -0.038601105228230452 0 -0.0056850105211155039 -0.039587439595907326 0 -0.0046059118218881737 -0.040186640702964273 0 -0.0057708111851497339 -0.039698177641175406 0 -0.0056850105211155039 -0.039587439595907326 0 -0.0046059118218881737 -0.040186640702964273 0 -0.0056850105211155039 -0.039587439595907326 0 -0.0048380162032160409 -0.040713340546675372 0 -0.0056850105211155039 -0.039587439595907326 0 -0.0048380162032160409 -0.040713340546675372 0 -0.005633535746542317 -0.040993315471702707 0 -0.0061442617324984775 -0.038601105228230452 0 -0.0056850105211155039 -0.039587439595907326 0 -0.005633535746542317 -0.040993315471702707 0 -0.005633535746542317 -0.040993315471702707 0 -0.0045161992750411672 -0.041671261759027599 0 -0.0046379818120510065 -0.042825647245789501 0 -0.0048380162032160409 -0.040713340546675372 0 -0.005633535746542317 -0.040993315471702707 0 -0.0045161992750411672 -0.041671261759027599 0 -0.0040265279143772885 -0.042280326381478245 0 -0.0045161992750411672 -0.041671261759027599 0 -0.0046379818120510065 -0.042825647245789501 0 -0.0046379818120510065 -0.042825647245789501 0 -0.0064225671749685732 -0.043817547612526479 0 -0.0047255446928899485 -0.045257551964228156 0 -0.005633535746542317 -0.040993315471702707 0 -0.0046379818120510065 -0.042825647245789501 0 -0.0064225671749685732 -0.043817547612526479 0 -0.0064225671749685732 -0.043817547612526479 0 -0.0086484214963938426 -0.044122147212968837 0 -0.0077091289914552911 -0.041219645890716056 0 -0.0063771739274147855 -0.037876387930629495 0 -0.0065555457683878198 -0.038070312064005539 0 -0.0056585633183231674 -0.031057849001400212 0 -0.0061828973637411359 -0.034289159980672626 0 -0.0037116887418426861 -0.033807665237737539 0 -0.005633535746542317 -0.040993315471702707 0 -0.0064225671749685732 -0.043817547612526479 0 -0.0077091289914552911 -0.041219645890716056 0 -0.0071207463513995343 -0.047549920303463798 0 -0.0090938125718610166 -0.047376444377747379 0 -0.0073268159732299033 -0.045769754131210393 0 -0.0071207463513995343 -0.047549920303463798 0 -0.0073268159732299033 -0.045769754131210393 0 -0.0058273956122064071 -0.04640166956095973 0 -0.0063771739274147855 -0.037876387930629495 0 -0.005746371162777382 -0.037785214003372154 0 -0.0086484214963938426 -0.044122147212968837 0 -0.0090938125718610166 -0.047376444377747379 0 -0.0073268159732299033 -0.045769754131210393 0 -0.0056585633183231674 -0.031057849001400212 0 -0.0050629941022162211 -0.028285491212559074 0 -0.0032264673902661556 -0.02909195621170783 0 -0.0064225671749685732 -0.043817547612526479 0 -0.0086484214963938426 -0.044122147212968837 0 -0.0073268159732299033 -0.045769754131210393 0 -0.0064225671749685732 -0.043817547612526479 0 -0.0073268159732299033 -0.045769754131210393 0 -0.0058273956122064071 -0.04640166956095973 0 -0.0064225671749685732 -0.043817547612526479 0 -0.0047255446928899485 -0.045257551964228156 0 -0.0058273956122064071 -0.04640166956095973 0 -0.0047255446928899485 -0.045257551964228156 0 -0.0036153438563787084 -0.047898353145700283 0 -0.0027990453367129019 -0.045364569593101346 0 -0.0046379818120510065 -0.042825647245789501 0 -0.0047255446928899485 -0.045257551964228156 0 -0.0027990453367129019 -0.045364569593101346 0 -0.0047255446928899485 -0.045257551964228156 0 -0.0036153438563787084 -0.047898353145700283 0 -0.0058273956122064071 -0.04640166956095973 0 -0.0036153438563787084 -0.047898353145700283 0 -0.0058273956122064071 -0.04640166956095973 0 -0.0054158536135707341 -0.048388665340047786 0 -0.0071207463513995343 -0.047549920303463798 0 -0.0058273956122064071 -0.04640166956095973 0 -0.0054158536135707341 -0.048388665340047786 0 -0.0054158536135707341 -0.048388665340047786 0 -0.0044474435540029387 -0.050080244660796719 0 -0.0074836763852137922 -0.049237694858926338 0 -0.0045204300220539097 -0.049696681612737797 0 -0.0057468458396782015 -0.049541371613166178 0 -0.0044474435540029387 -0.050080244660796719 0 -0.0029394083455115631 -0.049393731372970651 0 -0.0013985218294075385 -0.05056536548847311 0 -0.0036153438563787084 -0.047898353145700283 0 -0.004045289264685099 -0.048982171462924905 0 -0.0029394083455115631 -0.049393731372970651 0 -0.0054158536135707341 -0.048388665340047786 0 -0.004045289264685099 -0.048982171462924905 0 -0.0044474435540029387 -0.050080244660796719 0 -0.0036153438563787084 -0.047898353145700283 0 -0.0054158536135707341 -0.048388665340047786 0 -0.004045289264685099 -0.048982171462924905 0 -0.004045289264685099 -0.048982171462924905 0 -0.0044474435540029387 -0.050080244660796719 0 -0.0029394083455115631 -0.049393731372970651 0 -0.0045204300220539097 -0.049696681612737797 0 -0.0022893667952817473 -0.049924487620047663 0 -0.0053410699117925724 -0.049442312476776183 0 -0.0052172568114540099 -0.050115293533263036 0 -0.0043253026407733099 -0.050196614912114697 0 -0.0023387869034205708 -0.044426039749846657 0 -0.0027484362745742595 -0.042825076026768459 0 -0.0052172568114540099 -0.050115293533263036 0 -0.0045493096128333358 -0.050993685570886731 0 -0.0043253026407733099 -0.050196614912114697 0 -0.0053410699117925724 -0.049442312476776183 0 -0.0065066601167149416 -0.050027160864374087 0 -0.0074836763852137922 -0.049237694858926338 0 -0.0052172568114540099 -0.050115293533263036 0 -0.0065066601167149416 -0.050027160864374087 0 -0.0069222050862444099 -0.051710840141359155 0 -0.0053410699117925724 -0.049442312476776183 0 -0.0052172568114540099 -0.050115293533263036 0 -0.0065066601167149416 -0.050027160864374087 0 -0.0078910613555815429 -0.050632987428932401 0 -0.0074836763852137922 -0.049237694858926338 0 -0.0091609339222937618 -0.049993325778159188 0 -0.0065066601167149416 -0.050027160864374087 0 -0.0078910613555815429 -0.050632987428932401 0 -0.0069222050862444099 -0.051710840141359155 0 -0.0065066601167149416 -0.050027160864374087 0 -0.0078910613555815429 -0.050632987428932401 0 -0.0074836763852137922 -0.049237694858926338 0 -0.0071207463513995343 -0.047549920303463798 0 -0.0054158536135707341 -0.048388665340047786 0 -0.0074836763852137922 -0.049237694858926338 0 -0.0071207463513995343 -0.047549920303463798 0 -0.0090938125718610166 -0.047376444377747379 0 -0.0074836763852137922 -0.049237694858926338 0 -0.005746371162777382 -0.037785214003372154 0 -0.0042541540078491749 -0.0370749673601906 0 -0.0090938125718610166 -0.047376444377747379 0 -0.0074836763852137922 -0.049237694858926338 0 -0.0091609339222937618 -0.049993325778159188 0 -0.0050629941022162211 -0.028285491212559074 0 -0.004094943935280892 -0.025281512650245634 0 -0.0036313590392915746 -0.026951016928642494 0 -0.0042541540078491749 -0.0370749673601906 0 -0.00094171700576034024 -0.033126293677862122 0 -0.004094943935280892 -0.025281512650245634 0 -0.0028228693125795018 -0.022473248475187994 0 -0.0027307727541908853 -0.023604356055053101 0 -0.0078910613555815429 -0.050632987428932401 0 -0.0091609339222937618 -0.049993325778159188 0 -0.0093546892571484182 -0.052149377452676664 0 -0.0031199174587955708 -0.038742202038766528 0 -0.00094171700576034024 -0.033126293677862122 0 -0.0078910613555815429 -0.050632987428932401 0 -0.0069222050862444099 -0.051710840141359155 0 -0.0093546892571484182 -0.052149377452676664 0 -0.00042448178594137729 -0.02870152229233194 0 -0.00033298527938005728 -0.028413221140594695 0 -0.00033818920434539192 -0.029059930168979418 0 -0.00042448178594137729 -0.02870152229233194 0 7.0201321022908764e-05 -0.029087034469132959 0 -0.00033298527938005728 -0.028413221140594695 0 7.0201321022908764e-05 -0.029087034469132959 0 -0.00033298527938005728 -0.028413221140594695 0 0.00013245291482522084 -0.026747363492043465 0 -0.00094171700576034024 -0.033126293677862122 0 -0.00025678754096649514 -0.02842413913465933 0 -0.00033298527938005728 -0.028413221140594695 0 -0.00021046517169426296 -0.028235214522768913 0 0.00013245291482522084 -0.026747363492043465 0 -0.00033298527938005728 -0.028413221140594695 0 -0.00021046517169426296 -0.028235214522768913 0 -0.00033818920434539192 -0.029059930168979418 0 -0.00021046517169426296 -0.028235214522768913 0 -0.00033818920434539192 -0.029059930168979418 0 -0.00020976662343608833 -0.029644217436234289 0 -0.00020976662343608833 -0.029644217436234289 0 -6.6168743275375661e-08 -0.028367100796016783 0 -2.0778589041002105e-07 -0.031661028940050781 0 -0.00021046517169426296 -0.028235214522768913 0 -6.6168743275375661e-08 -0.028367100796016783 0 0.00013245291482522084 -0.026747363492043465 0 -0.00021046517169426296 -0.028235214522768913 0 -0.00020976662343608833 -0.029644217436234289 0 -6.6168743275375661e-08 -0.028367100796016783 0 0.00018207386782782516 -0.033291137207068722 0 -2.0778589041002105e-07 -0.031661028940050781 0 7.868187581373862e-07 -0.034958731787978641 0 0.00096247106061729342 -0.031206542395204234 0 0.00018207386782782516 -0.033291137207068722 0 -1.7570815613841286e-05 -0.030785515453175222 0 0.00096247106061729342 -0.031206542395204234 0 0.00018207386782782516 -0.033291137207068722 0 0.0023273199584648891 -0.031704991561991691 0 -0.00020976662343608833 -0.029644217436234289 0 -2.0778589041002105e-07 -0.031661028940050781 0 -1.7570815613841286e-05 -0.030785515453175222 0 0.00018207386782782516 -0.033291137207068722 0 -2.0778589041002105e-07 -0.031661028940050781 0 -1.7570815613841286e-05 -0.030785515453175222 0 -0.00033818920434539192 -0.029059930168979418 0 -0.00020976662343608833 -0.029644217436234289 0 -1.7570815613841286e-05 -0.030785515453175222 0 -0.00033818920434539192 -0.029059930168979418 0 -1.7570815613841286e-05 -0.030785515453175222 0 -1.7377324465554966e-05 -0.029346198002565736 0 -1.7570815613841286e-05 -0.030785515453175222 0 0.00081534792658431525 -0.029922434993038677 0 -1.7377324465554966e-05 -0.029346198002565736 0 0.00096247106061729342 -0.031206542395204234 0 -1.7570815613841286e-05 -0.030785515453175222 0 0.00081534792658431525 -0.029922434993038677 0 0.00096247106061729342 -0.031206542395204234 0 0.00081534792658431525 -0.029922434993038677 0 0.0020040353247761915 -0.03040218892471416 0 0.00081534792658431525 -0.029922434993038677 0 0.00058979823752619001 -0.028992193190911723 0 0.0022299576569350743 -0.029169370137998581 0 0.00058979823752619001 -0.028992193190911723 0 0.0011062558458364384 -0.028037104032173601 0 0.0022299576569350743 -0.029169370137998581 0 0.00081534792658431525 -0.029922434993038677 0 0.00058979823752619001 -0.028992193190911723 0 -1.7377324465554966e-05 -0.029346198002565736 0 -0.00042448178594137729 -0.02870152229233194 0 0.00058979823752619001 -0.028992193190911723 0 -1.7377324465554966e-05 -0.029346198002565736 0 -0.00042448178594137729 -0.02870152229233194 0 -0.00033818920434539192 -0.029059930168979418 0 -1.7377324465554966e-05 -0.029346198002565736 0 -0.0031199174587955708 -0.038742202038766528 0 -0.0027484362745742595 -0.042825076026768459 0 -0.0052172568114540099 -0.050115293533263036 0 -0.0069222050862444099 -0.051710840141359155 0 -0.0044616056769728064 -0.051212651921667726 0 -0.00042448178594137729 -0.02870152229233194 0 0.00058979823752619001 -0.028992193190911723 0 0.0011062558458364384 -0.028037104032173601 0 -0.0027484362745742595 -0.042825076026768459 0 -0.0016917681926226446 -0.038876637539477267 0 -0.0015585945758637193 -0.042815646500139443 0 -0.0018354121505676081 -0.042870518795637906 0 -0.0017409657000651006 -0.042535947776427094 0 -0.0027484362745742595 -0.042825076026768459 0 -0.0028356673637645363 -0.04462418456953237 0 -0.0045493096128333358 -0.050993685570886731 0 -0.0031622460475799084 -0.050673618967323024 0 -0.0043253026407733099 -0.050196614912114697 0 -0.0018354121505676081 -0.042870518795637906 0 -0.0019286030407087266 -0.042683130541727662 0 -0.002117677610852184 -0.042928694323582761 0 -0.0018354121505676081 -0.042870518795637906 0 -0.0019286030407087266 -0.042683130541727662 0 -0.0017409657000651006 -0.042535947776427094 0 -0.0019286030407087266 -0.042683130541727662 0 -0.0019556031288344602 -0.042490528139318418 0 -0.0021098604144473821 -0.04263926601955445 0 -0.0019286030407087266 -0.042683130541727662 0 -0.0019556031288344602 -0.042490528139318418 0 -0.0017409657000651006 -0.042535947776427094 0 0.0020040353247761915 -0.03040218892471416 0 0.0036279600502572627 -0.030856633958289414 0 0.0023273199584648891 -0.031704991561991691 0 0.0022299576569350743 -0.029169370137998581 0 0.0020040353247761915 -0.03040218892471416 0 0.0036279600502572627 -0.030856633958289414 0 0.00081534792658431525 -0.029922434993038677 0 0.0022299576569350743 -0.029169370137998581 0 0.0020040353247761915 -0.03040218892471416 0 0.00096247106061729342 -0.031206542395204234 0 0.0020040353247761915 -0.03040218892471416 0 0.0023273199584648891 -0.031704991561991691 0 -0.0016917681926226446 -0.038876637539477267 0 -0.00013765592017668386 -0.038385415298933516 0 -0.0019556031288344602 -0.042490528139318418 0 -0.0019227468573733591 -0.042253917272542171 0 -0.0021007674119428773 -0.042349835774183497 0 -0.0019556031288344602 -0.042490528139318418 0 -0.0017409657000651006 -0.042535947776427094 0 -0.0019227468573733591 -0.042253917272542171 0 -0.00013765592017668386 -0.038385415298933516 0 -0.00058949884161650222 -0.041778773256776799 0 -0.00013765592017668386 -0.038385415298933516 0 0.00074413886954985767 -0.036804846288686348 0 -0.00013765592017668386 -0.038385415298933516 0 -3.5054467611456087e-05 -0.038426783125856109 0 7.868187581373862e-07 -0.034958731787978641 0 -9.3044541240594564e-05 -0.035669279794373759 0 4.3786956141166784e-06 -0.038053280985381056 0 7.868187581373862e-07 -0.034958731787978641 0 4.3786956141166784e-06 -0.038053280985381056 0 -1.0998174213231965e-07 -0.038249317277530795 0 7.5380795041112995e-05 -0.036273782647732351 0 -9.3044541240594564e-05 -0.035669279794373759 0 4.3786956141166784e-06 -0.038053280985381056 0 0.00073747590251556025 -0.036426920253965128 0 0.00074413886954985767 -0.036804846288686348 0 0.00018207386782782516 -0.033291137207068722 0 7.868187581373862e-07 -0.034958731787978641 0 -9.3044541240594564e-05 -0.035669279794373759 0 -1.3230217209595842e-06 -0.0408928065145421 0 -0.00013925561896728812 -0.040461975041179356 0 2.2184596767067294e-06 -0.038257436786200735 0 -1.3230217209595842e-06 -0.0408928065145421 0 -0.00013925561896728812 -0.040461975041179356 0 -0.00033562953066565611 -0.0415408329992712 0 0.00023678885803143698 -0.03896073135352502 0 0.00046999485164497595 -0.039300000063435377 0 0.00047517138563354727 -0.038837926156507885 0 -0.00013925561896728812 -0.040461975041179356 0 0.00015001481981991577 -0.038562639306154965 0 0.00067775275234371868 -0.041261435101173395 0 -0.00013925561896728812 -0.040461975041179356 0 0.00015001481981991577 -0.038562639306154965 0 2.2184596767067294e-06 -0.038257436786200735 0 -3.5054467611456087e-05 -0.038426783125856109 0 -0.00058949884161650222 -0.041778773256776799 0 -3.5054467611456087e-05 -0.038426783125856109 0 -1.079519328706272e-06 -0.038255817421744248 0 -0.00013925561896728812 -0.040461975041179356 0 0.00067775275234371868 -0.041261435101173395 0 -0.00022923804965993449 -0.041558216681505847 0 -0.00058949884161650222 -0.041778773256776799 0 -0.00053524775400226848 -0.04492952917502193 0 -0.00022923804965993449 -0.041558216681505847 0 -0.00026841684959880044 -0.04147785885814792 0 -0.00033562953066565611 -0.0415408329992712 0 -0.00013925561896728812 -0.040461975041179356 0 -0.00022923804965993449 -0.041558216681505847 0 -0.00033562953066565611 -0.0415408329992712 0 -0.00053524775400226848 -0.04492952917502193 0 0.00018046472285680357 -0.047575567149360162 0 -0.0017967115569456156 -0.050022576114115057 0 -0.0017917825727859498 -0.050055999230124895 0 -0.0018272016402192306 -0.05004210229697087 0 -0.0019556031288344602 -0.042490528139318418 0 -0.0021007674119428773 -0.042349835774183497 0 -0.0021098604144473821 -0.04263926601955445 0 -0.00058949884161650222 -0.041778773256776799 0 -0.0017881645457335901 -0.04487097844092823 0 -0.0017623278781640434 -0.049988162702266206 0 -0.0017967115569456156 -0.050022576114115057 0 -0.0017761979208216411 -0.050053670591885369 0 -0.0017967115569456156 -0.050022576114115057 0 -0.0017917825727859498 -0.050055999230124895 0 -0.0017761979208216411 -0.050053670591885369 0 -0.0019286030407087266 -0.042683130541727662 0 -0.0021098604144473821 -0.04263926601955445 0 -0.002117677610852184 -0.042928694323582761 0 -0.0017761979208216411 -0.050053670591885369 0 -0.0018004689831014554 -0.050068880791135355 0 -0.001831167341481878 -0.05005948284224878 0 -0.0017881645457335901 -0.04487097844092823 0 -0.0029052958950254669 -0.045688108571986567 0 -0.0017917825727859498 -0.050055999230124895 0 -0.0017761979208216411 -0.050053670591885369 0 -0.0018004689831014554 -0.050068880791135355 0 -0.0018004689831014554 -0.050068880791135355 0 -0.0017822813890565926 -0.050087451349915435 0 -0.0018333447192922917 -0.050057715093730276 0 -0.0018004689831014554 -0.050068880791135355 0 -0.001831167341481878 -0.05005948284224878 0 -0.0018333447192922917 -0.050057715093730276 0 -0.0017917825727859498 -0.050055999230124895 0 -0.0017822813890565926 -0.050087451349915435 0 -0.0018272016402192306 -0.05004210229697087 0 0.00071795561044190378 -0.049475376179168126 0 0.00018046472285680357 -0.047575567149360162 0 -0.0017917825727859498 -0.050055999230124895 0 -0.0018004689831014554 -0.050068880791135355 0 -0.0017822813890565926 -0.050087451349915435 0 0.0031935214410050887 -0.051570285756593288 0 0.0029348369072034028 -0.05162720454817759 0 0.002825342522965475 -0.05130715705823724 0 0.0032054225870703193 -0.051144057971548758 0 0.0031935214410050887 -0.051570285756593288 0 0.002825342522965475 -0.05130715705823724 0 0.0032054225870703193 -0.051144057971548758 0 0.0031935214410050887 -0.051570285756593288 0 0.003582760588201876 -0.051617581039304763 0 0.0031935214410050887 -0.051570285756593288 0 0.0032183149656073808 -0.051460523809106609 0 0.0029348369072034028 -0.05162720454817759 0 0.0032183149656073808 -0.051460523809106609 0 0.0029222103160445696 -0.051758083609194289 0 0.0029348369072034028 -0.05162720454817759 0 0.0032183149656073808 -0.051460523809106609 0 0.0029222103160445696 -0.051758083609194289 0 0.0031086363587906696 -0.051558537512107622 0 0.003335372414971578 -0.050746698899059785 0 0.0028192235200834104 -0.051425385661997461 0 0.0012869733596511668 -0.051365046184966262 0 0.0032183149656073808 -0.051460523809106609 0 0.003335372414971578 -0.050746698899059785 0 0.0031086363587906696 -0.051558537512107622 0 0.0032183149656073808 -0.051460523809106609 0 0.003335372414971578 -0.050746698899059785 0 0.0028192235200834104 -0.051425385661997461 0 0.0032183149656073808 -0.051460523809106609 0 0.0028192235200834104 -0.051425385661997461 0 0.0029414646304712468 -0.051977616729559986 0 0.00047320509597703468 -0.050098563027868345 0 0.00031591480370743371 -0.049938152996740273 0 0.0028192235200834104 -0.051425385661997461 0 0.0029414646304712468 -0.051977616729559986 0 0.0012869733596511668 -0.051365046184966262 0 0.0031935214410050887 -0.051570285756593288 0 0.0032183149656073808 -0.051460523809106609 0 0.0029414646304712468 -0.051977616729559986 0 0.0011215337224901377 -0.050261861053446502 0 0.00047320509597703468 -0.050098563027868345 0 -0.0017822813890565926 -0.050087451349915435 0 -0.001796524081319499 -0.049929006393976204 0 -0.0018333447192922917 -0.050057715093730276 0 0.00071795561044190378 -0.049475376179168126 0 0.00047320509597703468 -0.050098563027868345 0 -0.0028995920296450372 -0.045809202159057393 0 -0.0029052958950254669 -0.045688108571986567 0 -0.001796524081319499 -0.049929006393976204 0 -0.0018873334479775879 -0.050079683250102355 0 -0.0018333447192922917 -0.050057715093730276 0 -0.0018873334479775879 -0.050079683250102355 0 -0.0018457688731483724 -0.050062274742955638 0 -0.0018333447192922917 -0.050057715093730276 0 -0.0029052958950254669 -0.045688108571986567 0 -0.0029016062037180942 -0.045696813193018507 0 0.00047320509597703468 -0.050098563027868345 0 -0.0022893667952817473 -0.049924487620047663 0 -0.0028356673637645363 -0.04462418456953237 0 -0.0029052958950254669 -0.045688108571986567 0 -0.0031622460475799084 -0.050673618967323024 0 -0.0018873334479775879 -0.050079683250102355 0 -0.001890200618969641 -0.050363636035705518 0 -0.001796524081319499 -0.049929006393976204 0 -0.0018873334479775879 -0.050079683250102355 0 -0.0034320820748005155 -0.049675199255219023 0 -0.0031622460475799084 -0.050673618967323024 0 -0.0018873334479775879 -0.050079683250102355 0 -0.0034320820748005155 -0.049675199255219023 0 -0.0031622460475799084 -0.050673618967323024 0 -0.0043253026407733099 -0.050196614912114697 0 -0.0034320820748005155 -0.049675199255219023 0 -0.0053410699117925724 -0.049442312476776183 0 -0.0043253026407733099 -0.050196614912114697 0 -0.0034320820748005155 -0.049675199255219023 0 -0.0036153438563787084 -0.047898353145700283 0 -0.0029394083455115631 -0.049393731372970651 0 -0.0015422296260227679 -0.049205944537978018 0 -0.0029394083455115631 -0.049393731372970651 0 -0.0013985218294075385 -0.05056536548847311 0 -0.0015422296260227679 -0.049205944537978018 0 0.0012075114481973426 -0.050850313340892843 0 -0.0013985218294075385 -0.05056536548847311 0 -0.00010735793990434216 -0.0494253053871372 0 -0.0013985218294075385 -0.05056536548847311 0 -0.0015422296260227679 -0.049205944537978018 0 -0.00010735793990434216 -0.0494253053871372 0 -0.0015422296260227679 -0.049205944537978018 0 -0.00010735793990434216 -0.0494253053871372 0 -0.0013071529348711883 -0.048125816042994471 0 0.00031591480370743371 -0.049938152996740273 0 -6.500794064861733e-05 -0.049527206952330594 0 0.003335372414971578 -0.050746698899059785 0 0.0012869733596511668 -0.051365046184966262 0 0.001568936665369761 -0.047191105346048486 0 0.0012869733596511668 -0.051365046184966262 0 0.001568936665369761 -0.047191105346048486 0 -0.0013071529348711883 -0.048125816042994471 0 -0.0036153438563787084 -0.047898353145700283 0 -0.0015422296260227679 -0.049205944537978018 0 -0.0013071529348711883 -0.048125816042994471 0 -0.0036153438563787084 -0.047898353145700283 0 -0.0013071529348711883 -0.048125816042994471 0 -0.0027990453367129019 -0.045364569593101346 0 -0.0013657188165890329 -0.042745161837125102 0 -0.0027990453367129019 -0.045364569593101346 0 -0.00064647413707289716 -0.045321351204319515 0 -0.0013071529348711883 -0.048125816042994471 0 -0.0027990453367129019 -0.045364569593101346 0 -0.00064647413707289716 -0.045321351204319515 0 0.001568936665369761 -0.047191105346048486 0 -0.0013071529348711883 -0.048125816042994471 0 -0.00064647413707289716 -0.045321351204319515 0 0.0022737551132818762 -0.042535299767965468 0 0.001568936665369761 -0.047191105346048486 0 -0.00064647413707289716 -0.045321351204319515 0 0.0022737551132818762 -0.042535299767965468 0 0.001568936665369761 -0.047191105346048486 0 0.0049028768355616021 -0.046221038572992555 0 -0.00015018534439747476 -0.047337316203032415 0 0.0012786344673718941 -0.048479651995365539 0 0.0034313531427153962 -0.052548708384159343 0 0.0027661571780462492 -0.052312971668776173 0 0.002755221282449755 -0.052983426489309572 0 0.0031188828388031193 -0.053485724157625522 0 0.0034313531427153962 -0.052548708384159343 0 0.002755221282449755 -0.052983426489309572 0 0.0029222103160445696 -0.051758083609194289 0 0.0027661571780462492 -0.052312971668776173 0 0.0031086363587906696 -0.051558537512107622 0 0.0034313531427153962 -0.052548708384159343 0 0.0027661571780462492 -0.052312971668776173 0 0.0031086363587906696 -0.051558537512107622 0 0.003335372414971578 -0.050746698899059785 0 0.001568936665369761 -0.047191105346048486 0 0.0049028768355616021 -0.046221038572992555 0 0.0015408763247607819 -0.049191829678084428 0 0.0012786344673718941 -0.048479651995365539 0 0.003335372414971578 -0.050746698899059785 0 0.0034313531427153962 -0.052548708384159343 0 0.0031086363587906696 -0.051558537512107622 0 0.0018518210718494867 -0.052846662609490842 0 0.0023551988850477757 -0.052375342240727728 0 0.0018298297507985182 -0.052373252049479832 0 0.0029222103160445696 -0.051758083609194289 0 0.0027661571780462492 -0.052312971668776173 0 0.0023551988850477757 -0.052375342240727728 0 0.0027661571780462492 -0.052312971668776173 0 0.0023551988850477757 -0.052375342240727728 0 0.0022339602749189128 -0.052991470847486975 0 0.0027661571780462492 -0.052312971668776173 0 0.002755221282449755 -0.052983426489309572 0 0.0022339602749189128 -0.052991470847486975 0 0.0018518210718494867 -0.052846662609490842 0 0.0023551988850477757 -0.052375342240727728 0 0.0022339602749189128 -0.052991470847486975 0 0.0018518210718494867 -0.052846662609490842 0 0.0022339602749189128 -0.052991470847486975 0 0.0016238693325541652 -0.053256130563436303 0 0.0018518210718494867 -0.052846662609490842 0 0.0016238693325541652 -0.053256130563436303 0 0.0013157802465668669 -0.053183165207574087 0 0.0010327058756801357 -0.054567939403554248 0 0.0013157802465668669 -0.053183165207574087 0 0.00047472417148242726 -0.054168821988066156 0 0.0013543243683608727 -0.053463893090898634 0 0.0016238693325541652 -0.053256130563436303 0 0.0013157802465668669 -0.053183165207574087 0 0.0006384617371233952 -0.05377764716974074 0 0.0008360030635339487 -0.053497895161323479 0 0.0013157802465668669 -0.053183165207574087 0 0.001208692075132804 -0.052614437592736991 0 0.00071102003103400569 -0.053178276599677804 0 0.0013157802465668669 -0.053183165207574087 0 0.00071102003103400569 -0.053178276599677804 0 0.00047472417148242726 -0.054168821988066156 0 0.0013157802465668669 -0.053183165207574087 0 0.0018298297507985182 -0.052373252049479832 0 0.001208692075132804 -0.052614437592736991 0 0.0018518210718494867 -0.052846662609490842 0 0.0013157802465668669 -0.053183165207574087 0 0.0018298297507985182 -0.052373252049479832 0 0.0018298297507985182 -0.052373252049479832 0 0.001208692075132804 -0.052614437592736991 0 0.0013043588573761567 -0.051976737209297991 0 0.001208692075132804 -0.052614437592736991 0 0.00075926449186594213 -0.052323629974937641 0 0.0013043588573761567 -0.051976737209297991 0 0.001208692075132804 -0.052614437592736991 0 0.00075926449186594213 -0.052323629974937641 0 0.00071102003103400569 -0.053178276599677804 0 0.00066603022559219018 -0.051736715213066858 0 0.0013043588573761567 -0.051976737209297991 0 0.0010285231804578205 -0.051188637778057704 0 0.00075926449186594213 -0.052323629974937641 0 0.00066603022559219018 -0.051736715213066858 0 0.0013043588573761567 -0.051976737209297991 0 0.00075926449186594213 -0.052323629974937641 0 0.00066603022559219018 -0.051736715213066858 0 0.00042680982046186978 -0.052036514920440251 0 0.0018298297507985182 -0.052373252049479832 0 0.0013043588573761567 -0.051976737209297991 0 0.0020163092263655548 -0.051508243065248059 0 0.0013043588573761567 -0.051976737209297991 0 0.0020163092263655548 -0.051508243065248059 0 0.0010285231804578205 -0.051188637778057704 0 0.0020163092263655548 -0.051508243065248059 0 0.0025471501741522731 -0.051796919934040515 0 0.002825342522965475 -0.05130715705823724 0 0.0018298297507985182 -0.052373252049479832 0 0.0020163092263655548 -0.051508243065248059 0 0.0025471501741522731 -0.051796919934040515 0 0.0023551988850477757 -0.052375342240727728 0 0.0018298297507985182 -0.052373252049479832 0 0.0025471501741522731 -0.051796919934040515 0 0.0029222103160445696 -0.051758083609194289 0 0.0023551988850477757 -0.052375342240727728 0 0.0025471501741522731 -0.051796919934040515 0 0.0029222103160445696 -0.051758083609194289 0 0.0025471501741522731 -0.051796919934040515 0 0.0029348369072034028 -0.05162720454817759 0 0.0025471501741522731 -0.051796919934040515 0 0.0029348369072034028 -0.05162720454817759 0 0.002825342522965475 -0.05130715705823724 0 0.0032054225870703193 -0.051144057971548758 0 0.002825342522965475 -0.05130715705823724 0 0.0028703070001171883 -0.050670006480168478 0 0.002825342522965475 -0.05130715705823724 0 0.0024559568039199389 -0.050815634020339541 0 0.0028703070001171883 -0.050670006480168478 0 0.0020163092263655548 -0.051508243065248059 0 0.002825342522965475 -0.05130715705823724 0 0.0024559568039199389 -0.050815634020339541 0 0.0020163092263655548 -0.051508243065248059 0 0.0024559568039199389 -0.050815634020339541 0 0.001296157503963195 -0.050181682754906434 0 0.0024559568039199389 -0.050815634020339541 0 0.0025514551590750784 -0.048432183782317548 0 0.001296157503963195 -0.050181682754906434 0 0.0024559568039199389 -0.050815634020339541 0 0.0038847785258127906 -0.05008636055482673 0 0.0025514551590750784 -0.048432183782317548 0 0.00018046472285680357 -0.047575567149360162 0 0.0001837689719772691 -0.046201131458265612 0 0.00076266307296224227 -0.047895433063715527 0 0.00018046472285680357 -0.047575567149360162 0 -0.00026841684959880044 -0.04147785885814792 0 -0.00033562953066565611 -0.0415408329992712 0 0.00014292030343284774 -0.042115554930793768 0 0.00014292030343284774 -0.042115554930793768 0 -6.0188938631671636e-07 -0.043419166156914643 0 1.6262683813219303e-06 -0.045940503182382665 0 -0.00033562953066565611 -0.0415408329992712 0 0.00014292030343284774 -0.042115554930793768 0 -6.0188938631671636e-07 -0.043419166156914643 0 -1.3230217209595842e-06 -0.0408928065145421 0 -0.00033562953066565611 -0.0415408329992712 0 -6.0188938631671636e-07 -0.043419166156914643 0 -0.00019025729970900684 -0.047813335087326922 0 3.3629009730335485e-06 -0.045951305235214485 0 8.626057633905068e-05 -0.048388594349363927 0 -0.00019025729970900684 -0.047813335087326922 0 3.3629009730335485e-06 -0.045951305235214485 0 -2.412742709992809e-06 -0.048627235919837253 0 3.3629009730335485e-06 -0.045951305235214485 0 0.00084931295360202597 -0.04862812612173497 0 8.626057633905068e-05 -0.048388594349363927 0 0.0025514551590750784 -0.048432183782317548 0 3.3629009730335485e-06 -0.045951305235214485 0 0.00084931295360202597 -0.04862812612173497 0 0.0001837689719772691 -0.046201131458265612 0 -5.3844152160937045e-08 -0.045943943321157615 0 0.0025514551590750784 -0.048432183782317548 0 0.00084931295360202597 -0.04862812612173497 0 0.001296157503963195 -0.050181682754906434 0 0.00084931295360202597 -0.04862812612173497 0 0.00032975237323443408 -0.049178973974142261 0 8.626057633905068e-05 -0.048388594349363927 0 -0.00019025729970900684 -0.047813335087326922 0 8.626057633905068e-05 -0.048388594349363927 0 -0.00044607186546099495 -0.048225410035233882 0 0.00032975237323443408 -0.049178973974142261 0 8.626057633905068e-05 -0.048388594349363927 0 -0.00044607186546099495 -0.048225410035233882 0 0.00032975237323443408 -0.049178973974142261 0 9.5005913364686458e-05 -0.050322629807756071 0 0.001296157503963195 -0.050181682754906434 0 0.00032975237323443408 -0.049178973974142261 0 9.5005913364686458e-05 -0.050322629807756071 0 -0.00044607186546099495 -0.048225410035233882 0 0.00084931295360202597 -0.04862812612173497 0 0.00032975237323443408 -0.049178973974142261 0 0.001296157503963195 -0.050181682754906434 0 0.0020163092263655548 -0.051508243065248059 0 0.001296157503963195 -0.050181682754906434 0 0.0010285231804578205 -0.051188637778057704 0 9.5005913364686458e-05 -0.050322629807756071 0 0.001296157503963195 -0.050181682754906434 0 0.0010285231804578205 -0.051188637778057704 0 9.5005913364686458e-05 -0.050322629807756071 0 0.0010285231804578205 -0.051188637778057704 0 0.00037145671571935741 -0.051177823299973682 0 0.00066603022559219018 -0.051736715213066858 0 0.0010285231804578205 -0.051188637778057704 0 0.00037145671571935741 -0.051177823299973682 0 0.00037145671571935741 -0.051177823299973682 0 0.00014645472155988095 -0.051662223283349018 0 -0.00031336526736144409 -0.051179946745973155 0 0.00066603022559219018 -0.051736715213066858 0 0.00037145671571935741 -0.051177823299973682 0 0.00014645472155988095 -0.051662223283349018 0 0.00039418434995382867 -0.052030682449427497 0 0.00024454444496908124 -0.052180819055125907 0 0.00029352299546230211 -0.051984803702221735 0 0.00014645472155988095 -0.051662223283349018 0 0.00033735520642828659 -0.051931831758303564 0 0.00029352299546230211 -0.051984803702221735 0 0.00033735520642828659 -0.051931831758303564 0 0.00039418434995382867 -0.052030682449427497 0 0.00029352299546230211 -0.051984803702221735 0 -0.00011040025698221898 -0.051765821040323519 0 -0.00012835907820024471 -0.051756301051226604 0 0.00033735520642828659 -0.051931831758303564 0 0.00043241891138255054 -0.052037984624906178 0 0.00039418434995382867 -0.052030682449427497 0 0.00014645472155988095 -0.051662223283349018 0 0.00033735520642828659 -0.051931831758303564 0 0.00043241891138255054 -0.052037984624906178 0 9.5005913364686458e-05 -0.050322629807756071 0 0.00037145671571935741 -0.051177823299973682 0 -0.00031336526736144409 -0.051179946745973155 0 0.00039418434995382867 -0.052030682449427497 0 8.5841337420261592e-05 -0.052466235230908924 0 0.00012001967016033921 -0.051927540412312581 0 -0.00012835907820024471 -0.051756301051226604 0 -0.00019842862940819687 -0.052454913252982308 0 0.00039418434995382867 -0.052030682449427497 0 8.5841337420261592e-05 -0.052466235230908924 0 0.00028017207318667262 -0.053542566666880093 0 0.00043241891138255054 -0.052037984624906178 0 0.00039418434995382867 -0.052030682449427497 0 0.00012001967016033921 -0.051927540412312581 0 0.00013208862526853867 -0.051879229444084178 0 -8.5010245933299632e-05 -0.051708628004887416 0 0.00021538647282585193 -0.051685847002691611 0 -0.00012835907820024471 -0.051756301051226604 0 -6.0585400164268817e-05 -0.050694591242261493 0 -1.5207919751821626e-06 -0.049402388543779707 0 -2.7121417326680334e-05 -0.049037482963650195 0 9.5005913364686458e-05 -0.050322629807756071 0 -0.00031336526736144409 -0.051179946745973155 0 -0.00031937062866777894 -0.049632226479157208 0 -0.00031937062866777894 -0.049632226479157208 0 -0.00010350140057585616 -0.04950642323418919 0 -1.7448941673646169e-06 -0.049665036668633991 0 9.5005913364686458e-05 -0.050322629807756071 0 -0.00031937062866777894 -0.049632226479157208 0 -0.00010350140057585616 -0.04950642323418919 0 0.00021538647282585193 -0.051685847002691611 0 -0.00030387404602223771 -0.051590605128271426 0 1.1343830226400026e-06 -0.049677187149337512 0 -8.5010245933299632e-05 -0.051708628004887416 0 0.00021538647282585193 -0.051685847002691611 0 -0.00030387404602223771 -0.051590605128271426 0 -0.00030387404602223771 -0.051590605128271426 0 -1.1336772838863661e-06 -0.051527855337215232 0 1.1343830226400026e-06 -0.049677187149337512 0 -2.7121417326680334e-05 -0.049037482963650195 0 -1.4669996818838762e-07 -0.048633848238253903 0 -0.00010350140057585616 -0.04950642323418919 0 -1.7448941673646169e-06 -0.049665036668633991 0 1.6197695041641644e-06 -0.048641156635954953 0 -6.0585400164268817e-05 -0.050694591242261493 0 -1.5453960373850581e-07 -0.049673735540820357 0 -0.00019025729970900684 -0.047813335087326922 0 -0.00044607186546099495 -0.048225410035233882 0 -2.412742709992809e-06 -0.048627235919837253 0 1.4030731465185119e-05 -0.054611532551928764 0 1.4421751832846808e-06 -0.053388361617789801 0 0.00076176435721493196 -0.055871910698177915 0 1.4030731465185119e-05 -0.054611532551928764 0 -3.1717354302085947e-07 -0.054997845550190029 0 -8.1257832005046822e-07 -0.054999976781473794 0 -1.2158932161661184e-07 -0.053384360919555528 0 -0.00013286211115214874 -0.053612876978736047 0 1.4030731465185119e-05 -0.054611532551928764 0 -3.1717354302085947e-07 -0.054997845550190029 0 1.4421751832846808e-06 -0.053388361617789801 0 1.1273247112996736e-06 -0.053380633877167495 0 -0.00020823039749091876 -0.052102178883546284 0 7.3925998002676141e-05 -0.051340290955165929 0 -0.00030387404602223771 -0.051590605128271426 0 -1.1336772838863661e-06 -0.051527855337215232 0 -0.00020823039749091876 -0.052102178883546284 0 -1.1336772838863661e-06 -0.051527855337215232 0 1.1273247112996736e-06 -0.053380633877167495 0 -0.00020823039749091876 -0.052102178883546284 0 -8.5010245933299632e-05 -0.051708628004887416 0 -0.00030387404602223771 -0.051590605128271426 0 7.3925998002676141e-05 -0.051340290955165929 0 -0.00030387404602223771 -0.051590605128271426 0 -0.00020823039749091876 -0.052102178883546284 0 7.3925998002676141e-05 -0.051340290955165929 0 -9.8975917507285778e-06 -0.055003452346246796 0 2.8637049782771588e-08 -0.054999972379399527 0 -6.6877082175358429e-08 -0.055000073519956019 0 1.4030731465185119e-05 -0.054611532551928764 0 0.00076176435721493196 -0.055871910698177915 0 -8.1257832005046822e-07 -0.054999976781473794 0 -0.00013286211115214874 -0.053612876978736047 0 8.7956025975391444e-07 -0.054997611387260475 0 -9.8975917507285778e-06 -0.055003452346246796 0 -6.6877082175358429e-08 -0.055000073519956019 0 -6.9310503482325139e-05 -0.055040421374770568 0 -0.00019842862940819687 -0.052454913252982308 0 -0.00013286211115214874 -0.053612876978736047 0 -0.00013286211115214874 -0.053612876978736047 0 -0.00021961843369659571 -0.053798804061889638 0 0.00012001967016033921 -0.051927540412312581 0 -0.00068849657207951324 -0.05133113928767475 0 -0.00066635012793158103 -0.052561454703457161 0 8.5841337420261592e-05 -0.052466235230908924 0 -0.00066635012793158103 -0.052561454703457161 0 0.00028017207318667262 -0.053542566666880093 0 8.5841337420261592e-05 -0.052466235230908924 0 0.00012001967016033921 -0.051927540412312581 0 -0.00066635012793158103 -0.052561454703457161 0 -6.6877082175358429e-08 -0.055000073519956019 0 -6.9310503482325139e-05 -0.055040421374770568 0 6.1104191769681535e-08 -0.054999958130919055 0 -6.9310503482325139e-05 -0.055040421374770568 0 -6.1344529705887173e-05 -0.05489449491322454 0 -0.00018292856376272474 -0.054628523867725612 0 6.1104191769681535e-08 -0.054999958130919055 0 -6.1344529705887173e-05 -0.05489449491322454 0 -8.2645584625881023e-05 -0.054873360254850283 0 -6.9310503482325139e-05 -0.055040421374770568 0 6.1104191769681535e-08 -0.054999958130919055 0 -6.1344529705887173e-05 -0.05489449491322454 0 6.1104191769681535e-08 -0.054999958130919055 0 -2.5099181271853509e-07 -0.054999725451180037 0 -8.2645584625881023e-05 -0.054873360254850283 0 -2.5099181271853509e-07 -0.054999725451180037 0 -8.2645584625881023e-05 -0.054873360254850283 0 -0.00020540008772445477 -0.054956949589416222 0 -6.1344529705887173e-05 -0.05489449491322454 0 -8.2645584625881023e-05 -0.054873360254850283 0 -0.00018292856376272474 -0.054628523867725612 0 -8.2645584625881023e-05 -0.054873360254850283 0 -0.00020540008772445477 -0.054956949589416222 0 -0.00018292856376272474 -0.054628523867725612 0 -6.5569043744412805e-05 -0.053379720480662918 0 -0.00045126322208549624 -0.053583624110213231 0 -7.7855185727175493e-05 -0.052378123590228726 0 5.9521929847311034e-05 -0.054212886895782776 0 0.00022713018428077383 -0.05347965934408036 0 -0.00020540008772445477 -0.054956949589416222 0 -0.00018292856376272474 -0.054628523867725612 0 0.00028017207318667262 -0.053542566666880093 0 -6.5569043744412805e-05 -0.053379720480662918 0 -0.00045126322208549624 -0.053583624110213231 0 -0.00020307390849402579 -0.053817341243298969 0 -0.00021961843369659571 -0.053798804061889638 0 -0.00021912357723791377 -0.054103955826759226 0 -0.00066635012793158103 -0.052561454703457161 0 -0.00018292856376272474 -0.054628523867725612 0 0.00028017207318667262 -0.053542566666880093 0 0.00036381634457465542 -0.053106209748689022 0 0.00022713018428077383 -0.05347965934408036 0 0.00039418434995382867 -0.052030682449427497 0 0.00024454444496908124 -0.052180819055125907 0 -7.7855185727175493e-05 -0.052378123590228726 0 0.00024454444496908124 -0.052180819055125907 0 -7.7855185727175493e-05 -0.052378123590228726 0 0.00015315524383682704 -0.052819674799277454 0 0.00014645472155988095 -0.051662223283349018 0 0.00042680982046186978 -0.052036514920440251 0 0.00029352299546230211 -0.051984803702221735 0 0.00066603022559219018 -0.051736715213066858 0 0.00014645472155988095 -0.051662223283349018 0 0.00042680982046186978 -0.052036514920440251 0 0.00024454444496908124 -0.052180819055125907 0 0.00042680982046186978 -0.052036514920440251 0 0.00029352299546230211 -0.051984803702221735 0 0.00024454444496908124 -0.052180819055125907 0 0.00042680982046186978 -0.052036514920440251 0 0.00041482144282529017 -0.052685635012181237 0 0.00075926449186594213 -0.052323629974937641 0 0.00042680982046186978 -0.052036514920440251 0 0.00041482144282529017 -0.052685635012181237 0 0.00041482144282529017 -0.052685635012181237 0 0.00022376997806346861 -0.053406040943215723 0 0.00071102003103400569 -0.053178276599677804 0 0.00075926449186594213 -0.052323629974937641 0 0.00041482144282529017 -0.052685635012181237 0 0.00071102003103400569 -0.053178276599677804 0 -6.5569043744412805e-05 -0.053379720480662918 0 -7.7855185727175493e-05 -0.052378123590228726 0 0.00015315524383682704 -0.052819674799277454 0 0.00024454444496908124 -0.052180819055125907 0 0.00041482144282529017 -0.052685635012181237 0 0.00015315524383682704 -0.052819674799277454 0 0.00041482144282529017 -0.052685635012181237 0 0.00015315524383682704 -0.052819674799277454 0 0.00022376997806346861 -0.053406040943215723 0 -6.5569043744412805e-05 -0.053379720480662918 0 0.00015315524383682704 -0.052819674799277454 0 0.00022376997806346861 -0.053406040943215723 0 -6.5569043744412805e-05 -0.053379720480662918 0 0.00022376997806346861 -0.053406040943215723 0 -8.1831162722333569e-05 -0.054056629945141217 0 0.00022376997806346861 -0.053406040943215723 0 0.0002535752621540099 -0.053903459652180609 0 -8.1831162722333569e-05 -0.054056629945141217 0 0.00022376997806346861 -0.053406040943215723 0 0.00071102003103400569 -0.053178276599677804 0 0.0002535752621540099 -0.053903459652180609 0 0.00071102003103400569 -0.053178276599677804 0 0.00047472417148242726 -0.054168821988066156 0 0.0002535752621540099 -0.053903459652180609 0 0.00047472417148242726 -0.054168821988066156 0 0.0002535752621540099 -0.053903459652180609 0 7.4201046961615533e-06 -0.054430913503887499 0 0.0002535752621540099 -0.053903459652180609 0 7.4201046961615533e-06 -0.054430913503887499 0 -8.1831162722333569e-05 -0.054056629945141217 0 7.4201046961615533e-06 -0.054430913503887499 0 -0.00015035015646814033 -0.054660512882804657 0 -8.1831162722333569e-05 -0.054056629945141217 0 -0.00015035015646814033 -0.054660512882804657 0 -8.1831162722333569e-05 -0.054056629945141217 0 -0.00019948952709455858 -0.054275760907200217 0 6.6600654433263855e-08 -0.055000087865255252 0 -0.00015035015646814033 -0.054660512882804657 0 -1.1477636792531554e-06 -0.054998061894372521 0 -0.00015035015646814033 -0.054660512882804657 0 -1.1477636792531554e-06 -0.054998061894372521 0 -0.00019948952709455858 -0.054275760907200217 0 5.9521929847311034e-05 -0.054212886895782776 0 -2.1733335959512679e-07 -0.054998715598227818 0 -0.00045126322208549624 -0.053583624110213231 0 -1.1477636792531554e-06 -0.054998061894372521 0 -0.00019948952709455858 -0.054275760907200217 0 -2.5099181271853509e-07 -0.054999725451180037 0 -0.00020540008772445477 -0.054956949589416222 0 8.087519069391082e-08 -0.054999963657252411 0 -0.00045126322208549624 -0.053583624110213231 0 -0.00020307390849402579 -0.053817341243298969 0 -0.00019948952709455858 -0.054275760907200217 0 -6.5569043744412805e-05 -0.053379720480662918 0 -0.00020307390849402579 -0.053817341243298969 0 -8.1831162722333569e-05 -0.054056629945141217 0 -0.00020307390849402579 -0.053817341243298969 0 -8.1831162722333569e-05 -0.054056629945141217 0 -0.00019948952709455858 -0.054275760907200217 0 0.0078248066447700344 -0.023395986581773481 0 0.0072062697721558067 -0.022325576552526288 0 0.011256263791037186 -0.033176396878682346 0 0.011225671966150539 -0.033398990320143707 0 0.011703444325387863 -0.034842882055562671 0 0.011225671966150539 -0.033398990320143707 0 0.011703444325387863 -0.034842882055562671 0 0.011029480522820316 -0.03399565930899321 0 0.0063261909276194532 -0.012148192983302141 0 0.0030954325554191997 -0.011128155390463315 0 0.004846272190950322 -0.0086622800606728882 0 0.0030954325554191997 -0.011128155390463315 0 0.0031360539511347211 -0.014419881283284893 0 0.000102564522106372 -0.011606410681437045 0 0.004846272190950322 -0.0086622800606728882 0 0.0015413888432925064 -0.0084855963922857661 0 0.0026156776424761902 -0.0066660183505898784 0 0.0030954325554191997 -0.011128155390463315 0 0.0013053564210427238 -0.01012659419704866 0 0.0015413888432925064 -0.0084855963922857661 0 0.0030954325554191997 -0.011128155390463315 0 0.004846272190950322 -0.0086622800606728882 0 0.0015413888432925064 -0.0084855963922857661 0 0.011703444325387863 -0.034842882055562671 0 0.010793651894769468 -0.034366134449424358 0 0.011029480522820316 -0.03399565930899321 0 0.011703444325387863 -0.034842882055562671 0 0.010793651894769468 -0.034366134449424358 0 0.01104010686569569 -0.035271808980733448 0 0.010793651894769468 -0.034366134449424358 0 0.0095782101449663048 -0.03399078725639175 0 0.01104010686569569 -0.035271808980733448 0 0.0099672310347061147 -0.033457474200734111 0 0.010918199161213513 -0.033087387149515139 0 0.0094021454081513172 -0.034884924439256997 0 0.0089985869256570417 -0.037165183432680923 0 0.011147965226514372 -0.037203072890769712 0 0.0094021454081513172 -0.034884924439256997 0 0.0089985869256570417 -0.037165183432680923 0 0.0073966501722625621 -0.035857541565268811 0 0.0094021454081513172 -0.034884924439256997 0 0.0073966501722625621 -0.035857541565268811 0 0.0074339464990733828 -0.032212840914350657 0 0.0099672310347061147 -0.033457474200734111 0 0.0089968528278133071 -0.032741185364655513 0 0.0095782101449663048 -0.03399078725639175 0 0.010371429671832511 -0.033008187730476958 0 0.0094687712879233336 -0.032201219260908756 0 0.011225671966150539 -0.033398990320143707 0 0.011029480522820316 -0.03399565930899321 0 0.010799276117338524 -0.033551184308817879 0 0.010793651894769468 -0.034366134449424358 0 0.010524404023756716 -0.033798434156567789 0 0.011029480522820316 -0.03399565930899321 0 0.010524404023756716 -0.033798434156567789 0 0.011029480522820316 -0.03399565930899321 0 0.010799276117338524 -0.033551184308817879 0 0.010793651894769468 -0.034366134449424358 0 0.0095782101449663048 -0.03399078725639175 0 0.010524404023756716 -0.033798434156567789 0 0.0095782101449663048 -0.03399078725639175 0 0.010524404023756716 -0.033798434156567789 0 0.010371429671832511 -0.033008187730476958 0 0.010524404023756716 -0.033798434156567789 0 0.010371429671832511 -0.033008187730476958 0 0.010799276117338524 -0.033551184308817879 0 0.011225671966150539 -0.033398990320143707 0 0.010371429671832511 -0.033008187730476958 0 0.010799276117338524 -0.033551184308817879 0 0.010371429671832511 -0.033008187730476958 0 0.0094687712879233336 -0.032201219260908756 0 0.010722636520385865 -0.030832486253017318 0 0.011225671966150539 -0.033398990320143707 0 0.010371429671832511 -0.033008187730476958 0 0.010722636520385865 -0.030832486253017318 0 0.011256263791037186 -0.033176396878682346 0 0.011225671966150539 -0.033398990320143707 0 0.010598002962834656 -0.031280366477809428 0 0.0099945998836123567 -0.030294404197854487 0 0.008275071744288964 -0.025685528077035964 0 0.0078248066447700344 -0.023395986581773481 0 0.008275071744288964 -0.025685528077035964 0 0.0095782101449663048 -0.03399078725639175 0 0.0094687712879233336 -0.032201219260908756 0 0.0074339464990733828 -0.032212840914350657 0 0.0094687712879233336 -0.032201219260908756 0 0.008889060637447101 -0.03053566967782247 0 0.0074339464990733828 -0.032212840914350657 0 0.0094687712879233336 -0.032201219260908756 0 0.008889060637447101 -0.03053566967782247 0 0.010722636520385865 -0.030832486253017318 0 0.008889060637447101 -0.03053566967782247 0 0.0070199414339398502 -0.030178770436604944 0 0.0081735185996322981 -0.028570538616927672 0 0.008889060637447101 -0.03053566967782247 0 0.010722636520385865 -0.030832486253017318 0 0.010297928549994324 -0.028856176275262806 0 0.008275071744288964 -0.025685528077035964 0 0.0063614005367497312 -0.022636872939803983 0 0.0078012399449228784 -0.015694944431016919 0 0.0062315512504338474 -0.017234788318826605 0 0.0086478923036983294 -0.018065979656208545 0 0.0062315512504338474 -0.017234788318826605 0 0.0057031282422672419 -0.014642702316567099 0 0.0031360539511347211 -0.014419881283284893 0 0.0078012399449228784 -0.015694944431016919 0 0.0062315512504338474 -0.017234788318826605 0 0.0057031282422672419 -0.014642702316567099 0 0.004131647140332608 -0.018299950168430567 0 0.0032015217378860272 -0.01571684835953072 0 0.0063261909276194532 -0.012148192983302141 0 0.0057031282422672419 -0.014642702316567099 0 0.0031360539511347211 -0.014419881283284893 0 0.0063261909276194532 -0.012148192983302141 0 0.0078012399449228784 -0.015694944431016919 0 0.0057031282422672419 -0.014642702316567099 0 0.0063261909276194532 -0.012148192983302141 0 0.0030954325554191997 -0.011128155390463315 0 0.0031360539511347211 -0.014419881283284893 0 0.0018598713445779609 -0.019926101092985541 0 0.0024842301147853245 -0.020326002976396203 0 0.0024801024171710582 -0.019840689123118021 0 0.0024842301147853245 -0.020326002976396203 0 0.0028953671721148213 -0.020044551511420539 0 0.0024801024171710582 -0.019840689123118021 0 0.0029781617036987924 -0.019518616387360868 0 0.0030916462428814072 -0.019687547629921243 0 0.0030330124038954512 -0.018061224656214236 0 -0.00031221614308918718 -0.0002697513722857937 0 -0.00040885171694968918 -0.00050697162948290097 0 -0.0002649215020620433 -0.00060768252600731931 0 -0.00040885171694968918 -0.00050697162948290097 0 -0.00035448221073291244 -0.00027678196645116078 0 -0.00059371335893477182 -0.00071679077629196585 0 -0.00035448221073291244 -0.00027678196645116078 0 0.0008101166607176974 0.00050969629756734633 0 0.00055052040263803487 0.0024724737339679513 0 -0.00035448221073291244 -0.00027678196645116078 0 0.00039175018463392177 0.0026583636624756611 0 0.00055052040263803487 0.0024724737339679513 0 -0.00027143469648774013 0.0005451153652233522 0 -0.00014809394146831308 0.0009123697973420703 0 -0.00040885171694968918 -0.00050697162948290097 0 -0.0003557940848108776 -0.00065690796234444012 0 -0.0002649215020620433 -0.00060768252600731931 0 -0.00040885171694968918 -0.00050697162948290097 0 -0.00044970153766691668 -0.0006546019068619835 0 -0.0003557940848108776 -0.00065690796234444012 0 -0.00031221614308918718 -0.0002697513722857937 0 -0.00040885171694968918 -0.00050697162948290097 0 -0.00035448221073291244 -0.00027678196645116078 0 -0.00035448221073291244 -0.00027678196645116078 0 0.0008101166607176974 0.00050969629756734633 0 0.00046755482817593925 -0.0012105447409594191 0 -0.00035448221073291244 -0.00027678196645116078 0 -0.00043711912138623909 -0.00084724280591444423 0 0.00046755482817593925 -0.0012105447409594191 0 0.0024842301147853245 -0.020326002976396203 0 0.0029626915814702629 -0.020672297347857489 0 0.0031022710402439659 -0.020881963767097351 0 0.0030916462428814072 -0.019687547629921243 0 0.0029626915814702629 -0.020672297347857489 0 0.0031022710402439659 -0.020881963767097351 0 0.0022199442064089535 -0.017523518905307369 0 0.0024106140069271018 -0.019113655685093531 0 0.0032015217378860272 -0.01571684835953072 0 0.00058913967684734642 -0.010334071520035723 0 0.0024842301147853245 -0.020326002976396203 0 0.0028953671721148213 -0.020044551511420539 0 0.0029626915814702629 -0.020672297347857489 0 0.0011058851936030034 -0.010256830401529977 0 0.00058913967684734642 -0.010334071520035723 0 -0.00031221614308918718 -0.0002697513722857937 0 -0.00043711912138623909 -0.00084724280591444423 0 -0.00077852755351797613 -0.0012064982068646381 0 -0.00031221614308918718 -0.0002697513722857937 0 -0.00035448221073291244 -0.00027678196645116078 0 -0.00043711912138623909 -0.00084724280591444423 0 0.0029781617036987924 -0.019518616387360868 0 0.0030916462428814072 -0.019687547629921243 0 0.0029626915814702629 -0.020672297347857489 0 0.00078966137296125692 0.0025892612363403837 0 0.00070614973670105128 0.0026888715620610915 0 0.00096035032190838266 0.0027570716727654014 0 0.0016715343369497356 0.0014980845412342471 0 0.0011846551328705203 0.0020027244528959738 0 0.0008101166607176974 0.00050969629756734633 0 0.0022646161244820832 2.9040887927622592e-05 0 0.00055052040263803487 0.0024724737339679513 0 0.00078966137296125692 0.0025892612363403837 0 0.00070614973670105128 0.0026888715620610915 0 0.00055052040263803487 0.0024724737339679513 0 0.0008101166607176974 0.00050969629756734633 0 0.0022646161244820832 2.9040887927622592e-05 0 0.0017539099982077199 -0.0011991574880840219 0 0.0008101166607176974 0.00050969629756734633 0 0.0017539099982077199 -0.0011991574880840219 0 0.00046755482817593925 -0.0012105447409594191 0 0.0022646161244820832 2.9040887927622592e-05 0 0.0017539099982077199 -0.0011991574880840219 0 0.0032961053768776638 -0.0016979675429274769 0 0.0016715343369497356 0.0014980845412342471 0 0.0025081874451319854 0.00082140995928117993 0 0.0017539099982077199 -0.0011991574880840219 0 0.0013367266034064016 -0.0024367131130121323 0 0.0032961053768776638 -0.0016979675429274769 0 0.0017539099982077199 -0.0011991574880840219 0 0.0013367266034064016 -0.0024367131130121323 0 0.00046755482817593925 -0.0012105447409594191 0 0.0013367266034064016 -0.0024367131130121323 0 0.00046755482817593925 -0.0012105447409594191 0 0.00023620541289671854 -0.0021455807200103463 0 0.0013367266034064016 -0.0024367131130121323 0 0.00031064891689237876 -0.0031741685668900815 0 0.0010064267045856821 -0.0038318771844734279 0 0.0013367266034064016 -0.0024367131130121323 0 0.0023174671372023828 -0.0034627645701746077 0 0.0010064267045856821 -0.0038318771844734279 0 0.0013367266034064016 -0.0024367131130121323 0 0.00023620541289671854 -0.0021455807200103463 0 0.00031064891689237876 -0.0031741685668900815 0 0.0013367266034064016 -0.0024367131130121323 0 0.0023174671372023828 -0.0034627645701746077 0 0.0032961053768776638 -0.0016979675429274769 0 0.0030954325554191997 -0.011128155390463315 0 0.0013053564210427238 -0.01012659419704866 0 0.000102564522106372 -0.011606410681437045 0 -0.00085933098070084285 -0.001247241218450024 0 -0.00068061776923895748 -0.0014079429144782992 0 -0.00063578455654341056 -0.0032118958519959922 0 -0.00043711912138623909 -0.00084724280591444423 0 -0.00077852755351797613 -0.0012064982068646381 0 -0.00068061776923895748 -0.0014079429144782992 0 0.00058913967684734642 -0.010334071520035723 0 0.00053330106308400289 -0.010257264168852693 0 -0.00043711912138623909 -0.00084724280591444423 0 -0.00015493452309517445 -0.0015055609086064058 0 0.00046755482817593925 -0.0012105447409594191 0 -0.00043711912138623909 -0.00084724280591444423 0 -0.00068061776923895748 -0.0014079429144782992 0 -0.00015493452309517445 -0.0015055609086064058 0 -0.00015493452309517445 -0.0015055609086064058 0 0.00046755482817593925 -0.0012105447409594191 0 0.00023620541289671854 -0.0021455807200103463 0 -0.00068061776923895748 -0.0014079429144782992 0 -0.00015493452309517445 -0.0015055609086064058 0 -0.00022768027897356874 -0.0019188522559494981 0 -0.00068061776923895748 -0.0014079429144782992 0 -0.00022768027897356874 -0.0019188522559494981 0 -0.00025675555549276811 -0.0024996195976748859 0 -0.00015493452309517445 -0.0015055609086064058 0 -0.00022768027897356874 -0.0019188522559494981 0 0.00023620541289671854 -0.0021455807200103463 0 -0.00068061776923895748 -0.0014079429144782992 0 -0.00025675555549276811 -0.0024996195976748859 0 -0.00063578455654341056 -0.0032118958519959922 0 -0.00022768027897356874 -0.0019188522559494981 0 -0.00025675555549276811 -0.0024996195976748859 0 0.00023620541289671854 -0.0021455807200103463 0 -0.00025675555549276811 -0.0024996195976748859 0 0.00023620541289671854 -0.0021455807200103463 0 0.00031064891689237876 -0.0031741685668900815 0 -0.00025675555549276811 -0.0024996195976748859 0 0.00031064891689237876 -0.0031741685668900815 0 -0.00063578455654341056 -0.0032118958519959922 0 0.00058913967684734642 -0.010334071520035723 0 1.761504361977967e-05 -0.0067608321304874651 0 0.0013053564210427238 -0.01012659419704866 0 0.000102564522106372 -0.011606410681437045 0 -0.00018206025318583881 -0.0080479871509132293 0 0.0013053564210427238 -0.01012659419704866 0 -0.00018206025318583881 -0.0080479871509132293 0 0.0015413888432925064 -0.0084855963922857661 0 -0.00018206025318583881 -0.0080479871509132293 0 0.0015413888432925064 -0.0084855963922857661 0 0.0009793253747832761 -0.0067317207861430067 0 0.0015413888432925064 -0.0084855963922857661 0 0.0009793253747832761 -0.0067317207861430067 0 0.0021167599051539472 -0.0068800568900829464 0 -0.00018206025318583881 -0.0080479871509132293 0 0.0009793253747832761 -0.0067317207861430067 0 -3.8847521047252127e-05 -0.0051451441592337919 0 0.0009793253747832761 -0.0067317207861430067 0 0.0010221717902743779 -0.0056550772311370796 0 0.001678183565221454 -0.0060440742094512879 0 -0.00063578455654341056 -0.0032118958519959922 0 0.00028442085655005605 -0.0041579087419893641 0 -3.8847521047252127e-05 -0.0051451441592337919 0 1.761504361977967e-05 -0.0067608321304874651 0 -8.4650194041712614e-05 -0.0059601853089672249 0 0.00028442085655005605 -0.0041579087419893641 0 0.00052597520460559931 -0.0050289663500387282 0 0.0010064267045856821 -0.0038318771844734279 0 0.00031064891689237876 -0.0031741685668900815 0 -0.00063578455654341056 -0.0032118958519959922 0 0.00028442085655005605 -0.0041579087419893641 0 0.00031064891689237876 -0.0031741685668900815 0 0.00028442085655005605 -0.0041579087419893641 0 0.0010064267045856821 -0.0038318771844734279 0 0.00052597520460559931 -0.0050289663500387282 0 0.0012348545108646558 -0.0052773087450705752 0 0.00010814618134441014 -0.0050608088782853351 0 0.00028442085655005605 -0.0041579087419893641 0 -3.8847521047252127e-05 -0.0051451441592337919 0 0.00052597520460559931 -0.0050289663500387282 0 0.00052597520460559931 -0.0050289663500387282 0 0.00013450664722361276 -0.0050938740832130259 0 0.00010814618134441014 -0.0050608088782853351 0 -3.8847521047252127e-05 -0.0051451441592337919 0 0.00052597520460559931 -0.0050289663500387282 0 0.00013450664722361276 -0.0050938740832130259 0 0.00013450664722361276 -0.0050938740832130259 0 0.00069362274012595951 -0.0049332253307183688 0 0.00010814618134441014 -0.0050608088782853351 0 -3.8847521047252127e-05 -0.0051451441592337919 0 0.00013450664722361276 -0.0050938740832130259 0 0.00069362274012595951 -0.0049332253307183688 0 -3.8847521047252127e-05 -0.0051451441592337919 0 0.00069362274012595951 -0.0049332253307183688 0 0.0010221717902743779 -0.0056550772311370796 0 0.00069362274012595951 -0.0049332253307183688 0 0.0013743659739730747 -0.0052495083123580422 0 0.0010221717902743779 -0.0056550772311370796 0 0.00069362274012595951 -0.0049332253307183688 0 0.0013743659739730747 -0.0052495083123580422 0 0.0011720548308771777 -0.0047590260056931235 0 0.0013743659739730747 -0.0052495083123580422 0 0.0010221717902743779 -0.0056550772311370796 0 0.001678183565221454 -0.0060440742094512879 0 0.0009793253747832761 -0.0067317207861430067 0 -3.8847521047252127e-05 -0.0051451441592337919 0 0.0010221717902743779 -0.0056550772311370796 0 0.0023174671372023828 -0.0034627645701746077 0 0.0016411650918007172 -0.0044075615112232564 0 0.0027136240185227458 -0.0047980036205364446 0 0.0023174671372023828 -0.0034627645701746077 0 0.0010064267045856821 -0.0038318771844734279 0 0.0016411650918007172 -0.0044075615112232564 0 0.00052597520460559931 -0.0050289663500387282 0 0.0016411650918007172 -0.0044075615112232564 0 0.0012348545108646558 -0.0052773087450705752 0 0.00052597520460559931 -0.0050289663500387282 0 0.0010064267045856821 -0.0038318771844734279 0 0.0016411650918007172 -0.0044075615112232564 0 0.0016411650918007172 -0.0044075615112232564 0 0.0012348545108646558 -0.0052773087450705752 0 0.0027136240185227458 -0.0047980036205364446 0 0.0018512175319990506 -0.0051401545585896052 0 0.0027136240185227458 -0.0047980036205364446 0 0.0023993038536815159 -0.0054601611297671751 0 0.002731949148733496 -0.0092516556011135419 0 0.0029368363934299722 -0.0085110070594576707 0 0.0027136240185227458 -0.0047980036205364446 0 0.0023993038536815159 -0.0054601611297671751 0 0.0030316420148203231 -0.0058455493498363259 0 0.0023993038536815159 -0.0054601611297671751 0 0.0024213675012364102 -0.0060288457588738003 0 0.0030316420148203231 -0.0058455493498363259 0 0.0023993038536815159 -0.0054601611297671751 0 0.0019005957251461182 -0.0057958358318759085 0 0.0024213675012364102 -0.0060288457588738003 0 0.002731949148733496 -0.0092516556011135419 0 0.0026753466017458544 -0.011553844332223792 0 0.0018512175319990506 -0.0051401545585896052 0 0.0023993038536815159 -0.0054601611297671751 0 0.0019005957251461182 -0.0057958358318759085 0 0.0018512175319990506 -0.0051401545585896052 0 0.0019005957251461182 -0.0057958358318759085 0 0.001277425263029563 -0.0056421107764527299 0 0.0019005957251461182 -0.0057958358318759085 0 0.0014943026381046556 -0.0059355355058820928 0 0.001277425263029563 -0.0056421107764527299 0 0.0019005957251461182 -0.0057958358318759085 0 0.0014943026381046556 -0.0059355355058820928 0 0.0015529458467376193 -0.0062527647257922866 0 0.0014943026381046556 -0.0059355355058820928 0 0.0015529458467376193 -0.0062527647257922866 0 0.0012476940009054627 -0.0060547561753867421 0 0.0016162818834622816 -0.0067944381488752592 0 0.0015529458467376193 -0.0062527647257922866 0 0.0020856101857601376 -0.0064950795779944457 0 0.0016162818834622816 -0.0067944381488752592 0 0.0015529458467376193 -0.0062527647257922866 0 0.0011799649077088579 -0.0063860813937407094 0 0.0019005957251461182 -0.0057958358318759085 0 0.0015529458467376193 -0.0062527647257922866 0 0.0020856101857601376 -0.0064950795779944457 0 0.0019005957251461182 -0.0057958358318759085 0 0.0020856101857601376 -0.0064950795779944457 0 0.0024213675012364102 -0.0060288457588738003 0 0.0020856101857601376 -0.0064950795779944457 0 0.0024213675012364102 -0.0060288457588738003 0 0.0027081846726488535 -0.0065456237930294403 0 0.0024213675012364102 -0.0060288457588738003 0 0.0027081846726488535 -0.0065456237930294403 0 0.0030316420148203231 -0.0058455493498363259 0 0.00069362274012595951 -0.0049332253307183688 0 0.0010981310335881342 -0.0042881324748168092 0 0.00010814618134441014 -0.0050608088782853351 0 0.00020931528753246223 -0.0059444122911913007 0 7.4588247063765291e-05 -0.0057893971208262179 0 0.00095934823335455427 -0.0054660309233952459 0 0.0030982053359993973 -0.01621070307265542 0 0.0026753466017458544 -0.011553844332223792 0 0.0052897904171844215 -0.016871733620213571 0 0.0024700573943746717 -0.017498336587460667 0 0.0031167028976817395 -0.014316691599874339 0 0.0025950975497300052 -0.015329496668314018 0 0.0031719181095133508 -0.016352796458216905 0 0.0031719181095133508 -0.016352796458216905 0 0.0034252612074650822 -0.016970211460477773 0 0.0024700573943746717 -0.017498336587460667 0 0.0031167028976817395 -0.014316691599874339 0 0.0013785029723384873 -0.014845325976122684 0 0.0030982053359993973 -0.01621070307265542 0 0.0034252612074650822 -0.016970211460477773 0 0.0025950975497300052 -0.015329496668314018 0 0.0030982053359993973 -0.01621070307265542 0 0.0010981310335881342 -0.0042881324748168092 0 0.0011720548308771777 -0.0047590260056931235 0 0.0015371226938878076 -0.0046114917742018386 0 0.00069362274012595951 -0.0049332253307183688 0 0.0010981310335881342 -0.0042881324748168092 0 0.0011720548308771777 -0.0047590260056931235 0 0.0018512175319990506 -0.0051401545585896052 0 0.00095934823335455427 -0.0054660309233952459 0 0.001277425263029563 -0.0056421107764527299 0 0.00020931528753246223 -0.0059444122911913007 0 0.00095934823335455427 -0.0054660309233952459 0 0.001277425263029563 -0.0056421107764527299 0 0.00019490653761655518 -0.0059060576779165182 0 0.001277425263029563 -0.0056421107764527299 0 0.0008077687766061051 -0.0061048739067220362 0 0.0025950975497300052 -0.015329496668314018 0 0.0024078281726085224 -0.013324627046600961 0 0.0014943026381046556 -0.0059355355058820928 0 0.001277425263029563 -0.0056421107764527299 0 0.0012476940009054627 -0.0060547561753867421 0 0.001277425263029563 -0.0056421107764527299 0 0.0008077687766061051 -0.0061048739067220362 0 0.0012476940009054627 -0.0060547561753867421 0 0.0015529458467376193 -0.0062527647257922866 0 0.0012476940009054627 -0.0060547561753867421 0 0.0011799649077088579 -0.0063860813937407094 0 0.0008077687766061051 -0.0061048739067220362 0 0.0012476940009054627 -0.0060547561753867421 0 0.0011799649077088579 -0.0063860813937407094 0 0.00091279223981534483 -0.0067463607437160738 0 0.0016162818834622816 -0.0067944381488752592 0 0.0011799649077088579 -0.0063860813937407094 0 0.00091279223981534483 -0.0067463607437160738 0 0.0008077687766061051 -0.0061048739067220362 0 0.0011799649077088579 -0.0063860813937407094 0 0.00091279223981534483 -0.0067463607437160738 0 0.00019490653761655518 -0.0059060576779165182 0 0.0008077687766061051 -0.0061048739067220362 0 0.00089570137392403415 -0.010198578600432292 0 0.0025950975497300052 -0.015329496668314018 0 0.0021661446225152881 -0.0085812027722043764 0 0.0020705888121648813 -0.0085945773417413791 0 0.0022240725634359798 -0.0088290891117996095 0 0.0027375356633875252 -0.018778881047477693 0 0.0011484383870666826 -0.018565896009669951 0 0.0018755217944407478 -0.02032126981432229 0 0.0019499789099148934 -0.014037615784446648 0 0.0031719181095133508 -0.016352796458216905 0 0.0021661446225152881 -0.0085812027722043764 0 0.0022240725634359798 -0.0088290891117996095 0 0.0022679958533136087 -0.0088217479098807745 0 0.0027375356633875252 -0.018778881047477693 0 0.0018755217944407478 -0.02032126981432229 0 0.0038048619552638035 -0.019902661525015256 0 0.0031719181095133508 -0.016352796458216905 0 0.0045469954930913662 -0.023912940643100906 0 0.0046547717432476338 -0.020151065213871392 0 0.0035778089123529072 -0.020292477383443846 0 0.0035286291352593568 -0.02041750373958396 0 0.0042964753406136633 -0.018671845983986655 0 0.0027375356633875252 -0.018778881047477693 0 0.0038048619552638035 -0.019902661525015256 0 0.0038563799108505248 -0.024649122986516205 0 0.0045469954930913662 -0.023912940643100906 0 0.0033784944649477623 -0.027113504043777038 0 0.0030081275061746662 -0.025378652197734487 0 0.0025837652304418111 -0.026133738329158624 0 0.0033784944649477623 -0.027113504043777038 0 0.00417523071079085 -0.02511810162357557 0 0.0030081275061746662 -0.025378652197734487 0 0.0038563799108505248 -0.024649122986516205 0 0.0049261186707810177 -0.027493442826580825 0 0.0046871064364152233 -0.023803232278497961 0 0.0045469954930913662 -0.023912940643100906 0 0.0045469954930913662 -0.023912940643100906 0 0.0050182846705145003 -0.027022339955457764 0 0.0046871064364152233 -0.023803232278497961 0 0.0050276252951067663 -0.026957890669533222 0 0.004865840021249776 -0.025654161443270741 0 0.0048902629710125293 -0.025655748888019546 0 0.0048935478331077094 -0.025650196895457417 0 0.0048626333057739113 -0.025661931120005272 0 0.004865840021249776 -0.025654161443270741 0 0.0048902629710125293 -0.025655748888019546 0 0.0050276252951067663 -0.026957890669533222 0 0.0050182846705145003 -0.027022339955457764 0 0.0046871064364152233 -0.023803232278497961 0 0.0056005157184931117 -0.022426427461197697 0 0.0058809818547589498 -0.026024725854409153 0 0.0058052031098836613 -0.024765138840951113 0 0.0069028674046363453 -0.023478381214197055 0 0.011271746937378311 -0.042062198913676581 0 0.012065917673474535 -0.040691885888735686 0 0.011107495502651941 -0.040706427089188389 0 0.0050276252951067663 -0.026957890669533222 0 0.0055415975919256089 -0.027249240925454679 0 0.0058809818547589498 -0.026024725854409153 0 0.0049319690282976598 -0.02631332253329071 0 0.0058052031098836613 -0.024765138840951113 0 0.012065917673474535 -0.040691885888735686 0 0.011146590414565291 -0.039793259767912141 0 0.011107495502651941 -0.040706427089188389 0 0.0046871064364152233 -0.023803232278497961 0 0.0034252612074650822 -0.016970211460477773 0 0.0046547717432476338 -0.020151065213871392 0 0.0035778089123529072 -0.020292477383443846 0 0.0045812002918421578 -0.019972429973343801 0 0.0048633008170593552 -0.021118815787577586 0 0.0065018001809038321 -0.020613931707853365 0 0.0062779344631324696 -0.020067253046096571 0 0.0048633008170593552 -0.021118815787577586 0 0.0062779344631324696 -0.020067253046096571 0 0.0056015785950749852 -0.019272165525668381 0 0.0043189635214936975 -0.016672923450351717 0 0.0041478433628132664 -0.016725236863186079 0 0.0039472379225328766 -0.016236131895202968 0 0.0034252612074650822 -0.016970211460477773 0 0.0038194110816459469 -0.01782309379303617 0 0.0030982053359993973 -0.01621070307265542 0 0.0038194110816459469 -0.01782309379303617 0 0.0038194110816459469 -0.01782309379303617 0 0.0056005157184931117 -0.022426427461197697 0 0.0038194110816459469 -0.01782309379303617 0 0.0057951150915025625 -0.020690619031670784 0 0.0013743659739730747 -0.0052495083123580422 0 0.0011720548308771777 -0.0047590260056931235 0 0.0015371226938878076 -0.0046114917742018386 0 0.0013743659739730747 -0.0052495083123580422 0 0.0015371226938878076 -0.0046114917742018386 0 0.0022712950587860346 -0.0057163901087769267 0 0.0013743659739730747 -0.0052495083123580422 0 0.0022712950587860346 -0.0057163901087769267 0 0.001678183565221454 -0.0060440742094512879 0 0.0061832332498789975 -0.021981196774595427 0 0.0057951150915025625 -0.020690619031670784 0 0.0064626226532951987 -0.020499107480886351 0 0.0071763541512416037 -0.022237729547201039 0 0.0043211457437290655 -0.024307561440505075 0 0.0057951150915025625 -0.020690619031670784 0 0.0056005157184931117 -0.022426427461197697 0 0.0071763541512416037 -0.022237729547201039 0 0.0043211457437290655 -0.024307561440505075 0 0.0057012986630170749 -0.025931773527646702 0 0.0061832332498789975 -0.021981196774595427 0 0.0064638975349261326 -0.024343296084006323 0 0.0045357280212861804 -0.019367142161220902 0 0.0057268142116998211 -0.02223816033082213 0 0.0061257351138351568 -0.021229757853114754 0 0.0064638975349261326 -0.024343296084006323 0 0.0056005157184931117 -0.022426427461197697 0 0.0055415975919256089 -0.027249240925454679 0 0.0064638975349261326 -0.024343296084006323 0 0.0058052031098836613 -0.024765138840951113 0 0.0066801755272351288 -0.023215911773819702 0 0.0069028674046363453 -0.023478381214197055 0 0.012065917673474535 -0.040691885888735686 0 0.012853180493468546 -0.039303010593060496 0 0.011874249709118547 -0.03944277949802006 0 0.012065917673474535 -0.040691885888735686 0 0.011874249709118547 -0.03944277949802006 0 0.011146590414565291 -0.039793259767912141 0 0.011874249709118547 -0.03944277949802006 0 0.011146590414565291 -0.039793259767912141 0 0.010938150209649318 -0.03908337761548638 0 0.011874249709118547 -0.03944277949802006 0 0.011530371098896871 -0.038620703191618297 0 0.010938150209649318 -0.03908337761548638 0 0.012853180493468546 -0.039303010593060496 0 0.011874249709118547 -0.03944277949802006 0 0.011530371098896871 -0.038620703191618297 0 0.012118668201651216 -0.035999786805001981 0 0.011959336318493219 -0.036271392796393818 0 0.01104010686569569 -0.035271808980733448 0 0.0064638975349261326 -0.024343296084006323 0 0.010918199161213513 -0.033087387149515139 0 0.012853180493468546 -0.039303010593060496 0 0.011530371098896871 -0.038620703191618297 0 0.011147965226514372 -0.037203072890769712 0 0.011703444325387863 -0.034842882055562671 0 0.012118668201651216 -0.035999786805001981 0 0.01104010686569569 -0.035271808980733448 0 0.0072062697721558067 -0.022325576552526288 0 0.0061832332498789975 -0.021981196774595427 0 0.004846272190950322 -0.0086622800606728882 0 0.0034024747604459913 -0.005280698491002116 0 0.0026156776424761902 -0.0066660183505898784 0 0.0068579091352255908 -0.016549961950253846 0 0.0066076772685937099 -0.018470727686093057 0 0.0022712950587860346 -0.0057163901087769267 0 0.0021167599051539472 -0.0068800568900829464 0 0.001678183565221454 -0.0060440742094512879 0 0.0009793253747832761 -0.0067317207861430067 0 0.0021167599051539472 -0.0068800568900829464 0 0.001678183565221454 -0.0060440742094512879 0 0.0057951150915025625 -0.020690619031670784 0 0.0066076772685937099 -0.018470727686093057 0 0.0061832332498789975 -0.021981196774595427 0 0.0066076772685937099 -0.018470727686093057 0 0.0051073188953058421 -0.021665253292241622 0 0.0054111618007510274 -0.022407710708903145 0 0.0066611731935622455 -0.018910769906078061 0 0.0089985869256570417 -0.037165183432680923 0 0.0098051541303351558 -0.038089623449818505 0 0.0087526273908372313 -0.03926033783872325 0 0.0089985869256570417 -0.037165183432680923 0 0.0074090021673374282 -0.038820244749615263 0 0.0073966501722625621 -0.035857541565268811 0 0.0089985869256570417 -0.037165183432680923 0 0.0087526273908372313 -0.03926033783872325 0 0.0074090021673374282 -0.038820244749615263 0 0.0089985869256570417 -0.037165183432680923 0 0.011147965226514372 -0.037203072890769712 0 0.0098051541303351558 -0.038089623449818505 0 0.011147965226514372 -0.037203072890769712 0 0.010720869023514323 -0.038200404675793838 0 0.0098051541303351558 -0.038089623449818505 0 0.011530371098896871 -0.038620703191618297 0 0.010720869023514323 -0.038200404675793838 0 0.010938150209649318 -0.03908337761548638 0 0.011530371098896871 -0.038620703191618297 0 0.011147965226514372 -0.037203072890769712 0 0.010720869023514323 -0.038200404675793838 0 0.010720869023514323 -0.038200404675793838 0 0.0098051541303351558 -0.038089623449818505 0 0.0099724637005361577 -0.039089896074121402 0 0.0099724637005361577 -0.039089896074121402 0 0.010938150209649318 -0.03908337761548638 0 0.010494971563666897 -0.039632477754284495 0 0.010720869023514323 -0.038200404675793838 0 0.0099724637005361577 -0.039089896074121402 0 0.010938150209649318 -0.03908337761548638 0 0.011146590414565291 -0.039793259767912141 0 0.010938150209649318 -0.03908337761548638 0 0.010494971563666897 -0.039632477754284495 0 0.011146590414565291 -0.039793259767912141 0 0.010494971563666897 -0.039632477754284495 0 0.010511432932084583 -0.040217214257919673 0 0.0099724637005361577 -0.039089896074121402 0 0.009898530379046918 -0.039988386892596782 0 0.0093639038440791501 -0.039699152003693276 0 0.0099724637005361577 -0.039089896074121402 0 0.010494971563666897 -0.039632477754284495 0 0.009898530379046918 -0.039988386892596782 0 0.010494971563666897 -0.039632477754284495 0 0.009898530379046918 -0.039988386892596782 0 0.010511432932084583 -0.040217214257919673 0 0.009898530379046918 -0.039988386892596782 0 0.009511826127597111 -0.040200770413142593 0 0.0093639038440791501 -0.039699152003693276 0 0.0086420241911922737 -0.036687914333963546 0 0.0079580263507802087 -0.037491805962170568 0 0.0093639038440791501 -0.039699152003693276 0 0.0087526273908372313 -0.03926033783872325 0 0.0090114541180384821 -0.040557488847821316 0 0.0077559409757742784 -0.040528483864231989 0 0.0066567618401101808 -0.040393878537469299 0 0.0067551122766370706 -0.038918965199055112 0 0.0087526273908372313 -0.03926033783872325 0 0.0090114541180384821 -0.040557488847821316 0 0.0074090021673374282 -0.038820244749615263 0 0.009511826127597111 -0.040200770413142593 0 0.0093639038440791501 -0.039699152003693276 0 0.0090114541180384821 -0.040557488847821316 0 0.0098051541303351558 -0.038089623449818505 0 0.0099724637005361577 -0.039089896074121402 0 0.0087526273908372313 -0.03926033783872325 0 0.0099724637005361577 -0.039089896074121402 0 0.0093639038440791501 -0.039699152003693276 0 0.0087526273908372313 -0.03926033783872325 0 0.0076674934877501199 -0.040714632600435736 0 0.0078639932732270934 -0.040915390257531221 0 0.0079036315889671922 -0.041182754594371485 0 0.0077559409757742784 -0.040528483864231989 0 0.0076674934877501199 -0.040714632600435736 0 0.0066567618401101808 -0.040393878537469299 0 0.0076674934877501199 -0.040714632600435736 0 0.0067674189748702556 -0.040921656833935442 0 0.0066567618401101808 -0.040393878537469299 0 0.009511826127597111 -0.040200770413142593 0 0.0090114541180384821 -0.040557488847821316 0 0.0098110360920927037 -0.040625786220508428 0 0.0077559409757742784 -0.040528483864231989 0 0.0076674934877501199 -0.040714632600435736 0 0.0078639932732270934 -0.040915390257531221 0 0.0076674934877501199 -0.040714632600435736 0 0.0073808102268473601 -0.04116291153226502 0 0.0077620191575790169 -0.04147008458842618 0 0.0076674934877501199 -0.040714632600435736 0 0.0073808102268473601 -0.04116291153226502 0 0.0067674189748702556 -0.040921656833935442 0 0.0073808102268473601 -0.04116291153226502 0 0.0074492799189451028 -0.041455606205346399 0 0.0077620191575790169 -0.04147008458842618 0 0.0073808102268473601 -0.04116291153226502 0 0.0069506700327125392 -0.041447361630086152 0 0.0067674189748702556 -0.040921656833935442 0 0.0073808102268473601 -0.04116291153226502 0 0.0074492799189451028 -0.041455606205346399 0 0.0069506700327125392 -0.041447361630086152 0 0.0077559409757742784 -0.040528483864231989 0 0.0078639932732270934 -0.040915390257531221 0 0.0081705677674698482 -0.041145983314525014 0 0.0086420241911922737 -0.036687914333963546 0 0.0056447096077470822 -0.029105962094729928 0 0.0090114541180384821 -0.040557488847821316 0 0.010087943549915915 -0.041153985379265998 0 0.01054140702522551 -0.042373646425723291 0 0.011146590414565291 -0.039793259767912141 0 0.011107495502651941 -0.040706427089188389 0 0.010511432932084583 -0.040217214257919673 0 0.011107495502651941 -0.040706427089188389 0 0.010511432932084583 -0.040217214257919673 0 0.010466865459976009 -0.040847913180087854 0 0.0090114541180384821 -0.040557488847821316 0 0.0098110360920927037 -0.040625786220508428 0 0.010087943549915915 -0.041153985379265998 0 0.010466865459976009 -0.040847913180087854 0 0.0098110360920927037 -0.040625786220508428 0 0.010087943549915915 -0.041153985379265998 0 0.009898530379046918 -0.039988386892596782 0 0.010511432932084583 -0.040217214257919673 0 0.0098110360920927037 -0.040625786220508428 0 0.010511432932084583 -0.040217214257919673 0 0.010466865459976009 -0.040847913180087854 0 0.0098110360920927037 -0.040625786220508428 0 0.009898530379046918 -0.039988386892596782 0 0.009511826127597111 -0.040200770413142593 0 0.0098110360920927037 -0.040625786220508428 0 0.011271746937378311 -0.042062198913676581 0 0.011107495502651941 -0.040706427089188389 0 0.010674042750097529 -0.041436836762843307 0 0.010087943549915915 -0.041153985379265998 0 0.010674042750097529 -0.041436836762843307 0 0.01054140702522551 -0.042373646425723291 0 0.010466865459976009 -0.040847913180087854 0 0.010087943549915915 -0.041153985379265998 0 0.010674042750097529 -0.041436836762843307 0 0.011107495502651941 -0.040706427089188389 0 0.010466865459976009 -0.040847913180087854 0 0.010674042750097529 -0.041436836762843307 0 0.011271746937378311 -0.042062198913676581 0 0.010674042750097529 -0.041436836762843307 0 0.01054140702522551 -0.042373646425723291 0 0.0055581390745241786 -0.028355155023682525 0 0.0055362326249597813 -0.028394873924294767 0 0.0053976283277273988 -0.028427721468701338 0 0.0050276252951067663 -0.026957890669533222 0 0.0056447096077470822 -0.029105962094729928 0 0.0050182846705145003 -0.027022339955457764 0 0.0056447096077470822 -0.029105962094729928 0 0.0050388416480613681 -0.027501768915815378 0 0.0023691412146804878 -0.028095817571652068 0 0.0037498840282401968 -0.029797597882726116 0 0.0078639932732270934 -0.040915390257531221 0 0.0081705677674698482 -0.041145983314525014 0 0.0079635227034403257 -0.041079187347152789 0 0.0078639932732270934 -0.040915390257531221 0 0.0079635227034403257 -0.041079187347152789 0 0.0079036315889671922 -0.041182754594371485 0 0.0081705677674698482 -0.041145983314525014 0 0.0080152011789896126 -0.041144980646027035 0 0.0079635227034403257 -0.041079187347152789 0 0.0056447096077470822 -0.029105962094729928 0 0.0057071164993985589 -0.029247501554123319 0 0.0080152011789896126 -0.041144980646027035 0 0.0079635227034403257 -0.041079187347152789 0 0.0079036315889671922 -0.041182754594371485 0 0.0056447096077470822 -0.029105962094729928 0 0.0061679123205548164 -0.032357657662145253 0 0.0045636992132491536 -0.028675483779129724 0 0.0034985130166635845 -0.028914459859426488 0 0.004927130569564302 -0.029123467287473857 0 0.0041395439125308624 -0.030520693018608422 0 0.0034985130166635845 -0.028914459859426488 0 0.004927130569564302 -0.029123467287473857 0 0.008156114231416314 -0.04112463635082747 0 0.0080152011789896126 -0.041144980646027035 0 0.0079036315889671922 -0.041182754594371485 0 0.0056447096077470822 -0.029105962094729928 0 0.0049261186707810177 -0.027493442826580825 0 0.0050182846705145003 -0.027022339955457764 0 0.0049261186707810177 -0.027493442826580825 0 0.0076674934877501199 -0.040714632600435736 0 0.0081938262772301255 -0.042137891828634852 0 0.0077620191575790169 -0.04147008458842618 0 0.0072945644661671265 -0.035779833185560356 0 0.0061679123205548164 -0.032357657662145253 0 0.00736712643122929 -0.041754041380366758 0 0.0075372971980963597 -0.041999600719898 0 0.0069169465799136607 -0.042004162868819875 0 0.00736712643122929 -0.041754041380366758 0 0.0075372971980963597 -0.041999600719898 0 0.0076249207155091566 -0.041810868893376318 0 0.00736712643122929 -0.041754041380366758 0 0.007607529478467389 -0.041621473279202785 0 0.0076249207155091566 -0.041810868893376318 0 0.00736712643122929 -0.041754041380366758 0 0.0069169465799136607 -0.042004162868819875 0 0.0069506700327125392 -0.041447361630086152 0 0.00736712643122929 -0.041754041380366758 0 0.0074492799189451028 -0.041455606205346399 0 0.0069506700327125392 -0.041447361630086152 0 0.00736712643122929 -0.041754041380366758 0 0.0074492799189451028 -0.041455606205346399 0 0.007607529478467389 -0.041621473279202785 0 0.0077620191575790169 -0.04147008458842618 0 0.00775882482629312 -0.041715481484533877 0 0.0079620250646377354 -0.041944065520966821 0 0.0081938262772301255 -0.042137891828634852 0 0.0077620191575790169 -0.04147008458842618 0 0.0079620250646377354 -0.041944065520966821 0 0.0074492799189451028 -0.041455606205346399 0 0.0077620191575790169 -0.04147008458842618 0 0.007607529478467389 -0.041621473279202785 0 0.0077620191575790169 -0.04147008458842618 0 0.00775882482629312 -0.041715481484533877 0 0.007607529478467389 -0.041621473279202785 0 0.00775882482629312 -0.041715481484533877 0 0.007607529478467389 -0.041621473279202785 0 0.0076249207155091566 -0.041810868893376318 0 0.00775882482629312 -0.041715481484533877 0 0.0076249207155091566 -0.041810868893376318 0 0.0077713269779130954 -0.04184937615777079 0 0.00775882482629312 -0.041715481484533877 0 0.0079620250646377354 -0.041944065520966821 0 0.0077713269779130954 -0.04184937615777079 0 0.0079620250646377354 -0.041944065520966821 0 0.0077713269779130954 -0.04184937615777079 0 0.0077572214750208958 -0.042037095838289795 0 0.0075372971980963597 -0.041999600719898 0 0.0077713269779130954 -0.04184937615777079 0 0.0077572214750208958 -0.042037095838289795 0 0.0075372971980963597 -0.041999600719898 0 0.0076249207155091566 -0.041810868893376318 0 0.0077713269779130954 -0.04184937615777079 0 0.0047041125421884962 -0.031517140799914828 0 0.0047006171452381607 -0.031564261801540622 0 0.0047295537081599058 -0.031558691938117667 0 0.0075372971980963597 -0.041999600719898 0 0.0077572214750208958 -0.042037095838289795 0 0.0077019187350249353 -0.042240432014957183 0 0.0079620250646377354 -0.041944065520966821 0 0.0077572214750208958 -0.042037095838289795 0 0.0077019187350249353 -0.042240432014957183 0 0.0061679123205548164 -0.032357657662145253 0 0.0065553111986037275 -0.033692097508569753 0 0.0081938262772301255 -0.042137891828634852 0 0.0079620250646377354 -0.041944065520966821 0 0.0077019187350249353 -0.042240432014957183 0 0.0065553111986037275 -0.033692097508569753 0 0.0063544354469103701 -0.034296770424052263 0 0.0066530987029064228 -0.04291386652463159 0 0.0073899657195813043 -0.042267179101057865 0 0.0066977192149007374 -0.042408858929163434 0 0.0077019187350249353 -0.042240432014957183 0 0.0066977192149007374 -0.042408858929163434 0 0.0069169465799136607 -0.042004162868819875 0 0.0075372971980963597 -0.041999600719898 0 0.0077019187350249353 -0.042240432014957183 0 0.0069169465799136607 -0.042004162868819875 0 0.0066977192149007374 -0.042408858929163434 0 0.0069169465799136607 -0.042004162868819875 0 0.005713706028141848 -0.041373989273874964 0 0.0064389543716620876 -0.041599326362567267 0 0.00632566641372746 -0.041675467368928791 0 0.0056025533253524088 -0.043496923785246965 0 0.0063685179631159912 -0.043413003232074823 0 0.005713706028141848 -0.041373989273874964 0 0.0066530987029064228 -0.04291386652463159 0 0.0066977192149007374 -0.042408858929163434 0 0.005713706028141848 -0.041373989273874964 0 0.0069169465799136607 -0.042004162868819875 0 0.0069506700327125392 -0.041447361630086152 0 0.005713706028141848 -0.041373989273874964 0 0.0067674189748702556 -0.040921656833935442 0 0.005713706028141848 -0.041373989273874964 0 0.0066567618401101808 -0.040393878537469299 0 0.0069506700327125392 -0.041447361630086152 0 0.0067674189748702556 -0.040921656833935442 0 0.005713706028141848 -0.041373989273874964 0 0.005713706028141848 -0.041373989273874964 0 0.0066567618401101808 -0.040393878537469299 0 0.005072728372627051 -0.040001522285445769 0 0.005713706028141848 -0.041373989273874964 0 0.0036133162111437393 -0.041666319232149772 0 0.005072728372627051 -0.040001522285445769 0 0.005713706028141848 -0.041373989273874964 0 0.0045835936721242108 -0.042558876281287558 0 0.0036133162111437393 -0.041666319232149772 0 0.0056025533253524088 -0.043496923785246965 0 0.005713706028141848 -0.041373989273874964 0 0.0045835936721242108 -0.042558876281287558 0 0.0034198289939557469 -0.043640349201189081 0 0.0045835936721242108 -0.042558876281287558 0 0.0036133162111437393 -0.041666319232149772 0 0.0034198289939557469 -0.043640349201189081 0 0.0018752877508312377 -0.042174156041663281 0 0.0036133162111437393 -0.041666319232149772 0 0.0018752877508312377 -0.042174156041663281 0 0.0021065582356162792 -0.040786142627274639 0 0.0036133162111437393 -0.041666319232149772 0 0.0021065582356162792 -0.040786142627274639 0 0.0036133162111437393 -0.041666319232149772 0 0.0032578217364140015 -0.039576729065991856 0 0.0036133162111437393 -0.041666319232149772 0 0.0032578217364140015 -0.039576729065991856 0 0.005072728372627051 -0.040001522285445769 0 0.0021065582356162792 -0.040786142627274639 0 0.0032578217364140015 -0.039576729065991856 0 0.0015885697700746112 -0.03922521611934042 0 0.0032578217364140015 -0.039576729065991856 0 0.0015885697700746112 -0.03922521611934042 0 0.0033023402342221178 -0.037279695550546416 0 0.0015885697700746112 -0.03922521611934042 0 0.00090302054910732649 -0.036974419163765648 0 0.0033023402342221178 -0.037279695550546416 0 0.0032578217364140015 -0.039576729065991856 0 0.0048338069811825488 -0.038577462194320448 0 0.0033023402342221178 -0.037279695550546416 0 0.0048338069811825488 -0.038577462194320448 0 0.0056283055126491116 -0.036968065466673292 0 0.0033023402342221178 -0.037279695550546416 0 0.0048338069811825488 -0.038577462194320448 0 0.0067551122766370706 -0.038918965199055112 0 0.0056283055126491116 -0.036968065466673292 0 0.0079580263507802087 -0.037491805962170568 0 0.0072979255747862015 -0.037141901655667511 0 0.0074090021673374282 -0.038820244749615263 0 0.0073966501722625621 -0.035857541565268811 0 0.0056283055126491116 -0.036968065466673292 0 0.0066567618401101808 -0.040393878537469299 0 0.0067551122766370706 -0.038918965199055112 0 0.005072728372627051 -0.040001522285445769 0 0.0048338069811825488 -0.038577462194320448 0 0.0067551122766370706 -0.038918965199055112 0 0.005072728372627051 -0.040001522285445769 0 0.0032578217364140015 -0.039576729065991856 0 0.0048338069811825488 -0.038577462194320448 0 0.005072728372627051 -0.040001522285445769 0 -0.0029523100526417357 -0.041874116831356431 0 -0.0023355618872347036 -0.043390886325981086 0 -0.0014904305993976542 -0.042475544229226003 0 -0.0032541287000473285 -0.043552530183212437 0 -0.0029523100526417357 -0.041874116831356431 0 -0.0023355618872347036 -0.043390886325981086 0 -0.0025692578957755116 -0.04415626734014684 0 -0.0032541287000473285 -0.043552530183212437 0 -0.0023355618872347036 -0.043390886325981086 0 -0.0017986767796742374 -0.04381993422584364 0 -0.0021718141163100291 -0.043972545161043083 0 -0.0023355618872347036 -0.043390886325981086 0 -0.0017986767796742374 -0.04381993422584364 0 -0.0023355618872347036 -0.043390886325981086 0 -0.0014904305993976542 -0.042475544229226003 0 -0.0017986767796742374 -0.04381993422584364 0 -0.0014904305993976542 -0.042475544229226003 0 -0.00076531392031428279 -0.043374879051636332 0 -0.0029523100526417357 -0.041874116831356431 0 -0.0014904305993976542 -0.042475544229226003 0 -0.0013327732740541812 -0.040907223027592803 0 -0.0014904305993976542 -0.042475544229226003 0 -0.0013327732740541812 -0.040907223027592803 0 0.00054237175470222513 -0.041313526263185914 0 -0.0014904305993976542 -0.042475544229226003 0 -0.00076531392031428279 -0.043374879051636332 0 0.00054237175470222513 -0.041313526263185914 0 -0.00082800101652401889 -0.042634841851944112 0 0.00036993123000055381 -0.042609522902259209 0 0.00054237175470222513 -0.041313526263185914 0 -0.0010655375800714077 -0.043202662812387306 0 -0.00039623103608335102 -0.042435050133288597 0 0.0011368129638008593 -0.043684771109954654 0 0.0018752877508312377 -0.042174156041663281 0 0.00036993123000055381 -0.042609522902259209 0 0.0018752877508312377 -0.042174156041663281 0 0.00036993123000055381 -0.042609522902259209 0 0.00054237175470222513 -0.041313526263185914 0 0.0018752877508312377 -0.042174156041663281 0 0.0021065582356162792 -0.040786142627274639 0 0.00054237175470222513 -0.041313526263185914 0 0.0015885697700746112 -0.03922521611934042 0 0.00054237175470222513 -0.041313526263185914 0 -0.00029162162962703502 -0.039162738480964271 0 0.0021065582356162792 -0.040786142627274639 0 0.0015885697700746112 -0.03922521611934042 0 0.00054237175470222513 -0.041313526263185914 0 0.0015885697700746112 -0.03922521611934042 0 -0.00029162162962703502 -0.039162738480964271 0 0.00090302054910732649 -0.036974419163765648 0 -0.00029162162962703502 -0.039162738480964271 0 -0.001200981286257995 -0.037130818003656037 0 0.00090302054910732649 -0.036974419163765648 0 -0.0013327732740541812 -0.040907223027592803 0 0.00054237175470222513 -0.041313526263185914 0 -0.00029162162962703502 -0.039162738480964271 0 -0.0013327732740541812 -0.040907223027592803 0 -0.00029162162962703502 -0.039162738480964271 0 -0.0023476708374209204 -0.039674398617505643 0 -0.0029523100526417357 -0.041874116831356431 0 -0.0013327732740541812 -0.040907223027592803 0 -0.0023476708374209204 -0.039674398617505643 0 -0.00029162162962703502 -0.039162738480964271 0 -0.0023476708374209204 -0.039674398617505643 0 -0.001200981286257995 -0.037130818003656037 0 -0.0041880420244488235 -0.040075777592287976 0 -0.0023476708374209204 -0.039674398617505643 0 -0.0035763033075390835 -0.037298043582060798 0 -0.0041880420244488235 -0.040075777592287976 0 -0.0029523100526417357 -0.041874116831356431 0 -0.0023476708374209204 -0.039674398617505643 0 -0.0035763033075390835 -0.037298043582060798 0 -0.0021688062145088067 -0.035230935592506431 0 -0.0037116887418426861 -0.033807665237737539 0 -0.0035763033075390835 -0.037298043582060798 0 -0.0021688062145088067 -0.035230935592506431 0 -0.001200981286257995 -0.037130818003656037 0 -0.0023476708374209204 -0.039674398617505643 0 -0.0035763033075390835 -0.037298043582060798 0 -0.001200981286257995 -0.037130818003656037 0 -0.0021688062145088067 -0.035230935592506431 0 -0.001200981286257995 -0.037130818003656037 0 -0.00012002977598412286 -0.034409421269115566 0 -0.001200981286257995 -0.037130818003656037 0 0.00090302054910732649 -0.036974419163765648 0 -0.00012002977598412286 -0.034409421269115566 0 0.00090302054910732649 -0.036974419163765648 0 -0.00012002977598412286 -0.034409421269115566 0 0.0022577353000290327 -0.034988595497744732 0 -0.00012002977598412286 -0.034409421269115566 0 0.0022577353000290327 -0.034988595497744732 0 0.0013591385494809271 -0.032535069544173033 0 -0.00012002977598412286 -0.034409421269115566 0 -0.00048525819667924296 -0.030733617040061577 0 0.0013591385494809271 -0.032535069544173033 0 -0.00048525819667924296 -0.030733617040061577 0 -0.0015901188016358841 -0.032941817542543377 0 -0.0025014050037291788 -0.031439253358217574 0 -0.00012002977598412286 -0.034409421269115566 0 -0.00048525819667924296 -0.030733617040061577 0 -0.0015901188016358841 -0.032941817542543377 0 -0.0021688062145088067 -0.035230935592506431 0 -0.00012002977598412286 -0.034409421269115566 0 -0.0015901188016358841 -0.032941817542543377 0 -0.0021688062145088067 -0.035230935592506431 0 -0.0015901188016358841 -0.032941817542543377 0 -0.0037116887418426861 -0.033807665237737539 0 -0.0015901188016358841 -0.032941817542543377 0 -0.0025014050037291788 -0.031439253358217574 0 -0.0037116887418426861 -0.033807665237737539 0 -0.0056585633183231674 -0.031057849001400212 0 -0.0025014050037291788 -0.031439253358217574 0 -0.0037116887418426861 -0.033807665237737539 0 0.0048483919747868498 -0.03462155221388627 0 0.0073966501722625621 -0.035857541565268811 0 0.0074339464990733828 -0.032212840914350657 0 0.0048483919747868498 -0.03462155221388627 0 0.0056283055126491116 -0.036968065466673292 0 0.0033023402342221178 -0.037279695550546416 0 0.0048483919747868498 -0.03462155221388627 0 0.0073966501722625621 -0.035857541565268811 0 0.0056283055126491116 -0.036968065466673292 0 0.0048483919747868498 -0.03462155221388627 0 0.0033023402342221178 -0.037279695550546416 0 0.0022577353000290327 -0.034988595497744732 0 0.00090302054910732649 -0.036974419163765648 0 0.0033023402342221178 -0.037279695550546416 0 0.0022577353000290327 -0.034988595497744732 0 0.0048483919747868498 -0.03462155221388627 0 0.0022577353000290327 -0.034988595497744732 0 0.0033489990861838648 -0.032954791321994817 0 0.0033489990861838648 -0.032954791321994817 0 0.0013591385494809271 -0.032535069544173033 0 0.0021075156152507721 -0.029803478057058796 0 0.0022577353000290327 -0.034988595497744732 0 0.0033489990861838648 -0.032954791321994817 0 0.0013591385494809271 -0.032535069544173033 0 -0.00048525819667924296 -0.030733617040061577 0 0.0013591385494809271 -0.032535069544173033 0 0.0021075156152507721 -0.029803478057058796 0 0.0021075156152507721 -0.029803478057058796 0 0.0048915006940236198 -0.031072088414390162 0 0.0035401318551552276 -0.028089403781073049 0 0.0033489990861838648 -0.032954791321994817 0 0.0021075156152507721 -0.029803478057058796 0 0.0048915006940236198 -0.031072088414390162 0 0.0048915006940236198 -0.031072088414390162 0 0.0070199414339398502 -0.030178770436604944 0 0.0057471576114250418 -0.02842094884400866 0 0.0048483919747868498 -0.03462155221388627 0 0.0048915006940236198 -0.031072088414390162 0 0.0074339464990733828 -0.032212840914350657 0 0.0048483919747868498 -0.03462155221388627 0 0.0033489990861838648 -0.032954791321994817 0 0.0048915006940236198 -0.031072088414390162 0 0.008889060637447101 -0.03053566967782247 0 0.0074339464990733828 -0.032212840914350657 0 0.0070199414339398502 -0.030178770436604944 0 0.0048915006940236198 -0.031072088414390162 0 0.0074339464990733828 -0.032212840914350657 0 0.0070199414339398502 -0.030178770436604944 0 0.0069105606070663976 -0.026693300844101705 0 0.0057471576114250418 -0.02842094884400866 0 0.0081735185996322981 -0.028570538616927672 0 0.0070199414339398502 -0.030178770436604944 0 0.0057471576114250418 -0.02842094884400866 0 0.0081735185996322981 -0.028570538616927672 0 0.0069105606070663976 -0.026693300844101705 0 0.0067208585275713916 -0.023819782981863061 0 0.0095709585167396641 -0.02675360722384991 0 0.0069105606070663976 -0.026693300844101705 0 0.0039847078599092225 -0.025649409920785238 0 0.0067208585275713916 -0.023819782981863061 0 0.0069105606070663976 -0.026693300844101705 0 0.0039847078599092225 -0.025649409920785238 0 0.0057471576114250418 -0.02842094884400866 0 0.0048915006940236198 -0.031072088414390162 0 0.0057471576114250418 -0.02842094884400866 0 0.0035401318551552276 -0.028089403781073049 0 0.0039847078599092225 -0.025649409920785238 0 0.0057471576114250418 -0.02842094884400866 0 0.0035401318551552276 -0.028089403781073049 0 0.0021075156152507721 -0.029803478057058796 0 0.0035401318551552276 -0.028089403781073049 0 0.0010736173006380453 -0.025782033542421177 0 0.0021075156152507721 -0.029803478057058796 0 0.0010736173006380453 -0.025782033542421177 0 -0.00032420830527773911 -0.027144494382059934 0 0.0039847078599092225 -0.025649409920785238 0 0.0010736173006380453 -0.025782033542421177 0 0.0016094394547983427 -0.023503806323341602 0 0.0039847078599092225 -0.025649409920785238 0 0.0035401318551552276 -0.028089403781073049 0 0.0010736173006380453 -0.025782033542421177 0 0.0039847078599092225 -0.025649409920785238 0 0.0016094394547983427 -0.023503806323341602 0 0.0018431955342084019 -0.020457130097048696 0 0.0010736173006380453 -0.025782033542421177 0 0.0016094394547983427 -0.023503806323341602 0 5.8579371318245909e-05 -0.022490331370766149 0 5.8579371318245909e-05 -0.022490331370766149 0 0.0018431955342084019 -0.020457130097048696 0 4.1105730367289827e-05 -0.020185087378610952 0 0.0016094394547983427 -0.023503806323341602 0 5.8579371318245909e-05 -0.022490331370766149 0 0.0018431955342084019 -0.020457130097048696 0 0.0018431955342084019 -0.020457130097048696 0 0.00077521056307622435 -0.018657338002731585 0 0.00091793257045926543 -0.018744972125898915 0 0.0018431955342084019 -0.020457130097048696 0 0.00077521056307622435 -0.018657338002731585 0 0.0010221333296959773 -0.018580347955659451 0 0.00077521056307622435 -0.018657338002731585 0 0.0010221333296959773 -0.018580347955659451 0 0.00091204164235289651 -0.018575588815711652 0 0.0039847078599092225 -0.025649409920785238 0 0.0018431955342084019 -0.020457130097048696 0 0.0067208585275713916 -0.023819782981863061 0 0.0033345369867856115 -0.020445430420040513 0 0.0041098590263362522 -0.020830323094704766 0 -0.0050629941022162211 -0.028285491212559074 0 -0.0032264673902661556 -0.02909195621170783 0 -0.0036313590392915746 -0.026951016928642494 0 -0.0056585633183231674 -0.031057849001400212 0 -0.0025014050037291788 -0.031439253358217574 0 -0.0032264673902661556 -0.02909195621170783 0 -0.0025014050037291788 -0.031439253358217574 0 -0.0032264673902661556 -0.02909195621170783 0 -0.0011296320093135558 -0.029189854992997651 0 -0.0014893124856176618 -0.02770172355821127 0 -0.0023734718612563746 -0.025718450876553216 0 -0.0032264673902661556 -0.02909195621170783 0 -0.0011296320093135558 -0.029189854992997651 0 -0.0020724264174245091 -0.026569978152064327 0 -0.0025225009774551607 -0.026346616432708178 0 -0.00032420830527773911 -0.027144494382059934 0 -0.0013249601982343007 -0.024043686383512723 0 -0.00082249185734209885 -0.029033029575315054 0 -0.0014893124856176618 -0.02770172355821127 0 -0.00048525819667924296 -0.030733617040061577 0 -0.0025225009774551607 -0.026346616432708178 0 -0.00032420830527773911 -0.027144494382059934 0 -0.00048525819667924296 -0.030733617040061577 0 -0.0025014050037291788 -0.031439253358217574 0 -0.0011296320093135558 -0.029189854992997651 0 -0.00048525819667924296 -0.030733617040061577 0 0.0021075156152507721 -0.029803478057058796 0 -0.00032420830527773911 -0.027144494382059934 0 0.0010736173006380453 -0.025782033542421177 0 -0.00032420830527773911 -0.027144494382059934 0 -0.0013249601982343007 -0.024043686383512723 0 0.0010736173006380453 -0.025782033542421177 0 5.8579371318245909e-05 -0.022490331370766149 0 -0.0013249601982343007 -0.024043686383512723 0 5.8579371318245909e-05 -0.022490331370766149 0 -0.0009933751075286738 -0.022443600975394926 0 -0.000346256934628059 -0.021594947702755222 0 5.8579371318245909e-05 -0.022490331370766149 0 -0.0013249601982343007 -0.024043686383512723 0 -0.0009933751075286738 -0.022443600975394926 0 -0.0013249601982343007 -0.024043686383512723 0 -0.0017756758357358542 -0.02317467402283872 0 -0.0009933751075286738 -0.022443600975394926 0 -0.0025225009774551607 -0.026346616432708178 0 -0.0013249601982343007 -0.024043686383512723 0 -0.0024575041179507972 -0.024094660703025714 0 -0.0013249601982343007 -0.024043686383512723 0 -0.0024575041179507972 -0.024094660703025714 0 -0.0017756758357358542 -0.02317467402283872 0 -0.004094943935280892 -0.025281512650245634 0 -0.0020724264174245091 -0.026569978152064327 0 -0.0027307727541908853 -0.023604356055053101 0 -0.0023734718612563746 -0.025718450876553216 0 -0.0028500339219239756 -0.024665704931066536 0 -0.0024575041179507972 -0.024094660703025714 0 -0.0027307727541908853 -0.023604356055053101 0 -0.0017756758357358542 -0.02317467402283872 0 -0.0032264673902661556 -0.02909195621170783 0 -0.0020724264174245091 -0.026569978152064327 0 -0.0036313590392915746 -0.026951016928642494 0 -0.004094943935280892 -0.025281512650245634 0 -0.0020724264174245091 -0.026569978152064327 0 -0.0036313590392915746 -0.026951016928642494 0 0.00079977974319884505 -0.022426739294726071 0 -0.001318681007044442 -0.022806951335509289 0 0.00013245291482522084 -0.026747363492043465 0 -0.00094171700576034024 -0.033126293677862122 0 -0.00072053997579336697 -0.032255272050951404 0 -0.0027307727541908853 -0.023604356055053101 0 -0.0017830303687306464 -0.023108930987155347 0 -0.0017756758357358542 -0.02317467402283872 0 -0.0028228693125795018 -0.022473248475187994 0 -0.0027307727541908853 -0.023604356055053101 0 -0.0017830303687306464 -0.023108930987155347 0 -0.0028228693125795018 -0.022473248475187994 0 -0.001318681007044442 -0.022806951335509289 0 -0.0017830303687306464 -0.023108930987155347 0 -0.001318681007044442 -0.022806951335509289 0 -0.0017830303687306464 -0.023108930987155347 0 -0.0012530095825628463 -0.02270185244743789 0 -0.0017830303687306464 -0.023108930987155347 0 -0.0017756758357358542 -0.02317467402283872 0 -0.0012530095825628463 -0.02270185244743789 0 -0.001318681007044442 -0.022806951335509289 0 -0.0012530095825628463 -0.02270185244743789 0 -0.00084840872356807149 -0.024194492339042667 0 -0.0012530095825628463 -0.02270185244743789 0 -0.00043093048355089756 -0.02172446319924632 0 -0.00067683572960448824 -0.022811362955123687 0 -0.0012530095825628463 -0.02270185244743789 0 -0.0009933751075286738 -0.022443600975394926 0 -0.00043093048355089756 -0.02172446319924632 0 -0.0017756758357358542 -0.02317467402283872 0 -0.0012530095825628463 -0.02270185244743789 0 -0.0009933751075286738 -0.022443600975394926 0 -0.0009933751075286738 -0.022443600975394926 0 -0.00043093048355089756 -0.02172446319924632 0 -0.000346256934628059 -0.021594947702755222 0 -0.00043093048355089756 -0.02172446319924632 0 -0.00038957018871463924 -0.021536162230528361 0 -0.00067683572960448824 -0.022811362955123687 0 -0.00038957018871463924 -0.021536162230528361 0 -1.7691046714855898e-06 -0.021776673775351914 0 -0.00067683572960448824 -0.022811362955123687 0 -1.7691046714855898e-06 -0.021776673775351914 0 -0.00067683572960448824 -0.022811362955123687 0 -8.6699002578965541e-07 -0.025072790782127451 0 -0.00067683572960448824 -0.022811362955123687 0 -0.00084840872356807149 -0.024194492339042667 0 -8.6699002578965541e-07 -0.025072790782127451 0 -0.0012530095825628463 -0.02270185244743789 0 -0.00067683572960448824 -0.022811362955123687 0 -0.00084840872356807149 -0.024194492339042667 0 -6.6168743275375661e-08 -0.028367100796016783 0 -8.6699002578965541e-07 -0.025072790782127451 0 0.00013245291482522084 -0.026747363492043465 0 -0.00084840872356807149 -0.024194492339042667 0 -8.6699002578965541e-07 -0.025072790782127451 0 0.00013245291482522084 -0.026747363492043465 0 -0.001318681007044442 -0.022806951335509289 0 -0.00084840872356807149 -0.024194492339042667 0 0.00013245291482522084 -0.026747363492043465 0 0.00033216044426280869 -0.018050917053469045 0 0.00091793257045926543 -0.018744972125898915 0 4.1105730367289827e-05 -0.020185087378610952 0 0.00033216044426280869 -0.018050917053469045 0 0.00040335381897589509 -0.017263310630685934 0 -2.0435773388330113e-05 -0.016588388354890904 0 0.00033216044426280869 -0.018050917053469045 0 0.00040335381897589509 -0.017263310630685934 0 0.00091793257045926543 -0.018744972125898915 0 0.00040335381897589509 -0.017263310630685934 0 7.0011959260898109e-05 -0.015408255635853053 0 0.00051585264477697023 -0.017216247647489184 0 0.00040335381897589509 -0.017263310630685934 0 0.00091793257045926543 -0.018744972125898915 0 0.00051585264477697023 -0.017216247647489184 0 0.00077521056307622435 -0.018657338002731585 0 0.00091793257045926543 -0.018744972125898915 0 0.00051585264477697023 -0.017216247647489184 0 0.0018431955342084019 -0.020457130097048696 0 0.00091793257045926543 -0.018744972125898915 0 4.1105730367289827e-05 -0.020185087378610952 0 5.8579371318245909e-05 -0.022490331370766149 0 4.1105730367289827e-05 -0.020185087378610952 0 -0.000346256934628059 -0.021594947702755222 0 -0.00043093048355089756 -0.02172446319924632 0 4.1105730367289827e-05 -0.020185087378610952 0 -0.000346256934628059 -0.021594947702755222 0 -0.00043093048355089756 -0.02172446319924632 0 4.1105730367289827e-05 -0.020185087378610952 0 0.00016165880734448553 -0.021279655621047274 0 0.00033216044426280869 -0.018050917053469045 0 4.1105730367289827e-05 -0.020185087378610952 0 -0.00018726423735888063 -0.017149103732391938 0 -2.0938110664826545e-06 -0.019504807059365917 0 -3.2532764409338144e-06 -0.019147933685869718 0 0.00033216044426280869 -0.018050917053469045 0 -0.00018726423735888063 -0.017149103732391938 0 -2.0435773388330113e-05 -0.016588388354890904 0 -0.00043093048355089756 -0.02172446319924632 0 -0.00038957018871463924 -0.021536162230528361 0 0.00016165880734448553 -0.021279655621047274 0 -0.00038957018871463924 -0.021536162230528361 0 0.00016165880734448553 -0.021279655621047274 0 1.78290387994702e-06 -0.018488199502985928 0 -0.00038957018871463924 -0.021536162230528361 0 -1.7691046714855898e-06 -0.021776673775351914 0 1.78290387994702e-06 -0.018488199502985928 0 -3.2532764409338144e-06 -0.019147933685869718 0 3.8221807787596852e-09 -0.018483412436026629 0 -0.00018726423735888063 -0.017149103732391938 0 -6.4259113726450044e-08 -0.018477338708055496 0 -2.0435773388330113e-05 -0.016588388354890904 0 -6.4259113726450044e-08 -0.018477338708055496 0 -5.1041050106243871e-07 -0.015847200916296635 0 -2.0435773388330113e-05 -0.016588388354890904 0 0.00040335381897589509 -0.017263310630685934 0 -2.0435773388330113e-05 -0.016588388354890904 0 7.0011959260898109e-05 -0.015408255635853053 0 -5.1041050106243871e-07 -0.015847200916296635 0 7.0011959260898109e-05 -0.015408255635853053 0 4.0923443707004695e-07 -0.013210186563937987 0 -5.1041050106243871e-07 -0.015847200916296635 0 -2.0435773388330113e-05 -0.016588388354890904 0 7.0011959260898109e-05 -0.015408255635853053 0 7.0011959260898109e-05 -0.015408255635853053 0 4.0923443707004695e-07 -0.013210186563937987 0 0.00010510362501616609 -0.013581946355714268 0 0.00010510362501616609 -0.013581946355714268 0 -1.4747814051966868e-06 -0.010572299354243591 0 0.00064279916240897776 -0.013199152961016926 0 4.0923443707004695e-07 -0.013210186563937987 0 0.00010510362501616609 -0.013581946355714268 0 -1.4747814051966868e-06 -0.010572299354243591 0 0.00010510362501616609 -0.013581946355714268 0 0.00064279916240897776 -0.013199152961016926 0 0.00047161275260104105 -0.015587563135772281 0 7.0011959260898109e-05 -0.015408255635853053 0 0.00010510362501616609 -0.013581946355714268 0 0.00047161275260104105 -0.015587563135772281 0 1.8137732462731262e-06 -0.0079362784499124664 0 0.00095279052901519733 -0.008887541840678111 0 -1.4747814051966868e-06 -0.010572299354243591 0 7.3622721993063077e-06 -0.0079419191070174994 0 0.00064279916240897776 -0.013199152961016926 0 7.3622721993063077e-06 -0.0079419191070174994 0 0.00064279916240897776 -0.013199152961016926 0 0.0030503491824641674 -0.013854525150429023 0 0.00095279052901519733 -0.008887541840678111 0 0.0014012005347159369 -0.0095401822584591789 0 0.0030503491824641674 -0.013854525150429023 0 0.0015005100345126957 -0.016630874979673936 0 0.003337902534761458 -0.016853108004129001 0 0.00064279916240897776 -0.013199152961016926 0 0.0030503491824641674 -0.013854525150429023 0 0.0015005100345126957 -0.016630874979673936 0 0.0015005100345126957 -0.016630874979673936 0 0.003337902534761458 -0.016853108004129001 0 0.002196916851985834 -0.018051904086860832 0 0.00051585264477697023 -0.017216247647489184 0 0.00047161275260104105 -0.015587563135772281 0 0.000820613029910265 -0.017284065989456199 0 7.0011959260898109e-05 -0.015408255635853053 0 0.00051585264477697023 -0.017216247647489184 0 0.00047161275260104105 -0.015587563135772281 0 0.0015005100345126957 -0.016630874979673936 0 0.00047161275260104105 -0.015587563135772281 0 0.000820613029910265 -0.017284065989456199 0 0.00064279916240897776 -0.013199152961016926 0 0.0015005100345126957 -0.016630874979673936 0 0.00047161275260104105 -0.015587563135772281 0 0.0015005100345126957 -0.016630874979673936 0 0.000820613029910265 -0.017284065989456199 0 0.0011963652744354566 -0.018055755394610233 0 0.00077521056307622435 -0.018657338002731585 0 0.00051585264477697023 -0.017216247647489184 0 0.000820613029910265 -0.017284065989456199 0 0.00077521056307622435 -0.018657338002731585 0 0.000820613029910265 -0.017284065989456199 0 0.0011963652744354566 -0.018055755394610233 0 0.00077521056307622435 -0.018657338002731585 0 0.0010960357134346622 -0.018560049671314808 0 0.0011963652744354566 -0.018055755394610233 0 0.00077521056307622435 -0.018657338002731585 0 0.00090569887598126141 -0.018701783894983812 0 0.0010960357134346622 -0.018560049671314808 0 0.0027516927158605792 -0.018571475236013057 0 0.0032189701003935839 -0.018913281350210382 0 0.00090569887598126141 -0.018701783894983812 0 0.0010960357134346622 -0.018560049671314808 0 0.0011120732314497791 -0.018881156048594996 0 0.0010221333296959773 -0.018580347955659451 0 0.00092182326218849672 -0.018576306885330972 0 0.00091204164235289651 -0.018575588815711652 0 0.0010960357134346622 -0.018560049671314808 0 0.0011963652744354566 -0.018055755394610233 0 0.0017142601695627725 -0.018749987661572473 0 0.0010960357134346622 -0.018560049671314808 0 0.0017142601695627725 -0.018749987661572473 0 0.0013374091951620041 -0.018953412131025579 0 0.0010960357134346622 -0.018560049671314808 0 0.0011120732314497791 -0.018881156048594996 0 0.0013374091951620041 -0.018953412131025579 0 0.0015005100345126957 -0.016630874979673936 0 0.0011963652744354566 -0.018055755394610233 0 0.002196916851985834 -0.018051904086860832 0 0.0011963652744354566 -0.018055755394610233 0 0.002196916851985834 -0.018051904086860832 0 0.0017142601695627725 -0.018749987661572473 0 0.003337902534761458 -0.016853108004129001 0 0.002196916851985834 -0.018051904086860832 0 0.00309526525308392 -0.018452926557636806 0 0.0014012005347159369 -0.0095401822584591789 0 0.0015046083845481212 -0.010061189988336793 0 0.002196916851985834 -0.018051904086860832 0 0.002470044936649761 -0.018840217976535914 0 0.00309526525308392 -0.018452926557636806 0 0.002196916851985834 -0.018051904086860832 0 0.002470044936649761 -0.018840217976535914 0 0.0017142601695627725 -0.018749987661572473 0 0.0017142601695627725 -0.018749987661572473 0 0.0022548732287206788 -0.01933982885877495 0 0.0016904158969685856 -0.019364913397204461 0 0.002470044936649761 -0.018840217976535914 0 0.0017142601695627725 -0.018749987661572473 0 0.0022548732287206788 -0.01933982885877495 0 0.002470044936649761 -0.018840217976535914 0 0.0029547892121130049 -0.019412351531513907 0 0.00309526525308392 -0.018452926557636806 0 0.002470044936649761 -0.018840217976535914 0 0.0022548732287206788 -0.01933982885877495 0 0.0029547892121130049 -0.019412351531513907 0 0.0022548732287206788 -0.01933982885877495 0 0.0024801024171710582 -0.019840689123118021 0 0.0029547892121130049 -0.019412351531513907 0 0.0018598713445779609 -0.019926101092985541 0 0.0022548732287206788 -0.01933982885877495 0 0.0016904158969685856 -0.019364913397204461 0 0.0018598713445779609 -0.019926101092985541 0 0.0022548732287206788 -0.01933982885877495 0 0.0024801024171710582 -0.019840689123118021 0 0.0018598713445779609 -0.019926101092985541 0 0.0010852504007297114 -0.019347387982687505 0 0.0016904158969685856 -0.019364913397204461 0 0.004131647140332608 -0.018299950168430567 0 0.0049335843203916563 -0.020543140365902254 0 0.0062315512504338474 -0.017234788318826605 0 0.0086478923036983294 -0.018065979656208545 0 0.0093477568457743035 -0.020030440223707407 0 0.0063614005367497312 -0.022636872939803983 0 0.0049335843203916563 -0.020543140365902254 0 0.010297928549994324 -0.028856176275262806 0 0.0081735185996322981 -0.028570538616927672 0 0.0095709585167396641 -0.02675360722384991 0 0.008889060637447101 -0.03053566967782247 0 0.010297928549994324 -0.028856176275262806 0 0.0081735185996322981 -0.028570538616927672 0 0.0069105606070663976 -0.026693300844101705 0 0.0081735185996322981 -0.028570538616927672 0 0.0095709585167396641 -0.02675360722384991 0 0.0063614005367497312 -0.022636872939803983 0 0.0050801892688043205 -0.020891912167982345 0 0.0059720315818347445 -0.022463642539205592 0 0.0053815183679558976 -0.020796271709504127 0 0.0050716122658465077 -0.020517007793626179 0 0.00090569887598126141 -0.018701783894983812 0 0.0010852504007297114 -0.019347387982687505 0 0.0011120732314497791 -0.018881156048594996 0 0.00091204164235289651 -0.018575588815711652 0 0.00099076261465119589 -0.018628025148700593 0 0.00097515833815902937 -0.018622153669319734 0 0.0032189701003935839 -0.018913281350210382 0 0.0049335843203916563 -0.020543140365902254 0 0.0010221333296959773 -0.018580347955659451 0 0.00092182326218849672 -0.018576306885330972 0 0.00088614632338488222 -0.018503355473713828 0 0.0041098590263362522 -0.020830323094704766 0 0.0050801892688043205 -0.020891912167982345 0 0.00092182326218849672 -0.018576306885330972 0 0.00091204164235289651 -0.018575588815711652 0 0.00097515833815902937 -0.018622153669319734 0 0.0049335843203916563 -0.020543140365902254 0 0.0050801892688043205 -0.020891912167982345 0 0.0044007757328078812 -0.01993930466594165 0 0.0050801892688043205 -0.020891912167982345 0 0.0010852504007297114 -0.019347387982687505 0 0.0013374091951620041 -0.018953412131025579 0 0.0016904158969685856 -0.019364913397204461 0 0.0010852504007297114 -0.019347387982687505 0 0.0011120732314497791 -0.018881156048594996 0 0.0013374091951620041 -0.018953412131025579 0 0.0017142601695627725 -0.018749987661572473 0 0.0013374091951620041 -0.018953412131025579 0 0.0016904158969685856 -0.019364913397204461 0 -0.00075248136263886592 -0.0014785686764575085 0 -0.00051223956426563189 -0.0011664875357695742 0 -0.00059371335893477182 -0.00071679077629196585 0 -0.00075248136263886592 -0.0014785686764575085 0 -0.00051223956426563189 -0.0011664875357695742 0 -0.00041376341247436325 -0.001515099418053788 0 -0.00010270755964302089 0.0012126402845438835 0 -0.00014809394146831308 0.0009123697973420703 0 0.0003697521867094065 0.0035149560977449502 0 0.00077749247748538463 0.0032215295243443807 0 0.00057262755425141812 0.0029844457141970111 0 0.0003697521867094065 0.0035149560977449502 0 0.00077749247748538463 0.0032215295243443807 0 0.00098705843994283744 0.0035567396874939604 0 0.00077749247748538463 0.0032215295243443807 0 0.00088676881976234754 0.002942248555313289 0 0.00057262755425141812 0.0029844457141970111 0 0.00088676881976234754 0.002942248555313289 0 0.00070614973670105128 0.0026888715620610915 0 0.00096035032190838266 0.0027570716727654014 0 0.00088676881976234754 0.002942248555313289 0 0.00070614973670105128 0.0026888715620610915 0 0.00057262755425141812 0.0029844457141970111 0 0.00058293255687193635 0.0026860930120414291 0 0.00057262755425141812 0.0029844457141970111 0 0.00039175018463392177 0.0026583636624756611 0 0.0003697521867094065 0.0035149560977449502 0 0.00057262755425141812 0.0029844457141970111 0 0.00039175018463392177 0.0026583636624756611 0 0.00070614973670105128 0.0026888715620610915 0 0.00058293255687193635 0.0026860930120414291 0 0.00055052040263803487 0.0024724737339679513 0 0.00070614973670105128 0.0026888715620610915 0 0.00058293255687193635 0.0026860930120414291 0 0.00057262755425141812 0.0029844457141970111 0 -0.00051223956426563189 -0.0011664875357695742 0 -0.00059371335893477182 -0.00071679077629196585 0 -0.00048020395631973972 -0.00086851514440150111 0 0.00058293255687193635 0.0026860930120414291 0 0.00039175018463392177 0.0026583636624756611 0 0.00055052040263803487 0.0024724737339679513 0 -0.00040885171694968918 -0.00050697162948290097 0 -0.00059371335893477182 -0.00071679077629196585 0 -0.00044970153766691668 -0.0006546019068619835 0 -0.00059371335893477182 -0.00071679077629196585 0 -0.0004855822181208368 -0.00073575093985575168 0 -0.00044970153766691668 -0.0006546019068619835 0 -0.00059371335893477182 -0.00071679077629196585 0 -0.0004855822181208368 -0.00073575093985575168 0 -0.00048020395631973972 -0.00086851514440150111 0 -0.0004855822181208368 -0.00073575093985575168 0 -0.00041055076830181342 -0.00076315135307291801 0 -0.00048020395631973972 -0.00086851514440150111 0 -0.0004855822181208368 -0.00073575093985575168 0 -0.00041055076830181342 -0.00076315135307291801 0 -0.00044970153766691668 -0.0006546019068619835 0 -0.00041055076830181342 -0.00076315135307291801 0 -0.00044970153766691668 -0.0006546019068619835 0 -0.0003557940848108776 -0.00065690796234444012 0 -0.0003557940848108776 -0.00065690796234444012 0 -0.00027393746587965905 -0.00081289089836571367 0 -0.0002649215020620433 -0.00060768252600731931 0 -0.00041055076830181342 -0.00076315135307291801 0 -0.0003557940848108776 -0.00065690796234444012 0 -0.00027393746587965905 -0.00081289089836571367 0 -0.00041055076830181342 -0.00076315135307291801 0 -0.00027393746587965905 -0.00081289089836571367 0 -0.00038593702943813763 -0.00098527803488466831 0 -0.00027393746587965905 -0.00081289089836571367 0 -0.00038593702943813763 -0.00098527803488466831 0 -0.0002381267193796133 -0.0010498167844920935 0 -0.00051223956426563189 -0.0011664875357695742 0 -0.00038593702943813763 -0.00098527803488466831 0 -0.00048020395631973972 -0.00086851514440150111 0 -0.00041055076830181342 -0.00076315135307291801 0 -0.00038593702943813763 -0.00098527803488466831 0 -0.00048020395631973972 -0.00086851514440150111 0 0.0022199442064089535 -0.017523518905307369 0 0.0014670197574864837 -0.010407045349554941 0 -0.00031221614308918718 -0.0002697513722857937 0 -0.0002649215020620433 -0.00060768252600731931 0 0.00015080724750588485 -0.0010335548626368061 0 0.0028953671721148213 -0.020044551511420539 0 0.0024801024171710582 -0.019840689123118021 0 0.0029547892121130049 -0.019412351531513907 0 0.0011058851936030034 -0.010256830401529977 0 0.0014670197574864837 -0.010407045349554941 0 -0.00027393746587965905 -0.00081289089836571367 0 -0.0002649215020620433 -0.00060768252600731931 0 0.00015080724750588485 -0.0010335548626368061 0 -0.00027393746587965905 -0.00081289089836571367 0 0.00015080724750588485 -0.0010335548626368061 0 -0.0002381267193796133 -0.0010498167844920935 0 0.00015080724750588485 -0.0010335548626368061 0 -6.594208990205451e-05 -0.0012767166614388809 0 0.00022081507634251542 -0.0015227290773476741 0 0.0014670197574864837 -0.010407045349554941 0 0.0009775436758533622 -0.0050695141152870306 0 0.00011656050375567779 -0.0017112853745479776 0 0.00023978644299059887 -0.0018703727501022992 0 0.00018588285142619599 -0.0018100639343916986 0 0.0014670197574864837 -0.010407045349554941 0 0.0015046083845481212 -0.010061189988336793 0 0.00015080724750588485 -0.0010335548626368061 0 -6.594208990205451e-05 -0.0012767166614388809 0 -0.0002381267193796133 -0.0010498167844920935 0 -6.594208990205451e-05 -0.0012767166614388809 0 -0.0001399589458321395 -0.0015180114688966445 0 0.00022081507634251542 -0.0015227290773476741 0 -0.00051223956426563189 -0.0011664875357695742 0 -0.00038593702943813763 -0.00098527803488466831 0 -0.00030617116953564376 -0.0012462825116087469 0 -6.594208990205451e-05 -0.0012767166614388809 0 -0.00030617116953564376 -0.0012462825116087469 0 -0.0002381267193796133 -0.0010498167844920935 0 -0.00038593702943813763 -0.00098527803488466831 0 -0.00030617116953564376 -0.0012462825116087469 0 -0.0002381267193796133 -0.0010498167844920935 0 -6.594208990205451e-05 -0.0012767166614388809 0 -0.00030617116953564376 -0.0012462825116087469 0 -0.0001399589458321395 -0.0015180114688966445 0 -0.00051223956426563189 -0.0011664875357695742 0 -0.00030617116953564376 -0.0012462825116087469 0 -0.00041376341247436325 -0.001515099418053788 0 -0.00030617116953564376 -0.0012462825116087469 0 -0.00041376341247436325 -0.001515099418053788 0 -0.0001399589458321395 -0.0015180114688966445 0 -0.00041376341247436325 -0.001515099418053788 0 -0.0001399589458321395 -0.0015180114688966445 0 -0.00021188496835463676 -0.0018042870444483609 0 -0.0001399589458321395 -0.0015180114688966445 0 -0.00021188496835463676 -0.0018042870444483609 0 3.0184591024021584e-05 -0.0017474425384391516 0 -0.00041376341247436325 -0.001515099418053788 0 -0.00021188496835463676 -0.0018042870444483609 0 -0.00048440152736243305 -0.0018163027748815707 0 0.00022081507634251542 -0.0015227290773476741 0 3.0184591024021584e-05 -0.0017474425384391516 0 0.00025889153310144751 -0.0019662909374805696 0 0.0009775436758533622 -0.0050695141152870306 0 0.00085068938432319215 -0.0038548172375560638 0 0.00023978644299059887 -0.0018703727501022992 0 0.00018588285142619599 -0.0018100639343916986 0 0.00025889153310144751 -0.0019662909374805696 0 -0.0001399589458321395 -0.0015180114688966445 0 0.00022081507634251542 -0.0015227290773476741 0 3.0184591024021584e-05 -0.0017474425384391516 0 -0.00021188496835463676 -0.0018042870444483609 0 3.0184591024021584e-05 -0.0017474425384391516 0 4.1569181787354377e-05 -0.0019496983921747037 0 0.00050738833124002293 -0.0022887468888977808 0 0.00025889153310144751 -0.0019662909374805696 0 0.00012140652368565411 -0.0021255548709418863 0 0.00050738833124002293 -0.0022887468888977808 0 0.00023978644299059887 -0.0018703727501022992 0 0.00025889153310144751 -0.0019662909374805696 0 0.00025889153310144751 -0.0019662909374805696 0 4.1569181787354377e-05 -0.0019496983921747037 0 0.00012140652368565411 -0.0021255548709418863 0 3.0184591024021584e-05 -0.0017474425384391516 0 0.00025889153310144751 -0.0019662909374805696 0 4.1569181787354377e-05 -0.0019496983921747037 0 4.1569181787354377e-05 -0.0019496983921747037 0 0.00012140652368565411 -0.0021255548709418863 0 -0.00012552020724003121 -0.0020952799419806977 0 -0.00021188496835463676 -0.0018042870444483609 0 -0.00034377190595157714 -0.0020181288025015232 0 -0.00048440152736243305 -0.0018163027748815707 0 -0.00021188496835463676 -0.0018042870444483609 0 -0.00012552020724003121 -0.0020952799419806977 0 -0.00034377190595157714 -0.0020181288025015232 0 -0.00021188496835463676 -0.0018042870444483609 0 4.1569181787354377e-05 -0.0019496983921747037 0 -0.00012552020724003121 -0.0020952799419806977 0 -0.00012552020724003121 -0.0020952799419806977 0 -0.00034377190595157714 -0.0020181288025015232 0 -0.00038335644311716027 -0.0022862989257026261 0 -0.00034377190595157714 -0.0020181288025015232 0 -0.00052668917149151402 -0.0020665794243596137 0 -0.00038335644311716027 -0.0022862989257026261 0 -0.00052668917149151402 -0.0020665794243596137 0 -0.00060468770379741349 -0.0019220069573968256 0 -0.00059423055630987746 -0.0020782601852619392 0 -0.00052668917149151402 -0.0020665794243596137 0 -0.00060468770379741349 -0.0019220069573968256 0 -0.00048440152736243305 -0.0018163027748815707 0 -0.00034377190595157714 -0.0020181288025015232 0 -0.00052668917149151402 -0.0020665794243596137 0 -0.00048440152736243305 -0.0018163027748815707 0 -0.00075248136263886592 -0.0014785686764575085 0 -0.00060468770379741349 -0.0019220069573968256 0 -0.00048440152736243305 -0.0018163027748815707 0 -0.00075248136263886592 -0.0014785686764575085 0 -0.00041376341247436325 -0.001515099418053788 0 -0.00048440152736243305 -0.0018163027748815707 0 0.0003697521867094065 0.0035149560977449502 0 0.00082893696427019273 0.0039370207391958801 0 0.00098705843994283744 0.0035567396874939604 0 -0.00010270755964302089 0.0012126402845438835 0 -8.2383733728315641e-05 0.0014908039291682048 0 0.0003697521867094065 0.0035149560977449502 0 0.00045016022895862681 0.0043493114574788818 0 0.00082893696427019273 0.0039370207391958801 0 -0.00075248136263886592 -0.0014785686764575085 0 -0.00060468770379741349 -0.0019220069573968256 0 -0.00064546280487248666 -0.0020993222630092774 0 0.0003697521867094065 0.0035149560977449502 0 0.00045016022895862681 0.0043493114574788818 0 0.00038488983132774793 0.0046644607578904141 0 -0.00064546280487248666 -0.0020993222630092774 0 -0.00059423055630987746 -0.0020782601852619392 0 -0.00056937092569651275 -0.0021607955451862586 0 -0.00060468770379741349 -0.0019220069573968256 0 -0.00064546280487248666 -0.0020993222630092774 0 -0.00059423055630987746 -0.0020782601852619392 0 -0.00052668917149151402 -0.0020665794243596137 0 -0.00059423055630987746 -0.0020782601852619392 0 -0.00056937092569651275 -0.0021607955451862586 0 -0.00064546280487248666 -0.0020993222630092774 0 -0.00056937092569651275 -0.0021607955451862586 0 -0.00014718202640282645 -0.0020141483495211688 0 -0.00052668917149151402 -0.0020665794243596137 0 -0.00056937092569651275 -0.0021607955451862586 0 -0.00038335644311716027 -0.0022862989257026261 0 -0.00056937092569651275 -0.0021607955451862586 0 -0.00038335644311716027 -0.0022862989257026261 0 -0.00049637377734015084 -0.0025246342025737685 0 -0.00056937092569651275 -0.0021607955451862586 0 -0.00041901346819110208 -0.0014337300157372362 0 -0.00049637377734015084 -0.0025246342025737685 0 -0.00056937092569651275 -0.0021607955451862586 0 -0.00041901346819110208 -0.0014337300157372362 0 -0.00014718202640282645 -0.0020141483495211688 0 0.00050738833124002293 -0.0022887468888977808 0 -5.5952518179645462e-05 -0.0023520244835526657 0 -0.00012218408279196679 -0.0028427593281421656 0 0.00050738833124002293 -0.0022887468888977808 0 0.00012140652368565411 -0.0021255548709418863 0 -5.5952518179645462e-05 -0.0023520244835526657 0 0.00012140652368565411 -0.0021255548709418863 0 -0.00012552020724003121 -0.0020952799419806977 0 -5.5952518179645462e-05 -0.0023520244835526657 0 -5.5952518179645462e-05 -0.0023520244835526657 0 -0.00038335644311716027 -0.0022862989257026261 0 -0.00012218408279196679 -0.0028427593281421656 0 -0.00012552020724003121 -0.0020952799419806977 0 -5.5952518179645462e-05 -0.0023520244835526657 0 -0.00038335644311716027 -0.0022862989257026261 0 -0.00038335644311716027 -0.0022862989257026261 0 -0.00012218408279196679 -0.0028427593281421656 0 -0.00049637377734015084 -0.0025246342025737685 0 0.00085709807958080867 -0.0037418688658505685 0 0.00050738833124002293 -0.0022887468888977808 0 -0.00012218408279196679 -0.0028427593281421656 0 0.00085709807958080867 -0.0037418688658505685 0 -0.00012218408279196679 -0.0028427593281421656 0 -0.00036794873632036768 -0.0037262714118410328 0 -0.00012218408279196679 -0.0028427593281421656 0 -0.00036794873632036768 -0.0037262714118410328 0 -0.00049637377734015084 -0.0025246342025737685 0 -0.00036794873632036768 -0.0037262714118410328 0 -1.4437093741319927e-06 -0.0049999575601273327 0 -8.0781649165895459e-07 -0.0020638244635964908 0 3.574804032855778e-06 -0.0079294112228696367 0 0.00085709807958080867 -0.0037418688658505685 0 -0.00036794873632036768 -0.0037262714118410328 0 3.574804032855778e-06 -0.0079294112228696367 0 -0.00036794873632036768 -0.0037262714118410328 0 -1.4437093741319927e-06 -0.0049999575601273327 0 -0.00036794873632036768 -0.0037262714118410328 0 -0.00049637377734015084 -0.0025246342025737685 0 -8.0781649165895459e-07 -0.0020638244635964908 0 -0.00041901346819110208 -0.0014337300157372362 0 -0.00049637377734015084 -0.0025246342025737685 0 -8.0781649165895459e-07 -0.0020638244635964908 0 -0.00041901346819110208 -0.0014337300157372362 0 -8.0781649165895459e-07 -0.0020638244635964908 0 -1.281081031313312e-06 0.0008718124456802475 0 -0.00041901346819110208 -0.0014337300157372362 0 -1.281081031313312e-06 0.0008718124456802475 0 0.00048210120006022476 -0.00042645569576824598 0 -9.5007591981209272e-05 0.0024838758332225148 0 1.2857935790343989e-07 0.0038054751681957377 0 -1.281081031313312e-06 0.0008718124456802475 0 0.00048210120006022476 -0.00042645569576824598 0 3.1792893258394447e-06 0.0038023356887793044 0 0.00033850917146570087 0.0052075814004926496 0 1.2886953661395813e-06 0.0038115378351639504 0 -0.00015717788574426612 0.0051619774226957498 0 1.2886953661395813e-06 0.0038115378351639504 0 -1.5227132282928671e-06 0.0057519238189178978 0 -0.00015717788574426612 0.0051619774226957498 0 -1.5227132282928671e-06 0.0057519238189178978 0 -9.9346318760831987e-05 0.0058406016654447461 0 2.0799794544927358e-06 0.0076927293984849644 0 -1.5227132282928671e-06 0.0057519238189178978 0 -9.9346318760831987e-05 0.0058406016654447461 0 -0.00015717788574426612 0.0051619774226957498 0 -9.9346318760831987e-05 0.0058406016654447461 0 -4.1670774534518986e-05 0.0053053030539026956 0 -0.00015717788574426612 0.0051619774226957498 0 -9.9346318760831987e-05 0.0058406016654447461 0 -4.1670774534518986e-05 0.0053053030539026956 0 0.0002979617436325464 0.0051795041084599577 0 0.00033850917146570087 0.0052075814004926496 0 -0.00015717788574426612 0.0051619774226957498 0 0.00017859309321442376 0.0052113638782413383 0 -4.1670774534518986e-05 0.0053053030539026956 0 -0.00015717788574426612 0.0051619774226957498 0 0.00017859309321442376 0.0052113638782413383 0 0.00017859309321442376 0.0052113638782413383 0 0.0001500001336309614 0.0051562769335815987 0 0.00021083153914795111 0.0050632963523079937 0 -4.1670774534518986e-05 0.0053053030539026956 0 0.00017859309321442376 0.0052113638782413383 0 0.0001500001336309614 0.0051562769335815987 0 0.0001500001336309614 0.0051562769335815987 0 0.00029919347215410109 0.0050655526420014607 0 0.0002979617436325464 0.0051795041084599577 0 -4.1670774534518986e-05 0.0053053030539026956 0 0.0001500001336309614 0.0051562769335815987 0 0.0002979617436325464 0.0051795041084599577 0 0.0001500001336309614 0.0051562769335815987 0 0.00029919347215410109 0.0050655526420014607 0 0.00021083153914795111 0.0050632963523079937 0 0.00029919347215410109 0.0050655526420014607 0 0.00021083153914795111 0.0050632963523079937 0 0.00026317663255886277 0.0049875867493207873 0 0.00017859309321442376 0.0052113638782413383 0 0.00021083153914795111 0.0050632963523079937 0 0.00024570190727713631 0.0050039450252191559 0 0.00021083153914795111 0.0050632963523079937 0 0.00024570190727713631 0.0050039450252191559 0 0.00024068735077986862 0.004988297680472098 0 0.00017859309321442376 0.0052113638782413383 0 0.00024570190727713631 0.0050039450252191559 0 0.00022951764911410482 0.00505273489041332 0 -8.2383733728315641e-05 0.0014908039291682048 0 -7.7665293391218041e-05 0.001842614667130179 0 0.00024570190727713631 0.0050039450252191559 0 0.00022951764911410482 0.00505273489041332 0 0.00031034213209534531 0.0048793932128366928 0 0.00038488983132774793 0.0046644607578904141 0 0.00022951764911410482 0.00505273489041332 0 0.00031034213209534531 0.0048793932128366928 0 -0.00041901346819110208 -0.0014337300157372362 0 0.00048210120006022476 -0.00042645569576824598 0 -0.00014718202640282645 -0.0020141483495211688 0 -9.5007591981209272e-05 0.0024838758332225148 0 -7.7665293391218041e-05 0.001842614667130179 0 0.00033850917146570087 0.0052075814004926496 0 0.00017859309321442376 0.0052113638782413383 0 0.00022951764911410482 0.00505273489041332 0 -0.00023595236548141712 0.0116932694620551 0 0.00019964985659411244 0.011342861940598258 0 0.00045952981514440138 0.011725033910763577 0 -6.4137136509787996e-07 0.012569427337683608 0 -0.00023595236548141712 0.0116932694620551 0 0.00045952981514440138 0.011725033910763577 0 2.8763405907992641e-06 0.012580432342984289 0 0.0015633097130984747 0.014714726344791134 0 2.5069178171980815e-07 0.011010229704021879 0 0.00013601761244383127 0.010760423153132956 0 -6.792017163434844e-08 0.011003781616654489 0 1.6442342614777985e-05 0.0094059596440902744 0 -0.00024118080234087377 0.0094840126765369983 0 -6.4137136509787996e-07 0.012569427337683608 0 6.6157119808747232e-07 0.011019048120859312 0 -0.00023595236548141712 0.0116932694620551 0 1.6442342614777985e-05 0.0094059596440902744 0 -0.00024118080234087377 0.0094840126765369983 0 -8.6580698426728413e-06 0.0096586270251677528 0 1.6442342614777985e-05 0.0094059596440902744 0 -8.6580698426728413e-06 0.0096586270251677528 0 2.4357765649125298e-05 0.0095368733882667776 0 -6.792017163434844e-08 0.011003781616654489 0 -0.00024118080234087377 0.0094840126765369983 0 7.1817803148963544e-08 0.0077035844627890322 0 6.7994390272078052e-07 0.0076969704812965079 0 0.00036618066378144395 0.0078130559558559718 0 -0.00024118080234087377 0.0094840126765369983 0 7.1817803148963544e-08 0.0077035844627890322 0 -8.6580698426728413e-06 0.0096586270251677528 0 -9.9346318760831987e-05 0.0058406016654447461 0 2.0799794544927358e-06 0.0076927293984849644 0 0.00067628130377248377 0.0054573084188795085 0 -9.9346318760831987e-05 0.0058406016654447461 0 0.00067628130377248377 0.0054573084188795085 0 0.0002979617436325464 0.0051795041084599577 0 0.00067628130377248377 0.0054573084188795085 0 0.0002979617436325464 0.0051795041084599577 0 0.00049953441732223075 0.0050522139663358116 0 0.00029919347215410109 0.0050655526420014607 0 0.0002979617436325464 0.0051795041084599577 0 0.00049953441732223075 0.0050522139663358116 0 0.00029919347215410109 0.0050655526420014607 0 0.00049953441732223075 0.0050522139663358116 0 0.00044005615894799688 0.0050398734292288758 0 1.7401852689989168e-05 0.0095327449046657686 0 -7.5616797337454475e-06 0.0095560466853966998 0 -1.1207424844429108e-05 0.0096083158850561613 0 0.00069858326553259495 0.008405184078564899 0 0.00066045722658867765 0.011773541298228357 0 0.00036618066378144395 0.0078130559558559718 0 0.00069858326553259495 0.008405184078564899 0 -8.6580698426728413e-06 0.0096586270251677528 0 1.7401852689989168e-05 0.0095327449046657686 0 2.4357765649125298e-05 0.0095368733882667776 0 1.7401852689989168e-05 0.0095327449046657686 0 2.4357765649125298e-05 0.0095368733882667776 0 -7.5616797337454475e-06 0.0095560466853966998 0 -0.00023595236548141712 0.0116932694620551 0 -0.00020488210679478003 0.011215642167665052 0 0.00019964985659411244 0.011342861940598258 0 0.00013601761244383127 0.010760423153132956 0 0.00039648383568474367 0.011028146876735808 0 1.6442342614777985e-05 0.0094059596440902744 0 2.4357765649125298e-05 0.0095368733882667776 0 -7.5616797337454475e-06 0.0095560466853966998 0 0.00039648383568474367 0.011028146876735808 0 0.00094654621280259655 0.012991107625178178 0 -0.00020488210679478003 0.011215642167665052 0 0.00025203155364857994 0.010932156829670877 0 -0.00021348467486005413 0.010717604711755686 0 -0.00020488210679478003 0.011215642167665052 0 0.00025203155364857994 0.010932156829670877 0 0.00019964985659411244 0.011342861940598258 0 0.00062535729640457926 0.021112183252854362 0 0.0006215193079449927 0.021185869500045255 0 0.00053759242425844807 0.021162004300441992 0 0.00062535729640457926 0.021112183252854362 0 0.00071839344199302075 0.021169328650810247 0 0.0006215193079449927 0.021185869500045255 0 0.0006165518123043154 0.021024141012216897 0 0.00062535729640457926 0.021112183252854362 0 0.00054296732647417321 0.021072050163916434 0 0.0006165518123043154 0.021024141012216897 0 0.00062535729640457926 0.021112183252854362 0 0.00071704547372198073 0.02106082288376749 0 0.0010585045091143286 0.016308365739577349 0 0.00094654621280259655 0.012991107625178178 0 0.00094654621280259655 0.012991107625178178 0 0.00066045722658867765 0.011773541298228357 0 0.00040514644899131136 0.011899949021396667 0 0.00043290141605449285 0.01286546829175857 0 0.00067810098572437057 0.012029851818526723 0 0.00062535729640457926 0.021112183252854362 0 0.00071704547372198073 0.02106082288376749 0 0.00071839344199302075 0.021169328650810247 0 0.00094654621280259655 0.012991107625178178 0 0.00079578045337546732 0.012924202478642781 0 0.00079578045337546732 0.012924202478642781 0 0.00066045722658867765 0.011773541298228357 0 0.00011319903346169745 0.0055151713722630356 0 0.00033490992927441045 0.0052596500581698052 0 0.00027601788824692868 0.0051035302276383728 0 0.00011319903346169745 0.0055151713722630356 0 0.00040199083376999556 0.0054314012956752115 0 0.00033490992927441045 0.0052596500581698052 0 0.00040199083376999556 0.0054314012956752115 0 0.00046609279838405736 0.005226329623179502 0 0.00057353552312813024 0.0054202954735021978 0 0.00040199083376999556 0.0054314012956752115 0 0.00057353552312813024 0.0054202954735021978 0 0.00049066187456327877 0.005530974610444152 0 0.00040199083376999556 0.0054314012956752115 0 0.00046609279838405736 0.005226329623179502 0 0.00033490992927441045 0.0052596500581698052 0 0.00046609279838405736 0.005226329623179502 0 0.00033490992927441045 0.0052596500581698052 0 0.00039003899014164434 0.0051708447866682982 0 0.00033490992927441045 0.0052596500581698052 0 0.00033296786634191052 0.005121208745310757 0 0.00039003899014164434 0.0051708447866682982 0 0.00032474889700640229 0.0051008301374210309 0 0.00033296786634191052 0.005121208745310757 0 0.00044005615894799688 0.0050398734292288758 0 0.00049953441732223075 0.0050522139663358116 0 0.00032474889700640229 0.0051008301374210309 0 0.00044005615894799688 0.0050398734292288758 0 1.7401852689989168e-05 0.0095327449046657686 0 -1.1207424844429108e-05 0.0096083158850561613 0 6.9469050189964391e-06 0.0096178932258127164 0 0.00066045722658867765 0.011773541298228357 0 0.00063952392440549347 0.011747851350072511 0 0.00033490992927441045 0.0052596500581698052 0 0.00027601788824692868 0.0051035302276383728 0 0.00033296786634191052 0.005121208745310757 0 0.00046609279838405736 0.005226329623179502 0 0.00044005615894799688 0.0050398734292288758 0 0.00039003899014164434 0.0051708447866682982 0 0.00033296786634191052 0.005121208745310757 0 0.00044005615894799688 0.0050398734292288758 0 0.00039003899014164434 0.0051708447866682982 0 0.00044005615894799688 0.0050398734292288758 0 0.00074899337186481714 0.0052238186793389964 0 0.00058765506825800707 0.0052550316643366615 0 0.00044005615894799688 0.0050398734292288758 0 0.00074899337186481714 0.0052238186793389964 0 0.0010152587445618978 0.0050762715123326019 0 0.00029919347215410109 0.0050655526420014607 0 0.00044005615894799688 0.0050398734292288758 0 0.00026317663255886277 0.0049875867493207873 0 0.00058252377595165454 0.0050062435339429858 0 0.00071071551451699769 0.0050088744423785183 0 0.00046609279838405736 0.005226329623179502 0 0.00044005615894799688 0.0050398734292288758 0 0.00058765506825800707 0.0052550316643366615 0 0.00074899337186481714 0.0052238186793389964 0 0.00058765506825800707 0.0052550316643366615 0 0.00068177333652842068 0.0053920651275792403 0 0.00058765506825800707 0.0052550316643366615 0 0.00057353552312813024 0.0054202954735021978 0 0.00068177333652842068 0.0053920651275792403 0 0.00046609279838405736 0.005226329623179502 0 0.00058765506825800707 0.0052550316643366615 0 0.00057353552312813024 0.0054202954735021978 0 0.00057353552312813024 0.0054202954735021978 0 0.00068177333652842068 0.0053920651275792403 0 0.00067294781560167086 0.0055411382336187764 0 0.00074899337186481714 0.0052238186793389964 0 0.00068177333652842068 0.0053920651275792403 0 0.00082482565254563987 0.0055201711052095597 0 0.00068177333652842068 0.0053920651275792403 0 0.00067294781560167086 0.0055411382336187764 0 0.00082482565254563987 0.0055201711052095597 0 0.00067294781560167086 0.0055411382336187764 0 0.00064421214896207804 0.005836898771200639 0 0.00082482565254563987 0.0055201711052095597 0 0.00057353552312813024 0.0054202954735021978 0 0.00057805981614802136 0.0056289745254864028 0 0.00049066187456327877 0.005530974610444152 0 0.00067294781560167086 0.0055411382336187764 0 0.00057805981614802136 0.0056289745254864028 0 0.00064421214896207804 0.005836898771200639 0 0.00057353552312813024 0.0054202954735021978 0 0.00067294781560167086 0.0055411382336187764 0 0.00057805981614802136 0.0056289745254864028 0 0.00057805981614802136 0.0056289745254864028 0 0.00064421214896207804 0.005836898771200639 0 0.00052039972840447915 0.0057296627063473122 0 0.00064421214896207804 0.005836898771200639 0 0.00052039972840447915 0.0057296627063473122 0 0.00045326818697909605 0.0058060966311817754 0 0.0021162679286697603 0.003311560550265426 0 0.0021343198448213387 0.0031742210664326464 0 0.0019811692645162046 0.0031676377694131279 0 0.0021343198448213387 0.0031742210664326464 0 0.0021263563249383872 0.0030693120420603602 0 0.0019811692645162046 0.0031676377694131279 0 0.0021263563249383872 0.0030693120420603602 0 0.0023104268558559998 0.0031466206030666779 0 0.002228946035412376 0.0029950670909824929 0 0.0021343198448213387 0.0031742210664326464 0 0.0021263563249383872 0.0030693120420603602 0 0.0023104268558559998 0.0031466206030666779 0 0.0032751282937648653 0.0066291209011050635 0 0.0031159443213953 0.0071769583541298719 0 0.0021162679286697603 0.003311560550265426 0 0.0021343198448213387 0.0031742210664326464 0 0.0023104268558559998 0.0031466206030666779 0 0.0021759802881468884 0.0033001023844638966 0 0.0021162679286697603 0.003311560550265426 0 0.002273164511388539 0.0032609530308768688 0 0.00035976064048204336 0.0059507668206945051 0 0.00027710591944613201 0.0058041433982962262 0 0.00045326818697909605 0.0058060966311817754 0 0.00064421214896207804 0.005836898771200639 0 0.00035976064048204336 0.0059507668206945051 0 0.00045326818697909605 0.0058060966311817754 0 0.0022096981010196158 0.0062464172142547847 0 0.0022143660843201201 0.0091927295751323065 0 0.00064421214896207804 0.005836898771200639 0 0.00035976064048204336 0.0059507668206945051 0 0.00017850580650238007 0.0062119341481837167 0 0.0021759802881468884 0.0033001023844638966 0 0.002273164511388539 0.0032609530308768688 0 0.002417201872672887 0.0032270790959705808 0 0.0031159443213953 0.0071769583541298719 0 0.0022143660843201201 0.0091927295751323065 0 0.00035976064048204336 0.0059507668206945051 0 0.00021414002171756211 0.006031150480394795 0 0.00017850580650238007 0.0062119341481837167 0 0.00021414002171756211 0.006031150480394795 0 0.00027710591944613201 0.0058041433982962262 0 0.00011626350146825045 0.0058778882338769694 0 0.00035976064048204336 0.0059507668206945051 0 0.00021414002171756211 0.006031150480394795 0 0.00027710591944613201 0.0058041433982962262 0 0.00027710591944613201 0.0058041433982962262 0 0.00045326818697909605 0.0058060966311817754 0 0.00040682139170465436 0.0056471743422877949 0 0.00052039972840447915 0.0057296627063473122 0 0.00045326818697909605 0.0058060966311817754 0 0.00040682139170465436 0.0056471743422877949 0 0.00057805981614802136 0.0056289745254864028 0 0.00049066187456327877 0.005530974610444152 0 0.00040682139170465436 0.0056471743422877949 0 0.00057805981614802136 0.0056289745254864028 0 0.00052039972840447915 0.0057296627063473122 0 0.00040682139170465436 0.0056471743422877949 0 0.00040199083376999556 0.0054314012956752115 0 0.00049066187456327877 0.005530974610444152 0 0.00040682139170465436 0.0056471743422877949 0 0.00011319903346169745 0.0055151713722630356 0 0.00027710591944613201 0.0058041433982962262 0 0.00040682139170465436 0.0056471743422877949 0 0.00011319903346169745 0.0055151713722630356 0 0.00040199083376999556 0.0054314012956752115 0 0.00040682139170465436 0.0056471743422877949 0 0.0010517479820734222 0.012873585071825887 0 0.0010379415665115038 0.012868740731421085 0 0.0010404750117289443 0.012868719623858858 0 0.00079578045337546732 0.012924202478642781 0 6.991399945740046e-05 0.015622943934264548 0 0.00011319903346169745 0.0055151713722630356 0 0.00027710591944613201 0.0058041433982962262 0 0.00011626350146825045 0.0058778882338769694 0 0.00079578045337546732 0.012924202478642781 0 0.0012110492242797884 0.010804959614132576 0 0.00071839344199302075 0.021169328650810247 0 0.00068294946810234136 0.021280601507570364 0 0.00063416718199052523 0.021244297739844382 0 0.0012110492242797884 0.010804959614132576 0 0.0018264591385588318 0.010273998112362149 0 0.0010379415665115038 0.012868740731421085 0 0.0010404750117289443 0.012868719623858858 0 0.0010339439159796648 0.012865994442500014 0 0.00021414002171756211 0.006031150480394795 0 0.00011626350146825045 0.0058778882338769694 0 0.00012978249815405522 0.00624915797924385 0 0.00021414002171756211 0.006031150480394795 0 0.00017850580650238007 0.0062119341481837167 0 0.00012978249815405522 0.00624915797924385 0 0.00060159960794739834 0.021320314790754653 0 0.00063416718199052523 0.021244297739844382 0 0.00054870786308022302 0.021263709270222041 0 0.00068294946810234136 0.021280601507570364 0 0.00060159960794739834 0.021320314790754653 0 0.00064747062731047649 0.021385913480590102 0 0.00068294946810234136 0.021280601507570364 0 0.00060159960794739834 0.021320314790754653 0 0.00063416718199052523 0.021244297739844382 0 0.00071839344199302075 0.021169328650810247 0 0.00063416718199052523 0.021244297739844382 0 0.0006215193079449927 0.021185869500045255 0 0.00063416718199052523 0.021244297739844382 0 0.0006215193079449927 0.021185869500045255 0 0.00054870786308022302 0.021263709270222041 0 0.0013126330009819197 0.0039464183165976085 0 0.0011109039719162134 0.0041698854670876861 0 0.0014771432604450702 0.0040878411048404211 0 0.0013126330009819197 0.0039464183165976085 0 0.0015288985097124325 0.0037764638473695958 0 0.0014771432604450702 0.0040878411048404211 0 0.0015288985097124325 0.0037764638473695958 0 0.0013203184698692349 0.0037029780433866554 0 0.0015818644978188214 0.0034744116932259278 0 0.0013126330009819197 0.0039464183165976085 0 0.0015288985097124325 0.0037764638473695958 0 0.0013203184698692349 0.0037029780433866554 0 0.0013126330009819197 0.0039464183165976085 0 0.0013203184698692349 0.0037029780433866554 0 0.0011382481838886243 0.0038950293366805536 0 0.0013203184698692349 0.0037029780433866554 0 0.0011382481838886243 0.0038950293366805536 0 0.00098705843994283744 0.0035567396874939604 0 0.00045016022895862681 0.0043493114574788818 0 0.00082893696427019273 0.0039370207391958801 0 0.0011109039719162134 0.0041698854670876861 0 0.00082893696427019273 0.0039370207391958801 0 0.0011382481838886243 0.0038950293366805536 0 0.00098705843994283744 0.0035567396874939604 0 0.00082893696427019273 0.0039370207391958801 0 0.0011382481838886243 0.0038950293366805536 0 0.0011109039719162134 0.0041698854670876861 0 0.0013126330009819197 0.0039464183165976085 0 0.0011382481838886243 0.0038950293366805536 0 0.0011109039719162134 0.0041698854670876861 0 0.00036942883693782692 0.0048018847454349032 0 0.00031034213209534531 0.0048793932128366928 0 0.00028525883356159603 0.0049165811034861577 0 0.00055287152976098175 0.0047936552338213503 0 0.00070244515113373227 0.0048526374792705199 0 0.00045016022895862681 0.0043493114574788818 0 0.00038488983132774793 0.0046644607578904141 0 0.00036942883693782692 0.0048018847454349032 0 0.00038488983132774793 0.0046644607578904141 0 0.00036942883693782692 0.0048018847454349032 0 0.00031034213209534531 0.0048793932128366928 0 0.00070244515113373227 0.0048526374792705199 0 0.0010555064568069082 0.0050158528073473317 0 0.00036942883693782692 0.0048018847454349032 0 0.00028525883356159603 0.0049165811034861577 0 0.00026417990005282927 0.004950609348164943 0 0.00024570190727713631 0.0050039450252191559 0 0.00031034213209534531 0.0048793932128366928 0 0.00028525883356159603 0.0049165811034861577 0 0.00028525883356159603 0.0049165811034861577 0 0.00025318959868963391 0.0049530993810937996 0 0.00024068735077986862 0.004988297680472098 0 0.0010343747110122821 0.0050249380500012779 0 0.0010555064568069082 0.0050158528073473317 0 0.00024570190727713631 0.0050039450252191559 0 0.00028525883356159603 0.0049165811034861577 0 0.00024068735077986862 0.004988297680472098 0 0.00025318959868963391 0.0049530993810937996 0 0.00024068735077986862 0.004988297680472098 0 0.00026317663255886277 0.0049875867493207873 0 0.0010555064568069082 0.0050158528073473317 0 0.00071071551451699769 0.0050088744423785183 0 0.00021083153914795111 0.0050632963523079937 0 0.00024068735077986862 0.004988297680472098 0 0.00026317663255886277 0.0049875867493207873 0 0.00074899337186481714 0.0052238186793389964 0 0.0010152587445618978 0.0050762715123326019 0 0.0010922239814996914 0.0054891388671799964 0 0.00074899337186481714 0.0052238186793389964 0 0.0010922239814996914 0.0054891388671799964 0 0.00082482565254563987 0.0055201711052095597 0 0.0015562438158549408 0.0051395295022955987 0 0.0010152587445618978 0.0050762715123326019 0 0.0010922239814996914 0.0054891388671799964 0 0.0010555064568069082 0.0050158528073473317 0 0.0017553887368649012 0.0052308581440595418 0 0.0015288985097124325 0.0037764638473695958 0 0.0014771432604450702 0.0040878411048404211 0 0.0018825857982257622 0.0036112794253607065 0 0.0015288985097124325 0.0037764638473695958 0 0.0018825857982257622 0.0036112794253607065 0 0.0015818644978188214 0.0034744116932259278 0 0.0018825857982257622 0.0036112794253607065 0 0.0015818644978188214 0.0034744116932259278 0 0.0018237479720266969 0.0032952414161940874 0 0.0015818644978188214 0.0034744116932259278 0 0.0018237479720266969 0.0032952414161940874 0 0.0015442442274932935 0.0031579955152194923 0 0.00064421214896207804 0.005836898771200639 0 0.0010922239814996914 0.0054891388671799964 0 0.00082482565254563987 0.0055201711052095597 0 0.0021759802881468884 0.0033001023844638966 0 0.0021162679286697603 0.003311560550265426 0 0.0018825857982257622 0.0036112794253607065 0 0.0021162679286697603 0.003311560550265426 0 0.0018825857982257622 0.0036112794253607065 0 0.0018237479720266969 0.0032952414161940874 0 0.0022096981010196158 0.0062464172142547847 0 0.0017553887368649012 0.0052308581440595418 0 0.0018237479720266969 0.0032952414161940874 0 0.0019811692645162046 0.0031676377694131279 0 0.0017670250538138681 0.002992660690005981 0 0.0021162679286697603 0.003311560550265426 0 0.0018237479720266969 0.0032952414161940874 0 0.0019811692645162046 0.0031676377694131279 0 0.0019811692645162046 0.0031676377694131279 0 0.0017670250538138681 0.002992660690005981 0 0.0019772557571014998 0.0029550864029479606 0 0.0021263563249383872 0.0030693120420603602 0 0.0019811692645162046 0.0031676377694131279 0 0.0019772557571014998 0.0029550864029479606 0 0.0018237479720266969 0.0032952414161940874 0 0.0015442442274932935 0.0031579955152194923 0 0.0017670250538138681 0.002992660690005981 0 0.0015442442274932935 0.0031579955152194923 0 0.0017670250538138681 0.002992660690005981 0 0.0014799886348086492 0.0028448956959646675 0 0.0015442442274932935 0.0031579955152194923 0 0.0012178799211649285 0.0029775345424458109 0 0.0014799886348086492 0.0028448956959646675 0 0.0015442442274932935 0.0031579955152194923 0 0.0012178799211649285 0.0029775345424458109 0 0.0013129426960824826 0.0033466691518590796 0 0.0015818644978188214 0.0034744116932259278 0 0.0015442442274932935 0.0031579955152194923 0 0.0013129426960824826 0.0033466691518590796 0 0.0013203184698692349 0.0037029780433866554 0 0.0015818644978188214 0.0034744116932259278 0 0.0013129426960824826 0.0033466691518590796 0 0.0013203184698692349 0.0037029780433866554 0 0.0013129426960824826 0.0033466691518590796 0 0.00098705843994283744 0.0035567396874939604 0 0.0013129426960824826 0.0033466691518590796 0 0.00098705843994283744 0.0035567396874939604 0 0.0010427980566223313 0.0032180855257183004 0 0.00077749247748538463 0.0032215295243443807 0 0.00098705843994283744 0.0035567396874939604 0 0.0010427980566223313 0.0032180855257183004 0 0.00088676881976234754 0.002942248555313289 0 0.0012178799211649285 0.0029775345424458109 0 0.0010427980566223313 0.0032180855257183004 0 0.00088676881976234754 0.002942248555313289 0 0.0012178799211649285 0.0029775345424458109 0 0.00096035032190838266 0.0027570716727654014 0 0.0012178799211649285 0.0029775345424458109 0 0.0013129426960824826 0.0033466691518590796 0 0.0010427980566223313 0.0032180855257183004 0 0.00077749247748538463 0.0032215295243443807 0 0.00088676881976234754 0.002942248555313289 0 0.0010427980566223313 0.0032180855257183004 0 0.00078966137296125692 0.0025892612363403837 0 0.00096035032190838266 0.0027570716727654014 0 0.0011733532920011436 0.0026188521829976857 0 0.0012178799211649285 0.0029775345424458109 0 0.00096035032190838266 0.0027570716727654014 0 0.0011733532920011436 0.0026188521829976857 0 0.0014799886348086492 0.0028448956959646675 0 0.0011733532920011436 0.0026188521829976857 0 0.0015046761022361166 0.0025873889955286846 0 0.0012178799211649285 0.0029775345424458109 0 0.0014799886348086492 0.0028448956959646675 0 0.0011733532920011436 0.0026188521829976857 0 0.0011733532920011436 0.0026188521829976857 0 0.0013545830188532776 0.0023765010646035426 0 0.0015046761022361166 0.0025873889955286846 0 0.0011733532920011436 0.0026188521829976857 0 0.0011084740416623866 0.0023180367941938356 0 0.0013545830188532776 0.0023765010646035426 0 0.00078966137296125692 0.0025892612363403837 0 0.0011733532920011436 0.0026188521829976857 0 0.0011084740416623866 0.0023180367941938356 0 0.0011084740416623866 0.0023180367941938356 0 0.0013545830188532776 0.0023765010646035426 0 0.0014068385606483401 0.0020511797343616945 0 0.0013545830188532776 0.0023765010646035426 0 0.0014068385606483401 0.0020511797343616945 0 0.001584050230088774 0.0023207457250448132 0 0.0013545830188532776 0.0023765010646035426 0 0.001584050230088774 0.0023207457250448132 0 0.0015046761022361166 0.0025873889955286846 0 0.0023174671372023828 -0.0034627645701746077 0 0.0032961053768776638 -0.0016979675429274769 0 0.0033261754233509669 -0.0031266869667198422 0 0.0032961053768776638 -0.0016979675429274769 0 0.0042073647262270454 -0.0032009958473852994 0 0.0033261754233509669 -0.0031266869667198422 0 0.0025081874451319854 0.00082140995928117993 0 0.0033694987537127917 0.00068650824932477541 0 0.0018495087179700121 0.0021692153163218684 0 0.0021499945578813966 0.002186608340074113 0 0.0018859407473689311 0.0019635100309091497 0 0.0018495087179700121 0.0021692153163218684 0 0.0016693923538052611 0.0020294966415017172 0 0.0018859407473689311 0.0019635100309091497 0 0.0014068385606483401 0.0020511797343616945 0 0.001584050230088774 0.0023207457250448132 0 0.0016693923538052611 0.0020294966415017172 0 0.0018495087179700121 0.0021692153163218684 0 0.001584050230088774 0.0023207457250448132 0 0.0016693923538052611 0.0020294966415017172 0 0.001584050230088774 0.0023207457250448132 0 0.001818544083137109 0.0023844095249454904 0 0.0017882495056035909 0.0026012932386743014 0 0.0018495087179700121 0.0021692153163218684 0 0.001584050230088774 0.0023207457250448132 0 0.001818544083137109 0.0023844095249454904 0 0.0018495087179700121 0.0021692153163218684 0 0.001818544083137109 0.0023844095249454904 0 0.0020329580158931129 0.0023659187965899605 0 0.001818544083137109 0.0023844095249454904 0 0.0020293163808030724 0.0025745263243235747 0 0.0020329580158931129 0.0023659187965899605 0 0.001818544083137109 0.0023844095249454904 0 0.0017882495056035909 0.0026012932386743014 0 0.0020293163808030724 0.0025745263243235747 0 0.0017882495056035909 0.0026012932386743014 0 0.0019834102273407835 0.0027458059842877429 0 0.0018467533786763796 0.0028103945619693113 0 0.0017882495056035909 0.0026012932386743014 0 0.0016801806863519454 0.0027667663737789825 0 0.0018467533786763796 0.0028103945619693113 0 0.0017882495056035909 0.0026012932386743014 0 0.0019834102273407835 0.0027458059842877429 0 0.0020293163808030724 0.0025745263243235747 0 0.0017882495056035909 0.0026012932386743014 0 0.0015046761022361166 0.0025873889955286846 0 0.0016801806863519454 0.0027667663737789825 0 0.001584050230088774 0.0023207457250448132 0 0.0017882495056035909 0.0026012932386743014 0 0.0015046761022361166 0.0025873889955286846 0 0.0017670250538138681 0.002992660690005981 0 0.0014799886348086492 0.0028448956959646675 0 0.0016801806863519454 0.0027667663737789825 0 0.0014799886348086492 0.0028448956959646675 0 0.0015046761022361166 0.0025873889955286846 0 0.0016801806863519454 0.0027667663737789825 0 0.0017670250538138681 0.002992660690005981 0 0.0016801806863519454 0.0027667663737789825 0 0.0018467533786763796 0.0028103945619693113 0 0.0019834102273407835 0.0027458059842877429 0 0.0018467533786763796 0.0028103945619693113 0 0.0019772557571014998 0.0029550864029479606 0 0.0017670250538138681 0.002992660690005981 0 0.0018467533786763796 0.0028103945619693113 0 0.0019772557571014998 0.0029550864029479606 0 0.0021263563249383872 0.0030693120420603602 0 0.0019772557571014998 0.0029550864029479606 0 0.0021385093364586862 0.0029017368609483528 0 0.0019834102273407835 0.0027458059842877429 0 0.0019772557571014998 0.0029550864029479606 0 0.0021385093364586862 0.0029017368609483528 0 0.0019834102273407835 0.0027458059842877429 0 0.0021385093364586862 0.0029017368609483528 0 0.0021622990177941324 0.0027474341127026146 0 0.0021385093364586862 0.0029017368609483528 0 0.0023376428803097847 0.0028616627328912764 0 0.0021622990177941324 0.0027474341127026146 0 0.0021385093364586862 0.0029017368609483528 0 0.002228946035412376 0.0029950670909824929 0 0.0023376428803097847 0.0028616627328912764 0 0.0021263563249383872 0.0030693120420603602 0 0.0021385093364586862 0.0029017368609483528 0 0.002228946035412376 0.0029950670909824929 0 0.0023104268558559998 0.0031466206030666779 0 0.002228946035412376 0.0029950670909824929 0 0.0023376428803097847 0.0028616627328912764 0 0.0023376428803097847 0.0028616627328912764 0 0.0025411643911488653 0.0029853773426037106 0 0.0024978801770991501 0.0025199386577639368 0 0.0023104268558559998 0.0031466206030666779 0 0.0023376428803097847 0.0028616627328912764 0 0.0025068775264352702 0.0030110909690742147 0 0.0023376428803097847 0.0028616627328912764 0 0.0025068775264352702 0.0030110909690742147 0 0.0025411643911488653 0.0029853773426037106 0 0.0023376428803097847 0.0028616627328912764 0 0.0022250508493712627 0.0025425945285490934 0 0.0024978801770991501 0.0025199386577639368 0 0.0023376428803097847 0.0028616627328912764 0 0.0022250508493712627 0.0025425945285490934 0 0.0021622990177941324 0.0027474341127026146 0 0.0022250508493712627 0.0025425945285490934 0 0.0020293163808030724 0.0025745263243235747 0 0.0021622990177941324 0.0027474341127026146 0 0.0019834102273407835 0.0027458059842877429 0 0.0020293163808030724 0.0025745263243235747 0 0.0021622990177941324 0.0027474341127026146 0 0.00064747062731047649 0.021385913480590102 0 0.00053675425141611066 0.021425058707990295 0 0.00055899094739145596 0.021373813753750782 0 0.00060159960794739834 0.021320314790754653 0 0.00064747062731047649 0.021385913480590102 0 0.00055899094739145596 0.021373813753750782 0 0.0013484434860344041 0.02073448863420236 0 0.0019615856072990336 0.020327346940293835 0 0.0019971006938877076 0.021678020289667733 0 0.0010379415665115038 0.012868740731421085 0 0.0010265687554235209 0.012869027913000956 0 0.0010339439159796648 0.012865994442500014 0 6.991399945740046e-05 0.015622943934264548 0 -0.00041819629735013986 0.015725100906487464 0 -0.00041819629735013986 0.015725100906487464 0 0.0018264591385588318 0.010273998112362149 0 0.0022143660843201201 0.0091927295751323065 0 0.0018264591385588318 0.010273998112362149 0 0.0013484434860344041 0.02073448863420236 0 0.0016610202867973914 0.021640198753562587 0 0.0019971006938877076 0.021678020289667733 0 0.0013484434860344041 0.02073448863420236 0 0.0012405602289623338 0.021343157465165848 0 0.0016610202867973914 0.021640198753562587 0 0.0018264591385588318 0.010273998112362149 0 0.0015786125327830682 0.012044350094061664 0 0.0012405602289623338 0.021343157465165848 0 0.001033889820242463 0.021713527967057888 0 0.0016610202867973914 0.021640198753562587 0 0.0012487239656468329 0.020813405546819076 0 0.00090706971107370679 0.021217459819970245 0 0.00051670734710796199 0.021470513001715694 0 0.00064747062731047649 0.021385913480590102 0 0.00053675425141611066 0.021425058707990295 0 0.00051670734710796199 0.021470513001715694 0 -0.00041819629735013986 0.015725100906487464 0 -0.00089345207236877513 0.0177832423373907 0 0.0013484434860344041 0.02073448863420236 0 0.0012405602289623338 0.021343157465165848 0 0.00090706971107370679 0.021217459819970245 0 -0.00041819629735013986 0.015725100906487464 0 -0.00067966883180746527 0.016542658938295898 0 0.0012405602289623338 0.021343157465165848 0 0.00090706971107370679 0.021217459819970245 0 0.001033889820242463 0.021713527967057888 0 0.00090706971107370679 0.021217459819970245 0 0.001033889820242463 0.021713527967057888 0 0.00067948336709312243 0.021580323014037141 0 0.00068185489496190403 0.022386487185585446 0 0.00064329615945862275 0.023143836933781897 0 -0.00027970006228698852 0.022015675215405164 0 0.00067698809333537437 0.021821283795036665 0 0.0012366311722405228 0.022208033485202082 0 0.0016610202867973914 0.021640198753562587 0 0.00068185489496190403 0.022386487185585446 0 0.00067698809333537437 0.021821283795036665 0 -0.00027970006228698852 0.022015675215405164 0 0.0010946188460513938 0.026131132533448835 0 0.0013819875277178463 0.025653012957075647 0 0.00068185489496190403 0.022386487185585446 0 0.0012366311722405228 0.022208033485202082 0 0.0011249963967005353 0.022739995272179816 0 0.00068185489496190403 0.022386487185585446 0 0.00067698809333537437 0.021821283795036665 0 0.0012366311722405228 0.022208033485202082 0 0.0012366311722405228 0.022208033485202082 0 0.0016929129804275948 0.022583442924652045 0 0.0011249963967005353 0.022739995272179816 0 0.0012366311722405228 0.022208033485202082 0 0.0016514241377638594 0.022024420654542201 0 0.0016929129804275948 0.022583442924652045 0 0.0012366311722405228 0.022208033485202082 0 0.0016610202867973914 0.021640198753562587 0 0.0016514241377638594 0.022024420654542201 0 0.0016610202867973914 0.021640198753562587 0 0.0016514241377638594 0.022024420654542201 0 0.0019971006938877076 0.021678020289667733 0 0.0016514241377638594 0.022024420654542201 0 0.0019971006938877076 0.021678020289667733 0 0.0016929129804275948 0.022583442924652045 0 0.0015786125327830682 0.012044350094061664 0 0.00076498601893611683 0.013159132931326523 0 0.0019971006938877076 0.021678020289667733 0 0.0016929129804275948 0.022583442924652045 0 0.002069692518040686 0.023456567841681594 0 0.0016929129804275948 0.022583442924652045 0 0.0013892465751952352 0.023195375703896001 0 0.002069692518040686 0.023456567841681594 0 0.0016929129804275948 0.022583442924652045 0 0.0013892465751952352 0.023195375703896001 0 0.0011249963967005353 0.022739995272179816 0 0.00068185489496190403 0.022386487185585446 0 0.0011249963967005353 0.022739995272179816 0 0.00064329615945862275 0.023143836933781897 0 0.0013892465751952352 0.023195375703896001 0 0.0011249963967005353 0.022739995272179816 0 0.00064329615945862275 0.023143836933781897 0 0.0013892465751952352 0.023195375703896001 0 0.00064329615945862275 0.023143836933781897 0 0.001265405378307521 0.023898574442939774 0 0.0022250508493712627 0.0025425945285490934 0 0.0020329580158931129 0.0023659187965899605 0 0.0021499945578813966 0.002186608340074113 0 0.0022250508493712627 0.0025425945285490934 0 0.0020293163808030724 0.0025745263243235747 0 0.0020329580158931129 0.0023659187965899605 0 0.0022250508493712627 0.0025425945285490934 0 0.0024978801770991501 0.0025199386577639368 0 0.0021499945578813966 0.002186608340074113 0 0.0024978801770991501 0.0025199386577639368 0 0.0021499945578813966 0.002186608340074113 0 0.0024472979561415481 0.0020896671060688151 0 0.0018495087179700121 0.0021692153163218684 0 0.0020329580158931129 0.0023659187965899605 0 0.0021499945578813966 0.002186608340074113 0 0.0021499945578813966 0.002186608340074113 0 0.0020546385900017646 0.0017358285345690362 0 0.0024472979561415481 0.0020896671060688151 0 0.0021499945578813966 0.002186608340074113 0 0.0020546385900017646 0.0017358285345690362 0 0.0018859407473689311 0.0019635100309091497 0 0.002415031147719847 0.0016952897223079886 0 0.0020546385900017646 0.0017358285345690362 0 0.0024472979561415481 0.0020896671060688151 0 -0.0012201997378310135 0.016100085546277024 0 0.0016403252483370022 0.0080102075925079733 0 -0.0032872986326459349 0.007321709306063095 0 0.00040423858973048744 0.0065125475276602918 0 -0.00079068590302504109 0.0078258129158569941 0 0.001265405378307521 0.023898574442939774 0 0.00043493877120028132 0.024731648964846708 0 -0.00054195951497847301 0.024044084668420555 0 0.00064329615945862275 0.023143836933781897 0 0.001265405378307521 0.023898574442939774 0 -0.00032128261052460634 0.024017397963349642 0 0.00032712665035938902 0.02901580357267056 0 -0.0012727351804275009 0.030981768521774849 0 0.001265405378307521 0.023898574442939774 0 0.002069692518040686 0.023456567841681594 0 0.0013201264573068463 0.024762727882207576 0 -0.0012201997378310135 0.016100085546277024 0 0.00076498601893611683 0.013159132931326523 0 0.0013892465751952352 0.023195375703896001 0 0.001265405378307521 0.023898574442939774 0 0.002069692518040686 0.023456567841681594 0 0.0021174914501446039 0.025300801616209744 0 0.002069692518040686 0.023456567841681594 0 0.0013201264573068463 0.024762727882207576 0 0.0021174914501446039 0.025300801616209744 0 0.0013201264573068463 0.024762727882207576 0 0.0008013618287374155 0.025614228965127658 0 0.001265405378307521 0.023898574442939774 0 0.0013201264573068463 0.024762727882207576 0 0.00043493877120028132 0.024731648964846708 0 0.0013201264573068463 0.024762727882207576 0 0.00043493877120028132 0.024731648964846708 0 0.0008013618287374155 0.025614228965127658 0 -0.0052715713939171542 0.024970157373728551 0 -0.0054002193280038458 0.02562889673849203 0 -0.0060074366683308617 0.025148836737945358 0 0.00043493877120028132 0.024731648964846708 0 0.0008013618287374155 0.025614228965127658 0 -0.00053739441920101565 0.025922323089089483 0 -0.004529516246656983 0.02479118733793979 0 -0.0052715713939171542 0.024970157373728551 0 -0.0045123379045698209 0.025697622659600176 0 -0.0012201997378310135 0.016100085546277024 0 -0.0026621167892011276 0.024732849979488724 0 -0.0054002193280038458 0.02562889673849203 0 -0.0045123379045698209 0.025697622659600176 0 -0.0053048770418434622 0.026346974752140782 0 -0.0052715713939171542 0.024970157373728551 0 -0.0054002193280038458 0.02562889673849203 0 -0.0045123379045698209 0.025697622659600176 0 0.00040423858973048744 0.0065125475276602918 0 -0.00010243671875893745 0.0083216413964208608 0 0.0022450580787830368 0.0079379040839515583 0 -7.2604513258297664e-05 0.0091623212399081101 0 -0.00010243671875893745 0.0083216413964208608 0 0.0022450580787830368 0.0079379040839515583 0 -7.2604513258297664e-05 0.0091623212399081101 0 0.0004454634911476982 0.010146332136652168 0 0.0022450580787830368 0.0079379040839515583 0 -0.00095648336528921852 0.0089817716363267339 0 -6.1599468730333902e-05 0.0092198901818932536 0 -0.0012712695698893796 0.010287778406040409 0 -0.00095648336528921852 0.0089817716363267339 0 -6.1599468730333902e-05 0.0092198901818932536 0 -0.00079068590302504109 0.0078258129158569941 0 0.00088256268353572838 0.0056381602671250718 0 0.00087238479856955524 0.0058095287528127041 0 0.00040423858973048744 0.0065125475276602918 0 -0.00079068590302504109 0.0078258129158569941 0 -0.00010243671875893745 0.0083216413964208608 0 0.00088256268353572838 0.0056381602671250718 0 0.000911558183364296 0.0059496946463641126 0 -6.6144279806998164e-05 0.0091578123474588061 0 -0.00079068590302504109 0.0078258129158569941 0 -0.00010243671875893745 0.0083216413964208608 0 -0.0012201997378310135 0.016100085546277024 0 -0.0029812644933128272 0.017671387505893303 0 -0.0032872986326459349 0.007321709306063095 0 -0.0018554500122362331 0.0090076373863526953 0 -0.0031954890256958479 0.010970281103136531 0 -0.0032872986326459349 0.007321709306063095 0 -0.00079068590302504109 0.0078258129158569941 0 -0.0018554500122362331 0.0090076373863526953 0 -0.00095648336528921852 0.0089817716363267339 0 -0.0018554500122362331 0.0090076373863526953 0 -0.0012712695698893796 0.010287778406040409 0 -0.00095648336528921852 0.0089817716363267339 0 -0.00079068590302504109 0.0078258129158569941 0 -0.0018554500122362331 0.0090076373863526953 0 -0.0012712695698893796 0.010287778406040409 0 -0.0031954890256958479 0.010970281103136531 0 -0.001550694352940353 0.012728884499949559 0 -0.0018554500122362331 0.0090076373863526953 0 -0.0012712695698893796 0.010287778406040409 0 -0.0031954890256958479 0.010970281103136531 0 0.00025094887204424706 0.0045096957739035031 0 0.00042206021895072667 0.0042968257256174357 0 -0.00030985043923730291 0.0034502638924764836 0 -0.0012712695698893796 0.010287778406040409 0 -8.390470341859848e-06 0.010822808877348671 0 -0.001550694352940353 0.012728884499949559 0 0.00016786231035179861 0.0061329546729804452 0 -0.0019767298432317709 0.011556235491712466 0 -6.1599468730333902e-05 0.0092198901818932536 0 -0.0012712695698893796 0.010287778406040409 0 -8.390470341859848e-06 0.010822808877348671 0 0.00081877838193392441 0.0054779179093093567 0 3.7270249996655193e-05 0.0039929776591535078 0 0.00073133766842186092 0.003133877580340969 0 0.00088256268353572838 0.0056381602671250718 0 0.00016786231035179861 0.0061329546729804452 0 0.00088256268353572838 0.0056381602671250718 0 0.0010669337128621167 0.0040061788120725993 0 0.0010669337128621167 0.0040061788120725993 0 0.00016786231035179861 0.0061329546729804452 0 0.0061268955472365948 -0.0060533899448784447 0 0.0052631208064913802 -0.0061418676888108309 0 0.0055879994013109677 -0.0070682376064263716 0 0.0010669337128621167 0.0040061788120725993 0 0.00082166468511675505 8.489734619784319e-05 0 0.0061268955472365948 -0.0060533899448784447 0 0.0052631208064913802 -0.0061418676888108309 0 0.0055201821455037126 -0.0052788113005168696 0 0.0010669337128621167 0.0040061788120725993 0 0.0030456911808596347 0.0024107491973210109 0 0.0052631208064913802 -0.0061418676888108309 0 0.0055201821455037126 -0.0052788113005168696 0 0.0045458444887355402 -0.0056685253299837701 0 0.0055201821455037126 -0.0052788113005168696 0 0.0045458444887355402 -0.0056685253299837701 0 0.0045787409936411472 -0.0049605374379798582 0 0.0052631208064913802 -0.0061418676888108309 0 0.0045458444887355402 -0.0056685253299837701 0 0.0045335413560832162 -0.0066463054507045448 0 0.0052631208064913802 -0.0061418676888108309 0 0.0045335413560832162 -0.0066463054507045448 0 0.0055879994013109677 -0.0070682376064263716 0 0.0045335413560832162 -0.0066463054507045448 0 0.0038420549405709459 -0.0060512036891903825 0 0.0034500872980049082 -0.0068599857843961382 0 0.0045458444887355402 -0.0056685253299837701 0 0.0045335413560832162 -0.0066463054507045448 0 0.0038420549405709459 -0.0060512036891903825 0 0.0027081846726488535 -0.0065456237930294403 0 0.0030316420148203231 -0.0058455493498363259 0 0.0034500872980049082 -0.0068599857843961382 0 0.0038420549405709459 -0.0060512036891903825 0 0.0030316420148203231 -0.0058455493498363259 0 0.0034500872980049082 -0.0068599857843961382 0 0.0038420549405709459 -0.0060512036891903825 0 0.0030316420148203231 -0.0058455493498363259 0 0.0037960534657835061 -0.0051018039413567081 0 0.0027136240185227458 -0.0047980036205364446 0 0.0030316420148203231 -0.0058455493498363259 0 0.0037960534657835061 -0.0051018039413567081 0 0.0045458444887355402 -0.0056685253299837701 0 0.0038420549405709459 -0.0060512036891903825 0 0.0037960534657835061 -0.0051018039413567081 0 0.0045458444887355402 -0.0056685253299837701 0 0.0037960534657835061 -0.0051018039413567081 0 0.0045787409936411472 -0.0049605374379798582 0 0.0037960534657835061 -0.0051018039413567081 0 0.0045031341903590547 -0.0043446268636875866 0 0.0045787409936411472 -0.0049605374379798582 0 0.0037960534657835061 -0.0051018039413567081 0 0.0045031341903590547 -0.0043446268636875866 0 0.0035054068340128509 -0.00404068586282151 0 0.0027136240185227458 -0.0047980036205364446 0 0.0037960534657835061 -0.0051018039413567081 0 0.0035054068340128509 -0.00404068586282151 0 0.0023174671372023828 -0.0034627645701746077 0 0.0027136240185227458 -0.0047980036205364446 0 0.0035054068340128509 -0.00404068586282151 0 0.0023174671372023828 -0.0034627645701746077 0 0.0033261754233509669 -0.0031266869667198422 0 0.0035054068340128509 -0.00404068586282151 0 0.0042073647262270454 -0.0032009958473852994 0 0.0033261754233509669 -0.0031266869667198422 0 0.0035054068340128509 -0.00404068586282151 0 0.0042073647262270454 -0.0032009958473852994 0 0.0045031341903590547 -0.0043446268636875866 0 0.0035054068340128509 -0.00404068586282151 0 0.0014068385606483401 0.0020511797343616945 0 0.0016693923538052611 0.0020294966415017172 0 0.0016747999318189241 0.0017830912142600228 0 0.0042073647262270454 -0.0032009958473852994 0 0.0045031341903590547 -0.0043446268636875866 0 0.0050424623578928223 -0.0044745905094580206 0 0.0033694987537127917 0.00068650824932477541 0 0.0035258116621577841 0.0026824896155003665 0 0.0016693923538052611 0.0020294966415017172 0 0.0018859407473689311 0.0019635100309091497 0 0.0016747999318189241 0.0017830912142600228 0 0.00040423858973048744 0.0065125475276602918 0 0.0022450580787830368 0.0079379040839515583 0 0.0040413554142957903 0.0057178071522532162 0 0.0016403252483370022 0.0080102075925079733 0 0.0035258116621577841 0.0026824896155003665 0 0.0030456911808596347 0.0024107491973210109 0 0.0035258116621577841 0.0026824896155003665 0 0.0020546385900017646 0.0017358285345690362 0 0.0018859407473689311 0.0019635100309091497 0 0.0016747999318189241 0.0017830912142600228 0 0.0055201821455037126 -0.0052788113005168696 0 0.0045787409936411472 -0.0049605374379798582 0 0.0049370142197356116 -0.0044808448521346253 0 0.0045031341903590547 -0.0043446268636875866 0 0.0045787409936411472 -0.0049605374379798582 0 0.0049370142197356116 -0.0044808448521346253 0 0.0038417535648334554 0.0023436599953509155 0 0.0035258116621577841 0.0026824896155003665 0 -0.0043274638818270438 0.038402438917827096 0 -0.0040802914985984704 0.038246530269283888 0 -0.0040529093788575464 0.038625310374970356 0 -0.0043274638818270438 0.038402438917827096 0 -0.0045858581358804648 0.03854141761345091 0 -0.0040529093788575464 0.038625310374970356 0 -0.0043274638818270438 0.038402438917827096 0 -0.0040802914985984704 0.038246530269283888 0 -0.004606943251473131 0.038167315354912038 0 -0.0038862969282481303 0.038402412182213658 0 -0.0040802914985984704 0.038246530269283888 0 -0.0037604989431341625 0.038287694102605595 0 -0.0038862969282481303 0.038402412182213658 0 -0.0040529093788575464 0.038625310374970356 0 -0.0037019168914294164 0.038443364120487225 0 -0.0038862969282481303 0.038402412182213658 0 -0.0040802914985984704 0.038246530269283888 0 -0.0040529093788575464 0.038625310374970356 0 -0.0024229716115918305 0.037328274140940865 0 -0.0032122780435507097 0.038107774133030167 0 -0.0015395864034659032 0.037950493017470208 0 -0.0035852471309666721 0.036940356791782716 0 -0.0028110301886394803 0.03611380329139216 0 -0.0024229716115918305 0.037328274140940865 0 -0.0034394062758173103 0.037403499871349624 0 -0.0032122780435507097 0.038107774133030167 0 -0.0035852471309666721 0.036940356791782716 0 -0.0040048608155770641 0.037188830236508881 0 -0.0040784554678570941 0.037762692301832879 0 -0.0046023574239972605 0.037423461128040646 0 -0.0037117419085361302 0.037081183885068855 0 -0.0032122780435507097 0.038107774133030167 0 -0.0040784554678570941 0.037762692301832879 0 -0.004606943251473131 0.038167315354912038 0 -0.0034394062758173103 0.037403499871349624 0 -0.0032122780435507097 0.038107774133030167 0 -0.0040784554678570941 0.037762692301832879 0 -0.0034394062758173103 0.037403499871349624 0 -0.0040784554678570941 0.037762692301832879 0 -0.0035803659347083371 0.03662571664622262 0 -0.0013706843700052283 0.039256725471748355 0 -0.0011461846300207059 0.03964553474597781 0 -0.0046023574239972605 0.037423461128040646 0 -0.0053484252592048403 0.037798386481953938 0 -0.004606943251473131 0.038167315354912038 0 -0.0040784554678570941 0.037762692301832879 0 -0.0046023574239972605 0.037423461128040646 0 -0.004606943251473131 0.038167315354912038 0 -0.00041249450948396572 0.042191256666769573 0 0.00042735843130476227 0.044946715479705808 0 -0.0053484252592048403 0.037798386481953938 0 -0.0051751384490245295 0.038447887281959456 0 -0.004606943251473131 0.038167315354912038 0 -0.0051751384490245295 0.038447887281959456 0 -0.004606943251473131 0.038167315354912038 0 -0.0045858581358804648 0.03854141761345091 0 -0.0051751384490245295 0.038447887281959456 0 -0.0045858581358804648 0.03854141761345091 0 -0.004783597030605111 0.038907648729698735 0 -0.0043274638818270438 0.038402438917827096 0 -0.004606943251473131 0.038167315354912038 0 -0.0045858581358804648 0.03854141761345091 0 -0.0045858581358804648 0.03854141761345091 0 -0.004783597030605111 0.038907648729698735 0 -0.0040529093788575464 0.038625310374970356 0 -0.008806599520920803 0.055364022977425188 0 -0.0080652630511407856 0.05445204259573088 0 -0.00707253476483128 0.055078910234331181 0 -0.0051751384490245295 0.038447887281959456 0 -0.004783597030605111 0.038907648729698735 0 -0.0057751695033543176 0.039144636581097861 0 -0.0064420428342841628 0.047864189888385644 0 -0.0043262139020905886 0.049543039620673412 0 -0.008806599520920803 0.055364022977425188 0 -0.0080652630511407856 0.05445204259573088 0 -0.0089381751476904237 0.053883630325703785 0 -0.008806599520920803 0.055364022977425188 0 -0.010079769611756502 0.054404533928734539 0 -0.0089381751476904237 0.053883630325703785 0 -0.0064420428342841628 0.047864189888385644 0 -0.0073078945546104562 0.046557241016328313 0 -0.008806599520920803 0.055364022977425188 0 -0.010079769611756502 0.054404533928734539 0 -0.010558847415856297 0.055566937536871412 0 -0.010558847415856297 0.055566937536871412 0 -0.011192046622832685 0.054553753222295671 0 -0.011784610339646399 0.055188397425095147 0 -0.010079769611756502 0.054404533928734539 0 -0.010558847415856297 0.055566937536871412 0 -0.011192046622832685 0.054553753222295671 0 -0.0073078945546104562 0.046557241016328313 0 -0.0077055759015493457 0.044768119576617964 0 -0.010079769611756502 0.054404533928734539 0 -0.011192046622832685 0.054553753222295671 0 -0.010951631363645917 0.053682406581441515 0 -0.011192046622832685 0.054553753222295671 0 -0.011770869539648352 0.053889547454977378 0 -0.010951631363645917 0.053682406581441515 0 -0.011794637717534162 0.054430127251038074 0 -0.012268620092059467 0.054153727223911118 0 -0.011784610339646399 0.055188397425095147 0 -0.011192046622832685 0.054553753222295671 0 -0.011770869539648352 0.053889547454977378 0 -0.011794637717534162 0.054430127251038074 0 -0.011770869539648352 0.053889547454977378 0 -0.011794637717534162 0.054430127251038074 0 -0.012268620092059467 0.054153727223911118 0 -0.012268620092059467 0.054153727223911118 0 -0.013138105941956671 0.054035515947523628 0 -0.011784610339646399 0.055188397425095147 0 -0.011192046622832685 0.054553753222295671 0 -0.011794637717534162 0.054430127251038074 0 -0.011784610339646399 0.055188397425095147 0 -0.01300240891426321 0.053806576107536752 0 -0.012588881419104886 0.055053125425568041 0 -0.013071168630501191 0.054815749961141698 0 -0.01300240891426321 0.053806576107536752 0 -0.013071168630501191 0.054815749961141698 0 -0.013448543248532036 0.054434443583534532 0 -0.010100044198014661 0.049864011407536574 0 -0.010148733206786378 0.051782799992986704 0 -0.012588881419104886 0.055053125425568041 0 -0.01340850828594705 0.055417723312485109 0 -0.012172846265135017 0.055724561649779014 0 -0.01300240891426321 0.053806576107536752 0 -0.012588881419104886 0.055053125425568041 0 -0.011784610339646399 0.055188397425095147 0 -0.012588881419104886 0.055053125425568041 0 -0.013071168630501191 0.054815749961141698 0 -0.01340850828594705 0.055417723312485109 0 -0.012588881419104886 0.055053125425568041 0 -0.011784610339646399 0.055188397425095147 0 -0.012172846265135017 0.055724561649779014 0 -0.010558847415856297 0.055566937536871412 0 -0.011784610339646399 0.055188397425095147 0 -0.012172846265135017 0.055724561649779014 0 -0.0054002193280038458 0.02562889673849203 0 -0.0060057092726017395 0.025913054467677697 0 -0.0060074366683308617 0.025148836737945358 0 -0.0069900825055415842 0.034237337937314039 0 -0.0047372481948418661 0.033242181361816364 0 -0.0074884170515225491 0.038704006955142242 0 -0.0079890686358962126 0.038646652862940119 0 -0.0074841336822916368 0.036975336704205157 0 -0.013832463147410675 0.054589523952505839 0 -0.014225288853965542 0.053716746504085804 0 -0.014004745305594401 0.054956571820302218 0 -0.0082467424222835862 0.042756626972484044 0 -0.006590737297060968 0.037846338795977041 0 -0.01300240891426321 0.053806576107536752 0 -0.014225288853965542 0.053716746504085804 0 -0.013448543248532036 0.054434443583534532 0 -0.013832463147410675 0.054589523952505839 0 -0.014225288853965542 0.053716746504085804 0 -0.013448543248532036 0.054434443583534532 0 -0.01340850828594705 0.055417723312485109 0 -0.014004745305594401 0.054956571820302218 0 -0.013820042289480807 0.055962270155634167 0 -0.0079890686358962126 0.038646652862940119 0 -0.0081952856585713468 0.037131370819227912 0 -0.0074841336822916368 0.036975336704205157 0 -0.006590737297060968 0.037846338795977041 0 -0.005360073059111862 0.040803736628494548 0 -0.003635648149300006 0.038136514063943791 0 -0.0036835910531323912 0.038147160290169485 0 -0.0036372610088702636 0.038233458500931856 0 -0.013071168630501191 0.054815749961141698 0 -0.013515171072914096 0.054880981277826986 0 -0.01340850828594705 0.055417723312485109 0 -0.013832463147410675 0.054589523952505839 0 -0.013515171072914096 0.054880981277826986 0 -0.014004745305594401 0.054956571820302218 0 -0.013071168630501191 0.054815749961141698 0 -0.013448543248532036 0.054434443583534532 0 -0.013515171072914096 0.054880981277826986 0 -0.013832463147410675 0.054589523952505839 0 -0.013448543248532036 0.054434443583534532 0 -0.013515171072914096 0.054880981277826986 0 -0.013515171072914096 0.054880981277826986 0 -0.01340850828594705 0.055417723312485109 0 -0.014004745305594401 0.054956571820302218 0 -0.0026621167892011276 0.024732849979488724 0 -0.0047372481948418661 0.033242181361816364 0 -0.006590737297060968 0.037846338795977041 0 -0.0047372481948418661 0.033242181361816364 0 -0.0047372481948418661 0.033242181361816364 0 -0.0012727351804275009 0.030981768521774849 0 0.00043493877120028132 0.024731648964846708 0 -0.00053739441920101565 0.025922323089089483 0 -0.00054195951497847301 0.024044084668420555 0 -0.0036835910531323912 0.038147160290169485 0 -0.0036372610088702636 0.038233458500931856 0 -0.0036419596528124462 0.038294186585028249 0 -0.003635648149300006 0.038136514063943791 0 -0.0036372610088702636 0.038233458500931856 0 -0.0036135008046955233 0.038229008848163396 0 -0.005360073059111862 0.040803736628494548 0 -0.0053118899310884028 0.040369719889885233 0 -0.0036372610088702636 0.038233458500931856 0 -0.0036124732992950759 0.038231354957286037 0 -0.0036130816543913074 0.038298349986171529 0 -0.0052696993845269286 0.04076171972854517 0 -0.005360073059111862 0.040803736628494548 0 -0.0035766923442049473 0.03835008114007965 0 -0.0036130816543913074 0.038298349986171529 0 -0.003624488343725567 0.038340550803304327 0 -0.0012727351804275009 0.030981768521774849 0 -0.0020289643497176306 0.034378010202255595 0 -0.0036130816543913074 0.038298349986171529 0 -0.0036419596528124462 0.038294186585028249 0 -0.0036039982375505224 0.038306759784791283 0 0.0016643875551753372 0.037633612882100431 0 7.5757283635933764e-05 0.037778431248329761 0 0.0008409556250454066 0.036989921472488557 0 -0.0036130816543913074 0.038298349986171529 0 -0.003624488343725567 0.038340550803304327 0 -0.0036039982375505224 0.038306759784791283 0 7.5757283635933764e-05 0.037778431248329761 0 5.3462061303679205e-05 0.036786704937099277 0 0.0008409556250454066 0.036989921472488557 0 -0.0036372610088702636 0.038233458500931856 0 -0.0036130816543913074 0.038298349986171529 0 -0.0036419596528124462 0.038294186585028249 0 0.0016643875551753372 0.037633612882100431 0 0.0016623730177578819 0.036464258256816047 0 0.0008409556250454066 0.036989921472488557 0 -0.0012727351804275009 0.030981768521774849 0 -0.00029262344894831298 0.029638578032013058 0 -0.0038862969282481303 0.038402412182213658 0 -0.0037019168914294164 0.038443364120487225 0 -0.0037604989431341625 0.038287694102605595 0 -0.0037019168914294164 0.038443364120487225 0 -0.0036749723145391433 0.038340065494040655 0 -0.0037604989431341625 0.038287694102605595 0 -0.01340850828594705 0.055417723312485109 0 -0.013820042289480807 0.055962270155634167 0 -0.012172846265135017 0.055724561649779014 0 -0.005360073059111862 0.040803736628494548 0 -0.0077055759015493457 0.044768119576617964 0 -0.0035766923442049473 0.03835008114007965 0 -0.0037019168914294164 0.038443364120487225 0 -0.003624488343725567 0.038340550803304327 0 -0.003624488343725567 0.038340550803304327 0 -0.0036749723145391433 0.038340065494040655 0 -0.0036039982375505224 0.038306759784791283 0 -0.0037019168914294164 0.038443364120487225 0 -0.003624488343725567 0.038340550803304327 0 -0.0036749723145391433 0.038340065494040655 0 -0.0020289643497176306 0.034378010202255595 0 -0.0028110301886394803 0.03611380329139216 0 7.5757283635933764e-05 0.037778431248329761 0 -0.00057442027262838338 0.037324444779101115 0 -0.0015395864034659032 0.037950493017470208 0 -0.0036749723145391433 0.038340065494040655 0 -0.0036039982375505224 0.038306759784791283 0 -0.0037604989431341625 0.038287694102605595 0 7.5757283635933764e-05 0.037778431248329761 0 -0.00057442027262838338 0.037324444779101115 0 5.3462061303679205e-05 0.036786704937099277 0 -0.0015395864034659032 0.037950493017470208 0 -0.0017698328559788443 0.036855834155721155 0 -0.00089680359609180704 0.03679021420979714 0 -0.00057442027262838338 0.037324444779101115 0 -0.0015395864034659032 0.037950493017470208 0 -0.00089680359609180704 0.03679021420979714 0 -0.0024229716115918305 0.037328274140940865 0 -0.0015395864034659032 0.037950493017470208 0 -0.0017698328559788443 0.036855834155721155 0 -0.0017202375618791811 0.035961222415483003 0 -0.00089680359609180704 0.03679021420979714 0 -2.9182025242263337e-05 0.035627289472156633 0 -0.0017698328559788443 0.036855834155721155 0 -0.0017202375618791811 0.035961222415483003 0 -0.00089680359609180704 0.03679021420979714 0 -0.00089680359609180704 0.03679021420979714 0 5.3462061303679205e-05 0.036786704937099277 0 -2.9182025242263337e-05 0.035627289472156633 0 -0.00057442027262838338 0.037324444779101115 0 -0.00089680359609180704 0.03679021420979714 0 5.3462061303679205e-05 0.036786704937099277 0 -0.0017202375618791811 0.035961222415483003 0 -0.0011305700627230692 0.034557124957173044 0 -0.0027278174930051363 0.034889748178395991 0 -0.0017202375618791811 0.035961222415483003 0 0.00010678787823932905 0.035574877066292095 0 -0.0011305700627230692 0.034557124957173044 0 -0.0011867725726058868 0.032475827170914046 0 -0.00051404652022311664 0.031455951274648383 0 0.00064329615945862275 0.023143836933781897 0 -0.00032128261052460634 0.024017397963349642 0 -0.00030999761372209008 0.023089538134780197 0 0.0016623730177578819 0.036464258256816047 0 0.00083736298909418267 0.036230545691178374 0 0.0016573741013924659 0.035283543613013335 0 0.00064329615945862275 0.023143836933781897 0 -0.00030999761372209008 0.023089538134780197 0 -0.00017663338108838198 0.022181538831627975 0 -0.00049370076724637095 0.025572952366509742 0 0.0003984999688916721 0.027626449171550223 0 5.3462061303679205e-05 0.036786704937099277 0 -2.9182025242263337e-05 0.035627289472156633 0 0.00083736298909418267 0.036230545691178374 0 0.0016623730177578819 0.036464258256816047 0 0.00083736298909418267 0.036230545691178374 0 0.0008409556250454066 0.036989921472488557 0 5.3462061303679205e-05 0.036786704937099277 0 0.00083736298909418267 0.036230545691178374 0 0.0008409556250454066 0.036989921472488557 0 0.00010678787823932905 0.035574877066292095 0 0.0019019504890940844 0.034938336265065303 0 0.0019029996846723009 0.035203138705185745 0 -2.9182025242263337e-05 0.035627289472156633 0 0.00083736298909418267 0.036230545691178374 0 0.0016573741013924659 0.035283543613013335 0 -0.00051404652022311664 0.031455951274648383 0 0.00046055099269329996 0.028137909668108637 0 -0.00029262344894831298 0.029638578032013058 0 0.00046055099269329996 0.028137909668108637 0 -0.00030999761372209008 0.023089538134780197 0 -0.00030727887848623636 0.022208301529727005 0 -0.00017663338108838198 0.022181538831627975 0 0.001033889820242463 0.021713527967057888 0 0.00052295506002851327 0.021785811358440998 0 0.00067948336709312243 0.021580323014037141 0 0.0010946188460513938 0.026131132533448835 0 0.0003984999688916721 0.027626449171550223 0 0.0015201887334106545 0.027871937326839229 0 0.0015164460912165157 0.027222608737594967 0 0.0010637127131454067 0.027310739312024334 0 0.00052222051495823371 0.027775239194711858 0 0.0003984999688916721 0.027626449171550223 0 0.00052222051495823371 0.027775239194711858 0 0.00046055099269329996 0.028137909668108637 0 0.00046055099269329996 0.028137909668108637 0 0.0003984999688916721 0.027626449171550223 0 0.00045146415782592036 0.021684157756663318 0 0.00052295506002851327 0.021785811358440998 0 0.00067948336709312243 0.021580323014037141 0 0.00010678787823932905 0.035574877066292095 0 0.0019019504890940844 0.034938336265065303 0 0.00049523657653123077 0.033206623889252884 0 0.00090706971107370679 0.021217459819970245 0 0.00067948336709312243 0.021580323014037141 0 0.00051670734710796199 0.021470513001715694 0 0.00052222051495823371 0.027775239194711858 0 0.0005185264262961922 0.027094118019399181 0 0.00053675425141611066 0.021425058707990295 0 0.00051670734710796199 0.021470513001715694 0 0.00049610351344420969 0.021458663098403451 0 0.00045146415782592036 0.021684157756663318 0 0.00051670734710796199 0.021470513001715694 0 0.00049610351344420969 0.021458663098403451 0 0.00045146415782592036 0.021684157756663318 0 0.00067948336709312243 0.021580323014037141 0 0.00051670734710796199 0.021470513001715694 0 0.00053675425141611066 0.021425058707990295 0 0.00049610351344420969 0.021458663098403451 0 0.00050539940126277519 0.021397590845726684 0 0.00049610351344420969 0.021458663098403451 0 0.00044178135981519682 0.021407965222638246 0 0.00050539940126277519 0.021397590845726684 0 0.00052222051495823371 0.027775239194711858 0 0.00055737396749330412 0.028041124926896303 0 0.00049425205509899138 0.021493465432443858 0 0.00049610351344420969 0.021458663098403451 0 0.00044178135981519682 0.021407965222638246 0 0.00044178135981519682 0.021407965222638246 0 0.00050539940126277519 0.021397590845726684 0 0.00051091776343377589 0.021341872796257693 0 0.00060159960794739834 0.021320314790754653 0 0.00055899094739145596 0.021373813753750782 0 0.00051091776343377589 0.021341872796257693 0 0.00050539940126277519 0.021397590845726684 0 0.00055899094739145596 0.021373813753750782 0 0.00051091776343377589 0.021341872796257693 0 0.00053675425141611066 0.021425058707990295 0 0.00050539940126277519 0.021397590845726684 0 0.00055899094739145596 0.021373813753750782 0 0.00010678787823932905 0.035574877066292095 0 0.00049523657653123077 0.033206623889252884 0 -0.0011305700627230692 0.034557124957173044 0 -0.0011305700627230692 0.034557124957173044 0 -0.0018185395412916318 0.03316903052857275 0 -0.0027278174930051363 0.034889748178395991 0 0.00049523657653123077 0.033206623889252884 0 -0.0011305700627230692 0.034557124957173044 0 -0.0018185395412916318 0.03316903052857275 0 0.00049523657653123077 0.033206623889252884 0 -0.0018185395412916318 0.03316903052857275 0 -0.00091280222666420389 0.031464134493866182 0 0.0061270881658377716 0.042111346498884476 0 0.0054450654929229436 0.041575503147144803 0 0.0060642978021759218 0.0411068638523895 0 0.0061270881658377716 0.042111346498884476 0 0.0054450654929229436 0.041575503147144803 0 0.0051462217198399302 0.04262568979227941 0 0.0054450654929229436 0.041575503147144803 0 0.0040474685365424435 0.042713796624190926 0 0.0051462217198399302 0.04262568979227941 0 0.0046158585202314565 0.042304836334547596 0 0.0039656752290610081 0.042849747750921742 0 0.0045908241196061777 0.041558212779880178 0 0.0041663944161466114 0.042720479267701575 0 0.0037138921004381438 0.041537986258333076 0 0.0054450654929229436 0.041575503147144803 0 0.0045908241196061777 0.041558212779880178 0 0.0041663944161466114 0.042720479267701575 0 0.0046673969514811507 0.043158914917514356 0 0.005295845640791998 0.043674526015299052 0 0.0042062923271915511 0.043688882426153028 0 0.0040474685365424435 0.042713796624190926 0 0.0046673969514811507 0.043158914917514356 0 0.0051462217198399302 0.04262568979227941 0 0.0040474685365424435 0.042713796624190926 0 0.0046673969514811507 0.043158914917514356 0 0.0042062923271915511 0.043688882426153028 0 0.0061270881658377716 0.042111346498884476 0 0.0051462217198399302 0.04262568979227941 0 0.005295845640791998 0.043674526015299052 0 0.0011494379692637607 0.036201777961785822 0 0.00018013373995549647 0.03843420225311793 0 0.0046673969514811507 0.043158914917514356 0 0.0051462217198399302 0.04262568979227941 0 0.005295845640791998 0.043674526015299052 0 -0.0017202375618791811 0.035961222415483003 0 -0.0027278174930051363 0.034889748178395991 0 -0.0027856344802774939 0.03630125823227974 0 0.00018013373995549647 0.03843420225311793 0 -0.0011461846300207059 0.03964553474597781 0 0.005295845640791998 0.043674526015299052 0 0.0042062923271915511 0.043688882426153028 0 0.0044680639157873769 0.045201647942019293 0 0.0042062923271915511 0.043688882426153028 0 0.0044680639157873769 0.045201647942019293 0 0.0030707200921305123 0.044899721988404896 0 -0.0011461846300207059 0.03964553474597781 0 -0.0013366986944607885 0.039503120246216133 0 -0.0034394062758173103 0.037403499871349624 0 -0.0035803659347083371 0.03662571664622262 0 -0.0027856344802774939 0.03630125823227974 0 -0.0024229716115918305 0.037328274140940865 0 -0.0034394062758173103 0.037403499871349624 0 -0.0027856344802774939 0.03630125823227974 0 -0.0027278174930051363 0.034889748178395991 0 -0.0036186381560407064 0.036613396585466938 0 -0.0027856344802774939 0.03630125823227974 0 -0.0024229716115918305 0.037328274140940865 0 -0.0017698328559788443 0.036855834155721155 0 -0.0027856344802774939 0.03630125823227974 0 -0.0017698328559788443 0.036855834155721155 0 -0.0017202375618791811 0.035961222415483003 0 -0.0027856344802774939 0.03630125823227974 0 0.00042735843130476227 0.044946715479705808 0 0.002072674354611408 0.044367470284483318 0 0.0019747963517359819 0.046184964292169443 0 0.0030820061715284494 0.044963134456969069 0 0.0013593993098790728 0.045045515715265695 0 0.0032049830587505814 0.045661977553186767 0 0.0019373522355011655 0.046121209622951818 0 0.0030707200921305123 0.044899721988404896 0 -0.00041249450948396572 0.042191256666769573 0 -0.0011461846300207059 0.03964553474597781 0 0.0032049830587505814 0.045661977553186767 0 0.0044680639157873769 0.045201647942019293 0 0.0030707200921305123 0.044899721988404896 0 0.0027880392241058745 0.043930967457287862 0 0.002072674354611408 0.044367470284483318 0 0.0042062923271915511 0.043688882426153028 0 0.0030820061715284494 0.044963134456969069 0 0.002685785068835564 0.04388066491888129 0 0.0028667054431993542 0.043771656512325195 0 0.0022122294518999736 0.044317307679591751 0 0.0030820061715284494 0.044963134456969069 0 0.002685785068835564 0.04388066491888129 0 0.0013593993098790728 0.045045515715265695 0 0.0027887364923254768 0.043928992867448752 0 0.0019907058109824138 0.043174853651497425 0 0.0014788678590785757 0.044086902500673278 0 0.0027887364923254768 0.043928992867448752 0 0.0013593993098790728 0.045045515715265695 0 0.0014788678590785757 0.044086902500673278 0 0.0027887364923254768 0.043928992867448752 0 0.0019907058109824138 0.043174853651497425 0 0.0030902183775963787 0.042808441278740617 0 0.0019907058109824138 0.043174853651497425 0 0.0030902183775963787 0.042808441278740617 0 0.0023096770954652538 0.042281068774612497 0 0.0019907058109824138 0.043174853651497425 0 0.0023096770954652538 0.042281068774612497 0 0.0012279872092015767 0.042386571660847742 0 0.0039656752290610081 0.042849747750921742 0 0.0028667054431993542 0.043771656512325195 0 0.0041663944161466114 0.042720479267701575 0 0.0027887364923254768 0.043928992867448752 0 0.0030902183775963787 0.042808441278740617 0 0.0040474685365424435 0.042713796624190926 0 0.0042062923271915511 0.043688882426153028 0 0.002685785068835564 0.04388066491888129 0 0.0030902183775963787 0.042808441278740617 0 0.0037138921004381438 0.041537986258333076 0 0.0023096770954652538 0.042281068774612497 0 0.0041663944161466114 0.042720479267701575 0 0.0030902183775963787 0.042808441278740617 0 0.0037138921004381438 0.041537986258333076 0 0.0032271262178291079 0.038986907501841091 0 0.0026114721313669604 0.039857817509001463 0 0.0043999869412559836 0.041141919775781563 0 0.0023096770954652538 0.042281068774612497 0 0.0030027750941871152 0.040318573063726437 0 0.0023096770954652538 0.042281068774612497 0 0.0030027750941871152 0.040318573063726437 0 0.0015991404517856152 0.041115646605787405 0 0.0030027750941871152 0.040318573063726437 0 0.0017069207129498493 0.039301253292983077 0 0.0015991404517856152 0.041115646605787405 0 0.0017069207129498493 0.039301253292983077 0 0.0039899400817695139 0.038108599101409499 0 0.0020161221153537591 0.036241068295838577 0 0.0017069207129498493 0.039301253292983077 0 0.0020161221153537591 0.036241068295838577 0 0.00070220124816318407 0.037396261963190222 0 0.0030027750941871152 0.040318573063726437 0 0.0017069207129498493 0.039301253292983077 0 0.0039899400817695139 0.038108599101409499 0 0.0039899400817695139 0.038108599101409499 0 0.0051164592729883726 0.038353099045621154 0 0.0052525920664234444 0.036803052962210689 0 0.0039899400817695139 0.038108599101409499 0 0.0043679877194231446 0.039678611554040989 0 0.0051164592729883726 0.038353099045621154 0 0.0030027750941871152 0.040318573063726437 0 0.0039899400817695139 0.038108599101409499 0 0.0043679877194231446 0.039678611554040989 0 0.0043999869412559836 0.041141919775781563 0 0.0030027750941871152 0.040318573063726437 0 0.0043679877194231446 0.039678611554040989 0 0.0032271262178291079 0.038986907501841091 0 0.004082755153277595 0.036632554975839136 0 0.0045908241196061777 0.041558212779880178 0 0.0037138921004381438 0.041537986258333076 0 0.0050823712663228228 0.040787166234737812 0 0.0043999869412559836 0.041141919775781563 0 0.005771814353813561 0.039626399584839642 0 0.0066251764796561924 0.03989204841979635 0 0.0043999869412559836 0.041141919775781563 0 0.0043679877194231446 0.039678611554040989 0 0.005771814353813561 0.039626399584839642 0 0.005771814353813561 0.039626399584839642 0 0.0066251764796561924 0.03989204841979635 0 0.006472006754990778 0.038824991581803983 0 0.0050823712663228228 0.040787166234737812 0 0.0059538679394172261 0.040796990385671021 0 0.0064779029802762402 0.040021650143841216 0 0.004082755153277595 0.036632554975839136 0 0.004262713962697613 0.03236470033457986 0 0.0055216104055066046 0.041055095667137179 0 0.0059538679394172261 0.040796990385671021 0 0.0060642978021759218 0.0411068638523895 0 0.0055216104055066046 0.041055095667137179 0 0.0050823712663228228 0.040787166234737812 0 0.0059538679394172261 0.040796990385671021 0 0.0054450654929229436 0.041575503147144803 0 0.0055216104055066046 0.041055095667137179 0 0.0060642978021759218 0.0411068638523895 0 0.0054450654929229436 0.041575503147144803 0 0.0045908241196061777 0.041558212779880178 0 0.0050823712663228228 0.040787166234737812 0 0.0054450654929229436 0.041575503147144803 0 0.0055216104055066046 0.041055095667137179 0 0.0050823712663228228 0.040787166234737812 0 0.0066251764796561924 0.03989204841979635 0 0.0081985088543454036 0.038264831336502429 0 0.009214597449463801 0.038477509049682633 0 0.0081985088543454036 0.038264831336502429 0 0.0071728295739110276 0.038289817672394387 0 0.0077714012792794267 0.037759388781719409 0 0.0066251764796561924 0.03989204841979635 0 0.0081985088543454036 0.038264831336502429 0 0.0071728295739110276 0.038289817672394387 0 0.0066251764796561924 0.03989204841979635 0 0.0071728295739110276 0.038289817672394387 0 0.006472006754990778 0.038824991581803983 0 0.0071728295739110276 0.038289817672394387 0 0.0067560325581540589 0.037827403452526519 0 0.006472006754990778 0.038824991581803983 0 0.0071728295739110276 0.038289817672394387 0 0.0073404980234208711 0.037132858686625497 0 0.0067560325581540589 0.037827403452526519 0 0.0073404980234208711 0.037132858686625497 0 0.0067560325581540589 0.037827403452526519 0 0.0060399094262745074 0.037054802393756102 0 0.0071728295739110276 0.038289817672394387 0 0.0073404980234208711 0.037132858686625497 0 0.0077714012792794267 0.037759388781719409 0 0.0073404980234208711 0.037132858686625497 0 0.0077714012792794267 0.037759388781719409 0 0.0083720786140680237 0.037346523331820071 0 0.0081985088543454036 0.038264831336502429 0 0.0077714012792794267 0.037759388781719409 0 0.0083720786140680237 0.037346523331820071 0 0.0043217745594243927 0.03692923489111876 0 0.0042305549459852798 0.035588552670525526 0 0.005771814353813561 0.039626399584839642 0 0.0051164592729883726 0.038353099045621154 0 0.0061589704968579044 0.037569707548246248 0 0.005771814353813561 0.039626399584839642 0 0.006472006754990778 0.038824991581803983 0 0.0060399094262745074 0.037054802393756102 0 0.0043679877194231446 0.039678611554040989 0 0.005771814353813561 0.039626399584839642 0 0.0051164592729883726 0.038353099045621154 0 0.0067560325581540589 0.037827403452526519 0 0.006472006754990778 0.038824991581803983 0 0.0060399094262745074 0.037054802393756102 0 0.0052525920664234444 0.036803052962210689 0 0.0061589704968579044 0.037569707548246248 0 0.0065222664011404018 0.035475390479200786 0 0.0042305549459852798 0.035588552670525526 0 0.0037955185400579076 0.031922970838522809 0 0.0051164592729883726 0.038353099045621154 0 0.0052525920664234444 0.036803052962210689 0 0.0061589704968579044 0.037569707548246248 0 0.0035844899873711689 0.033860937345998134 0 0.0037955185400579076 0.031922970838522809 0 0.0060399094262745074 0.037054802393756102 0 0.0073038342633529362 0.035803106207142603 0 0.0064612165650903405 0.034511269740179082 0 0.0073404980234208711 0.037132858686625497 0 0.0073038342633529362 0.035803106207142603 0 0.0085036681651792147 0.036032471179872488 0 0.0073404980234208711 0.037132858686625497 0 0.0083720786140680237 0.037346523331820071 0 0.0085036681651792147 0.036032471179872488 0 0.0073404980234208711 0.037132858686625497 0 0.0060399094262745074 0.037054802393756102 0 0.0073038342633529362 0.035803106207142603 0 0.0073038342633529362 0.035803106207142603 0 0.0082395021565182004 0.034602348818534676 0 0.0085036681651792147 0.036032471179872488 0 0.0037955185400579076 0.031922970838522809 0 0.0044273884521598668 0.027491660226305694 0 0.0082395021565182004 0.034602348818534676 0 0.0064612165650903405 0.034511269740179082 0 0.0086073027936123449 0.032265128779855143 0 0.0073038342633529362 0.035803106207142603 0 0.0082395021565182004 0.034602348818534676 0 0.0064612165650903405 0.034511269740179082 0 0.0073124065507979095 0.034601439486089632 0 0.0049613790981641427 0.033806596366785263 0 0.0078642471361197088 0.031390000334270356 0 0.0056515247445697503 0.036344702479426325 0 0.0073124065507979095 0.034601439486089632 0 0.0049613790981641427 0.033806596366785263 0 0.0024165249876782827 0.03317466240947041 0 0.0015512877257041586 0.033840828941600745 0 0.0020161221153537591 0.036241068295838577 0 0.0020386596749959809 0.031414416004734942 0 0.001255464570959388 0.0331647019595082 0 0.0015512877257041586 0.033840828941600745 0 0.0020161221153537591 0.036241068295838577 0 0.00023676321232342265 0.034933257454624479 0 0.0015512877257041586 0.033840828941600745 0 0.00068946616743574107 0.032751066380351468 0 0.00023676321232342265 0.034933257454624479 0 0.0049613790981641427 0.033806596366785263 0 0.0020161221153537591 0.036241068295838577 0 0.0041559296707420054 0.036122936780890236 0 0.0056515247445697503 0.036344702479426325 0 0.0049613790981641427 0.033806596366785263 0 0.0041559296707420054 0.036122936780890236 0 0.0039899400817695139 0.038108599101409499 0 0.0020161221153537591 0.036241068295838577 0 0.0041559296707420054 0.036122936780890236 0 0.003314516502196141 0.034668895709774265 0 0.0035844899873711689 0.033860937345998134 0 0.0039899400817695139 0.038108599101409499 0 0.0056515247445697503 0.036344702479426325 0 0.0041559296707420054 0.036122936780890236 0 0.00054870786308022302 0.021263709270222041 0 0.00049391251725651756 0.021237912548698393 0 0.00053759242425844807 0.021162004300441992 0 0.0006215193079449927 0.021185869500045255 0 0.00054870786308022302 0.021263709270222041 0 0.00053759242425844807 0.021162004300441992 0 0.00054870786308022302 0.021263709270222041 0 0.00051091776343377589 0.021341872796257693 0 0.00046462621703758603 0.021307472615410671 0 0.00060159960794739834 0.021320314790754653 0 0.00054870786308022302 0.021263709270222041 0 0.00051091776343377589 0.021341872796257693 0 0.00044178135981519682 0.021407965222638246 0 0.00051091776343377589 0.021341872796257693 0 0.00046462621703758603 0.021307472615410671 0 0.00054870786308022302 0.021263709270222041 0 0.00046462621703758603 0.021307472615410671 0 0.00049391251725651756 0.021237912548698393 0 0.00046462621703758603 0.021307472615410671 0 0.00049391251725651756 0.021237912548698393 0 0.0004373842472961738 0.021262727052337539 0 0.00049391251725651756 0.021237912548698393 0 0.0004373842472961738 0.021262727052337539 0 0.00043894453269891799 0.021213107853570903 0 0.00040003234682135997 0.021243394238065223 0 0.0004373842472961738 0.021262727052337539 0 0.00036573786926445158 0.02132187863655562 0 0.0035682259215323079 0.029398459696295613 0 0.0025485649271454786 0.031225498199249743 0 0.00040003234682135997 0.021243394238065223 0 0.0004373842472961738 0.021262727052337539 0 0.00043894453269891799 0.021213107853570903 0 0.0035682259215323079 0.029398459696295613 0 0.0035342280930734556 0.029009374374498562 0 0.00046462621703758603 0.021307472615410671 0 0.0004373842472961738 0.021262727052337539 0 0.00036573786926445158 0.02132187863655562 0 0.00055737396749330412 0.028041124926896303 0 0.0025485649271454786 0.031225498199249743 0 0.00044178135981519682 0.021407965222638246 0 0.00046462621703758603 0.021307472615410671 0 0.00036573786926445158 0.02132187863655562 0 0.0061270881658377716 0.042111346498884476 0 0.0069252158529043107 0.040569179476728758 0 0.0060642978021759218 0.0411068638523895 0 0.0011494379692637607 0.036201777961785822 0 0.0025485649271454786 0.031225498199249743 0 0.0069252158529043107 0.040569179476728758 0 0.0064172666583816223 0.040533569282403592 0 0.0064779029802762402 0.040021650143841216 0 0.0059538679394172261 0.040796990385671021 0 0.0064172666583816223 0.040533569282403592 0 0.0064779029802762402 0.040021650143841216 0 0.0069252158529043107 0.040569179476728758 0 0.0060642978021759218 0.0411068638523895 0 0.0064172666583816223 0.040533569282403592 0 0.0059538679394172261 0.040796990385671021 0 0.0060642978021759218 0.0411068638523895 0 0.0064172666583816223 0.040533569282403592 0 0.0032156749539793625 0.030338004469995579 0 0.0023844795813978952 0.031914110930298875 0 0.001732260660706614 0.031110625762830964 0 0.0081985088543454036 0.038264831336502429 0 0.0087338009594436564 0.03829092293486238 0 0.009214597449463801 0.038477509049682633 0 0.0081985088543454036 0.038264831336502429 0 0.0087338009594436564 0.03829092293486238 0 0.0088190387391350097 0.037841826088306822 0 0.0087338009594436564 0.03829092293486238 0 0.009214597449463801 0.038477509049682633 0 0.0088190387391350097 0.037841826088306822 0 0.0025485649271454786 0.031225498199249743 0 0.004262713962697613 0.03236470033457986 0 0.011088619858641215 0.037472564662320587 0 0.009214597449463801 0.038477509049682633 0 0.0096089117691441472 0.037165060844756348 0 0.0035682259215323079 0.029398459696295613 0 0.004262713962697613 0.03236470033457986 0 0.0096089117691441472 0.037165060844756348 0 0.0083720786140680237 0.037346523331820071 0 0.0088190387391350097 0.037841826088306822 0 0.009214597449463801 0.038477509049682633 0 0.0096089117691441472 0.037165060844756348 0 0.0088190387391350097 0.037841826088306822 0 0.0081985088543454036 0.038264831336502429 0 0.0083720786140680237 0.037346523331820071 0 0.0088190387391350097 0.037841826088306822 0 0.0082395021565182004 0.034602348818534676 0 0.0085036681651792147 0.036032471179872488 0 0.010461507892577456 0.035025985221695789 0 0.0096089117691441472 0.037165060844756348 0 0.0085036681651792147 0.036032471179872488 0 0.010461507892577456 0.035025985221695789 0 0.0096089117691441472 0.037165060844756348 0 0.0083720786140680237 0.037346523331820071 0 0.0085036681651792147 0.036032471179872488 0 0.010461507892577456 0.035025985221695789 0 0.011142090035253883 0.032634576613225087 0 0.0086073027936123449 0.032265128779855143 0 0.0082395021565182004 0.034602348818534676 0 0.010461507892577456 0.035025985221695789 0 0.0086073027936123449 0.032265128779855143 0 0.010461507892577456 0.035025985221695789 0 0.0125946188839285 0.034538584981980341 0 0.011142090035253883 0.032634576613225087 0 0.00039203105512399563 0.021248568659030822 0 0.00043894453269891799 0.021213107853570903 0 0.0004544080756995193 0.021106512857962164 0 0.0035682259215323079 0.029398459696295613 0 0.0037768434240937621 0.025957549171520732 0 0.011088619858641215 0.037472564662320587 0 0.010461507892577456 0.035025985221695789 0 0.0125946188839285 0.034538584981980341 0 0.011088619858641215 0.037472564662320587 0 0.0096089117691441472 0.037165060844756348 0 0.010461507892577456 0.035025985221695789 0 0.00048165516271602733 0.021181309205105435 0 0.0004544080756995193 0.021106512857962164 0 0.00053759242425844807 0.021162004300441992 0 0.00043894453269891799 0.021213107853570903 0 0.00048165516271602733 0.021181309205105435 0 0.0004544080756995193 0.021106512857962164 0 0.00049391251725651756 0.021237912548698393 0 0.00043894453269891799 0.021213107853570903 0 0.00048165516271602733 0.021181309205105435 0 0.00049391251725651756 0.021237912548698393 0 0.00048165516271602733 0.021181309205105435 0 0.00053759242425844807 0.021162004300441992 0 0.0004544080756995193 0.021106512857962164 0 0.00054296732647417321 0.021072050163916434 0 0.00051875641306419189 0.020980583860482405 0 0.0004544080756995193 0.021106512857962164 0 0.00054296732647417321 0.021072050163916434 0 0.00053759242425844807 0.021162004300441992 0 0.00062535729640457926 0.021112183252854362 0 0.00054296732647417321 0.021072050163916434 0 0.00053759242425844807 0.021162004300441992 0 0.00019964985659411244 0.011342861940598258 0 0.00074428429465422106 0.011163391031475223 0 0.00045952981514440138 0.011725033910763577 0 0.0028327405051686238 0.020433642350052978 0 0.0015633097130984747 0.014714726344791134 0 -2.5377226516802394e-06 0.01488821221372316 0 -1.4548127086530356e-05 0.0147675674617642 0 0.00012206039970766946 0.014769775217840623 0 0.0006165518123043154 0.021024141012216897 0 0.00054296732647417321 0.021072050163916434 0 0.00051875641306419189 0.020980583860482405 0 0.00025203155364857994 0.010932156829670877 0 0.00019964985659411244 0.011342861940598258 0 0.00074428429465422106 0.011163391031475223 0 0.0010585045091143286 0.016308365739577349 0 0.0028327405051686238 0.020433642350052978 0 0.0125946188839285 0.034538584981980341 0 0.014093549223218 0.031618972667398444 0 0.011142090035253883 0.032634576613225087 0 0.0037768434240937621 0.025957549171520732 0 0.0028327405051686238 0.020433642350052978 0 0.0028327405051686238 0.020433642350052978 0 0.0044575274451956609 0.021593818506389365 0 -2.5377226516802394e-06 0.01488821221372316 0 -8.8027311331897263e-05 0.014810324320585827 0 -1.4548127086530356e-05 0.0147675674617642 0 0.014093549223218 0.031618972667398444 0 0.010741261009139729 0.030027920913979898 0 0.011142090035253883 0.032634576613225087 0 0.010741261009139729 0.030027920913979898 0 0.011142090035253883 0.032634576613225087 0 0.0086073027936123449 0.032265128779855143 0 0.0044575274451956609 0.021593818506389365 0 0.0044273884521598668 0.027491660226305694 0 -0.00019108637090878489 0.01979065372478293 0 0.00056017371420539032 0.020147688539159131 0 0.0019534682557507494 0.017991790721757002 0 0.0038592957668858343 0.026834048672139375 0 0.0044575316132132248 0.024978567758432286 0 0.002783087221037431 0.026370370896664535 0 0.0052696409011086008 0.025363546327025348 0 0.0038592957668858343 0.026834048672139375 0 0.0044575316132132248 0.024978567758432286 0 0.0044575274451956609 0.021593818506389365 0 0.0028503429395266011 0.020626328517166857 0 0.0028503429395266011 0.020626328517166857 0 0.0026528713797707797 0.020548186758527882 0 0.00014316004427527361 0.020203684134611623 0 9.8832941543163739e-05 0.02011969000464691 0 0.00036060467389592294 0.020779294391138139 0 0.00014316004427527361 0.020203684134611623 0 0.00056017371420539032 0.020147688539159131 0 0.00036060467389592294 0.020779294391138139 0 9.8832941543163739e-05 0.02011969000464691 0 0.00036060467389592294 0.020779294391138139 0 0.0002367295714083084 0.020719946373705458 0 0.0002367295714083084 0.020719946373705458 0 -8.7414941754628652e-07 0.018142391745121528 0 2.6436644525451758e-06 0.021149581502270819 0 9.8832941543163739e-05 0.02011969000464691 0 0.0002367295714083084 0.020719946373705458 0 -8.7414941754628652e-07 0.018142391745121528 0 0.00036060467389592294 0.020779294391138139 0 0.0002367295714083084 0.020719946373705458 0 0.0013523637189079018 0.022276636602509954 0 9.8832941543163739e-05 0.02011969000464691 0 -8.7414941754628652e-07 0.018142391745121528 0 0.00024296760708407574 0.019229214782649589 0 0.00014316004427527361 0.020203684134611623 0 9.8832941543163739e-05 0.02011969000464691 0 0.00024296760708407574 0.019229214782649589 0 9.0280877943620414e-05 0.014657951500195427 0 0.00013796630622219869 0.014683438007376835 0 3.5863489792574634e-05 0.014742150142915635 0 9.0280877943620414e-05 0.014657951500195427 0 3.5863489792574634e-05 0.014742150142915635 0 -1.8383299094947672e-05 0.014719660583438885 0 0.0028503429395266011 0.020626328517166857 0 0.00078430620070993578 0.017901000188934472 0 0.0044575274451956609 0.021593818506389365 0 0.0041567568898388321 0.020089232133542703 0 -8.8027311331897263e-05 0.014810324320585827 0 -1.4548127086530356e-05 0.0147675674617642 0 -1.8383299094947672e-05 0.014719660583438885 0 3.5863489792574634e-05 0.014742150142915635 0 -1.8383299094947672e-05 0.014719660583438885 0 -0.00012423355861329751 0.014693518169500966 0 -1.4548127086530356e-05 0.0147675674617642 0 -1.8383299094947672e-05 0.014719660583438885 0 -0.00012423355861329751 0.014693518169500966 0 3.5863489792574634e-05 0.014742150142915635 0 -1.1998524725156468e-07 0.015127812265491277 0 -0.00012423355861329751 0.014693518169500966 0 -8.7414941754628652e-07 0.018142391745121528 0 0.00024296760708407574 0.019229214782649589 0 1.9970895610810429e-06 0.015138077989578847 0 0.00078430620070993578 0.017901000188934472 0 1.5509112832481978e-06 0.015140108655978325 0 1.5854014286553742e-07 0.012585149049764167 0 -1.1998524725156468e-07 0.015127812265491277 0 -0.00012423355861329751 0.014693518169500966 0 1.5854014286553742e-07 0.012585149049764167 0 -0.00012423355861329751 0.014693518169500966 0 0.00012206039970766946 0.014769775217840623 0 -1.4548127086530356e-05 0.0147675674617642 0 -0.00012423355861329751 0.014693518169500966 0 0.00012206039970766946 0.014769775217840623 0 0.00089215437949662763 0.02871319915319856 0 0.0014547283950198824 0.031159715202403654 0 0.0018604523095221035 0.02826317441298138 0 0.00089215437949662763 0.02871319915319856 0 0.00035130690022084423 0.030526788972970374 0 0.0014547283950198824 0.031159715202403654 0 0.00035130690022084423 0.030526788972970374 0 0.00068946616743574107 0.032751066380351468 0 0.0014547283950198824 0.031159715202403654 0 0.0015512877257041586 0.033840828941600745 0 0.00068946616743574107 0.032751066380351468 0 0.0014547283950198824 0.031159715202403654 0 0.00035130690022084423 0.030526788972970374 0 0.00068946616743574107 0.032751066380351468 0 -0.00018243185742019711 0.032497261322358077 0 0.0024165249876782827 0.03317466240947041 0 0.0015512877257041586 0.033840828941600745 0 0.0014547283950198824 0.031159715202403654 0 0.0024165249876782827 0.03317466240947041 0 0.0014547283950198824 0.031159715202403654 0 0.0035675011560566037 0.030457987186246465 0 0.0020386596749959809 0.031414416004734942 0 0.0029546522780610346 0.027160795356108873 0 0.0024442092719033437 0.028312134056636476 0 0.0038592957668858343 0.026834048672139375 0 0.002783087221037431 0.026370370896664535 0 0.0037955185400579076 0.031922970838522809 0 0.0029546522780610346 0.027160795356108873 0 0.0028503429395266011 0.020626328517166857 0 0.0029546522780610346 0.027160795356108873 0 0.0029546522780610346 0.027160795356108873 0 0.0028671941098870196 0.025326100958791557 0 0.00056017371420539032 0.020147688539159131 0 0.0019534682557507494 0.017991790721757002 0 0.0016165549552743059 0.019836280349378434 0 0.0035675011560566037 0.030457987186246465 0 0.0034360034513828235 0.027506765807881386 0 0.0018604523095221035 0.02826317441298138 0 0.0014547283950198824 0.031159715202403654 0 0.0035675011560566037 0.030457987186246465 0 0.0018604523095221035 0.02826317441298138 0 0.00089215437949662763 0.02871319915319856 0 0.0018604523095221035 0.02826317441298138 0 0.00073930223440014735 0.025986423011860545 0 0.0018604523095221035 0.02826317441298138 0 0.0014521947353950432 0.025311872617366692 0 0.00073930223440014735 0.025986423011860545 0 0.0014521947353950432 0.025311872617366692 0 0.00073930223440014735 0.025986423011860545 0 0.0007234355991922746 0.023620181387151943 0 0.0034360034513828235 0.027506765807881386 0 0.0014521947353950432 0.025311872617366692 0 0.0013523637189079018 0.022276636602509954 0 0.00036060467389592294 0.020779294391138139 0 0.0016165549552743059 0.019836280349378434 0 0.0013523637189079018 0.022276636602509954 0 0.0028671941098870196 0.025326100958791557 0 0.0027686841834973571 0.024810662061693616 0 0.00056017371420539032 0.020147688539159131 0 0.00036060467389592294 0.020779294391138139 0 0.0016165549552743059 0.019836280349378434 0 0.0034360034513828235 0.027506765807881386 0 0.0018604523095221035 0.02826317441298138 0 0.0014521947353950432 0.025311872617366692 0 0.0014521947353950432 0.025311872617366692 0 0.0013523637189079018 0.022276636602509954 0 0.0007234355991922746 0.023620181387151943 0 0.0002367295714083084 0.020719946373705458 0 0.0013523637189079018 0.022276636602509954 0 2.6436644525451758e-06 0.021149581502270819 0 0.0013523637189079018 0.022276636602509954 0 2.6436644525451758e-06 0.021149581502270819 0 0.0007234355991922746 0.023620181387151943 0 2.6436644525451758e-06 0.021149581502270819 0 0.0007234355991922746 0.023620181387151943 0 6.7160362232649188e-07 0.02415538956747541 0 0.00073930223440014735 0.025986423011860545 0 0.0007234355991922746 0.023620181387151943 0 6.7160362232649188e-07 0.02415538956747541 0 6.7160362232649188e-07 0.02415538956747541 0 0.00021370509624169963 0.027733135222185828 0 2.9984488640699992e-07 0.027163464454274786 0 0.00073930223440014735 0.025986423011860545 0 6.7160362232649188e-07 0.02415538956747541 0 0.00021370509624169963 0.027733135222185828 0 0.00089215437949662763 0.02871319915319856 0 0.00035130690022084423 0.030526788972970374 0 0.00021370509624169963 0.027733135222185828 0 0.00089215437949662763 0.02871319915319856 0 0.00073930223440014735 0.025986423011860545 0 0.00021370509624169963 0.027733135222185828 0 0.00035130690022084423 0.030526788972970374 0 0.00021370509624169963 0.027733135222185828 0 -0.00031559489160947341 0.030167822880840044 0 0.00021370509624169963 0.027733135222185828 0 2.9984488640699992e-07 0.027163464454274786 0 -0.00031559489160947341 0.030167822880840044 0 2.9984488640699992e-07 0.027163464454274786 0 -2.8944727482662049e-06 0.030163147076217405 0 -0.00031559489160947341 0.030167822880840044 0 -2.8944727482662049e-06 0.030163147076217405 0 -0.00080047665371539339 0.031446534349940602 0 -0.00031559489160947341 0.030167822880840044 0 -0.00080047665371539339 0.031446534349940602 0 -0.00031559489160947341 0.030167822880840044 0 -0.0009283588274472211 0.032710313471145377 0 0.00035130690022084423 0.030526788972970374 0 -0.00031559489160947341 0.030167822880840044 0 -0.00018243185742019711 0.032497261322358077 0 -0.00031559489160947341 0.030167822880840044 0 -0.0009283588274472211 0.032710313471145377 0 -0.00018243185742019711 0.032497261322358077 0 -0.0009283588274472211 0.032710313471145377 0 -0.00084969432578923967 0.034051233086101099 0 -0.00018243185742019711 0.032497261322358077 0 0.00068946616743574107 0.032751066380351468 0 -0.00018243185742019711 0.032497261322358077 0 0.00023676321232342265 0.034933257454624479 0 -0.00084969432578923967 0.034051233086101099 0 -0.00018243185742019711 0.032497261322358077 0 0.00023676321232342265 0.034933257454624479 0 -0.0016532055870362844 0.0344678612704628 0 -0.0026244501103524858 0.03569565296659432 0 -0.0022021050550845508 0.03574071269205048 0 -0.0026244501103524858 0.03569565296659432 0 -0.0027247846104193514 0.036295732713836702 0 -0.0022021050550845508 0.03574071269205048 0 -0.0009283588274472211 0.032710313471145377 0 -0.00084969432578923967 0.034051233086101099 0 -0.0016532055870362844 0.0344678612704628 0 -0.00084969432578923967 0.034051233086101099 0 -0.0016532055870362844 0.0344678612704628 0 -0.0013213379977491755 0.036068653526524434 0 -0.00080047665371539339 0.031446534349940602 0 -0.0009283588274472211 0.032710313471145377 0 -0.0017804747235646607 0.033366052964203058 0 -0.0009283588274472211 0.032710313471145377 0 -0.0016532055870362844 0.0344678612704628 0 -0.0017804747235646607 0.033366052964203058 0 -0.0016532055870362844 0.0344678612704628 0 -0.0017804747235646607 0.033366052964203058 0 -0.0026244501103524858 0.03569565296659432 0 -0.0017804747235646607 0.033366052964203058 0 -0.0029368752715681862 0.034017551226466936 0 -0.0026244501103524858 0.03569565296659432 0 -0.001093068073707619 0.032460114869242211 0 -0.0015467601244437339 0.034053173836358773 0 1.903760424013375e-06 0.030170141127550228 0 0.00032568273032404824 0.03405197546577924 0 -6.1070308342882832e-07 0.033788038631981161 0 -0.0017804747235646607 0.033366052964203058 0 -0.0016875186653383179 0.031284442194085292 0 -0.0029368752715681862 0.034017551226466936 0 -0.00080047665371539339 0.031446534349940602 0 -0.0017804747235646607 0.033366052964203058 0 -0.0016875186653383179 0.031284442194085292 0 -2.8944727482662049e-06 0.030163147076217405 0 -0.00080047665371539339 0.031446534349940602 0 -0.0016875186653383179 0.031284442194085292 0 -9.8121664287434218e-07 0.030171376837140357 0 -0.001093068073707619 0.032460114869242211 0 0.00032568273032404824 0.03405197546577924 0 -6.1070308342882832e-07 0.033788038631981161 0 -0.00033927494287280146 0.036816297626506359 0 -6.1070308342882832e-07 0.033788038631981161 0 -0.0010272965652335599 0.037716033332561807 0 -2.349333641870503e-06 0.038761555065487313 0 -6.1070308342882832e-07 0.033788038631981161 0 -0.0010272965652335599 0.037716033332561807 0 -0.00033927494287280146 0.036816297626506359 0 -0.0010272965652335599 0.037716033332561807 0 -2.349333641870503e-06 0.038761555065487313 0 -0.00034767252195007305 0.039698244782286049 0 -2.349333641870503e-06 0.038761555065487313 0 -0.00034767252195007305 0.039698244782286049 0 6.5667975318006825e-05 0.04239771438546279 0 -0.0010981237360060229 0.041045566089905512 0 -0.0003195958541973829 0.039374579819109523 0 0.00063631679602919227 0.041372101260476378 0 -0.0010981237360060229 0.041045566089905512 0 -0.0016585810050032887 0.038710329987623256 0 -0.0017835538872924565 0.03773254708804627 0 -0.0010272965652335599 0.037716033332561807 0 -0.00034767252195007305 0.039698244782286049 0 -0.0017835538872924565 0.03773254708804627 0 -0.00044819428701698528 0.041255706527962337 0 -0.0010450444548098766 0.040573243190419037 0 -0.0016585810050032887 0.038710329987623256 0 -0.0003195958541973829 0.039374579819109523 0 -0.0016784389435002451 0.037765086324452524 0 -0.001973030655691418 0.03790546374447331 0 -0.0016585810050032887 0.038710329987623256 0 -0.0019160296523541742 0.037833186875360234 0 -0.0016585810050032887 0.038710329987623256 0 -0.0017835538872924565 0.03773254708804627 0 -0.0019160296523541742 0.037833186875360234 0 -0.001973030655691418 0.03790546374447331 0 -0.0016585810050032887 0.038710329987623256 0 -0.0016784389435002451 0.037765086324452524 0 -0.001973030655691418 0.03790546374447331 0 -0.0023618436967147065 0.03726134176483626 0 -0.0016784389435002451 0.037765086324452524 0 -0.0010981237360060229 0.041045566089905512 0 -0.0016585810050032887 0.038710329987623256 0 -0.0003195958541973829 0.039374579819109523 0 -0.0029368752715681862 0.034017551226466936 0 -0.0025756481586530116 0.036001960224355943 0 -0.0026244501103524858 0.03569565296659432 0 -0.0029368752715681862 0.034017551226466936 0 -0.0025756481586530116 0.036001960224355943 0 -0.0018500529643697692 0.037604670753392112 0 -0.0015467601244437339 0.034053173836358773 0 -0.0016925525979689393 0.034727648162043656 0 -0.0025756481586530116 0.036001960224355943 0 -0.0022975708506636598 0.036879671521605852 0 -0.002641575539220314 0.036418947726275006 0 -0.0010272965652335599 0.037716033332561807 0 -0.0017835538872924565 0.03773254708804627 0 -0.0018500529643697692 0.037604670753392112 0 -0.0010272965652335599 0.037716033332561807 0 -0.00033927494287280146 0.036816297626506359 0 -0.0018500529643697692 0.037604670753392112 0 -0.0017835538872924565 0.03773254708804627 0 -0.0019968415101476946 0.037425464810120962 0 -0.0019160296523541742 0.037833186875360234 0 -0.0017835538872924565 0.03773254708804627 0 -0.0018500529643697692 0.037604670753392112 0 -0.0019968415101476946 0.037425464810120962 0 -0.0025756481586530116 0.036001960224355943 0 -0.0018500529643697692 0.037604670753392112 0 -0.0022975708506636598 0.036879671521605852 0 -0.0019968415101476946 0.037425464810120962 0 -0.0022975708506636598 0.036879671521605852 0 -0.0021468687401652322 0.037280155491706303 0 -0.0018500529643697692 0.037604670753392112 0 -0.0019968415101476946 0.037425464810120962 0 -0.0022975708506636598 0.036879671521605852 0 -0.0022975708506636598 0.036879671521605852 0 -0.0023895813500224407 0.037018039897064772 0 -0.002641575539220314 0.036418947726275006 0 -0.0022975708506636598 0.036879671521605852 0 -0.0023895813500224407 0.037018039897064772 0 -0.0021468687401652322 0.037280155491706303 0 -0.0019968415101476946 0.037425464810120962 0 -0.0019160296523541742 0.037833186875360234 0 -0.0021468687401652322 0.037280155491706303 0 -0.0019160296523541742 0.037833186875360234 0 -0.0021468687401652322 0.037280155491706303 0 -0.0021720871668695881 0.037430409151126061 0 -0.0023895813500224407 0.037018039897064772 0 -0.0021468687401652322 0.037280155491706303 0 -0.0021720871668695881 0.037430409151126061 0 -0.001973030655691418 0.03790546374447331 0 -0.0019160296523541742 0.037833186875360234 0 -0.0021720871668695881 0.037430409151126061 0 -0.001973030655691418 0.03790546374447331 0 -0.0021720871668695881 0.037430409151126061 0 -0.0023618436967147065 0.03726134176483626 0 -0.0023895813500224407 0.037018039897064772 0 -0.0021720871668695881 0.037430409151126061 0 -0.0023618436967147065 0.03726134176483626 0 -0.0023895813500224407 0.037018039897064772 0 -0.0023618436967147065 0.03726134176483626 0 -0.0027038175480391157 0.036735920766761479 0 -0.0023895813500224407 0.037018039897064772 0 -0.0027038175480391157 0.036735920766761479 0 -0.002641575539220314 0.036418947726275006 0 -0.0027038175480391157 0.036735920766761479 0 -0.002641575539220314 0.036418947726275006 0 -0.0027247846104193514 0.036295732713836702 0 -0.0025756481586530116 0.036001960224355943 0 -0.002641575539220314 0.036418947726275006 0 -0.0026244501103524858 0.03569565296659432 0 -0.002641575539220314 0.036418947726275006 0 -0.0026244501103524858 0.03569565296659432 0 -0.0027247846104193514 0.036295732713836702 0 -0.0027038175480391157 0.036735920766761479 0 -0.0026243703808450543 0.036899165270721915 0 -0.0031557193689049222 0.036992648541789269 0 -0.0027038175480391157 0.036735920766761479 0 -0.0027247846104193514 0.036295732713836702 0 -0.0031557193689049222 0.036992648541789269 0 -0.0023618436967147065 0.03726134176483626 0 -0.0027038175480391157 0.036735920766761479 0 -0.0026243703808450543 0.036899165270721915 0 -0.0023618436967147065 0.03726134176483626 0 -0.0026243703808450543 0.036899165270721915 0 -0.0016784389435002451 0.037765086324452524 0 -0.0053259521984192178 0.03757351090707009 0 -0.0031557193689049222 0.036992648541789269 0 -0.0048943310509816443 0.03900153824740335 0 -0.001646655717105141 0.042909987088113929 0 -0.0019874705157011574 0.04187719841854274 0 -0.0026243703808450543 0.036899165270721915 0 -0.0024439611009170292 0.036366385151361924 0 -0.0031557193689049222 0.036992648541789269 0 -0.0026243703808450543 0.036899165270721915 0 -0.0024439611009170292 0.036366385151361924 0 -0.0016648724134571068 0.036762317616366086 0 -0.0016784389435002451 0.037765086324452524 0 -0.0016648724134571068 0.036762317616366086 0 0.00016032000487839555 0.037259876294476336 0 -0.0003195958541973829 0.039374579819109523 0 -0.0016784389435002451 0.037765086324452524 0 0.00016032000487839555 0.037259876294476336 0 -0.0026243703808450543 0.036899165270721915 0 -0.0016784389435002451 0.037765086324452524 0 -0.0016648724134571068 0.036762317616366086 0 -0.0024439611009170292 0.036366385151361924 0 -0.0016648724134571068 0.036762317616366086 0 -0.0010613004867877781 0.035853958504991901 0 -0.001646655717105141 0.042909987088113929 0 0.00062767313912106756 0.046227930662748967 0 0.0073228514951991976 0.053972005206707703 0 0.0059656840119296914 0.052164460116685234 0 0.0051243069709590765 0.054505733301325236 0 0.00062767313912106756 0.046227930662748967 0 0.0017410265918655283 0.045615615484971554 0 -0.0016648724134571068 0.036762317616366086 0 -0.0010613004867877781 0.035853958504991901 0 0.00016032000487839555 0.037259876294476336 0 0.0048367554536013421 0.054393471579356464 0 0.0047165370750340196 0.054932197102438171 0 0.0039438147693151588 0.05461557456807814 0 0.00062767313912106756 0.046227930662748967 0 0.0026208978133397715 0.049268583757680576 0 0.0047165370750340196 0.054932197102438171 0 0.004597589105567128 0.055500400960311023 0 0.0039438147693151588 0.05461557456807814 0 -0.0074156063468306943 0.03811681402500372 0 -0.0058869662145941424 0.040077321696904082 0 -0.0048943310509816443 0.03900153824740335 0 0.0048367554536013421 0.054393471579356464 0 0.0047165370750340196 0.054932197102438171 0 0.0054731845317584765 0.055213685157971135 0 0.00062767313912106756 0.046227930662748967 0 -0.0017555551606568899 0.046284130146531641 0 -0.0053259521984192178 0.03757351090707009 0 -0.0074156063468306943 0.03811681402500372 0 -0.0048943310509816443 0.03900153824740335 0 -0.0017555551606568899 0.046284130146531641 0 0.00037692179171733731 0.048178771633045299 0 -0.0015661134483287158 0.044199928091607804 0 -0.0017584176878335266 0.043659322420936342 0 -0.0015797025776498903 0.044128198731301811 0 0.0047165370750340196 0.054932197102438171 0 0.0054731845317584765 0.055213685157971135 0 0.004597589105567128 0.055500400960311023 0 -0.0016960214360268071 0.043768666051822655 0 -0.0015661134483287158 0.044199928091607804 0 -0.0014261768555465871 0.044678573524376028 0 -0.0017555551606568899 0.046284130146531641 0 -0.0017687467269921263 0.046258039695229049 0 -0.0016960214360268071 0.043768666051822655 0 -0.0015661134483287158 0.044199928091607804 0 -0.0017584176878335266 0.043659322420936342 0 -0.0031557193689049222 0.036992648541789269 0 -0.0034861584626073813 0.039397041661545319 0 -0.0048943310509816443 0.03900153824740335 0 -0.0058869662145941424 0.040077321696904082 0 -0.0034861584626073813 0.039397041661545319 0 -0.0048943310509816443 0.03900153824740335 0 -0.0017555551606568899 0.046284130146531641 0 -0.001439711717488775 0.043424767941815892 0 -0.0017584176878335266 0.043659322420936342 0 -0.0017900410576490069 0.043072740094349735 0 -0.0015797025776498903 0.044128198731301811 0 -0.0017723123401092648 0.04366747876296527 0 -0.0019620946181068354 0.041877527283792897 0 -0.0017584176878335266 0.043659322420936342 0 -0.0019620946181068354 0.041877527283792897 0 -0.0017584176878335266 0.043659322420936342 0 -0.0017900410576490069 0.043072740094349735 0 -0.0019620946181068354 0.041877527283792897 0 -0.0017900410576490069 0.043072740094349735 0 -0.0015657768412597741 0.04216213920561903 0 -0.0031557193689049222 0.036992648541789269 0 -0.0034861584626073813 0.039397041661545319 0 -0.0015472004830803076 0.039145311714257315 0 -0.0019620946181068354 0.041877527283792897 0 -0.0015657768412597741 0.04216213920561903 0 -0.0015472004830803076 0.039145311714257315 0 -0.001439711717488775 0.043424767941815892 0 -0.00093776943922595376 0.042390941334641573 0 -0.0015472004830803076 0.039145311714257315 0 -0.00079824381889985029 0.040790337300367616 0 -7.7342900406440602e-05 0.039151359892255093 0 -0.00079824381889985029 0.040790337300367616 0 0.00033368719950264145 0.041108366907574377 0 -0.00069072721529594375 0.042269108838837416 0 -0.0015657768412597741 0.04216213920561903 0 -0.0015472004830803076 0.039145311714257315 0 -0.00079824381889985029 0.040790337300367616 0 -0.0015657768412597741 0.04216213920561903 0 -0.00079824381889985029 0.040790337300367616 0 -0.00069072721529594375 0.042269108838837416 0 -0.00079824381889985029 0.040790337300367616 0 0.00033368719950264145 0.041108366907574377 0 -7.7342900406440602e-05 0.039151359892255093 0 0.0017069207129498493 0.039301253292983077 0 0.00033368719950264145 0.041108366907574377 0 -7.7342900406440602e-05 0.039151359892255093 0 0.0017069207129498493 0.039301253292983077 0 0.00033368719950264145 0.041108366907574377 0 0.0015991404517856152 0.041115646605787405 0 0.0017069207129498493 0.039301253292983077 0 -7.7342900406440602e-05 0.039151359892255093 0 0.00070220124816318407 0.037396261963190222 0 -0.0015472004830803076 0.039145311714257315 0 -7.7342900406440602e-05 0.039151359892255093 0 -0.00039194428758296864 0.037167807405769339 0 -7.7342900406440602e-05 0.039151359892255093 0 -0.00039194428758296864 0.037167807405769339 0 0.00070220124816318407 0.037396261963190222 0 0.0020161221153537591 0.036241068295838577 0 0.00070220124816318407 0.037396261963190222 0 0.00023676321232342265 0.034933257454624479 0 -0.00039194428758296864 0.037167807405769339 0 0.00070220124816318407 0.037396261963190222 0 0.00023676321232342265 0.034933257454624479 0 -0.00039194428758296864 0.037167807405769339 0 0.00023676321232342265 0.034933257454624479 0 -0.0013213379977491755 0.036068653526524434 0 -0.00084969432578923967 0.034051233086101099 0 0.00023676321232342265 0.034933257454624479 0 -0.0013213379977491755 0.036068653526524434 0 -0.0016532055870362844 0.0344678612704628 0 -0.0013213379977491755 0.036068653526524434 0 -0.0022021050550845508 0.03574071269205048 0 -0.0027247846104193514 0.036295732713836702 0 -0.0031557193689049222 0.036992648541789269 0 -0.0022320718481560987 0.036743765186158302 0 -0.0013213379977491755 0.036068653526524434 0 -0.0022021050550845508 0.03574071269205048 0 -0.0022320718481560987 0.036743765186158302 0 -0.0027247846104193514 0.036295732713836702 0 -0.0022021050550845508 0.03574071269205048 0 -0.0022320718481560987 0.036743765186158302 0 -0.0031557193689049222 0.036992648541789269 0 -0.0015472004830803076 0.039145311714257315 0 -0.0022320718481560987 0.036743765186158302 0 -0.0015472004830803076 0.039145311714257315 0 -0.00039194428758296864 0.037167807405769339 0 -0.0013213379977491755 0.036068653526524434 0 -0.0015472004830803076 0.039145311714257315 0 -0.0013213379977491755 0.036068653526524434 0 -0.0022320718481560987 0.036743765186158302 0 -3.4339671440782837e-07 0.054994589269871379 0 -0.00021025789724628746 0.05019502444602876 0 1.3452376634290785e-06 0.04560036052379448 0 -3.4339671440782837e-07 0.054994589269871379 0 4.0698127715779698e-06 0.054563166661529404 0 -5.0665070694889201e-07 0.054998812559544918 0 -0.00012258231299849324 0.054023612643474203 0 4.0698127715779698e-06 0.054563166661529404 0 -5.0665070694889201e-07 0.054998812559544918 0 -0.00012258231299849324 0.054023612643474203 0 -0.00012902240442165937 0.054179737404311805 0 4.0698127715779698e-06 0.054563166661529404 0 -3.4339671440782837e-07 0.054994589269871379 0 4.0698127715779698e-06 0.054563166661529404 0 -0.00021025789724628746 0.05019502444602876 0 -6.5230594809152938e-05 0.050485612251478199 0 4.0698127715779698e-06 0.054563166661529404 0 -0.00021025789724628746 0.05019502444602876 0 -0.00038712760607297265 0.052120591751905108 0 -0.00034920632956307699 0.052494160174203566 0 -0.00021025789724628746 0.05019502444602876 0 -0.00086831040811603702 0.048733047297337607 0 -0.00014018970459901074 0.047352941684762451 0 -0.00038712760607297265 0.052120591751905108 0 -0.00012940176966893334 0.051755736115211066 0 -6.5230594809152938e-05 0.050485612251478199 0 -0.00021025789724628746 0.05019502444602876 0 -0.00086831040811603702 0.048733047297337607 0 -0.00012258231299849324 0.054023612643474203 0 -0.00012902240442165937 0.054179737404311805 0 -0.00030868401093244135 0.053238138353864033 0 -0.00012258231299849324 0.054023612643474203 0 -0.00030868401093244135 0.053238138353864033 0 -0.00030833758048847185 0.053098372638215062 0 -0.00030868401093244135 0.053238138353864033 0 -7.2666088676426403e-05 0.052232417790408249 0 -0.00030833758048847185 0.053098372638215062 0 -0.00012940176966893334 0.051755736115211066 0 0.000280586714750307 0.051748315343573194 0 -0.00030868401093244135 0.053238138353864033 0 0.0002654992392111332 0.050795429283487972 0 -7.2666088676426403e-05 0.052232417790408249 0 -0.00086831040811603702 0.048733047297337607 0 0.0002654992392111332 0.050795429283487972 0 0.00025212212463250117 0.047834488991296928 0 0.0002654992392111332 0.050795429283487972 0 0.0017239530179564335 0.04851633825375809 0 0.00025212212463250117 0.047834488991296928 0 0.0002654992392111332 0.050795429283487972 0 0.0017239530179564335 0.04851633825375809 0 0.0024828848881442824 0.050463719945286721 0 0.0002654992392111332 0.050795429283487972 0 0.0024828848881442824 0.050463719945286721 0 0.00094238037144396124 0.051994073296590976 0 0.0017239530179564335 0.04851633825375809 0 0.00025212212463250117 0.047834488991296928 0 0.0022440940234454664 0.04564306825834958 0 0.00025212212463250117 0.047834488991296928 0 0.00070934953828136595 0.045665460283843988 0 0.0022440940234454664 0.04564306825834958 0 0.00025212212463250117 0.047834488991296928 0 -0.00014018970459901074 0.047352941684762451 0 0.00070934953828136595 0.045665460283843988 0 -0.00086831040811603702 0.048733047297337607 0 0.00025212212463250117 0.047834488991296928 0 -0.00014018970459901074 0.047352941684762451 0 1.3452376634290785e-06 0.04560036052379448 0 0.00070934953828136595 0.045665460283843988 0 6.5667975318006825e-05 0.04239771438546279 0 -0.00021025789724628746 0.05019502444602876 0 -0.00014018970459901074 0.047352941684762451 0 1.3452376634290785e-06 0.04560036052379448 0 -0.00014018970459901074 0.047352941684762451 0 1.3452376634290785e-06 0.04560036052379448 0 0.00070934953828136595 0.045665460283843988 0 -2.349333641870503e-06 0.038761555065487313 0 1.3452376634290785e-06 0.04560036052379448 0 6.5667975318006825e-05 0.04239771438546279 0 0.00064310330390546472 0.043045611753673774 0 0.00045564281080652351 0.042462088835492351 0 -0.0010981237360060229 0.041045566089905512 0 0.00063631679602919227 0.041372101260476378 0 0.0020672885283238478 0.044514913041457695 0 0.00063631679602919227 0.041372101260476378 0 0.0020672885283238478 0.044514913041457695 0 0.0020363551743050917 0.040241675005951515 0 -0.00044819428701698528 0.041255706527962337 0 0.00045564281080652351 0.042462088835492351 0 0.00070934953828136595 0.045665460283843988 0 0.0020672885283238478 0.044514913041457695 0 0.0022440940234454664 0.04564306825834958 0 0.0020672885283238478 0.044514913041457695 0 0.0022440940234454664 0.04564306825834958 0 0.0020363551743050917 0.040241675005951515 0 0.0019383890080432811 0.044972591127285758 0 0.0020447281830455219 0.045201773706976284 0 0.0017239530179564335 0.04851633825375809 0 0.0024828848881442824 0.050463719945286721 0 0.004812974007768576 0.050045512106771453 0 0.0017239530179564335 0.04851633825375809 0 0.0022440940234454664 0.04564306825834958 0 0.004812974007768576 0.050045512106771453 0 -0.0003195958541973829 0.039374579819109523 0 0.0020363551743050917 0.040241675005951515 0 0.00016032000487839555 0.037259876294476336 0 -0.0003195958541973829 0.039374579819109523 0 0.00063631679602919227 0.041372101260476378 0 0.0020363551743050917 0.040241675005951515 0 0.004812974007768576 0.050045512106771453 0 0.0059656840119296914 0.052164460116685234 0 0.0039780715626391294 0.052157629126335731 0 0.0020447281830455219 0.045201773706976284 0 0.0017410265918655283 0.045615615484971554 0 0.0024828848881442824 0.050463719945286721 0 0.004812974007768576 0.050045512106771453 0 0.0039780715626391294 0.052157629126335731 0 0.0024828848881442824 0.050463719945286721 0 0.0039780715626391294 0.052157629126335731 0 0.0026000903050751719 0.053461969197064085 0 0.0040910723607564614 0.05346406494631499 0 0.0029597008834996892 0.054798638907341053 0 0.0026000903050751719 0.053461969197064085 0 0.0039780715626391294 0.052157629126335731 0 0.0040910723607564614 0.05346406494631499 0 0.0026000903050751719 0.053461969197064085 0 0.0059656840119296914 0.052164460116685234 0 0.0040910723607564614 0.05346406494631499 0 0.0051243069709590765 0.054505733301325236 0 0.0059656840119296914 0.052164460116685234 0 0.0039780715626391294 0.052157629126335731 0 0.0040910723607564614 0.05346406494631499 0 -0.0014261768555465871 0.044678573524376028 0 -0.0014763965813037623 0.045262401647509838 0 -0.0014684457602566672 0.045238419357818575 0 0.004597589105567128 0.055500400960311023 0 0.0035803433417954758 0.055191337858620897 0 0.0036798517411626968 0.055831419373815604 0 0.00037692179171733731 0.048178771633045299 0 0.00045231186687535519 0.049662524692467222 0 0.004597589105567128 0.055500400960311023 0 0.0039438147693151588 0.05461557456807814 0 0.0035803433417954758 0.055191337858620897 0 0.00035845565726329266 0.051815177985341854 0 0.00045231186687535519 0.049662524692467222 0 0.0035803433417954758 0.055191337858620897 0 0.0029597008834996892 0.054798638907341053 0 0.0025335075958130278 0.05548802745423468 0 -0.00042715626567583332 0.049776646559169066 0 -0.00048327967414403539 0.050248003301979427 0 0.00016294679115218572 0.050065090491469018 0 0.0035803433417954758 0.055191337858620897 0 0.0025335075958130278 0.05548802745423468 0 0.0036798517411626968 0.055831419373815604 0 0.0039438147693151588 0.05461557456807814 0 0.0035803433417954758 0.055191337858620897 0 0.0029597008834996892 0.054798638907341053 0 0.0040910723607564614 0.05346406494631499 0 0.0051243069709590765 0.054505733301325236 0 0.0029597008834996892 0.054798638907341053 0 0.0026208978133397715 0.049268583757680576 0 0.0026497538468770849 0.050277541466587666 0 0.00035845565726329266 0.051815177985341854 0 0.0012371201683918185 0.052657732880021291 0 0.0029597008834996892 0.054798638907341053 0 0.0025335075958130278 0.05548802745423468 0 0.0026000903050751719 0.053461969197064085 0 0.00091662691714633254 0.054227258216360028 0 0.0013753647331437341 0.055112498576294203 0 0.0017345776351467407 0.053589736875711877 0 0.00035845565726329266 0.051815177985341854 0 -0.00070787804974052789 0.049992474583383614 0 -0.0044692675995138074 0.052234050438259592 0 -0.0027770087129571405 0.051545614157316157 0 -0.0043151626801810755 0.050505741267558586 0 -0.0044692675995138074 0.052234050438259592 0 -0.0027770087129571405 0.051545614157316157 0 -0.0022908704222164237 0.053192105322037532 0 -0.0027770087129571405 0.051545614157316157 0 -0.0022908704222164237 0.053192105322037532 0 -0.0016872699120492739 0.052175198259678195 0 0.00035845565726329266 0.051815177985341854 0 -0.00036594136985640895 0.052579333411494712 0 0.00091662691714633254 0.054227258216360028 0 0.0013753647331437341 0.055112498576294203 0 9.2639126971250739e-05 0.054345720769033726 0 0.00091662691714633254 0.054227258216360028 0 9.2639126971250739e-05 0.054345720769033726 0 0.00038302629029993065 0.053728713388202065 0 9.2639126971250739e-05 0.054345720769033726 0 0.00038302629029993065 0.053728713388202065 0 -0.00016081593336942781 0.053551000792351637 0 0.00038302629029993065 0.053728713388202065 0 0.00027940433698439831 0.052894743117443452 0 -0.00016081593336942781 0.053551000792351637 0 0.00091662691714633254 0.054227258216360028 0 0.00038302629029993065 0.053728713388202065 0 0.0017345776351467407 0.053589736875711877 0 0.00038302629029993065 0.053728713388202065 0 0.0017345776351467407 0.053589736875711877 0 0.00027940433698439831 0.052894743117443452 0 0.0024828848881442824 0.050463719945286721 0 0.0017345776351467407 0.053589736875711877 0 0.00094238037144396124 0.051994073296590976 0 0.0016114308262045387 0.051679502240241662 0 0.0012371201683918185 0.052657732880021291 0 0.0017345776351467407 0.053589736875711877 0 0.00094238037144396124 0.051994073296590976 0 0.00027940433698439831 0.052894743117443452 0 -7.2666088676426403e-05 0.052232417790408249 0 0.00027940433698439831 0.052894743117443452 0 -0.00030833758048847185 0.053098372638215062 0 0.0002654992392111332 0.050795429283487972 0 0.00094238037144396124 0.051994073296590976 0 -7.2666088676426403e-05 0.052232417790408249 0 0.00094238037144396124 0.051994073296590976 0 -7.2666088676426403e-05 0.052232417790408249 0 0.00027940433698439831 0.052894743117443452 0 0.00027940433698439831 0.052894743117443452 0 -0.00030833758048847185 0.053098372638215062 0 -0.00016081593336942781 0.053551000792351637 0 -0.00012258231299849324 0.054023612643474203 0 -0.00025364657333943984 0.053737674412278294 0 -0.0001078621734805574 0.054103255150264921 0 -0.00012258231299849324 0.054023612643474203 0 -0.00030833758048847185 0.053098372638215062 0 -0.00025364657333943984 0.053737674412278294 0 -0.00030833758048847185 0.053098372638215062 0 -0.00025364657333943984 0.053737674412278294 0 -0.00037956734494943125 0.053651869874732222 0 -0.00037956734494943125 0.053651869874732222 0 -0.0001078621734805574 0.054103255150264921 0 -0.00056095194254551252 0.053669067513027795 0 -0.00025364657333943984 0.053737674412278294 0 -0.00037956734494943125 0.053651869874732222 0 -0.0001078621734805574 0.054103255150264921 0 -0.0001078621734805574 0.054103255150264921 0 -0.00056095194254551252 0.053669067513027795 0 -0.00027110833005888533 0.052730996561225631 0 -0.00030833758048847185 0.053098372638215062 0 -0.00037956734494943125 0.053651869874732222 0 -0.00016081593336942781 0.053551000792351637 0 -0.00037956734494943125 0.053651869874732222 0 -0.00056095194254551252 0.053669067513027795 0 -0.00016081593336942781 0.053551000792351637 0 9.2639126971250739e-05 0.054345720769033726 0 -0.00056095194254551252 0.053669067513027795 0 -0.00016081593336942781 0.053551000792351637 0 -0.0022908704222164237 0.053192105322037532 0 -0.0010302361522200566 0.052796843017505778 0 -0.0016872699120492739 0.052175198259678195 0 -0.0022908704222164237 0.053192105322037532 0 -0.00056095194254551252 0.053669067513027795 0 -0.0010302361522200566 0.052796843017505778 0 -0.00036594136985640895 0.052579333411494712 0 -0.00039376728579324367 0.052849539028394364 0 -0.0010302361522200566 0.052796843017505778 0 -0.0016872699120492739 0.052175198259678195 0 -0.00072013633193097665 0.052133694330824785 0 -0.0016872699120492739 0.052175198259678195 0 -0.00072013633193097665 0.052133694330824785 0 -0.0017330346518526184 0.050947684859262043 0 -0.0027770087129571405 0.051545614157316157 0 -0.0016872699120492739 0.052175198259678195 0 -0.0017330346518526184 0.050947684859262043 0 -0.00072013633193097665 0.052133694330824785 0 -0.00027110833005888533 0.052730996561225631 0 -0.00099002626914740984 0.052532647580951261 0 -0.0010302361522200566 0.052796843017505778 0 -0.00072013633193097665 0.052133694330824785 0 -0.00027110833005888533 0.052730996561225631 0 -0.00032440857514581687 0.053978542183924214 0 -0.00042332314004409288 0.054009164015065843 0 -0.00056095194254551252 0.053669067513027795 0 -0.0010302361522200566 0.052796843017505778 0 -0.00027110833005888533 0.052730996561225631 0 -0.00028607256910732047 0.054029446805739317 0 -0.00032440857514581687 0.053978542183924214 0 -0.0001078621734805574 0.054103255150264921 0 2.430624924332262e-05 0.054793372474538471 0 -5.0665070694889201e-07 0.054998812559544918 0 2.430624924332262e-05 0.054793372474538471 0 -5.0665070694889201e-07 0.054998812559544918 0 -7.9545059436071297e-05 0.054967345121569693 0 -0.00012258231299849324 0.054023612643474203 0 -0.0001078621734805574 0.054103255150264921 0 -5.0665070694889201e-07 0.054998812559544918 0 -5.0665070694889201e-07 0.054998812559544918 0 3.5497136292016548e-08 0.054999680235627374 0 -0.00013684619299147982 0.054999590721687037 0 3.5497136292016548e-08 0.054999680235627374 0 -0.00013684619299147982 0.054999590721687037 0 -0.00027381457104650565 0.054538710141814724 0 -0.00013684619299147982 0.054999590721687037 0 -0.00054598717224903443 0.054651993841322709 0 -0.00027381457104650565 0.054538710141814724 0 -0.00013684619299147982 0.054999590721687037 0 -0.0002415855070171983 0.054985338088504622 0 -0.00054598717224903443 0.054651993841322709 0 -5.0665070694889201e-07 0.054998812559544918 0 -0.00013684619299147982 0.054999590721687037 0 -7.9545059436071297e-05 0.054967345121569693 0 -0.00013684619299147982 0.054999590721687037 0 -0.0002415855070171983 0.054985338088504622 0 -7.9545059436071297e-05 0.054967345121569693 0 -0.0010699129444566764 0.05391615229039997 0 -0.00099002626914740984 0.052532647580951261 0 -0.00027860921777087092 0.053657242725408769 0 -0.0010699129444566764 0.05391615229039997 0 -0.00027860921777087092 0.053657242725408769 0 -0.00070513954055685386 0.054319076200755309 0 -0.00072013633193097665 0.052133694330824785 0 -0.00099002626914740984 0.052532647580951261 0 -0.00027860921777087092 0.053657242725408769 0 -0.00049466263938079016 0.054196911662514898 0 -0.00042332314004409288 0.054009164015065843 0 -0.0020433844318281285 0.0497357798076907 0 -0.0017330346518526184 0.050947684859262043 0 -0.0015184959679636818 0.049142093658885187 0 -0.0010685384735294539 0.052001552034695898 0 -0.0011996903569452945 0.051817794867691093 0 -0.0027770087129571405 0.051545614157316157 0 -0.0020433844318281285 0.0497357798076907 0 -0.0017330346518526184 0.050947684859262043 0 -0.00072013633193097665 0.052133694330824785 0 -0.0017330346518526184 0.050947684859262043 0 -0.0015184959679636818 0.049142093658885187 0 -0.0020433844318281285 0.0497357798076907 0 -0.0015184959679636818 0.049142093658885187 0 -0.0021680701971481821 0.048892961296614905 0 -0.0027432635128914365 0.049146849202304152 0 -0.0021872374731736377 0.049087646939242453 0 -0.0021680701971481821 0.048892961296614905 0 -0.00027860921777087092 0.053657242725408769 0 -0.00070513954055685386 0.054319076200755309 0 -0.0008841723591655195 0.054714430587202156 0 -0.0015184959679636818 0.049142093658885187 0 -0.0027432635128914365 0.049146849202304152 0 -0.0021680701971481821 0.048892961296614905 0 -0.0011996903569452945 0.051817794867691093 0 -0.0014529785990719378 0.051884933491505796 0 -0.00049466263938079016 0.054196911662514898 0 -0.0005108599283537937 0.054282418580027962 0 -0.0010699129444566764 0.05391615229039997 0 -0.00070513954055685386 0.054319076200755309 0 -0.00054598717224903443 0.054651993841322709 0 -0.00070513954055685386 0.054319076200755309 0 -0.00054598717224903443 0.054651993841322709 0 -0.0008841723591655195 0.054714430587202156 0 -0.00054598717224903443 0.054651993841322709 0 -0.00071960191174829595 0.054073153847577812 0 -0.00027381457104650565 0.054538710141814724 0 -0.00054598717224903443 0.054651993841322709 0 -0.0008841723591655195 0.054714430587202156 0 -0.00071960191174829595 0.054073153847577812 0 -0.0027432635128914365 0.049146849202304152 0 -0.0020861701842870665 0.049873682902807963 0 -0.0018409537284530398 0.051043739217701431 0 -0.0027432635128914365 0.049146849202304152 0 -0.0021872374731736377 0.049087646939242453 0 -0.0020861701842870665 0.049873682902807963 0 -0.0021872374731736377 0.049087646939242453 0 -0.0019176386809118327 0.04912446071502418 0 -0.0018208668617306801 0.050224707441835097 0 -0.0021872374731736377 0.049087646939242453 0 -0.0020861701842870665 0.049873682902807963 0 -0.0018208668617306801 0.050224707441835097 0 -0.0020861701842870665 0.049873682902807963 0 -0.0018208668617306801 0.050224707441835097 0 -0.0018409537284530398 0.051043739217701431 0 -0.0019176386809118327 0.04912446071502418 0 -0.0016003641604051334 0.049970976676048079 0 -0.0018208668617306801 0.050224707441835097 0 -0.0019176386809118327 0.04912446071502418 0 -0.0014327915374358774 0.048994861982447471 0 -0.0016003641604051334 0.049970976676048079 0 -0.0014327915374358774 0.048994861982447471 0 -0.0012484584086196685 0.049822178390526391 0 -0.0016003641604051334 0.049970976676048079 0 -0.0019176386809118327 0.04912446071502418 0 -0.001855134830244926 0.04827016817610226 0 -0.0014327915374358774 0.048994861982447471 0 -0.0021872374731736377 0.049087646939242453 0 -0.0019176386809118327 0.04912446071502418 0 -0.0024525161242111566 0.048346848014577698 0 -0.0019176386809118327 0.04912446071502418 0 -0.001855134830244926 0.04827016817610226 0 -0.0024525161242111566 0.048346848014577698 0 -0.001855134830244926 0.04827016817610226 0 -0.0024525161242111566 0.048346848014577698 0 -0.0019018316392244098 0.047234366894068902 0 -0.0021872374731736377 0.049087646939242453 0 -0.0024525161242111566 0.048346848014577698 0 -0.0021680701971481821 0.048892961296614905 0 -0.0024525161242111566 0.048346848014577698 0 -0.0021680701971481821 0.048892961296614905 0 -0.0023944595344913538 0.049191074818611583 0 -0.0020433844318281285 0.0497357798076907 0 -0.0021680701971481821 0.048892961296614905 0 -0.0023944595344913538 0.049191074818611583 0 -0.0027770087129571405 0.051545614157316157 0 -0.0020433844318281285 0.0497357798076907 0 -0.0043151626801810755 0.050505741267558586 0 -0.0020433844318281285 0.0497357798076907 0 -0.0023944595344913538 0.049191074818611583 0 -0.0029562032977023551 0.049879215196922594 0 -0.0017608886612725761 0.050148532763137278 0 -0.00070787804974052789 0.049992474583383614 0 -0.0024525161242111566 0.048346848014577698 0 -0.0023944595344913538 0.049191074818611583 0 -0.0029562032977023551 0.049879215196922594 0 -0.0024525161242111566 0.048346848014577698 0 -0.0027036294644723949 0.045586972039743066 0 -0.0019018316392244098 0.047234366894068902 0 -0.0011574791906433938 0.048711452472922558 0 -0.00070787804974052789 0.049992474583383614 0 -0.0027036294644723949 0.045586972039743066 0 -0.0019018316392244098 0.047234366894068902 0 -0.0016989332543491113 0.046322468779840628 0 -0.0019018316392244098 0.047234366894068902 0 -0.001604945925326978 0.046884088149283444 0 -0.0016989332543491113 0.046322468779840628 0 -0.001604945925326978 0.046884088149283444 0 -0.001363301873194936 0.046465874966082434 0 -0.0014955666833299298 0.047512183251933314 0 -0.001604945925326978 0.046884088149283444 0 -0.0016989332543491113 0.046322468779840628 0 -0.001363301873194936 0.046465874966082434 0 -0.0027036294644723949 0.045586972039743066 0 -0.0016989332543491113 0.046322468779840628 0 -0.0015799088038344926 0.045560673461552306 0 -0.00070787804974052789 0.049992474583383614 0 0.00045231186687535519 0.049662524692467222 0 -0.0027036294644723949 0.045586972039743066 0 -0.0015799088038344926 0.045560673461552306 0 -0.0014927792259355273 0.045205494036120022 0 -0.0016989332543491113 0.046322468779840628 0 -0.0015799088038344926 0.045560673461552306 0 -0.0014176774839229163 0.045813059556603489 0 -0.0014261768555465871 0.044678573524376028 0 -0.0013723770678878513 0.045159389696758985 0 -0.0014684457602566672 0.045238419357818575 0 -0.0013723770678878513 0.045159389696758985 0 -0.0014684457602566672 0.045238419357818575 0 -0.0014236597056408809 0.045449878758387345 0 -0.0015799088038344926 0.045560673461552306 0 -0.0014684457602566672 0.045238419357818575 0 -0.0014236597056408809 0.045449878758387345 0 -0.0015799088038344926 0.045560673461552306 0 -0.0014927792259355273 0.045205494036120022 0 -0.0014684457602566672 0.045238419357818575 0 0.00045231186687535519 0.049662524692467222 0 0.0004307287899934724 0.049645736516608384 0 -0.0015799088038344926 0.045560673461552306 0 -0.0014236597056408809 0.045449878758387345 0 -0.0014176774839229163 0.045813059556603489 0 -0.0014236597056408809 0.045449878758387345 0 -0.0013617742342377831 0.045526400389992706 0 -0.0014176774839229163 0.045813059556603489 0 -0.0013723770678878513 0.045159389696758985 0 -0.0014236597056408809 0.045449878758387345 0 -0.0013617742342377831 0.045526400389992706 0 -0.0013723770678878513 0.045159389696758985 0 -0.0013617742342377831 0.045526400389992706 0 -0.0012703897428942058 0.045676485278222607 0 -0.0013617742342377831 0.045526400389992706 0 -0.0014176774839229163 0.045813059556603489 0 -0.0012703897428942058 0.045676485278222607 0 -0.0014176774839229163 0.045813059556603489 0 -0.001363301873194936 0.046465874966082434 0 -0.0012703897428942058 0.045676485278222607 0 -0.0016989332543491113 0.046322468779840628 0 -0.0014176774839229163 0.045813059556603489 0 -0.001363301873194936 0.046465874966082434 0 -0.001363301873194936 0.046465874966082434 0 -0.0011857907122255571 0.046135391392263976 0 -0.0012703897428942058 0.045676485278222607 0 -0.001363301873194936 0.046465874966082434 0 -0.001057087789575013 0.046942842739288733 0 -0.0011857907122255571 0.046135391392263976 0 -0.001363301873194936 0.046465874966082434 0 -0.001057087789575013 0.046942842739288733 0 -0.0014955666833299298 0.047512183251933314 0 -0.001057087789575013 0.046942842739288733 0 -0.0014955666833299298 0.047512183251933314 0 -0.0014327915374358774 0.048994861982447471 0 -0.001855134830244926 0.04827016817610226 0 -0.0014955666833299298 0.047512183251933314 0 -0.0014327915374358774 0.048994861982447471 0 -0.001855134830244926 0.04827016817610226 0 -0.0019018316392244098 0.047234366894068902 0 -0.0014955666833299298 0.047512183251933314 0 -0.0019018316392244098 0.047234366894068902 0 -0.001604945925326978 0.046884088149283444 0 -0.0014955666833299298 0.047512183251933314 0 -0.0010684289169883669 0.046808006184420207 0 -0.0014327915374358774 0.048994861982447471 0 -0.00095673874171191904 0.049066188696118569 0 -0.0014327915374358774 0.048994861982447471 0 -0.00095673874171191904 0.049066188696118569 0 -0.0012484584086196685 0.049822178390526391 0 -0.001353454090208837 0.046608895653404252 0 -0.001611023270733262 0.047215424807466565 0 -0.00095673874171191904 0.049066188696118569 0 0.0001694776685337404 0.049964147078432192 0 0.00079229509367563175 0.049298102068267423 0 -0.0010684289169883669 0.046808006184420207 0 -0.00095673874171191904 0.049066188696118569 0 -0.0010701068262105589 0.046665077817655616 0 -0.0012006075708694793 0.04823220500619526 0 -0.00070739011780069998 0.047927888791300936 0 0.0001694776685337404 0.049964147078432192 0 -0.00079209903261665514 0.050493947298143105 0 -0.00011976968718892783 0.051023409643304922 0 -0.00095673874171191904 0.049066188696118569 0 0.0001694776685337404 0.049964147078432192 0 -0.00079209903261665514 0.050493947298143105 0 -0.00095673874171191904 0.049066188696118569 0 -0.0012484584086196685 0.049822178390526391 0 -0.00079209903261665514 0.050493947298143105 0 -0.0012484584086196685 0.049822178390526391 0 -0.00079209903261665514 0.050493947298143105 0 -0.0013552419425531012 0.050769445579831457 0 -1.5242186339603503e-05 0.051157549202513787 0 -0.00089301560563262569 0.051659770117174611 0 -0.00079209903261665514 0.050493947298143105 0 -0.001404848408106011 0.051885988056954435 0 -0.0013552419425531012 0.050769445579831457 0 -0.00079209903261665514 0.050493947298143105 0 -0.00011976968718892783 0.051023409643304922 0 -0.001404848408106011 0.051885988056954435 0 -4.316788198056378e-05 0.051270248725054431 0 3.4640430069096072e-05 0.052095590608326428 0 -0.00051861549847490105 0.052256703856488278 0 -4.316788198056378e-05 0.051270248725054431 0 3.4640430069096072e-05 0.052095590608326428 0 0.00064005882849172845 0.05165731406301776 0 3.4640430069096072e-05 0.052095590608326428 0 0.00058653533536725622 0.052587644776342472 0 -0.00040284848915728372 0.05270182859657311 0 3.4640430069096072e-05 0.052095590608326428 0 -0.00051861549847490105 0.052256703856488278 0 -0.00040284848915728372 0.05270182859657311 0 -4.316788198056378e-05 0.051270248725054431 0 -0.00051861549847490105 0.052256703856488278 0 -0.00073895856505931017 0.051805886486022308 0 -0.00051861549847490105 0.052256703856488278 0 -0.00088267421708793331 0.052356387008737092 0 -0.00060809912576655198 0.052745475846177274 0 -0.00051861549847490105 0.052256703856488278 0 -0.00073895856505931017 0.051805886486022308 0 -0.00088267421708793331 0.052356387008737092 0 -0.00088267421708793331 0.052356387008737092 0 -0.001329188381581413 0.052171372226644301 0 -0.0011051799156399477 0.052373636873857883 0 -0.001404848408106011 0.051885988056954435 0 -0.001329188381581413 0.052171372226644301 0 -0.0015079440297369956 0.052045718552518411 0 -0.00089301560563262569 0.051659770117174611 0 -0.0012079514284853723 0.051858912528831576 0 -0.00073895856505931017 0.051805886486022308 0 -0.00088267421708793331 0.052356387008737092 0 -0.001329188381581413 0.052171372226644301 0 -0.001329188381581413 0.052171372226644301 0 -0.0015079440297369956 0.052045718552518411 0 -0.001437461074980647 0.052255445999103249 0 -0.0015079440297369956 0.052045718552518411 0 -0.001597263708829784 0.052116082623983574 0 -0.001437461074980647 0.052255445999103249 0 -0.001597263708829784 0.052116082623983574 0 -0.0014129011463852442 0.05261836089684694 0 -0.001437461074980647 0.052255445999103249 0 -0.001597263708829784 0.052116082623983574 0 -0.0016418979034780929 0.052148714614564447 0 -0.0016475459621147124 0.051500587402393064 0 -0.001597263708829784 0.052116082623983574 0 -0.0016418979034780929 0.052148714614564447 0 -0.0014129011463852442 0.05261836089684694 0 -0.001597263708829784 0.052116082623983574 0 -0.0015591630080934737 0.051587646910241189 0 -0.0016475459621147124 0.051500587402393064 0 -0.0015079440297369956 0.052045718552518411 0 -0.001597263708829784 0.052116082623983574 0 -0.0015591630080934737 0.051587646910241189 0 -0.001404848408106011 0.051885988056954435 0 -0.0015079440297369956 0.052045718552518411 0 -0.0015591630080934737 0.051587646910241189 0 -0.001404848408106011 0.051885988056954435 0 -0.0015591630080934737 0.051587646910241189 0 -0.0013552419425531012 0.050769445579831457 0 -0.0015591630080934737 0.051587646910241189 0 -0.0016243387118509642 0.050772983632790702 0 -0.0013552419425531012 0.050769445579831457 0 -0.0016243387118509642 0.050772983632790702 0 -0.0013552419425531012 0.050769445579831457 0 -0.0016003641604051334 0.049970976676048079 0 -0.0012484584086196685 0.049822178390526391 0 -0.0013552419425531012 0.050769445579831457 0 -0.0016003641604051334 0.049970976676048079 0 -0.0016243387118509642 0.050772983632790702 0 -0.0016003641604051334 0.049970976676048079 0 -0.0018208668617306801 0.050224707441835097 0 -0.0016243387118509642 0.050772983632790702 0 -0.0018208668617306801 0.050224707441835097 0 -0.0016475459621147124 0.051500587402393064 0 -0.0018208668617306801 0.050224707441835097 0 -0.0018409537284530398 0.051043739217701431 0 -0.0016475459621147124 0.051500587402393064 0 -0.0016418979034780929 0.052148714614564447 0 -0.0018409537284530398 0.051043739217701431 0 -0.0016475459621147124 0.051500587402393064 0 -0.0015591630080934737 0.051587646910241189 0 -0.0016243387118509642 0.050772983632790702 0 -0.0016475459621147124 0.051500587402393064 0 -0.0008841723591655195 0.054714430587202156 0 -0.00071960191174829595 0.054073153847577812 0 -0.0017696019361041785 0.052663792511771813 0 -0.0014529785990719378 0.051884933491505796 0 -0.0015404029402627513 0.052051094263307236 0 -0.0027432635128914365 0.049146849202304152 0 -0.0018409537284530398 0.051043739217701431 0 -0.0017696019361041785 0.052663792511771813 0 -0.00071960191174829595 0.054073153847577812 0 -0.00098940596261094392 0.053479642281126116 0 -0.0017696019361041785 0.052663792511771813 0 -0.0016418979034780929 0.052148714614564447 0 -0.0018409537284530398 0.051043739217701431 0 -0.0017696019361041785 0.052663792511771813 0 -0.00071960191174829595 0.054073153847577812 0 -0.000622601570671636 0.05393587088625957 0 -0.00027381457104650565 0.054538710141814724 0 -0.00071960191174829595 0.054073153847577812 0 -0.000622601570671636 0.05393587088625957 0 -0.00098940596261094392 0.053479642281126116 0 -0.0010652945393623962 0.053275379665115585 0 -0.00087322100052656998 0.053665854623212578 0 -0.00055273525992716838 0.054171075999875314 0 -0.000622601570671636 0.05393587088625957 0 -0.0010652945393623962 0.053275379665115585 0 -0.00055273525992716838 0.054171075999875314 0 -0.000622601570671636 0.05393587088625957 0 -0.00098940596261094392 0.053479642281126116 0 -0.0010652945393623962 0.053275379665115585 0 -0.0010652945393623962 0.053275379665115585 0 -0.0014129011463852442 0.05261836089684694 0 -0.00087322100052656998 0.053665854623212578 0 -0.00098940596261094392 0.053479642281126116 0 -0.0010652945393623962 0.053275379665115585 0 -0.0017696019361041785 0.052663792511771813 0 -0.0010652945393623962 0.053275379665115585 0 -0.0017696019361041785 0.052663792511771813 0 -0.0014129011463852442 0.05261836089684694 0 -0.0016418979034780929 0.052148714614564447 0 -0.0017696019361041785 0.052663792511771813 0 -0.0014129011463852442 0.05261836089684694 0 -0.0010485989136347176 0.053189437632899024 0 -0.00097922680833985656 0.053318141646570602 0 -0.001329188381581413 0.052171372226644301 0 -0.001437461074980647 0.052255445999103249 0 -0.0012723807062025405 0.052143782311104288 0 -0.0014129011463852442 0.05261836089684694 0 -0.00043945592575036656 0.054299931447136025 0 -0.00087322100052656998 0.053665854623212578 0 -0.0014129011463852442 0.05261836089684694 0 -0.001437461074980647 0.052255445999103249 0 -0.0012723807062025405 0.052143782311104288 0 -0.001329188381581413 0.052171372226644301 0 -0.0012723807062025405 0.052143782311104288 0 -0.0011051799156399477 0.052373636873857883 0 -0.00043945592575036656 0.054299931447136025 0 -0.000604416205232801 0.054325199246678578 0 -0.0006145947683594442 0.054673301044119424 0 -0.00043945592575036656 0.054299931447136025 0 -0.000604416205232801 0.054325199246678578 0 -0.00087322100052656998 0.053665854623212578 0 -0.000604416205232801 0.054325199246678578 0 -0.00087322100052656998 0.053665854623212578 0 -0.00055273525992716838 0.054171075999875314 0 -0.00055273525992716838 0.054171075999875314 0 -0.00044256642478755488 0.054630610261733749 0 -9.1708256827489073e-07 0.054998592819282946 0 -0.000604416205232801 0.054325199246678578 0 -0.00055273525992716838 0.054171075999875314 0 -0.00044256642478755488 0.054630610261733749 0 3.5497136292016548e-08 0.054999680235627374 0 -9.1708256827489073e-07 0.054998592819282946 0 -0.00027381457104650565 0.054538710141814724 0 -0.00055273525992716838 0.054171075999875314 0 -9.1708256827489073e-07 0.054998592819282946 0 -0.00027381457104650565 0.054538710141814724 0 -0.000622601570671636 0.05393587088625957 0 -0.00055273525992716838 0.054171075999875314 0 -0.00027381457104650565 0.054538710141814724 0 -0.00041027763812991486 0.044016926210698519 0 -8.7740958772296971e-05 0.043973138245408189 0 -0.00015594093133733682 0.043536765769902924 0 0.0015455607706150493 0.046380822710964255 0 0.001456950039785155 0.046351667272308439 0 0.0015455607706150493 0.046380822710964255 0 0.00078016818869275752 0.046899599036276232 0 -0.00037672524628443329 0.044212116495459884 0 -0.0012634239190314294 0.04470797341788741 0 -0.00098600976272703034 0.044051075334053003 0 0.0041224754227534395 0.048744991529668422 0 0.0028947363114208962 0.049020507650953983 0 0.0036415646275955536 0.049376773432512552 0 0.0028947363114208962 0.049020507650953983 0 0.0036415646275955536 0.049376773432512552 0 0.0032555030412226896 0.050013151290959797 0 0.0037762712709115535 0.049861264800388251 0 0.0036415646275955536 0.049376773432512552 0 0.0032555030412226896 0.050013151290959797 0 0.0037762712709115535 0.049861264800388251 0 0.0036415646275955536 0.049376773432512552 0 0.0043009052106274094 0.049736463048279542 0 0.0041224754227534395 0.048744991529668422 0 0.0036415646275955536 0.049376773432512552 0 0.0043009052106274094 0.049736463048279542 0 0.0015455607706150493 0.046380822710964255 0 0.0014823166781821164 0.047593111437450188 0 -0.0005177206292795144 0.044066662336521144 0 -0.00028388807067163834 0.045496899651915397 0 -3.2022795051587065e-05 0.044651416217328814 0 -0.00028388807067163834 0.045496899651915397 0 0.00037058917905557836 0.045691042955717277 0 0.00021526689408312631 0.045168847894918505 0 0.00037058917905557836 0.045691042955717277 0 0.00068302803839180495 0.045211972709220706 0 0.0010404625701501105 0.045833567351673349 0 0.00037058917905557836 0.045691042955717277 0 0.00068302803839180495 0.045211972709220706 0 0.00021526689408312631 0.045168847894918505 0 0.00068302803839180495 0.045211972709220706 0 0.00033779532225605442 0.044796914528032958 0 0.00021526689408312631 0.045168847894918505 0 0.00068302803839180495 0.045211972709220706 0 0.00033779532225605442 0.044796914528032958 0 0.00084529639612065369 0.044647582079078589 0 0.00033779532225605442 0.044796914528032958 0 0.00021526689408312631 0.045168847894918505 0 -3.2022795051587065e-05 0.044651416217328814 0 -0.00028388807067163834 0.045496899651915397 0 0.00021526689408312631 0.045168847894918505 0 -3.2022795051587065e-05 0.044651416217328814 0 0.0019747963517359819 0.046184964292169443 0 0.0013593993098790728 0.045045515715265695 0 0.0010404625701501105 0.045833567351673349 0 0.00068302803839180495 0.045211972709220706 0 0.0013593993098790728 0.045045515715265695 0 0.0010404625701501105 0.045833567351673349 0 0.00068302803839180495 0.045211972709220706 0 0.0013593993098790728 0.045045515715265695 0 0.00084529639612065369 0.044647582079078589 0 0.0013593993098790728 0.045045515715265695 0 0.00084529639612065369 0.044647582079078589 0 0.0014788678590785757 0.044086902500673278 0 0.00084529639612065369 0.044647582079078589 0 0.0014788678590785757 0.044086902500673278 0 0.00072779488252182724 0.044092758536386084 0 0.0014788678590785757 0.044086902500673278 0 0.00072779488252182724 0.044092758536386084 0 0.001003030903079829 0.043491371663914806 0 -3.2022795051587065e-05 0.044651416217328814 0 0.00029015444223485414 0.044307285454489205 0 -8.7740958772296971e-05 0.043973138245408189 0 -0.0005177206292795144 0.044066662336521144 0 -3.2022795051587065e-05 0.044651416217328814 0 -8.7740958772296971e-05 0.043973138245408189 0 0.00033779532225605442 0.044796914528032958 0 -3.2022795051587065e-05 0.044651416217328814 0 0.00029015444223485414 0.044307285454489205 0 0.00033779532225605442 0.044796914528032958 0 0.00084529639612065369 0.044647582079078589 0 0.00029015444223485414 0.044307285454489205 0 0.00084529639612065369 0.044647582079078589 0 0.00029015444223485414 0.044307285454489205 0 0.00072779488252182724 0.044092758536386084 0 0.00031287826647012732 0.043700830075013276 0 0.00072779488252182724 0.044092758536386084 0 0.001003030903079829 0.043491371663914806 0 0.00029015444223485414 0.044307285454489205 0 0.00031287826647012732 0.043700830075013276 0 0.00072779488252182724 0.044092758536386084 0 0.00029015444223485414 0.044307285454489205 0 0.00031287826647012732 0.043700830075013276 0 -8.7740958772296971e-05 0.043973138245408189 0 0.00031287826647012732 0.043700830075013276 0 -8.7740958772296971e-05 0.043973138245408189 0 -0.00015594093133733682 0.043536765769902924 0 0.00031287826647012732 0.043700830075013276 0 -0.00015594093133733682 0.043536765769902924 0 0.00019684243388230253 0.042846860160728424 0 0.00031287826647012732 0.043700830075013276 0 0.00019684243388230253 0.042846860160728424 0 0.001003030903079829 0.043491371663914806 0 -0.00015594093133733682 0.043536765769902924 0 0.00019684243388230253 0.042846860160728424 0 -0.00055017128005854159 0.043304279838522246 0 0.0019907058109824138 0.043174853651497425 0 0.0014788678590785757 0.044086902500673278 0 0.001003030903079829 0.043491371663914806 0 0.00019684243388230253 0.042846860160728424 0 0.001003030903079829 0.043491371663914806 0 0.0012279872092015767 0.042386571660847742 0 0.0019907058109824138 0.043174853651497425 0 0.001003030903079829 0.043491371663914806 0 0.0012279872092015767 0.042386571660847742 0 0.00033368719950264145 0.041108366907574377 0 0.0015991404517856152 0.041115646605787405 0 0.0012279872092015767 0.042386571660847742 0 0.0023096770954652538 0.042281068774612497 0 0.0015991404517856152 0.041115646605787405 0 0.0012279872092015767 0.042386571660847742 0 0.00033368719950264145 0.041108366907574377 0 0.00019684243388230253 0.042846860160728424 0 0.0012279872092015767 0.042386571660847742 0 0.00033368719950264145 0.041108366907574377 0 0.00019684243388230253 0.042846860160728424 0 -0.00069072721529594375 0.042269108838837416 0 -0.00069072721529594375 0.042269108838837416 0 -0.00055017128005854159 0.043304279838522246 0 -0.001154208408623393 0.043162165759486643 0 0.00019684243388230253 0.042846860160728424 0 -0.00069072721529594375 0.042269108838837416 0 -0.00055017128005854159 0.043304279838522246 0 0.0015455607706150493 0.046380822710964255 0 0.0012164846104581221 0.045382549413222735 0 -0.00041027763812991486 0.044016926210698519 0 -0.00015594093133733682 0.043536765769902924 0 -0.00055017128005854159 0.043304279838522246 0 -0.00037672524628443329 0.044212116495459884 0 -0.00098600976272703034 0.044051075334053003 0 -0.00055017128005854159 0.043304279838522246 0 -0.00098600976272703034 0.044051075334053003 0 -0.001154208408623393 0.043162165759486643 0 -0.0016205760046628683 0.043874144466525475 0 -0.00098600976272703034 0.044051075334053003 0 -0.00055017128005854159 0.043304279838522246 0 -0.001154208408623393 0.043162165759486643 0 -0.0015657768412597741 0.04216213920561903 0 -0.00069072721529594375 0.042269108838837416 0 -0.001154208408623393 0.043162165759486643 0 -0.0015657768412597741 0.04216213920561903 0 -0.001154208408623393 0.043162165759486643 0 -0.0016205760046628683 0.043874144466525475 0 -0.0017900410576490069 0.043072740094349735 0 -0.0015657768412597741 0.04216213920561903 0 -0.0016205760046628683 0.043874144466525475 0 -0.0017900410576490069 0.043072740094349735 0 -0.0016205760046628683 0.043874144466525475 0 -0.0015797025776498903 0.044128198731301811 0 -0.0011605174985720129 0.045265558380587968 0 -0.0012111616975727481 0.045722534432259015 0 -0.0016205760046628683 0.043874144466525475 0 -0.0015165808131459976 0.045349144076949184 0 -0.0015293590713578496 0.044873450239192939 0 -0.0016205760046628683 0.043874144466525475 0 -0.0015797025776498903 0.044128198731301811 0 -0.0012053072830603099 0.045174843909750101 0 -0.0012634239190314294 0.04470797341788741 0 -0.00098600976272703034 0.044051075334053003 0 -0.0016205760046628683 0.043874144466525475 0 -0.0012634239190314294 0.04470797341788741 0 -0.0016205760046628683 0.043874144466525475 0 -0.0015293590713578496 0.044873450239192939 0 -0.0015661134483287158 0.044199928091607804 0 -0.0014261768555465871 0.044678573524376028 0 -0.0013860372242748846 0.044796902494793608 0 -0.0013723770678878513 0.045159389696758985 0 -0.0013860372242748846 0.044796902494793608 0 -0.0012703897428942058 0.045676485278222607 0 -0.0014261768555465871 0.044678573524376028 0 -0.0013723770678878513 0.045159389696758985 0 -0.0013860372242748846 0.044796902494793608 0 -0.0015797025776498903 0.044128198731301811 0 -0.0013860372242748846 0.044796902494793608 0 -0.0012053072830603099 0.045174843909750101 0 -0.0015661134483287158 0.044199928091607804 0 -0.0015797025776498903 0.044128198731301811 0 -0.0013860372242748846 0.044796902494793608 0 -0.0013860372242748846 0.044796902494793608 0 -0.0012053072830603099 0.045174843909750101 0 -0.0012703897428942058 0.045676485278222607 0 -0.0012053072830603099 0.045174843909750101 0 -0.0011857907122255571 0.046135391392263976 0 -0.0012703897428942058 0.045676485278222607 0 -0.0010684289169883669 0.046808006184420207 0 -0.0013313495701078842 0.045885848436175991 0 -0.0010701068262105589 0.046665077817655616 0 -0.001353454090208837 0.046608895653404252 0 -0.0012111616975727481 0.045722534432259015 0 -0.001057087789575013 0.046942842739288733 0 -0.0012053072830603099 0.045174843909750101 0 -0.0011857907122255571 0.046135391392263976 0 -0.0010684289169883669 0.046808006184420207 0 -0.0015165808131459976 0.045349144076949184 0 -0.0013313495701078842 0.045885848436175991 0 -0.0015165808131459976 0.045349144076949184 0 -0.0013313495701078842 0.045885848436175991 0 -0.0015293590713578496 0.044873450239192939 0 -0.0013313495701078842 0.045885848436175991 0 -0.0010701068262105589 0.046665077817655616 0 -0.0014641787194535811 0.045400819596092004 0 -0.00070739011780069998 0.047927888791300936 0 2.6035258985280961e-06 0.047419631010009275 0 0.0013775410437598507 0.049629996112741333 0 0.00079229509367563175 0.049298102068267423 0 0.0017869765300074481 0.049282729755882611 0 0.00078016818869275752 0.046899599036276232 0 2.6035258985280961e-06 0.047419631010009275 0 -0.0012634239190314294 0.04470797341788741 0 -0.0015293590713578496 0.044873450239192939 0 -0.0014641787194535811 0.045400819596092004 0 -0.0013313495701078842 0.045885848436175991 0 -0.0015293590713578496 0.044873450239192939 0 -0.0014641787194535811 0.045400819596092004 0 0.0013775410437598507 0.049629996112741333 0 0.0017869765300074481 0.049282729755882611 0 0.0021889979415027558 0.049936440275613087 0 0.0028947363114208962 0.049020507650953983 0 0.0017869765300074481 0.049282729755882611 0 0.0021889979415027558 0.049936440275613087 0 0.0028947363114208962 0.049020507650953983 0 0.0021889979415027558 0.049936440275613087 0 0.0032555030412226896 0.050013151290959797 0 0.0021889979415027558 0.049936440275613087 0 0.0027565645026689988 0.050658967492213089 0 0.0032555030412226896 0.050013151290959797 0 0.0021889979415027558 0.049936440275613087 0 0.0019654399599361837 0.050916226884691849 0 0.0027565645026689988 0.050658967492213089 0 0.0021889979415027558 0.049936440275613087 0 0.0019654399599361837 0.050916226884691849 0 0.00090842706710095224 0.05064896200252611 0 0.0016595548921023852 0.050304959350513732 0 0.0010425918178246774 0.050602216236232324 0 0.0019654399599361837 0.050916226884691849 0 0.0012723877302758288 0.05137544961152922 0 0.0017131819979741795 0.051790628035348618 0 0.0019654399599361837 0.050916226884691849 0 0.0027565645026689988 0.050658967492213089 0 0.0027091986345560435 0.05143921137193553 0 0.0019654399599361837 0.050916226884691849 0 0.0027091986345560435 0.05143921137193553 0 0.0017131819979741795 0.051790628035348618 0 0.0001694776685337404 0.049964147078432192 0 -0.00011976968718892783 0.051023409643304922 0 0.0012587794306344335 0.050260635575067159 0 0.0001694776685337404 0.049964147078432192 0 0.00079229509367563175 0.049298102068267423 0 0.0012587794306344335 0.050260635575067159 0 0.0013775410437598507 0.049629996112741333 0 0.00079229509367563175 0.049298102068267423 0 0.0012587794306344335 0.050260635575067159 0 0.0013775410437598507 0.049629996112741333 0 0.0021889979415027558 0.049936440275613087 0 0.0012587794306344335 0.050260635575067159 0 0.00090842706710095224 0.05064896200252611 0 0.0012723877302758288 0.05137544961152922 0 0.00064005882849172845 0.05165731406301776 0 0.0019654399599361837 0.050916226884691849 0 0.00090842706710095224 0.05064896200252611 0 0.0012723877302758288 0.05137544961152922 0 -4.316788198056378e-05 0.051270248725054431 0 0.00090842706710095224 0.05064896200252611 0 0.00064005882849172845 0.05165731406301776 0 -1.5242186339603503e-05 0.051157549202513787 0 0.0010425918178246774 0.050602216236232324 0 0.0012723877302758288 0.05137544961152922 0 0.00064005882849172845 0.05165731406301776 0 0.0011649585556962644 0.051956103054362705 0 0.0012723877302758288 0.05137544961152922 0 0.0011649585556962644 0.051956103054362705 0 0.0017131819979741795 0.051790628035348618 0 0.0011649585556962644 0.051956103054362705 0 0.0015667773044967762 0.052321342940391535 0 0.00058653533536725622 0.052587644776342472 0 -0.00063232034864147833 0.052561504113008993 0 -0.00047366789759333445 0.052690283993865279 0 3.4640430069096072e-05 0.052095590608326428 0 0.00064005882849172845 0.05165731406301776 0 0.00058653533536725622 0.052587644776342472 0 0.00064005882849172845 0.05165731406301776 0 0.0011649585556962644 0.051956103054362705 0 0.00058653533536725622 0.052587644776342472 0 0.0019255511308216664 0.050392603086815604 0 0.0017903495111579054 0.05064295894284742 0 0.0020334612526716083 0.051719329473368783 0 0.0017131819979741795 0.051790628035348618 0 0.0021082496614125011 0.05204051379677628 0 0.0011649585556962644 0.051956103054362705 0 0.0017131819979741795 0.051790628035348618 0 0.0015667773044967762 0.052321342940391535 0 0.0017131819979741795 0.051790628035348618 0 0.0015667773044967762 0.052321342940391535 0 0.0021082496614125011 0.05204051379677628 0 -0.002285633558118593 0.053621833905785093 0 -0.0035297649099973846 0.054042277276745702 0 -0.0028782307046952538 0.053061844793415865 0 -0.00063232034864147833 0.052561504113008993 0 -0.0010829327125378026 0.052202049333768354 0 0.0021082496614125011 0.05204051379677628 0 0.0023407373215071393 0.051889886733022347 0 0.0022532260233364609 0.051807639121466076 0 -0.0035297649099973846 0.054042277276745702 0 -0.0049534158062850457 0.054442656771387855 0 -0.0044609940126519891 0.05355272635017027 0 -0.0010829327125378026 0.052202049333768354 0 -0.0020071121185044061 0.051356016986786553 0 -0.0049534158062850457 0.054442656771387855 0 -0.0054816884672449929 0.053599693023838324 0 -0.0044609940126519891 0.05355272635017027 0 0.0023407373215071393 0.051889886733022347 0 0.0023642340025801616 0.051800263249923546 0 0.0024394966136730414 0.051788183938443547 0 0.0023407373215071393 0.051889886733022347 0 0.0023642340025801616 0.051800263249923546 0 0.0022532260233364609 0.051807639121466076 0 0.0023398825501946764 0.051728368146876369 0 0.0022532260233364609 0.051807639121466076 0 0.0022504054508353873 0.051666878204135722 0 0.0023642340025801616 0.051800263249923546 0 0.0023398825501946764 0.051728368146876369 0 0.0022532260233364609 0.051807639121466076 0 0.0023642340025801616 0.051800263249923546 0 0.0023398825501946764 0.051728368146876369 0 0.0023903202500208717 0.051731545703639123 0 0.0020334612526716083 0.051719329473368783 0 0.0021082496614125011 0.05204051379677628 0 0.0022532260233364609 0.051807639121466076 0 0.0020334612526716083 0.051719329473368783 0 0.0022532260233364609 0.051807639121466076 0 0.0022504054508353873 0.051666878204135722 0 0.0019255511308216664 0.050392603086815604 0 0.0019375593812281438 0.049709262255833254 0 0.0027565645026689988 0.050658967492213089 0 0.0027091986345560435 0.05143921137193553 0 0.0036081703474086348 0.051071852977007733 0 0.0036081703474086348 0.051071852977007733 0 0.0039087861389839164 0.050320812292514734 0 0.0044790302083157624 0.050733316070781839 0 0.0023398825501946764 0.051728368146876369 0 0.0022504054508353873 0.051666878204135722 0 0.0024147016163545737 0.051614624481872678 0 0.0019375593812281438 0.049709262255833254 0 0.0011645408930054044 0.04859366709678762 0 0.0023398825501946764 0.051728368146876369 0 0.0024147016163545737 0.051614624481872678 0 0.0023903202500208717 0.051731545703639123 0 0.0043009052106274094 0.049736463048279542 0 0.0039087861389839164 0.050320812292514734 0 0.0044790302083157624 0.050733316070781839 0 0.0037762712709115535 0.049861264800388251 0 0.0043009052106274094 0.049736463048279542 0 0.0039087861389839164 0.050320812292514734 0 0.0037762712709115535 0.049861264800388251 0 0.0039087861389839164 0.050320812292514734 0 0.0032555030412226896 0.050013151290959797 0 0.0036081703474086348 0.051071852977007733 0 0.0039087861389839164 0.050320812292514734 0 0.0032555030412226896 0.050013151290959797 0 0.0027565645026689988 0.050658967492213089 0 0.0036081703474086348 0.051071852977007733 0 0.0032555030412226896 0.050013151290959797 0 0.0019747963517359819 0.046184964292169443 0 0.0010404625701501105 0.045833567351673349 0 0.00062490559130489115 0.046677944463708335 0 0.00042735843130476227 0.044946715479705808 0 0.00047990634475363942 0.047384905014308178 0 0.00037058917905557836 0.045691042955717277 0 0.00063711787313531739 0.04670403243738093 0 -3.537972515971199e-05 0.046950411286560183 0 0.00040527134970265699 0.046981689571044309 0 0.00047990634475363942 0.047384905014308178 0 0.00037058917905557836 0.045691042955717277 0 0.0010404625701501105 0.045833567351673349 0 0.00062490559130489115 0.046677944463708335 0 0.0014823166781821164 0.047593111437450188 0 0.0011645408930054044 0.04859366709678762 0 -0.00028388807067163834 0.045496899651915397 0 0.00037058917905557836 0.045691042955717277 0 -3.537972515971199e-05 0.046950411286560183 0 0.00047990634475363942 0.047384905014308178 0 -0.00084218813555467491 0.04698910841596142 0 0.00047990634475363942 0.047384905014308178 0 0.0011645408930054044 0.04859366709678762 0 0.0024147016163545737 0.051614624481872678 0 0.0023903202500208717 0.051731545703639123 0 0.0024394966136730414 0.051788183938443547 0 0.0023469835374794299 0.051347436693786615 0 0.0026229008101786508 0.051508591276910792 0 0.002448736612079146 0.051708384031415706 0 0.0025581668560629867 0.051263485252804795 0 0.0023469835374794299 0.051347436693786615 0 0.0026229008101786508 0.051508591276910792 0 0.0011645408930054044 0.04859366709678762 0 0.0015643111317667335 0.05019655359957232 0 -0.00084218813555467491 0.04698910841596142 0 -0.00076204136167967089 0.047422161416068115 0 0.00042735843130476227 0.044946715479705808 0 -0.00084218813555467491 0.04698910841596142 0 0.00013575133032217216 0.045580199202006358 0 -0.0010200945073605035 0.046006131574444935 0 -0.0008510974718059386 0.046658612448674384 0 -0.0053484252592048403 0.037798386481953938 0 -0.0051751384490245295 0.038447887281959456 0 -0.0059465106883295014 0.038520935451471693 0 -0.00084218813555467491 0.04698910841596142 0 -0.0043262139020905886 0.049543039620673412 0 -0.0051751384490245295 0.038447887281959456 0 -0.0059465106883295014 0.038520935451471693 0 -0.0057751695033543176 0.039144636581097861 0 0.0023407373215071393 0.051889886733022347 0 0.0025685920156538807 0.051808138164065098 0 0.0024394966136730414 0.051788183938443547 0 0.0025288017021021366 0.051608343156195016 0 0.0025685920156538807 0.051808138164065098 0 0.002448736612079146 0.051708384031415706 0 -0.0020071121185044061 0.051356016986786553 0 -0.0043262139020905886 0.049543039620673412 0 0.0023469835374794299 0.051347436693786615 0 0.002448736612079146 0.051708384031415706 0 0.0024394966136730414 0.051788183938443547 0 0.0023642340025801616 0.051800263249923546 0 0.0023903202500208717 0.051731545703639123 0 0.0024394966136730414 0.051788183938443547 0 0.0025685920156538807 0.051808138164065098 0 0.002448736612079146 0.051708384031415706 0 0.0024394966136730414 0.051788183938443547 0 -0.0049534158062850457 0.054442656771387855 0 -0.0064370488463256397 0.05475116083001532 0 -0.0054816884672449929 0.053599693023838324 0 -0.0043262139020905886 0.049543039620673412 0 -0.0055355063974405934 0.052248924737061858 0 -0.0064370488463256397 0.05475116083001532 0 -0.0068955348346615344 0.053303541788613601 0 -0.0054816884672449929 0.053599693023838324 0 -0.0080652630511407856 0.05445204259573088 0 -0.00707253476483128 0.055078910234331181 0 -0.007452552067748152 0.053465369294140599 0 -0.0068955348346615344 0.053303541788613601 0 -0.0054816884672449929 0.053599693023838324 0 -0.0055065478922606019 0.052699626888997139 0 -0.0055065478922606019 0.052699626888997139 0 -0.0060559053663933682 0.051927911508749473 0 -0.0048697227195605847 0.051858106214816159 0 -0.0068955348346615344 0.053303541788613601 0 -0.0055065478922606019 0.052699626888997139 0 -0.0060559053663933682 0.051927911508749473 0 -0.0068955348346615344 0.053303541788613601 0 -0.0060559053663933682 0.051927911508749473 0 -0.0076394065566181158 0.051806004932445179 0 -0.0060559053663933682 0.051927911508749473 0 -0.0062248930412956861 0.050563476244642046 0 -0.0076394065566181158 0.051806004932445179 0 -0.0060559053663933682 0.051927911508749473 0 -0.0053261594010303465 0.051074583404149561 0 -0.0062248930412956861 0.050563476244642046 0 -0.0060559053663933682 0.051927911508749473 0 -0.0053261594010303465 0.051074583404149561 0 -0.0048697227195605847 0.051858106214816159 0 -0.0053261594010303465 0.051074583404149561 0 -0.0062248930412956861 0.050563476244642046 0 -0.0048507979906333891 0.050003224705003832 0 -0.0062248930412956861 0.050563476244642046 0 -0.0076394065566181158 0.051806004932445179 0 -0.0077651647096724126 0.050719240211844117 0 -0.0062248930412956861 0.050563476244642046 0 -0.0077651647096724126 0.050719240211844117 0 -0.007277874501535565 0.049368615018066754 0 -0.0039077038060456835 0.050506296616545682 0 -0.0045528713034089134 0.051010181272338584 0 -0.003946021635881535 0.05179662981268502 0 -0.0053261594010303465 0.051074583404149561 0 -0.0045528713034089134 0.051010181272338584 0 -0.0048507979906333891 0.050003224705003832 0 -0.0039077038060456835 0.050506296616545682 0 -0.0045528713034089134 0.051010181272338584 0 -0.0048507979906333891 0.050003224705003832 0 -0.0045528713034089134 0.051010181272338584 0 -0.0048697227195605847 0.051858106214816159 0 -0.003946021635881535 0.05179662981268502 0 -0.0053261594010303465 0.051074583404149561 0 -0.0045528713034089134 0.051010181272338584 0 -0.0048697227195605847 0.051858106214816159 0 -0.0039077038060456835 0.050506296616545682 0 -0.003946021635881535 0.05179662981268502 0 -0.0030666324224176314 0.051295108655943625 0 -0.003946021635881535 0.05179662981268502 0 -0.0046774398412002234 0.052765188984367731 0 -0.0037262596111686131 0.052922122822065897 0 -0.003946021635881535 0.05179662981268502 0 -0.0037262596111686131 0.052922122822065897 0 -0.0030104518785962413 0.052218150614552185 0 -0.0048697227195605847 0.051858106214816159 0 -0.003946021635881535 0.05179662981268502 0 -0.0046774398412002234 0.052765188984367731 0 -0.0055065478922606019 0.052699626888997139 0 -0.0048697227195605847 0.051858106214816159 0 -0.0046774398412002234 0.052765188984367731 0 -0.0054816884672449929 0.053599693023838324 0 -0.0046774398412002234 0.052765188984367731 0 -0.0044609940126519891 0.05355272635017027 0 -0.0054816884672449929 0.053599693023838324 0 -0.0055065478922606019 0.052699626888997139 0 -0.0046774398412002234 0.052765188984367731 0 -0.0046774398412002234 0.052765188984367731 0 -0.0044609940126519891 0.05355272635017027 0 -0.0037262596111686131 0.052922122822065897 0 -0.0035297649099973846 0.054042277276745702 0 -0.0044609940126519891 0.05355272635017027 0 -0.0037262596111686131 0.052922122822065897 0 -0.0035297649099973846 0.054042277276745702 0 -0.0037262596111686131 0.052922122822065897 0 -0.0028782307046952538 0.053061844793415865 0 -0.002285633558118593 0.053621833905785093 0 -0.0028782307046952538 0.053061844793415865 0 -0.0019498611302311824 0.05256363339381407 0 -0.0028782307046952538 0.053061844793415865 0 -0.0030104518785962413 0.052218150614552185 0 -0.0019498611302311824 0.05256363339381407 0 -0.0030104518785962413 0.052218150614552185 0 -0.0019498611302311824 0.05256363339381407 0 -0.0023751931854760176 0.051790318145418394 0 -0.0037262596111686131 0.052922122822065897 0 -0.0028782307046952538 0.053061844793415865 0 -0.0030104518785962413 0.052218150614552185 0 -0.0012079089783128933 0.053211755938858622 0 -0.0019498611302311824 0.05256363339381407 0 -0.0010446141414584558 0.052489379705560127 0 -0.002285633558118593 0.053621833905785093 0 -0.0012079089783128933 0.053211755938858622 0 -0.0019498611302311824 0.05256363339381407 0 -0.0010446141414584558 0.052489379705560127 0 -0.0012163830377870234 0.051672295209526119 0 -0.00051541550758800686 0.052347129116714124 0 -0.0019498611302311824 0.05256363339381407 0 -0.0010446141414584558 0.052489379705560127 0 -0.0012163830377870234 0.051672295209526119 0 -0.0019498611302311824 0.05256363339381407 0 -0.0012163830377870234 0.051672295209526119 0 -0.0023751931854760176 0.051790318145418394 0 -0.0012163830377870234 0.051672295209526119 0 -0.0023751931854760176 0.051790318145418394 0 -0.0021948324621478099 0.051097206913217869 0 -0.0013457753688302647 0.052228111670083434 0 -0.0021948324621478099 0.051097206913217869 0 -0.0014738026049567962 0.050950146887305009 0 -0.0012825936662401855 0.051987223966196115 0 -0.0016509546828467204 0.051717364578069379 0 -0.0013457753688302647 0.052228111670083434 0 -0.0010857109730299044 0.051796186504954184 0 -0.0014738026049567962 0.050950146887305009 0 -0.0030104518785962413 0.052218150614552185 0 -0.0030666324224176314 0.051295108655943625 0 -0.0023751931854760176 0.051790318145418394 0 -0.003946021635881535 0.05179662981268502 0 -0.0030104518785962413 0.052218150614552185 0 -0.0030666324224176314 0.051295108655943625 0 -0.0030666324224176314 0.051295108655943625 0 -0.0023751931854760176 0.051790318145418394 0 -0.0021948324621478099 0.051097206913217869 0 -0.0030666324224176314 0.051295108655943625 0 -0.0021948324621478099 0.051097206913217869 0 -0.0031154620746904264 0.050272263128898695 0 -0.0039077038060456835 0.050506296616545682 0 -0.0030666324224176314 0.051295108655943625 0 -0.0031154620746904264 0.050272263128898695 0 -0.0031154620746904264 0.050272263128898695 0 -0.0024595890780367297 0.050043049985388541 0 -0.0028529818648983956 0.048928776085638157 0 -0.0021948324621478099 0.051097206913217869 0 -0.0031154620746904264 0.050272263128898695 0 -0.0024595890780367297 0.050043049985388541 0 -0.0034684626510682491 0.048816020965340823 0 -0.0028417007014852444 0.049150233569681838 0 -0.0024595890780367297 0.050043049985388541 0 -0.0028529818648983956 0.048928776085638157 0 -0.0019003038670233885 0.049584769729879526 0 -0.0031154620746904264 0.050272263128898695 0 -0.0028529818648983956 0.048928776085638157 0 -0.0040085910365551831 0.049421695672628177 0 -0.0017935936787639494 0.049857583164807616 0 -0.0016964081190532286 0.049796631963726697 0 -0.001713297145465374 0.049786697239606693 0 -0.0017935936787639494 0.049857583164807616 0 -0.0019003038670233885 0.049584769729879526 0 -0.001713297145465374 0.049786697239606693 0 -0.0019496540642303839 0.05075617384208915 0 -0.0015317050096373861 0.051131748518853028 0 -0.0010857109730299044 0.051796186504954184 0 -0.0014738026049567962 0.050950146887305009 0 -0.00080258291388392126 0.051814501486969436 0 -0.0024595890780367297 0.050043049985388541 0 -0.0017935936787639494 0.049857583164807616 0 -0.0019003038670233885 0.049584769729879526 0 -0.0022714335585745891 0.050595284368058581 0 -0.0019496540642303839 0.05075617384208915 0 -0.0021948324621478099 0.051097206913217869 0 -0.0024595890780367297 0.050043049985388541 0 -0.0014738026049567962 0.050950146887305009 0 -0.0037349211697288139 0.048880785323875971 0 -0.0031181723168500009 0.048766181763652404 0 -0.0034521174044585936 0.048373262131378797 0 -0.0028417007014852444 0.049150233569681838 0 -0.0022725350497528568 0.049436560889753282 0 -0.0037349211697288139 0.048880785323875971 0 -0.0031181723168500009 0.048766181763652404 0 -0.002758522433497116 0.049393283527084962 0 -0.0031181723168500009 0.048766181763652404 0 -0.0029110886228555723 0.048261286963191853 0 -0.0034521174044585936 0.048373262131378797 0 -0.0037349211697288139 0.048880785323875971 0 -0.0034521174044585936 0.048373262131378797 0 -0.0039728983657617879 0.048228719195883847 0 -0.0034521174044585936 0.048373262131378797 0 -0.0039728983657617879 0.048228719195883847 0 -0.0032885624463428634 0.047345730153679197 0 -0.0033067075698533545 0.048543866453706085 0 -0.0031043589448710072 0.048692496316367739 0 -0.0039728983657617879 0.048228719195883847 0 -0.0040535259866423604 0.048132271327369094 0 -0.0041604720084987314 0.048088800629018366 0 -0.0026355984814658241 0.047712119610327716 0 -0.002647540616646953 0.047245444594595142 0 -0.0032885624463428634 0.047345730153679197 0 -0.0029110886228555723 0.048261286963191853 0 -0.0034521174044585936 0.048373262131378797 0 -0.0032885624463428634 0.047345730153679197 0 -0.0029110886228555723 0.048261286963191853 0 -0.0026355984814658241 0.047712119610327716 0 -0.0032885624463428634 0.047345730153679197 0 -0.0042019282393692299 0.048405223075138587 0 -0.0041520484099568551 0.048203237023883488 0 -0.0041908316412980033 0.048276004272631422 0 -0.0034684626510682491 0.048816020965340823 0 -0.0038169704953931486 0.048640006110677036 0 -0.0042019282393692299 0.048405223075138587 0 -0.0039728983657617879 0.048228719195883847 0 -0.0041520484099568551 0.048203237023883488 0 -0.0042019282393692299 0.048405223075138587 0 -0.0037349211697288139 0.048880785323875971 0 -0.0039728983657617879 0.048228719195883847 0 -0.0041520484099568551 0.048203237023883488 0 -0.0041982887758812548 0.048088466988589929 0 -0.0041604720084987314 0.048088800629018366 0 -0.0039728983657617879 0.048228719195883847 0 -0.0041520484099568551 0.048203237023883488 0 -0.0041604720084987314 0.048088800629018366 0 -0.0041520484099568551 0.048203237023883488 0 -0.0041908316412980033 0.048276004272631422 0 -0.0041982887758812548 0.048088466988589929 0 -0.0041908316412980033 0.048276004272631422 0 -0.0045423990826897178 0.048036974260826273 0 -0.0043048038158268681 0.047979606893954821 0 -0.0041908316412980033 0.048276004272631422 0 -0.0043048038158268681 0.047979606893954821 0 -0.0041982887758812548 0.048088466988589929 0 -0.0041908316412980033 0.048276004272631422 0 -0.0048994248444042977 0.048188648663874102 0 -0.0048750327856638366 0.048802521138792694 0 -0.0041908316412980033 0.048276004272631422 0 -0.0045423990826897178 0.048036974260826273 0 -0.0048994248444042977 0.048188648663874102 0 -0.0047594208426640274 0.047998701202984648 0 -0.0045423990826897178 0.048036974260826273 0 -0.0048994248444042977 0.048188648663874102 0 -0.0047594208426640274 0.047998701202984648 0 -0.0045423990826897178 0.048036974260826273 0 -0.0044994767064085346 0.047887634404377551 0 -0.0022065851520129344 0.042677390810336294 0 -0.0018245649642198419 0.04304283478543016 0 0.0013874265363614834 0.038582265366178377 0 -0.0047594208426640274 0.047998701202984648 0 -0.0050900169501346603 0.047960988908355554 0 -0.0044994767064085346 0.047887634404377551 0 -0.0034776224214089374 0.045264387293473339 0 -0.0019403887010453545 0.043173068632102525 0 -0.0043535846956080405 0.040569022260490778 0 -0.0062834747436697749 0.038826441531820216 0 -0.0022065851520129344 0.042677390810336294 0 -0.0061889788963661917 0.039373386941328213 0 -0.0066021365808666844 0.043510095493269958 0 -0.0022065851520129344 0.042677390810336294 0 -0.00584871200063743 0.04765125873348728 0 -0.0066021365808666844 0.043510095493269958 0 -0.0022065851520129344 0.042677390810336294 0 -0.0018245649642198419 0.04304283478543016 0 -0.00584871200063743 0.04765125873348728 0 -0.0034776224214089374 0.045264387293473339 0 -0.0044220637856294664 0.046450082264799054 0 -0.0050900169501346603 0.047960988908355554 0 -0.0048994248444042977 0.048188648663874102 0 -0.00584871200063743 0.04765125873348728 0 -0.0047594208426640274 0.047998701202984648 0 -0.0050900169501346603 0.047960988908355554 0 -0.0048994248444042977 0.048188648663874102 0 -0.0048994248444042977 0.048188648663874102 0 -0.00584871200063743 0.04765125873348728 0 -0.0048750327856638366 0.048802521138792694 0 -0.00584871200063743 0.04765125873348728 0 -0.0056859500317796704 0.049232057231684015 0 -0.0048750327856638366 0.048802521138792694 0 -0.00584871200063743 0.04765125873348728 0 -0.0056859500317796704 0.049232057231684015 0 -0.007277874501535565 0.049368615018066754 0 -0.0062248930412956861 0.050563476244642046 0 -0.0056859500317796704 0.049232057231684015 0 -0.007277874501535565 0.049368615018066754 0 -0.0062248930412956861 0.050563476244642046 0 -0.0056859500317796704 0.049232057231684015 0 -0.0048507979906333891 0.050003224705003832 0 -0.0056859500317796704 0.049232057231684015 0 -0.0048507979906333891 0.050003224705003832 0 -0.0048750327856638366 0.048802521138792694 0 -0.0048507979906333891 0.050003224705003832 0 -0.0040085910365551831 0.049421695672628177 0 -0.0048750327856638366 0.048802521138792694 0 -0.0039077038060456835 0.050506296616545682 0 -0.0031154620746904264 0.050272263128898695 0 -0.0040085910365551831 0.049421695672628177 0 -0.0039077038060456835 0.050506296616545682 0 -0.0048507979906333891 0.050003224705003832 0 -0.0040085910365551831 0.049421695672628177 0 -0.0041908316412980033 0.048276004272631422 0 -0.0040085910365551831 0.049421695672628177 0 -0.0048750327856638366 0.048802521138792694 0 -0.0028529818648983956 0.048928776085638157 0 -0.0041908316412980033 0.048276004272631422 0 -0.0040085910365551831 0.049421695672628177 0 -9.1708256827489073e-07 0.054998592819282946 0 -5.21221392662615e-09 0.054997915535773725 0 -0.00029654127417280858 0.054680459656847764 0 -4.9273983025178141e-07 0.054998607670460768 0 -0.0003501883917727305 0.054354877164159064 0 8.4974333847295138e-09 0.055000153501397205 0 -9.17896476848097e-05 0.055109264805615024 0 -2.9068077144984584e-05 0.055024121256062118 0 -0.00038557150785589533 0.054183388037284327 0 -0.00029654127417280858 0.054680459656847764 0 -0.00079817068285629588 0.053856274996419033 0 -5.21221392662615e-09 0.054997915535773725 0 -0.00038557150785589533 0.054183388037284327 0 -0.00029654127417280858 0.054680459656847764 0 -0.00044256642478755488 0.054630610261733749 0 -9.1708256827489073e-07 0.054998592819282946 0 -0.00029654127417280858 0.054680459656847764 0 -0.00044256642478755488 0.054630610261733749 0 -0.00029654127417280858 0.054680459656847764 0 -0.0006145947683594442 0.054673301044119424 0 -0.00029654127417280858 0.054680459656847764 0 -0.0006145947683594442 0.054673301044119424 0 -0.00079817068285629588 0.053856274996419033 0 -0.00091782613888958284 0.053492038115535955 0 -0.00089023820059913258 0.053558565186401945 0 -0.000604416205232801 0.054325199246678578 0 -0.00044256642478755488 0.054630610261733749 0 -0.0006145947683594442 0.054673301044119424 0 -0.0012723807062025405 0.052143782311104288 0 -0.0011051799156399477 0.052373636873857883 0 -0.0011954397791388461 0.052776711647888386 0 -0.00097922680833985656 0.053318141646570602 0 -0.00091782613888958284 0.053492038115535955 0 -0.0011051799156399477 0.052373636873857883 0 -0.0011954397791388461 0.052776711647888386 0 -0.00089264697555692645 0.052594606163570604 0 -0.0011954397791388461 0.052776711647888386 0 -0.00082355021914822522 0.053294571389088899 0 -0.00077545243399744219 0.052878337170934452 0 -0.0011954397791388461 0.052776711647888386 0 -0.00077545243399744219 0.052878337170934452 0 -0.00089264697555692645 0.052594606163570604 0 -0.00076697918146857822 0.053228664093326251 0 -0.00082355021914822522 0.053294571389088899 0 -0.00072976813799827567 0.053063159195855858 0 -0.00076697918146857822 0.053228664093326251 0 -0.00079632618203198593 0.053382167490995391 0 -0.00073482794894631461 0.053168542292335468 0 -0.00076697918146857822 0.053228664093326251 0 -0.00082355021914822522 0.053294571389088899 0 -0.00079632618203198593 0.053382167490995391 0 -0.00082355021914822522 0.053294571389088899 0 -0.00079632618203198593 0.053382167490995391 0 -0.00082278873343093661 0.053563422947949163 0 -0.00082355021914822522 0.053294571389088899 0 -0.00079817068285629588 0.053856274996419033 0 -0.00082278873343093661 0.053563422947949163 0 -0.0011954397791388461 0.052776711647888386 0 -0.00082355021914822522 0.053294571389088899 0 -0.00079817068285629588 0.053856274996419033 0 -0.00038557150785589533 0.054183388037284327 0 -0.00079817068285629588 0.053856274996419033 0 -0.00082444788388643016 0.053571862911080632 0 -0.0003501883917727305 0.054354877164159064 0 -0.00052221143761201126 0.053615754018963492 0 -9.17896476848097e-05 0.055109264805615024 0 -0.00026363509106914617 0.055125459050838772 0 -0.00030632325164716849 0.05516030780391952 0 -0.00079817068285629588 0.053856274996419033 0 -0.00082444788388643016 0.053571862911080632 0 -0.00082278873343093661 0.053563422947949163 0 -0.00026363509106914617 0.055125459050838772 0 -0.00030632325164716849 0.05516030780391952 0 -0.00030562143507528375 0.05511621160028455 0 -0.00030632325164716849 0.05516030780391952 0 -0.00030562143507528375 0.05511621160028455 0 -0.00037491831450695115 0.055125545744866944 0 -0.00082444788388643016 0.053571862911080632 0 -0.00078931768658960721 0.053374223634241789 0 -0.00073452784613660578 0.053177212754932195 0 -0.00052221143761201126 0.053615754018963492 0 -0.00055161874550483379 0.052583821996126677 0 -0.00030632325164716849 0.05516030780391952 0 -0.00037491831450695115 0.055125545744866944 0 -0.00051943782640648294 0.055154554666853803 0 -0.000750087724023374 0.053234717396015957 0 -0.00078931768658960721 0.053374223634241789 0 -0.00073601470766801631 0.053191063313066035 0 -0.00078931768658960721 0.053374223634241789 0 -0.00073601470766801631 0.053191063313066035 0 -0.00073452784613660578 0.053177212754932195 0 -0.000750087724023374 0.053234717396015957 0 -0.00076648658939461323 0.053281950515733756 0 -0.00078931768658960721 0.053374223634241789 0 -0.00076648658939461323 0.053281950515733756 0 -0.00079632618203198593 0.053382167490995391 0 -0.00078931768658960721 0.053374223634241789 0 -0.00076648658939461323 0.053281950515733756 0 -0.00079632618203198593 0.053382167490995391 0 -0.00073482794894631461 0.053168542292335468 0 -0.000750087724023374 0.053234717396015957 0 -0.00076648658939461323 0.053281950515733756 0 -0.00072629228239464143 0.053162997949270589 0 -0.00079632618203198593 0.053382167490995391 0 -0.00082278873343093661 0.053563422947949163 0 -0.00078931768658960721 0.053374223634241789 0 -0.00082444788388643016 0.053571862911080632 0 -0.00082278873343093661 0.053563422947949163 0 -0.00078931768658960721 0.053374223634241789 0 -0.00071135014539559414 0.053156169309499859 0 -0.00065086884251082313 0.052898018522852357 0 -0.0005847293866044689 0.052561228357938819 0 -0.00055161874550483379 0.052583821996126677 0 -0.0011616787013468176 0.051696570585203501 0 -0.0006693547072360122 0.052983189310654731 0 -0.00065086884251082313 0.052898018522852357 0 -0.0006350746892836123 0.052852389194048409 0 -0.0006693547072360122 0.052983189310654731 0 -0.0006350746892836123 0.052852389194048409 0 -0.00067397259358021396 0.052998523096914586 0 -0.0006693547072360122 0.052983189310654731 0 -0.00069952632523162831 0.053081266728310657 0 -0.00067397259358021396 0.052998523096914586 0 -0.00073482794894631461 0.053168542292335468 0 -0.00069952632523162831 0.053081266728310657 0 -0.00067397259358021396 0.052998523096914586 0 -0.00076648658939461323 0.053281950515733756 0 -0.00073482794894631461 0.053168542292335468 0 -0.00072629228239464143 0.053162997949270589 0 -0.00073482794894631461 0.053168542292335468 0 -0.00072629228239464143 0.053162997949270589 0 -0.00069952632523162831 0.053081266728310657 0 -0.00072629228239464143 0.053162997949270589 0 -0.00069952632523162831 0.053081266728310657 0 -0.00069798793191634819 0.05309284379533985 0 -0.0006693547072360122 0.052983189310654731 0 -0.00069952632523162831 0.053081266728310657 0 -0.00069798793191634819 0.05309284379533985 0 -0.00069798793191634819 0.05309284379533985 0 -0.00071135014539559414 0.053156169309499859 0 -0.00065086884251082313 0.052898018522852357 0 -0.000750087724023374 0.053234717396015957 0 -0.00072629228239464143 0.053162997949270589 0 -0.00072391082212840932 0.053163138087661911 0 -0.000750087724023374 0.053234717396015957 0 -0.00072391082212840932 0.053163138087661911 0 -0.00073601470766801631 0.053191063313066035 0 -0.00072629228239464143 0.053162997949270589 0 -0.00069798793191634819 0.05309284379533985 0 -0.00072391082212840932 0.053163138087661911 0 -0.00069798793191634819 0.05309284379533985 0 -0.00071542941912808408 0.053150847515155621 0 -0.00071135014539559414 0.053156169309499859 0 -0.00072391082212840932 0.053163138087661911 0 -0.00071542941912808408 0.053150847515155621 0 -0.00073601470766801631 0.053191063313066035 0 -0.00069798793191634819 0.05309284379533985 0 -0.00072391082212840932 0.053163138087661911 0 -0.00071542941912808408 0.053150847515155621 0 -0.00055112318852399832 0.052586218890790348 0 -0.00055161874550483379 0.052583821996126677 0 -0.00071542941912808408 0.053150847515155621 0 -0.00073601470766801631 0.053191063313066035 0 -0.00071135014539559414 0.053156169309499859 0 -0.0006693547072360122 0.052983189310654731 0 -0.00069798793191634819 0.05309284379533985 0 -0.00065086884251082313 0.052898018522852357 0 -0.00065086884251082313 0.052898018522852357 0 -0.00061817473720175351 0.052739460182903472 0 -0.0005847293866044689 0.052561228357938819 0 -0.00065086884251082313 0.052898018522852357 0 -0.00061817473720175351 0.052739460182903472 0 -0.0006350746892836123 0.052852389194048409 0 -0.00061020439202031122 0.052660850479369581 0 -0.00062700003741674457 0.052504042202598626 0 -0.0005847293866044689 0.052561228357938819 0 -0.00061817473720175351 0.052739460182903472 0 -0.00061020439202031122 0.052660850479369581 0 -0.0005847293866044689 0.052561228357938819 0 -0.00061020439202031122 0.052660850479369581 0 -0.00061690707146010452 0.052782949818128116 0 -0.00064162313938817214 0.052585728883594876 0 -0.0006350746892836123 0.052852389194048409 0 -0.00061690707146010452 0.052782949818128116 0 -0.00067397259358021396 0.052998523096914586 0 -0.00061817473720175351 0.052739460182903472 0 -0.00061020439202031122 0.052660850479369581 0 -0.0006350746892836123 0.052852389194048409 0 -0.00061020439202031122 0.052660850479369581 0 -0.0006350746892836123 0.052852389194048409 0 -0.00061690707146010452 0.052782949818128116 0 -0.00061690707146010452 0.052782949818128116 0 -0.00060786892183205959 0.052823482768789731 0 -0.00067397259358021396 0.052998523096914586 0 -0.00061690707146010452 0.052782949818128116 0 -0.00060786892183205959 0.052823482768789731 0 -0.00064162313938817214 0.052585728883594876 0 -0.00060786892183205959 0.052823482768789731 0 -0.00067397259358021396 0.052998523096914586 0 -0.00072976813799827567 0.053063159195855858 0 -0.00060786892183205959 0.052823482768789731 0 -0.00072976813799827567 0.053063159195855858 0 -0.00077545243399744219 0.052878337170934452 0 -0.00076697918146857822 0.053228664093326251 0 -0.00073482794894631461 0.053168542292335468 0 -0.00072976813799827567 0.053063159195855858 0 -0.00073482794894631461 0.053168542292335468 0 -0.00067397259358021396 0.052998523096914586 0 -0.00072976813799827567 0.053063159195855858 0 -0.00082355021914822522 0.053294571389088899 0 -0.00072976813799827567 0.053063159195855858 0 -0.00077545243399744219 0.052878337170934452 0 -0.00077545243399744219 0.052878337170934452 0 -0.00089264697555692645 0.052594606163570604 0 -0.00060809912576655198 0.052745475846177274 0 -0.00088267421708793331 0.052356387008737092 0 -0.0011051799156399477 0.052373636873857883 0 -0.00089264697555692645 0.052594606163570604 0 -0.00088267421708793331 0.052356387008737092 0 -0.00089264697555692645 0.052594606163570604 0 -0.00060809912576655198 0.052745475846177274 0 -0.00060786892183205959 0.052823482768789731 0 -0.00077545243399744219 0.052878337170934452 0 -0.00060809912576655198 0.052745475846177274 0 -0.00060809912576655198 0.052745475846177274 0 -0.00040284848915728372 0.05270182859657311 0 -0.00051541550758800686 0.052347129116714124 0 -0.00060786892183205959 0.052823482768789731 0 -0.00060809912576655198 0.052745475846177274 0 -0.0007462801395696205 0.052720488419379784 0 -0.00071741866277588522 0.0524554254299174 0 -0.00084661248179314233 0.052331734617359731 0 -0.00051861549847490105 0.052256703856488278 0 -0.00060809912576655198 0.052745475846177274 0 -0.00040284848915728372 0.05270182859657311 0 -0.00047366789759333445 0.052690283993865279 0 -0.00045936654183211862 0.052710613127703462 0 -0.0012079089783128933 0.053211755938858622 0 -0.0010446141414584558 0.052489379705560127 0 -0.00040284848915728372 0.05270182859657311 0 -0.0010446141414584558 0.052489379705560127 0 -0.00040284848915728372 0.05270182859657311 0 -0.00051541550758800686 0.052347129116714124 0 -0.0013457753688302647 0.052228111670083434 0 -0.0007462801395696205 0.052720488419379784 0 -0.00083554039673940084 0.052214941148889346 0 -0.0012825936662401855 0.051987223966196115 0 -0.00084661248179314233 0.052331734617359731 0 -0.00060786892183205959 0.052823482768789731 0 -0.0007462801395696205 0.052720488419379784 0 -0.00064162313938817214 0.052585728883594876 0 -0.0007462801395696205 0.052720488419379784 0 -0.00064162313938817214 0.052585728883594876 0 -0.00083554039673940084 0.052214941148889346 0 -0.00064162313938817214 0.052585728883594876 0 -0.00068678717190097458 0.052283361828758111 0 -0.00083554039673940084 0.052214941148889346 0 -0.00061020439202031122 0.052660850479369581 0 -0.00064162313938817214 0.052585728883594876 0 -0.00062700003741674457 0.052504042202598626 0 -0.00064162313938817214 0.052585728883594876 0 -0.00062700003741674457 0.052504042202598626 0 -0.00068678717190097458 0.052283361828758111 0 -0.00062700003741674457 0.052504042202598626 0 -0.00068678717190097458 0.052283361828758111 0 -0.0005847293866044689 0.052561228357938819 0 -0.0013457753688302647 0.052228111670083434 0 -0.0010857109730299044 0.051796186504954184 0 -0.00083554039673940084 0.052214941148889346 0 -0.0010857109730299044 0.051796186504954184 0 -0.00083554039673940084 0.052214941148889346 0 -0.00080258291388392126 0.051814501486969436 0 -0.00068678717190097458 0.052283361828758111 0 -0.00083554039673940084 0.052214941148889346 0 -0.00080258291388392126 0.051814501486969436 0 -0.0022725350497528568 0.049436560889753282 0 -0.0019677266597631698 0.049567404911938902 0 -0.0016964081190532286 0.049796631963726697 0 -0.001713297145465374 0.049786697239606693 0 -0.0015973075984886944 0.049757502618312535 0 -0.002758522433497116 0.049393283527084962 0 -0.0015973075984886944 0.049757502618312535 0 -0.0020950203102260492 0.049211374433140005 0 -0.00068678717190097458 0.052283361828758111 0 -0.00080258291388392126 0.051814501486969436 0 -0.0005847293866044689 0.052561228357938819 0 -0.0015317050096373861 0.051131748518853028 0 -0.0011616787013468176 0.051696570585203501 0 -0.0016964081190532286 0.049796631963726697 0 -0.0015973075984886944 0.049757502618312535 0 -0.0014881078414043618 0.04978668444519347 0 -0.0015973075984886944 0.049757502618312535 0 -0.0020950203102260492 0.049211374433140005 0 -0.0016070184745754321 0.049282495258776392 0 -0.0015973075984886944 0.049757502618312535 0 -0.0016070184745754321 0.049282495258776392 0 -0.001505609083306303 0.049672772300415106 0 -0.0020950203102260492 0.049211374433140005 0 -0.0016070184745754321 0.049282495258776392 0 -0.0019846680822261323 0.048811658095104071 0 -0.0016070184745754321 0.049282495258776392 0 -0.0019846680822261323 0.048811658095104071 0 -0.001477770933784435 0.048275200775636636 0 -0.0020950203102260492 0.049211374433140005 0 -0.0019846680822261323 0.048811658095104071 0 -0.0025155406158428686 0.048770902187646743 0 -0.002758522433497116 0.049393283527084962 0 -0.0020950203102260492 0.049211374433140005 0 -0.0025155406158428686 0.048770902187646743 0 -0.0031181723168500009 0.048766181763652404 0 -0.002758522433497116 0.049393283527084962 0 -0.0025155406158428686 0.048770902187646743 0 -0.0031181723168500009 0.048766181763652404 0 -0.0029110886228555723 0.048261286963191853 0 -0.0025155406158428686 0.048770902187646743 0 -0.0029110886228555723 0.048261286963191853 0 -0.0025155406158428686 0.048770902187646743 0 -0.002232991725009164 0.048238322214213904 0 -0.0029110886228555723 0.048261286963191853 0 -0.002232991725009164 0.048238322214213904 0 -0.0026355984814658241 0.047712119610327716 0 -0.0019846680822261323 0.048811658095104071 0 -0.0025155406158428686 0.048770902187646743 0 -0.002232991725009164 0.048238322214213904 0 -0.002232991725009164 0.048238322214213904 0 -0.0026355984814658241 0.047712119610327716 0 -0.0020478637780486256 0.047373050115887043 0 -0.0026355984814658241 0.047712119610327716 0 -0.0020478637780486256 0.047373050115887043 0 -0.002647540616646953 0.047245444594595142 0 -0.002232991725009164 0.048238322214213904 0 -0.001477770933784435 0.048275200775636636 0 -0.0020478637780486256 0.047373050115887043 0 -0.0022194229898696788 0.054958197850371315 0 -0.0021429884909713046 0.053941794330915956 0 -0.002729788432866526 0.054140010228909213 0 -0.0018596050853001056 0.051644522037419621 0 -0.0025784352927029144 0.0509428138500089 0 -0.0019846680822261323 0.048811658095104071 0 -0.002232991725009164 0.048238322214213904 0 -0.001477770933784435 0.048275200775636636 0 -0.0022194229898696788 0.054958197850371315 0 -0.0016095639425910714 0.054353129082394216 0 -0.0021429884909713046 0.053941794330915956 0 -0.0016095639425910714 0.054353129082394216 0 -0.001254988463585586 0.055166032818954484 0 -0.00078082176879186254 0.054584880122801292 0 -0.0022194229898696788 0.054958197850371315 0 -0.0016095639425910714 0.054353129082394216 0 -0.001254988463585586 0.055166032818954484 0 -0.0022194229898696788 0.054958197850371315 0 -0.001254988463585586 0.055166032818954484 0 -0.0017259241591364419 0.055749252476427064 0 -0.0012991853932016056 0.05384071250109114 0 -0.0011059408019568951 0.052426450657738342 0 -0.00055167378078215229 0.054829327391573139 0 -0.00064271273235121129 0.054968851099729009 0 -0.00049636032280482318 0.054950125911988612 0 -0.00064271273235121129 0.054968851099729009 0 -0.00051369176602598823 0.055039313038260811 0 -0.00049636032280482318 0.054950125911988612 0 -0.0016070184745754321 0.049282495258776392 0 -0.001477770933784435 0.048275200775636636 0 -0.001311154570754758 0.049226200323055046 0 -0.0018596050853001056 0.051644522037419621 0 -0.0011059408019568951 0.052426450657738342 0 -0.001477770933784435 0.048275200775636636 0 -0.00095308593277689132 0.049190279967996561 0 -0.001311154570754758 0.049226200323055046 0 -0.0011059408019568951 0.052426450657738342 0 -0.00085564837288038085 0.051876842282402587 0 -0.00073370998678362717 0.049904965675163518 0 -0.0013585630149716859 0.049602249670430976 0 -0.0014881078414043618 0.04978668444519347 0 -0.00095308593277689132 0.049190279967996561 0 -0.001311154570754758 0.049226200323055046 0 -0.0013585630149716859 0.049602249670430976 0 -0.0016070184745754321 0.049282495258776392 0 -0.001311154570754758 0.049226200323055046 0 -0.0013585630149716859 0.049602249670430976 0 -0.0016070184745754321 0.049282495258776392 0 -0.0013585630149716859 0.049602249670430976 0 -0.001505609083306303 0.049672772300415106 0 -0.0015973075984886944 0.049757502618312535 0 -0.001505609083306303 0.049672772300415106 0 -0.0014881078414043618 0.04978668444519347 0 -0.0013585630149716859 0.049602249670430976 0 -0.001505609083306303 0.049672772300415106 0 -0.0014881078414043618 0.04978668444519347 0 -0.00055161874550483379 0.052583821996126677 0 -0.0011059408019568951 0.052426450657738342 0 -0.00073370998678362717 0.049904965675163518 0 -0.0011072503722596423 0.049292427520119496 0 -0.0013585630149716859 0.049602249670430976 0 -0.00051943782640648294 0.055154554666853803 0 -0.00064271273235121129 0.054968851099729009 0 -0.00051369176602598823 0.055039313038260811 0 -0.00051943782640648294 0.055154554666853803 0 -0.00051369176602598823 0.055039313038260811 0 -0.00047157440621593626 0.055084593283532914 0 -0.00037046721606861138 0.055055314025094934 0 -0.00044132293679020987 0.055036675535135172 0 -0.00041561866248401993 0.055098233342027882 0 -0.00037046721606861138 0.055055314025094934 0 -0.00031433835661182026 0.055050603185851213 0 -0.00037462555122849868 0.055000491184890359 0 -0.00037046721606861138 0.055055314025094934 0 -0.00044132293679020987 0.055036675535135172 0 -0.00037462555122849868 0.055000491184890359 0 -0.00051369176602598823 0.055039313038260811 0 -0.00044132293679020987 0.055036675535135172 0 -0.00049636032280482318 0.054950125911988612 0 -0.00051369176602598823 0.055039313038260811 0 -0.00044132293679020987 0.055036675535135172 0 -0.00047157440621593626 0.055084593283532914 0 -0.00051943782640648294 0.055154554666853803 0 -0.00047157440621593626 0.055084593283532914 0 -0.00041561866248401993 0.055098233342027882 0 -0.00037491831450695115 0.055125545744866944 0 -0.00051943782640648294 0.055154554666853803 0 -0.00041561866248401993 0.055098233342027882 0 -0.00044132293679020987 0.055036675535135172 0 -0.00047157440621593626 0.055084593283532914 0 -0.00041561866248401993 0.055098233342027882 0 -0.00037491831450695115 0.055125545744866944 0 -0.00041561866248401993 0.055098233342027882 0 -0.00033018139626496857 0.055092949864095735 0 -0.00037046721606861138 0.055055314025094934 0 -0.00041561866248401993 0.055098233342027882 0 -0.00033018139626496857 0.055092949864095735 0 -0.00026363509106914617 0.055125459050838772 0 -0.00030562143507528375 0.05511621160028455 0 -0.00025697007300500702 0.055070519239362938 0 -0.00030562143507528375 0.05511621160028455 0 -0.00037491831450695115 0.055125545744866944 0 -0.00033018139626496857 0.055092949864095735 0 -0.00026363509106914617 0.055125459050838772 0 -0.00025697007300500702 0.055070519239362938 0 -0.00010342892773118602 0.055029008670280974 0 -0.00030562143507528375 0.05511621160028455 0 -0.00033018139626496857 0.055092949864095735 0 -0.00025697007300500702 0.055070519239362938 0 -0.00033018139626496857 0.055092949864095735 0 -0.00025697007300500702 0.055070519239362938 0 -0.00031433835661182026 0.055050603185851213 0 -0.00037046721606861138 0.055055314025094934 0 -0.00033018139626496857 0.055092949864095735 0 -0.00031433835661182026 0.055050603185851213 0 -0.00025697007300500702 0.055070519239362938 0 -0.00031433835661182026 0.055050603185851213 0 -0.00024069222047070588 0.055013637211161169 0 -0.00031433835661182026 0.055050603185851213 0 -0.00024069222047070588 0.055013637211161169 0 -0.00037462555122849868 0.055000491184890359 0 -0.00024069222047070588 0.055013637211161169 0 -0.00039512716947967937 0.054893357756659995 0 -0.00024046004593816447 0.054833457291312657 0 -0.00024069222047070588 0.055013637211161169 0 -0.00039512716947967937 0.054893357756659995 0 -0.00037462555122849868 0.055000491184890359 0 -0.00055167378078215229 0.054829327391573139 0 -0.00039512716947967937 0.054893357756659995 0 -0.00049636032280482318 0.054950125911988612 0 -0.00039512716947967937 0.054893357756659995 0 -0.00037462555122849868 0.055000491184890359 0 -0.00049636032280482318 0.054950125911988612 0 -0.00044132293679020987 0.055036675535135172 0 -0.00037462555122849868 0.055000491184890359 0 -0.00049636032280482318 0.054950125911988612 0 -0.00055167378078215229 0.054829327391573139 0 -0.00039512716947967937 0.054893357756659995 0 -0.00050544596801564842 0.054642414251922948 0 -0.0012991853932016056 0.05384071250109114 0 -0.0010517642385624616 0.054079782939611382 0 -0.00078082176879186254 0.054584880122801292 0 -0.00032867377550859243 0.054128965207315458 0 -0.0010766757773368076 0.05409888292169357 0 -0.0016095639425910714 0.054353129082394216 0 -0.00078082176879186254 0.054584880122801292 0 -0.0010766757773368076 0.05409888292169357 0 -0.0010517642385624616 0.054079782939611382 0 -0.00088697966252882887 0.05402946973333398 0 -0.00050544596801564842 0.054642414251922948 0 -0.00025988326430110073 0.054617213307729534 0 -0.00032867377550859243 0.054128965207315458 0 -0.00050544596801564842 0.054642414251922948 0 -0.00025988326430110073 0.054617213307729534 0 -0.00024046004593816447 0.054833457291312657 0 -0.00039512716947967937 0.054893357756659995 0 -0.00050544596801564842 0.054642414251922948 0 -0.00024046004593816447 0.054833457291312657 0 -0.00024046004593816447 0.054833457291312657 0 -6.5307043342487575e-05 0.054933748510114032 0 -5.271111316017042e-05 0.054782344926864256 0 -0.00025988326430110073 0.054617213307729534 0 -0.00024046004593816447 0.054833457291312657 0 -5.271111316017042e-05 0.054782344926864256 0 -0.00025988326430110073 0.054617213307729534 0 -5.271111316017042e-05 0.054782344926864256 0 9.5496506094231825e-05 0.054279901430827587 0 -5.271111316017042e-05 0.054782344926864256 0 5.7861772232090634e-07 0.054999064650793975 0 9.5496506094231825e-05 0.054279901430827587 0 5.6091222082077208e-08 0.054999246431352171 0 -8.1734844148533952e-05 0.054496636690775757 0 -6.5307043342487575e-05 0.054933748510114032 0 -5.271111316017042e-05 0.054782344926864256 0 5.7861772232090634e-07 0.054999064650793975 0 -6.5307043342487575e-05 0.054933748510114032 0 5.7861772232090634e-07 0.054999064650793975 0 -3.0771426791547312e-07 0.055000295115593817 0 -6.5307043342487575e-05 0.054933748510114032 0 -3.0771426791547312e-07 0.055000295115593817 0 -0.00010342892773118602 0.055029008670280974 0 6.49020606323252e-09 0.054999955811458029 0 -5.9907271251438758e-05 0.054971193769380602 0 -3.1199062465756683e-08 0.054999981368639338 0 -9.2609064354144925e-08 0.055000010455743986 0 -8.0260230328123796e-05 0.055037323996116196 0 -0.00024069222047070588 0.055013637211161169 0 -6.5307043342487575e-05 0.054933748510114032 0 -0.00010342892773118602 0.055029008670280974 0 -0.00024069222047070588 0.055013637211161169 0 -0.00024046004593816447 0.054833457291312657 0 -6.5307043342487575e-05 0.054933748510114032 0 -0.0001438469026327326 0.055079513560779739 0 -8.0260230328123796e-05 0.055037323996116196 0 -0.00025697007300500702 0.055070519239362938 0 -0.00024069222047070588 0.055013637211161169 0 -0.00010342892773118602 0.055029008670280974 0 -9.17896476848097e-05 0.055109264805615024 0 -0.00026363509106914617 0.055125459050838772 0 -5.9907271251438758e-05 0.054971193769380602 0 -9.17896476848097e-05 0.055109264805615024 0 -5.9907271251438758e-05 0.054971193769380602 0 -2.9068077144984584e-05 0.055024121256062118 0 8.4974333847295138e-09 0.055000153501397205 0 -2.9068077144984584e-05 0.055024121256062118 0 -3.1199062465756683e-08 0.054999981368639338 0 -5.9907271251438758e-05 0.054971193769380602 0 -2.9068077144984584e-05 0.055024121256062118 0 -3.1199062465756683e-08 0.054999981368639338 0 -2.0120084541270645e-05 0.054987575617660364 0 3.2176710236764996e-08 0.054999903185261372 0 -2.6770820958715138e-05 0.054904672382186867 0 2.5370277579094323e-07 0.054999358825511852 0 9.5741754763705261e-05 0.054658710609417391 0 -2.0120084541270645e-05 0.054987575617660364 0 -5.846585199224206e-05 0.05487994839504997 0 -2.6770820958715138e-05 0.054904672382186867 0 -1.7908405283416784e-05 0.054940058853432422 0 -6.1776919503748613e-05 0.054923108916061926 0 -5.846585199224206e-05 0.05487994839504997 0 -1.7908405283416784e-05 0.054940058853432422 0 -6.1776919503748613e-05 0.054923108916061926 0 -4.5199745317828531e-05 0.054957708177763777 0 -2.251752569330832e-05 0.054965214131978093 0 -3.6811829022885548e-05 0.054943664146644311 0 -1.7908405283416784e-05 0.054940058853432422 0 -4.5199745317828531e-05 0.054957708177763777 0 -2.6059603167680965e-05 0.054990516903274271 0 -4.5199745317828531e-05 0.054957708177763777 0 -2.6059603167680965e-05 0.054990516903274271 0 -7.5232246683092058e-05 0.055003443765187364 0 -1.7908405283416784e-05 0.054940058853432422 0 8.9027878683586067e-09 0.054999915685094887 0 -2.6059603167680965e-05 0.054990516903274271 0 -2.251752569330832e-05 0.054965214131978093 0 -2.4470011422923902e-08 0.054999950270152261 0 -2.0120084541270645e-05 0.054987575617660364 0 3.2176710236764996e-08 0.054999903185261372 0 -1.9658827315620559e-08 0.055000058846152243 0 -1.4630258354715399e-08 0.055000035207400905 0 -2.1074622968739025e-05 0.055010864129200941 0 -2.6059603167680965e-05 0.054990516903274271 0 8.9027878683586067e-09 0.054999915685094887 0 -1.4630258354715399e-08 0.055000035207400905 0 -2.6059603167680965e-05 0.054990516903274271 0 3.9389297544920032e-09 0.055000001033885054 0 -1.4630258354715399e-08 0.055000035207400905 0 -2.1074622968739025e-05 0.055010864129200941 0 -2.1074622968739025e-05 0.055010864129200941 0 -2.6059603167680965e-05 0.054990516903274271 0 -7.5232246683092058e-05 0.055003443765187364 0 -8.1734844148533952e-05 0.054496636690775757 0 -0.00017496383904267427 0.053950094214986269 0 -0.00026404880198524646 0.053313628173902103 0 -0.00032867377550859243 0.054128965207315458 0 -0.00087336959993002984 0.053536087163253678 0 9.5496506094231825e-05 0.054279901430827587 0 -0.00026404880198524646 0.053313628173902103 0 -0.00032867377550859243 0.054128965207315458 0 -0.00025988326430110073 0.054617213307729534 0 9.5496506094231825e-05 0.054279901430827587 0 -0.00032867377550859243 0.054128965207315458 0 -0.00032867377550859243 0.054128965207315458 0 -0.0010766757773368076 0.05409888292169357 0 -0.00087336959993002984 0.053536087163253678 0 -0.00026404880198524646 0.053313628173902103 0 -0.00087336959993002984 0.053536087163253678 0 -0.0009201249748481753 0.052364704245240416 0 -0.00017496383904267427 0.053950094214986269 0 -0.00027932456139969085 0.053254760240326875 0 -4.5199745317828531e-05 0.054957708177763777 0 -7.5232246683092058e-05 0.055003443765187364 0 -8.5884690049674702e-05 0.054946350385149091 0 -7.5232246683092058e-05 0.055003443765187364 0 -0.00016193591065271471 0.054956263356749649 0 -8.5884690049674702e-05 0.054946350385149091 0 -6.1776919503748613e-05 0.054923108916061926 0 -4.5199745317828531e-05 0.054957708177763777 0 -8.5884690049674702e-05 0.054946350385149091 0 -6.1776919503748613e-05 0.054923108916061926 0 -8.5884690049674702e-05 0.054946350385149091 0 -0.00011675750783535868 0.054888878312944311 0 -6.1776919503748613e-05 0.054923108916061926 0 -0.00011675750783535868 0.054888878312944311 0 -5.846585199224206e-05 0.05487994839504997 0 -0.00016193591065271471 0.054956263356749649 0 -8.5884690049674702e-05 0.054946350385149091 0 -0.00011675750783535868 0.054888878312944311 0 -0.00016193591065271471 0.054956263356749649 0 -0.00011675750783535868 0.054888878312944311 0 -0.00025998112073381607 0.054875503872863191 0 -0.0009201249748481753 0.052364704245240416 0 -0.0015684147442802936 0.051568901937249896 0 -0.0018103083438495921 0.052335816767698169 0 -0.00027932456139969085 0.053254760240326875 0 -0.0002788515807558335 0.052254839196456918 0 -0.0015684147442802936 0.051568901937249896 0 -0.0018103083438495921 0.052335816767698169 0 -0.0021189519229357742 0.051748628626448308 0 -0.0009201249748481753 0.052364704245240416 0 -0.0018103083438495921 0.052335816767698169 0 -0.0015599984704038913 0.053182973299693993 0 -0.0013104973038292091 0.052540421818931891 0 -0.0016440789696481957 0.052331225194974684 0 -0.00087336959993002984 0.053536087163253678 0 -0.0009201249748481753 0.052364704245240416 0 -0.0015599984704038913 0.053182973299693993 0 -0.0010766757773368076 0.05409888292169357 0 -0.00087336959993002984 0.053536087163253678 0 -0.0016646777251768607 0.0534620560999952 0 -0.0016095639425910714 0.054353129082394216 0 -0.0010766757773368076 0.05409888292169357 0 -0.0016646777251768607 0.0534620560999952 0 -0.0016095639425910714 0.054353129082394216 0 -0.0016646777251768607 0.0534620560999952 0 -0.0021429884909713046 0.053941794330915956 0 -0.0016440789696481957 0.052331225194974684 0 -0.0023530353736107975 0.051706059946871365 0 -0.0016646777251768607 0.0534620560999952 0 -0.0021429884909713046 0.053941794330915956 0 -0.0024242718931059741 0.053363802008093549 0 -0.0018103083438495921 0.052335816767698169 0 -0.0015599984704038913 0.053182973299693993 0 -0.0021894351607129438 0.052924633923032989 0 -0.0024242718931059741 0.053363802008093549 0 -0.0028417352046968764 0.053588864856514519 0 -0.0032336095451093714 0.053313535130856585 0 -0.0021894351607129438 0.052924633923032989 0 -0.0030105156476045161 0.052853907261736187 0 -0.0024313623142057056 0.052171791640507288 0 -0.0023530353736107975 0.051706059946871365 0 -0.0033313475649597688 0.05048386648313051 0 -0.0021429884909713046 0.053941794330915956 0 -0.0024242718931059741 0.053363802008093549 0 -0.0028417352046968764 0.053588864856514519 0 -0.0021429884909713046 0.053941794330915956 0 -0.0028417352046968764 0.053588864856514519 0 -0.002729788432866526 0.054140010228909213 0 -0.0020478637780486256 0.047373050115887043 0 -0.002647540616646953 0.047245444594595142 0 -0.0025972484455220723 0.046496467635912357 0 -0.0028417352046968764 0.053588864856514519 0 -0.002729788432866526 0.054140010228909213 0 -0.0032336095451093714 0.053313535130856585 0 -0.0025784352927029144 0.0509428138500089 0 -0.0033313475649597688 0.05048386648313051 0 -0.002647540616646953 0.047245444594595142 0 -0.0025972484455220723 0.046496467635912357 0 -0.0032885624463428634 0.047345730153679197 0 -0.00399948195533206 0.048047216346107612 0 -0.0040026110825613281 0.048040541910387778 0 -0.0040521409609571082 0.048073021357450604 0 -0.0029777532811697447 0.053087529073215033 0 -0.0030430758013914286 0.053009585435732705 0 -0.0029780636691258337 0.052577361107516749 0 -0.0033313475649597688 0.05048386648313051 0 -0.0035226332074465177 0.050264114567246991 0 -0.0030430758013914286 0.053009585435732705 0 -0.0029780636691258337 0.052577361107516749 0 -0.004020195516697446 0.051695379960002459 0 -0.0033313475649597688 0.05048386648313051 0 -0.0034534231887088929 0.051117493044449999 0 -0.0029777532811697447 0.053087529073215033 0 -0.0029780636691258337 0.052577361107516749 0 -0.0024313623142057056 0.052171791640507288 0 -0.0029635308764208641 0.052045873445322299 0 -0.0028364626404400596 0.051611638139399139 0 -0.004020195516697446 0.051695379960002459 0 -0.0029780636691258337 0.052577361107516749 0 -0.0029635308764208641 0.052045873445322299 0 -0.004020195516697446 0.051695379960002459 0 -0.0024313623142057056 0.052171791640507288 0 -0.0024828786253697937 0.051719452517324939 0 -0.0028364626404400596 0.051611638139399139 0 -0.0029635308764208641 0.052045873445322299 0 -0.0024313623142057056 0.052171791640507288 0 -0.0028364626404400596 0.051611638139399139 0 -0.0029780636691258337 0.052577361107516749 0 -0.0029635308764208641 0.052045873445322299 0 -0.0024313623142057056 0.052171791640507288 0 -0.0018103083438495921 0.052335816767698169 0 -0.0021894351607129438 0.052924633923032989 0 -0.0024313623142057056 0.052171791640507288 0 -0.0018103083438495921 0.052335816767698169 0 -0.0024313623142057056 0.052171791640507288 0 -0.0021189519229357742 0.051748628626448308 0 -0.0024313623142057056 0.052171791640507288 0 -0.0024828786253697937 0.051719452517324939 0 -0.0021189519229357742 0.051748628626448308 0 -0.0024828786253697937 0.051719452517324939 0 -0.0021189519229357742 0.051748628626448308 0 -0.0025178176706055749 0.051427989195070641 0 -0.0015061180628529697 0.05124850979233081 0 -0.0011439725175067562 0.050933971351718052 0 -0.0028364626404400596 0.051611638139399139 0 -0.0017300164707745069 0.050066489737078529 0 -0.0036126579097617954 0.050049140614830831 0 -0.0024828786253697937 0.051719452517324939 0 -0.0028364626404400596 0.051611638139399139 0 -0.0025178176706055749 0.051427989195070641 0 -0.0032269790639225353 0.049095831690539125 0 -0.0023590144576566821 0.048595758855681931 0 -0.0039150493738224898 0.048416595124202322 0 -0.0032269790639225353 0.049095831690539125 0 -0.0017300164707745069 0.050066489737078529 0 -0.0023590144576566821 0.048595758855681931 0 -0.0032269790639225353 0.049095831690539125 0 -0.0017300164707745069 0.050066489737078529 0 -0.0036126579097617954 0.050049140614830831 0 -0.0021189519229357742 0.051748628626448308 0 -0.0025178176706055749 0.051427989195070641 0 -0.0021961187185249448 0.050968596231138107 0 -0.0017300164707745069 0.050066489737078529 0 -0.00077305629760612154 0.048692523827400615 0 -0.0023590144576566821 0.048595758855681931 0 -0.0011439725175067562 0.050933971351718052 0 -0.00026065127234180306 0.050315620876312146 0 -0.00026065127234180306 0.050315620876312146 0 -0.00020277850977564566 0.045182112797699743 0 0.0010027289327151261 0.047739584156869061 0 -0.00037583574641100877 0.046461812656990627 0 0.00085944717325051186 0.046457970292209473 0 -0.0023590144576566821 0.048595758855681931 0 -0.0026061329357875526 0.04699180412992443 0 -0.0039150493738224898 0.048416595124202322 0 -0.00077305629760612154 0.048692523827400615 0 -0.0023590144576566821 0.048595758855681931 0 -0.0026061329357875526 0.04699180412992443 0 -0.00037583574641100877 0.046461812656990627 0 -0.00065467257272439809 0.045348566295698008 0 0.00045933764716348039 0.045282833428056099 0 -0.0011572128945699688 0.044343368062150806 0 -0.00065467257272439809 0.045348566295698008 0 0.00045933764716348039 0.045282833428056099 0 0.00023579120485533783 0.042244597552832337 0 0.00068921757831506717 0.047834816847138084 0 -0.00018141781643994784 0.054811300323437888 0 -0.00017196421945042849 0.054830707326555102 0 -0.00017002060487326544 0.054844272276601762 0 -0.00016214580153399503 0.054843459374231213 0 -0.00017002060487326544 0.054844272276601762 0 -0.00015395417706497681 0.054860221047313744 0 -0.00017196421945042849 0.054830707326555102 0 -0.00016214580153399503 0.054843459374231213 0 -0.00017002060487326544 0.054844272276601762 0 0.00045933764716348039 0.045282833428056099 0 0.00085944717325051186 0.046457970292209473 0 0.0020676075366066649 0.046216205080285587 0 -0.00037583574641100877 0.046461812656990627 0 0.00045933764716348039 0.045282833428056099 0 0.00085944717325051186 0.046457970292209473 0 0.00068921757831506717 0.047834816847138084 0 -0.00024952254874661316 0.050988455356734012 0 -0.00017002060487326544 0.054844272276601762 0 -0.00014966997415614069 0.054870756375750222 0 -0.00015395417706497681 0.054860221047313744 0 -0.00014966997415614069 0.054870756375750222 0 -0.00015395417706497681 0.054860221047313744 0 -0.00013680153824187783 0.054879402992379471 0 -0.00014318091190497115 0.054839536136729185 0 -0.00015395417706497681 0.054860221047313744 0 -0.00013680153824187783 0.054879402992379471 0 -0.00024952254874661316 0.050988455356734012 0 0.00027710103769324694 0.053192231452252839 0 -0.00017028395219998666 0.054927143357227287 0 -0.0001027542133083243 0.054971481733421569 0 -0.00010145685377691478 0.054925534407432662 0 -0.00017028395219998666 0.054927143357227287 0 -0.00013680153824187783 0.054879402992379471 0 -0.00010145685377691478 0.054925534407432662 0 -0.00024952254874661316 0.050988455356734012 0 -0.000690279705005221 0.052069246962413676 0 -0.00028424419335030198 0.054665229585830213 0 -0.00026093320171517075 0.054770912387222793 0 -0.00018127699991450527 0.054737218376215556 0 -0.00026093320171517075 0.054770912387222793 0 -0.00018164093577979008 0.05481719731718409 0 -0.00018127699991450527 0.054737218376215556 0 -0.00026065127234180306 0.050315620876312146 0 -0.00024952254874661316 0.050988455356734012 0 0.0010027289327151261 0.047739584156869061 0 0.00085944717325051186 0.046457970292209473 0 0.0020676075366066649 0.046216205080285587 0 -0.00036379255561057896 0.054778214696478943 0 -0.00028424419335030198 0.054665229585830213 0 -0.00026093320171517075 0.054770912387222793 0 -0.0015684147442802936 0.051568901937249896 0 -0.0021189519229357742 0.051748628626448308 0 -0.0021961187185249448 0.050968596231138107 0 -0.0002788515807558335 0.052254839196456918 0 -0.00026065127234180306 0.050315620876312146 0 -0.00025998112073381607 0.054875503872863191 0 -0.00036379255561057896 0.054778214696478943 0 -0.00026093320171517075 0.054770912387222793 0 -0.00025998112073381607 0.054875503872863191 0 -0.00026093320171517075 0.054770912387222793 0 -0.00018164093577979008 0.05481719731718409 0 -0.00011675750783535868 0.054888878312944311 0 -0.00025998112073381607 0.054875503872863191 0 -0.00018164093577979008 0.05481719731718409 0 -0.00011675750783535868 0.054888878312944311 0 -0.00018164093577979008 0.05481719731718409 0 -9.138156372743249e-05 0.054816371468887556 0 -0.00011675750783535868 0.054888878312944311 0 -9.138156372743249e-05 0.054816371468887556 0 -5.846585199224206e-05 0.05487994839504997 0 -4.7053325810939288e-05 0.05500058857570498 0 -5.7602740699980478e-05 0.054948987644425025 0 -1.5311804444618933e-05 0.054982457032027865 0 0.0002136164102993143 0.054157559395464731 0 0.00027710103769324694 0.053192231452252839 0 -0.00018164093577979008 0.05481719731718409 0 -9.138156372743249e-05 0.054816371468887556 0 -0.00018127699991450527 0.054737218376215556 0 -4.7053325810939288e-05 0.05500058857570498 0 -0.0001027542133083243 0.054971481733421569 0 -5.7602740699980478e-05 0.054948987644425025 0 -0.0001027542133083243 0.054971481733421569 0 -0.00010145685377691478 0.054925534407432662 0 -5.7602740699980478e-05 0.054948987644425025 0 -8.0146286231131829e-05 0.05487182773457653 0 -0.00013680153824187783 0.054879402992379471 0 -0.00010145685377691478 0.054925534407432662 0 -8.0146286231131829e-05 0.05487182773457653 0 -0.00010145685377691478 0.054925534407432662 0 -5.7602740699980478e-05 0.054948987644425025 0 -6.3443215214849315e-05 0.054920331162168767 0 -3.054915718356969e-05 0.054944759746372057 0 -8.0146286231131829e-05 0.05487182773457653 0 -5.7602740699980478e-05 0.054948987644425025 0 -2.1904328341770929e-05 0.054930695888165092 0 -5.7602740699980478e-05 0.054948987644425025 0 -2.1904328341770929e-05 0.054930695888165092 0 -1.5311804444618933e-05 0.054982457032027865 0 -2.1904328341770929e-05 0.054930695888165092 0 8.920133300610487e-07 0.054996792685171783 0 -1.5311804444618933e-05 0.054982457032027865 0 9.3255678642901281e-09 0.054999970794197182 0 4.0295712353684503e-07 0.054993333540165834 0 3.6224681380741724e-09 0.054999952875433453 0 -4.9204715309446124e-06 0.054990826286889928 0 4.0295712353684503e-07 0.054993333540165834 0 8.920133300610487e-07 0.054996792685171783 0 -3.054915718356969e-05 0.054944759746372057 0 -1.7660173806644201e-05 0.05495607750422362 0 4.0295712353684503e-07 0.054993333540165834 0 8.920133300610487e-07 0.054996792685171783 0 3.6224681380741724e-09 0.054999952875433453 0 8.920133300610487e-07 0.054996792685171783 0 3.6224681380741724e-09 0.054999952875433453 0 -2.0745571570601071e-09 0.054999990006903872 0 8.920133300610487e-07 0.054996792685171783 0 -2.0745571570601071e-09 0.054999990006903872 0 -1.5311804444618933e-05 0.054982457032027865 0 -2.0745571570601071e-09 0.054999990006903872 0 -1.5311804444618933e-05 0.054982457032027865 0 -1.2233195500136502e-05 0.055007509933253325 0 -4.7053325810939288e-05 0.05500058857570498 0 -1.5311804444618933e-05 0.054982457032027865 0 -1.2233195500136502e-05 0.055007509933253325 0 -9.138156372743249e-05 0.054816371468887556 0 -5.846585199224206e-05 0.05487994839504997 0 -2.6770820958715138e-05 0.054904672382186867 0 0.0002136164102993143 0.054157559395464731 0 9.5741754763705261e-05 0.054658710609417391 0 -6.5824704570875598e-09 0.055000023327858631 0 -2.0745571570601071e-09 0.054999990006903872 0 -1.2233195500136502e-05 0.055007509933253325 0 0.0013804571630361029 0.0311458015732545 0 0.0041374663643430204 0.03058188256069835 0 0.0042599407830535216 0.034385965275263233 0 0.0013804571630361029 0.0311458015732545 0 -0.00051985246179134964 0.034364627054118239 0 0.0042599407830535216 0.034385965275263233 0 0.0041374663643430204 0.03058188256069835 0 0.0042599407830535216 0.034385965275263233 0 0.0069629005213027962 0.030400536923260328 0 -0.00058857053038932009 0.040979886233144427 0 0.00037695085150497474 0.038620020692805783 0 0.0041374663643430204 0.03058188256069835 0 0.0069629005213027962 0.030400536923260328 0 0.0054979627811076901 0.027609346690617743 0 0.0041374663643430204 0.03058188256069835 0 0.0030574525592676058 0.02945904685789762 0 0.0054979627811076901 0.027609346690617743 0 0.0030574525592676058 0.02945904685789762 0 0.0011891351913159395 0.028532723499812365 0 0.0054979627811076901 0.027609346690617743 0 0.0013804571630361029 0.0311458015732545 0 0.0041374663643430204 0.03058188256069835 0 0.0030574525592676058 0.02945904685789762 0 0.0013804571630361029 0.0311458015732545 0 0.0030574525592676058 0.02945904685789762 0 0.0011891351913159395 0.028532723499812365 0 0.001477393292305568 0.030314455495456347 0 -0.00026672921362029105 0.030312242964479381 0 0.0013804571630361029 0.0311458015732545 0 0.0011891351913159395 0.028532723499812365 0 -0.0032020333634012999 0.029425320458170822 0 -0.0032020333634012999 0.029425320458170822 0 -0.00051985246179134964 0.034364627054118239 0 -0.0049286870188222252 0.034520968566574502 0 0.0013804571630361029 0.0311458015732545 0 -0.0032020333634012999 0.029425320458170822 0 -0.00051985246179134964 0.034364627054118239 0 -0.00051985246179134964 0.034364627054118239 0 -0.0023914032913355848 0.038039018764532112 0 0.0013874265363614834 0.038582265366178377 0 -0.00051985246179134964 0.034364627054118239 0 -0.0049286870188222252 0.034520968566574502 0 -0.0023914032913355848 0.038039018764532112 0 -0.0022065851520129344 0.042677390810336294 0 -0.0023914032913355848 0.038039018764532112 0 -0.005851085730495093 0.039032475109997376 0 -0.0049286870188222252 0.034520968566574502 0 -0.0023914032913355848 0.038039018764532112 0 -0.005851085730495093 0.039032475109997376 0 -0.0022065851520129344 0.042677390810336294 0 -0.0023914032913355848 0.038039018764532112 0 0.0013874265363614834 0.038582265366178377 0 -0.0045423990826897178 0.048036974260826273 0 -0.0044994767064085346 0.047887634404377551 0 -0.0043048038158268681 0.047979606893954821 0 -0.0044994767064085346 0.047887634404377551 0 -0.0041545995037113358 0.048016074588275767 0 -0.0043048038158268681 0.047979606893954821 0 -0.0019403887010453545 0.043173068632102525 0 -0.00058857053038932009 0.040979886233144427 0 -0.00051985246179134964 0.034364627054118239 0 0.0013874265363614834 0.038582265366178377 0 0.0042599407830535216 0.034385965275263233 0 -0.0041545995037113358 0.048016074588275767 0 -0.0043048038158268681 0.047979606893954821 0 -0.004234409913511275 0.048023789950046199 0 -0.0043048038158268681 0.047979606893954821 0 -0.0041982887758812548 0.048088466988589929 0 -0.004234409913511275 0.048023789950046199 0 -0.0041982887758812548 0.048088466988589929 0 -0.004234409913511275 0.048023789950046199 0 -0.0041604720084987314 0.048088800629018366 0 -0.0043346061026098013 0.048064513742939415 0 -0.004234409913511275 0.048023789950046199 0 -0.0041604720084987314 0.048088800629018366 0 -0.0043346061026098013 0.048064513742939415 0 -0.004234409913511275 0.048023789950046199 0 -0.0042432185364875245 0.048239266383880548 0 -0.0041545995037113358 0.048016074588275767 0 -0.004234409913511275 0.048023789950046199 0 -0.0042432185364875245 0.048239266383880548 0 -0.0033313475649597688 0.05048386648313051 0 -0.0031043589448710072 0.048692496316367739 0 -0.00399948195533206 0.048047216346107612 0 -0.0040535259866423604 0.048132271327369094 0 -0.0040521409609571082 0.048073021357450604 0 -0.0040535259866423604 0.048132271327369094 0 -0.0041604720084987314 0.048088800629018366 0 -0.0040521409609571082 0.048073021357450604 0 -0.0041604720084987314 0.048088800629018366 0 -0.0041103845337691824 0.048026984259170735 0 -0.0040521409609571082 0.048073021357450604 0 -0.0043346061026098013 0.048064513742939415 0 -0.0041604720084987314 0.048088800629018366 0 -0.0041103845337691824 0.048026984259170735 0 -0.004459015156158202 0.049107847953405226 0 -0.0043848625373678158 0.049349082540102888 0 -0.0035226332074465177 0.050264114567246991 0 -0.0043848625373678158 0.049349082540102888 0 -0.0040026110825613281 0.048040541910387778 0 -0.0041103845337691824 0.048026984259170735 0 -0.0040521409609571082 0.048073021357450604 0 -0.0058338573925018162 0.047841347313812822 0 -0.0051098202957944169 0.04792578171803584 0 -0.0054302943207011128 0.048527155113777885 0 -0.0035226332074465177 0.050264114567246991 0 -0.0041875253691925586 0.049897310301713224 0 -0.0043346061026098013 0.048064513742939415 0 -0.0051098202957944169 0.04792578171803584 0 -0.004731299224726284 0.048350237516243504 0 -0.0054302943207011128 0.048527155113777885 0 -0.004731299224726284 0.048350237516243504 0 -0.0049677645577016188 0.048750366068341426 0 -0.0051098202957944169 0.04792578171803584 0 -0.0054302943207011128 0.048527155113777885 0 -0.004731299224726284 0.048350237516243504 0 -0.0054302943207011128 0.048527155113777885 0 -0.0049677645577016188 0.048750366068341426 0 -0.0049691782825343747 0.049339011713299297 0 -0.004731299224726284 0.048350237516243504 0 -0.0049677645577016188 0.048750366068341426 0 -0.0045681799704646014 0.048663916965915835 0 -0.0048375537552770237 0.049017762974951036 0 -0.0049677645577016188 0.048750366068341426 0 -0.0045681799704646014 0.048663916965915835 0 -0.0048375537552770237 0.049017762974951036 0 -0.0049677645577016188 0.048750366068341426 0 -0.0049691782825343747 0.049339011713299297 0 -0.0041875253691925586 0.049897310301713224 0 -0.0044258347702884043 0.049686476288769085 0 -0.0028364626404400596 0.051611638139399139 0 -0.004020195516697446 0.051695379960002459 0 -0.0036126579097617954 0.050049140614830831 0 -0.004020195516697446 0.051695379960002459 0 -0.0036126579097617954 0.050049140614830831 0 -0.0049691782825343747 0.049339011713299297 0 -0.0041545995037113358 0.048016074588275767 0 -0.0042432185364875245 0.048239266383880548 0 -0.0040643830943695967 0.048487774073924593 0 -0.0043346061026098013 0.048064513742939415 0 -0.004731299224726284 0.048350237516243504 0 -0.0042432185364875245 0.048239266383880548 0 -0.004731299224726284 0.048350237516243504 0 -0.0042432185364875245 0.048239266383880548 0 -0.0045681799704646014 0.048663916965915835 0 -0.0045681799704646014 0.048663916965915835 0 -0.0040643830943695967 0.048487774073924593 0 -0.0044596732858263105 0.049224722566598253 0 -0.0048375537552770237 0.049017762974951036 0 -0.0045681799704646014 0.048663916965915835 0 -0.0047126704080930094 0.049040655138694475 0 0.00037695085150497474 0.038620020692805783 0 0.0010344075527940729 0.035234767215135444 0 -0.0042432185364875245 0.048239266383880548 0 -0.0045681799704646014 0.048663916965915835 0 -0.0040643830943695967 0.048487774073924593 0 0.0010344075527940729 0.035234767215135444 0 0.0034423000019299307 0.031328746080478614 0 0.0046634429037679566 0.027341192178576251 0 0.0038000846506081663 0.026861968751533422 0 0.0032620430185588208 0.027693229610788989 0 0.0069629005213027962 0.030400536923260328 0 0.0096195844255012944 0.026647227831877535 0 0.0054979627811076901 0.027609346690617743 0 0.0010344075527940729 0.035234767215135444 0 -0.00083476590120266296 0.036666717988923285 0 -0.0045681799704646014 0.048663916965915835 0 -0.0047126704080930094 0.049040655138694475 0 -0.0044596732858263105 0.049224722566598253 0 -0.0047126704080930094 0.049040655138694475 0 -0.0044596732858263105 0.049224722566598253 0 -0.0049076757567667832 0.049204845238346506 0 0.0010096129602718217 0.036061269594308852 0 0.00092467420670798862 0.036177056048901389 0 0.00080605852680945013 0.036109748757491213 0 0.0046634429037679566 0.027341192178576251 0 0.0051769096477390494 0.026635365611664855 0 0.0038000846506081663 0.026861968751533422 0 0.0014654057997338238 0.03513036483468944 0 0.0015916307044307337 0.030757051904405051 0 0.0047102233244247045 0.026508319122583786 0 0.0037084414011927264 0.025898147418966937 0 0.0045032808957941534 0.025696438567498328 0 0.0010344075527940729 0.035234767215135444 0 0.0014654057997338238 0.03513036483468944 0 0.0051769096477390494 0.026635365611664855 0 0.0038000846506081663 0.026861968751533422 0 0.0040833007648039621 0.025964245460839756 0 0.0038000846506081663 0.026861968751533422 0 0.0040833007648039621 0.025964245460839756 0 0.0031933989172808299 0.026218135255121292 0 -0.0036126579097617954 0.050049140614830831 0 -0.0042935613373249297 0.049226112046525376 0 -0.0049691782825343747 0.049339011713299297 0 -0.0032269790639225353 0.049095831690539125 0 -0.0042935613373249297 0.049226112046525376 0 -0.0039150493738224898 0.048416595124202322 0 -0.0032269790639225353 0.049095831690539125 0 -0.0036126579097617954 0.050049140614830831 0 -0.0042935613373249297 0.049226112046525376 0 -0.0042935613373249297 0.049226112046525376 0 -0.0049159322869407321 0.049061179886349837 0 -0.0039150493738224898 0.048416595124202322 0 -0.0044596732858263105 0.049224722566598253 0 -0.004933517070757132 0.049158689449981322 0 -0.0049076757567667832 0.049204845238346506 0 -0.0042935613373249297 0.049226112046525376 0 -0.0047030100664035429 0.049211783606270564 0 -0.0049159322869407321 0.049061179886349837 0 -0.0047030100664035429 0.049211783606270564 0 -0.0049159322869407321 0.049061179886349837 0 -0.0049076757567667832 0.049204845238346506 0 -0.0049159322869407321 0.049061179886349837 0 -0.004933517070757132 0.049158689449981322 0 -0.0049076757567667832 0.049204845238346506 0 -0.00082685466845113117 0.036704373564699473 0 -0.00083476590120266296 0.036666717988923285 0 -0.0042935613373249297 0.049226112046525376 0 -0.0047030100664035429 0.049211783606270564 0 -0.0049691782825343747 0.049339011713299297 0 -0.0047030100664035429 0.049211783606270564 0 -0.0049691782825343747 0.049339011713299297 0 -0.0049076757567667832 0.049204845238346506 0 -0.0048375537552770237 0.049017762974951036 0 -0.0049691782825343747 0.049339011713299297 0 -0.0049076757567667832 0.049204845238346506 0 -0.0048375537552770237 0.049017762974951036 0 -0.0047126704080930094 0.049040655138694475 0 -0.0049076757567667832 0.049204845238346506 0 -0.0049159322869407321 0.049061179886349837 0 -0.0050636059033780092 0.048992454949370767 0 -0.0039150493738224898 0.048416595124202322 0 0.0014654057997338238 0.03513036483468944 0 -0.00083476590120266296 0.036666717988923285 0 -0.0064124319344129339 0.048079230707032933 0 -0.0053679146150812764 0.048702042958038129 0 -0.0054637968459149535 0.04801413466053666 0 -0.0064124319344129339 0.048079230707032933 0 -0.0054637968459149535 0.04801413466053666 0 -0.0052017878701174991 0.047311462542582741 0 -0.0064124319344129339 0.048079230707032933 0 -0.0052017878701174991 0.047311462542582741 0 -0.0054350003948395583 0.046710094949126431 0 0.0014654057997338238 0.03513036483468944 0 0.0012034242156724784 0.035482373431417635 0 -0.0054637968459149535 0.04801413466053666 0 -0.0052017878701174991 0.047311462542582741 0 -0.0048721549399599598 0.047957650976985351 0 -0.0053679146150812764 0.048702042958038129 0 -0.0054637968459149535 0.04801413466053666 0 -0.0048721549399599598 0.047957650976985351 0 -0.0026061329357875526 0.04699180412992443 0 -0.0041602042420178752 0.047447187851399071 0 -0.0039150493738224898 0.048416595124202322 0 -0.0053679146150812764 0.048702042958038129 0 -0.0048721549399599598 0.047957650976985351 0 -0.0039150493738224898 0.048416595124202322 0 -0.00083476590120266296 0.036666717988923285 0 -0.0026046017081616021 0.038241414809528342 0 -0.0048721549399599598 0.047957650976985351 0 -0.0041602042420178752 0.047447187851399071 0 -0.0039150493738224898 0.048416595124202322 0 -0.0052017878701174991 0.047311462542582741 0 -0.0048721549399599598 0.047957650976985351 0 -0.0041602042420178752 0.047447187851399071 0 -0.00020277850977564566 0.045182112797699743 0 0.00048049204728078894 0.038823713248915537 0 -0.0026061329357875526 0.04699180412992443 0 -0.0041837120835855916 0.046553540805928967 0 -0.0044288638400441852 0.045286231485464117 0 -0.0026061329357875526 0.04699180412992443 0 -0.0041602042420178752 0.047447187851399071 0 -0.0041837120835855916 0.046553540805928967 0 -0.00037583574641100877 0.046461812656990627 0 -0.00065467257272439809 0.045348566295698008 0 -0.0017599151786531749 0.04517583080535445 0 -0.0052017878701174991 0.047311462542582741 0 -0.0041602042420178752 0.047447187851399071 0 -0.0041837120835855916 0.046553540805928967 0 -0.0041837120835855916 0.046553540805928967 0 -0.0054450850722280696 0.046701668180228924 0 -0.0044288638400441852 0.045286231485464117 0 0.0012034242156724784 0.035482373431417635 0 0.0014769792997267053 0.030521198747213377 0 0.0053248518635043264 0.025654993750849474 0 0.0049275145089134782 0.024646526432366117 0 0.0045032808957941534 0.025696438567498328 0 0.0012034242156724784 0.035482373431417635 0 0.00048049204728078894 0.038823713248915537 0 -0.0052017878701174991 0.047311462542582741 0 -0.0041837120835855916 0.046553540805928967 0 -0.0054450850722280696 0.046701668180228924 0 0.0012512467895693037 0.036161182569061749 0 0.0012034242156724784 0.035482373431417635 0 0.0012190949176772558 0.027903191601771512 0 0.00048049204728078894 0.038823713248915537 0 0.00069569349228058895 0.031155372674601663 0 0.001101476893536251 0.033501312681672731 0 0.0035894970060003774 0.033829847216709771 0 0.0020753155019771008 0.035929469169160753 0 0.001101476893536251 0.033501312681672731 0 0.0035894970060003774 0.033829847216709771 0 -0.0011572128945699688 0.044343368062150806 0 -0.00065467257272439809 0.045348566295698008 0 -0.0017599151786531749 0.04517583080535445 0 0.001980681913796412 0.033212685635128948 0 0.0038951092116643001 0.033945780746524511 0 0.0025941227978333011 0.035747461608800539 0 0.00023579120485533783 0.042244597552832337 0 0.00048049204728078894 0.038823713248915537 0 0.0015916307044307337 0.030757051904405051 0 0.0014121521406082723 0.028509579947530752 0 0.0037084414011927264 0.025898147418966937 0 0.003369582518263171 0.025028145157122848 0 0.0027189981956542196 0.025284146040589272 0 0.0037084414011927264 0.025898147418966937 0 0.0040986602305748202 0.02502528434392283 0 0.003369582518263171 0.025028145157122848 0 0.0037084414011927264 0.025898147418966937 0 0.0045032808957941534 0.025696438567498328 0 0.0040986602305748202 0.02502528434392283 0 0.0049275145089134782 0.024646526432366117 0 0.0045032808957941534 0.025696438567498328 0 0.0040986602305748202 0.02502528434392283 0 0.0047102233244247045 0.026508319122583786 0 0.0053248518635043264 0.025654993750849474 0 0.0045032808957941534 0.025696438567498328 0 0.0049275145089134782 0.024646526432366117 0 0.0040986602305748202 0.02502528434392283 0 0.004324303308584871 0.024410954488276564 0 0.0045300505807951376 0.023650486005586495 0 0.0049275145089134782 0.024646526432366117 0 0.004324303308584871 0.024410954488276564 0 0.0040986602305748202 0.02502528434392283 0 0.004324303308584871 0.024410954488276564 0 0.0036941075355260856 0.024314504135999223 0 0.0036941075355260856 0.024314504135999223 0 0.003369582518263171 0.025028145157122848 0 0.0025001328681081556 0.024298823157929132 0 0.0040986602305748202 0.02502528434392283 0 0.0036941075355260856 0.024314504135999223 0 0.003369582518263171 0.025028145157122848 0 0.0025001328681081556 0.024298823157929132 0 0.0017498020980907267 0.02467371997457659 0 0.0027189981956542196 0.025284146040589272 0 0.003369582518263171 0.025028145157122848 0 0.0025001328681081556 0.024298823157929132 0 0.0027189981956542196 0.025284146040589272 0 0.0014079750148474636 0.024049503199936696 0 0.0025001328681081556 0.024298823157929132 0 0.0017498020980907267 0.02467371997457659 0 0.0011902554297764198 0.027745147494342832 0 0.0014121521406082723 0.028509579947530752 0 0.0017498020980907267 0.02467371997457659 0 0.002908500472643908 0.025293267494654128 0 0.0012030124701739842 0.026149164043355357 0 0.0040833007648039621 0.025964245460839756 0 0.002908500472643908 0.025293267494654128 0 0.0031933989172808299 0.026218135255121292 0 0.002908500472643908 0.025293267494654128 0 0.0031933989172808299 0.026218135255121292 0 0.0023192229142408164 0.026748555397983674 0 0.0038000846506081663 0.026861968751533422 0 0.0031933989172808299 0.026218135255121292 0 0.0023192229142408164 0.026748555397983674 0 0.002908500472643908 0.025293267494654128 0 0.0023192229142408164 0.026748555397983674 0 0.0012030124701739842 0.026149164043355357 0 0.0023192229142408164 0.026748555397983674 0 0.0017838047228419195 0.02796014131990255 0 0.0012030124701739842 0.026149164043355357 0 0.001477393292305568 0.030314455495456347 0 0.0034423000019299307 0.031328746080478614 0 0.0011068383272868968 0.025963922956866906 0 0.00036967038776874149 0.02401438877540488 0 0.0014677635937835694 0.028139572052983279 0 0.0017838047228419195 0.02796014131990255 0 0.0032620430185588208 0.027693229610788989 0 0.0023192229142408164 0.026748555397983674 0 0.0017838047228419195 0.02796014131990255 0 0.0032620430185588208 0.027693229610788989 0 0.0038000846506081663 0.026861968751533422 0 0.0023192229142408164 0.026748555397983674 0 0.0032620430185588208 0.027693229610788989 0 -0.0032020333634012999 0.029425320458170822 0 -0.0013545599231758504 0.025846573318514945 0 -0.005415735515262715 0.024821322341430981 0 0.0014677635937835694 0.028139572052983279 0 -0.0032020333634012999 0.029425320458170822 0 -0.0013545599231758504 0.025846573318514945 0 0.0017838047228419195 0.02796014131990255 0 -0.0013545599231758504 0.025846573318514945 0 0.00024481371650855326 0.022376671579120357 0 0.0014677635937835694 0.028139572052983279 0 0.0017838047228419195 0.02796014131990255 0 -0.0013545599231758504 0.025846573318514945 0 -0.0013545599231758504 0.025846573318514945 0 0.00024481371650855326 0.022376671579120357 0 -0.0031516820687049665 0.022413891750443955 0 -0.0013545599231758504 0.025846573318514945 0 -0.0031516820687049665 0.022413891750443955 0 -0.005415735515262715 0.024821322341430981 0 -0.0031516820687049665 0.022413891750443955 0 -0.0057246627573953705 0.020136196522538025 0 -0.005415735515262715 0.024821322341430981 0 -0.0031516820687049665 0.022413891750443955 0 -0.0016531268753743847 0.016642657703565249 0 -0.0057246627573953705 0.020136196522538025 0 0.0017498020980907267 0.02467371997457659 0 0.0012030124701739842 0.026149164043355357 0 0.00060579557028676075 0.024478702220366345 0 0.00024481371650855326 0.022376671579120357 0 -0.0031516820687049665 0.022413891750443955 0 -0.0016531268753743847 0.016642657703565249 0 0.00036967038776874149 0.02401438877540488 0 -0.00108351189959147 0.02064257103538383 0 0.0014079750148474636 0.024049503199936696 0 0.0017498020980907267 0.02467371997457659 0 0.00060579557028676075 0.024478702220366345 0 -0.0016531268753743847 0.016642657703565249 0 -0.0063038219285698272 0.016599164256211375 0 -0.0057246627573953705 0.020136196522538025 0 -0.0053479142640562877 0.013794471063886404 0 -0.0016531268753743847 0.016642657703565249 0 -0.0063038219285698272 0.016599164256211375 0 -0.0063038219285698272 0.016599164256211375 0 -0.0089012423632095338 0.016129024627409744 0 -0.0087686507810272631 0.019380946318348011 0 -0.0075835774470808474 0.013706489864604031 0 -0.0063038219285698272 0.016599164256211375 0 -0.0089012423632095338 0.016129024627409744 0 -0.011083041298067737 0.013941844695016858 0 -0.0089012423632095338 0.016129024627409744 0 -0.011516326522596192 0.017930847464039772 0 -0.0089012423632095338 0.016129024627409744 0 -0.0087686507810272631 0.019380946318348011 0 -0.011516326522596192 0.017930847464039772 0 -0.0087686507810272631 0.019380946318348011 0 -0.011045561691231451 0.021219522770300342 0 -0.011516326522596192 0.017930847464039772 0 -0.0087686507810272631 0.019380946318348011 0 -0.011045561691231451 0.021219522770300342 0 -0.0090201826078009396 0.023748489205427773 0 -0.0063038219285698272 0.016599164256211375 0 -0.0087686507810272631 0.019380946318348011 0 -0.0057246627573953705 0.020136196522538025 0 -0.0087686507810272631 0.019380946318348011 0 -0.0057246627573953705 0.020136196522538025 0 -0.0090201826078009396 0.023748489205427773 0 -0.011083041298067737 0.013941844695016858 0 -0.014953450605565587 0.016246656199640452 0 -0.011516326522596192 0.017930847464039772 0 -0.014953450605565587 0.016246656199640452 0 -0.011516326522596192 0.017930847464039772 0 -0.014316950450773702 0.020578696382497579 0 -0.011045561691231451 0.021219522770300342 0 -0.011516326522596192 0.017930847464039772 0 -0.014316950450773702 0.020578696382497579 0 -0.014316950450773702 0.020578696382497579 0 -0.017308327375081305 0.022141129290936031 0 -0.018299312870127135 0.01926972192083742 0 -0.014953450605565587 0.016246656199640452 0 -0.014316950450773702 0.020578696382497579 0 -0.018299312870127135 0.01926972192083742 0 -0.013518640455646174 0.025211312274265638 0 -0.018553377079564212 0.02543074149083565 0 -0.017308327375081305 0.022141129290936031 0 -0.014316950450773702 0.020578696382497579 0 -0.013518640455646174 0.025211312274265638 0 -0.017308327375081305 0.022141129290936031 0 -0.011045561691231451 0.021219522770300342 0 -0.014316950450773702 0.020578696382497579 0 -0.013518640455646174 0.025211312274265638 0 -0.011045561691231451 0.021219522770300342 0 -0.013518640455646174 0.025211312274265638 0 -0.0090201826078009396 0.023748489205427773 0 -0.013518640455646174 0.025211312274265638 0 -0.0092252279486908263 0.027397487519724505 0 -0.01254545769756827 0.028711234833485949 0 -0.013518640455646174 0.025211312274265638 0 -0.017120533119876703 0.02883026193325999 0 -0.018553377079564212 0.02543074149083565 0 -0.013518640455646174 0.025211312274265638 0 -0.01254545769756827 0.028711234833485949 0 -0.017120533119876703 0.02883026193325999 0 -0.0032020333634012999 0.029425320458170822 0 -0.005415735515262715 0.024821322341430981 0 -0.0092252279486908263 0.027397487519724505 0 -0.0057246627573953705 0.020136196522538025 0 -0.005415735515262715 0.024821322341430981 0 -0.0090201826078009396 0.023748489205427773 0 -0.013518640455646174 0.025211312274265638 0 -0.0090201826078009396 0.023748489205427773 0 -0.0092252279486908263 0.027397487519724505 0 -0.005415735515262715 0.024821322341430981 0 -0.0090201826078009396 0.023748489205427773 0 -0.0092252279486908263 0.027397487519724505 0 -0.0032020333634012999 0.029425320458170822 0 -0.0092252279486908263 0.027397487519724505 0 -0.0083592293582552268 0.031509411186258184 0 -0.0032020333634012999 0.029425320458170822 0 -0.0049286870188222252 0.034520968566574502 0 -0.0083592293582552268 0.031509411186258184 0 -0.0049286870188222252 0.034520968566574502 0 -0.0083592293582552268 0.031509411186258184 0 -0.009562877210331576 0.035609691207874626 0 -0.0083592293582552268 0.031509411186258184 0 -0.013358336471678382 0.032192744569704369 0 -0.009562877210331576 0.035609691207874626 0 -0.0092252279486908263 0.027397487519724505 0 -0.0083592293582552268 0.031509411186258184 0 -0.01254545769756827 0.028711234833485949 0 -0.0083592293582552268 0.031509411186258184 0 -0.01254545769756827 0.028711234833485949 0 -0.013358336471678382 0.032192744569704369 0 -0.012991564712790372 0.032706734974392422 0 -0.014900498562272619 0.030986105094079081 0 -0.01254545769756827 0.028711234833485949 0 -0.013358336471678382 0.032192744569704369 0 -0.017120533119876703 0.02883026193325999 0 -0.016656000862579141 0.033859839000261079 0 -0.013199134233026577 0.03243810200199794 0 -0.017120533119876703 0.02883026193325999 0 -0.012991564712790372 0.032706734974392422 0 -0.0096397471363168855 0.035762247339584358 0 -0.013199134233026577 0.03243810200199794 0 -0.013606365331330134 0.036486336229237491 0 -0.0095961256296472393 0.035991922471665092 0 -0.016656000862579141 0.033859839000261079 0 -0.013606365331330134 0.036486336229237491 0 -0.018627428704357903 0.037894534584507603 0 -0.016656000862579141 0.033859839000261079 0 -0.013199134233026577 0.03243810200199794 0 -0.013606365331330134 0.036486336229237491 0 -0.013606365331330134 0.036486336229237491 0 -0.018627428704357903 0.037894534584507603 0 -0.014662378030851433 0.040202556417170923 0 -0.013606365331330134 0.036486336229237491 0 -0.010371837447732204 0.040910016551572878 0 -0.014662378030851433 0.040202556417170923 0 -0.013606365331330134 0.036486336229237491 0 -0.0095961256296472393 0.035991922471665092 0 -0.010371837447732204 0.040910016551572878 0 -0.0061889788963661917 0.039373386941328213 0 -0.0095961256296472393 0.035991922471665092 0 -0.010371837447732204 0.040910016551572878 0 -0.0062834747436697749 0.038826441531820216 0 -0.0096397471363168855 0.035762247339584358 0 -0.0049286870188222252 0.034520968566574502 0 -0.005851085730495093 0.039032475109997376 0 -0.009562877210331576 0.035609691207874626 0 -0.023670804530543686 0.035136658613904803 0 -0.024246027890599008 0.038213715114164083 0 -0.021971384583996046 0.037171573103442219 0 -0.023670804530543686 0.035136658613904803 0 -0.026908028019764531 0.035061218778783924 0 -0.024246027890599008 0.038213715114164083 0 -0.014496013345913774 0.023423374470404226 0 -0.01532899476701235 0.026679427241681444 0 -0.026536424747114651 0.035140927648751458 0 -0.026120513703284255 0.036097283927239786 0 -0.024246027890599008 0.038213715114164083 0 -0.0095872992446095831 0.020162767725613952 0 -0.0098675363002119227 0.019798190314293453 0 -0.010314026624881885 0.020438089739592439 0 -0.014496013345913774 0.023423374470404226 0 -0.013002038444846991 0.018240249791153691 0 -0.012003452446078909 0.017713637125045385 0 -0.012511881096953073 0.017059664928325866 0 -0.0122031172776582 0.017002923856505765 0 -0.0095872992446095831 0.020162767725613952 0 -0.0095794764051044673 0.020720911776296435 0 -0.010314026624881885 0.020438089739592439 0 -0.026536424747114651 0.035140927648751458 0 -0.026120513703284255 0.036097283927239786 0 -0.026536420762220254 0.036842673887849689 0 -0.014496013345913774 0.023423374470404226 0 -0.015246191705711076 0.027870354439932826 0 -0.015507887542978376 0.028236011842221447 0 -0.015246191705711076 0.027870354439932826 0 -0.02655641097814232 0.036862822738578237 0 -0.024246027890599008 0.038213715114164083 0 -0.026497292106660002 0.041914880154886772 0 -0.013928153965326684 0.030031821275666767 0 -0.014788575635128852 0.031596242454139056 0 -0.013899136924099499 0.032282960247026156 0 -0.026120513703284255 0.036097283927239786 0 -0.02655641097814232 0.036862822738578237 0 -0.024246027890599008 0.038213715114164083 0 -0.0095794764051044673 0.020720911776296435 0 -0.010314026624881885 0.020438089739592439 0 -0.010205275974040967 0.021874044234589048 0 -0.015246191705711076 0.027870354439932826 0 -0.013559737770112013 0.027285731284258874 0 -0.015246191705711076 0.027870354439932826 0 -0.016832325041154273 0.036228250503752502 0 -0.024246027890599008 0.038213715114164083 0 -0.021971384583996046 0.037171573103442219 0 -0.022694909480217795 0.04086680902518687 0 -0.021971384583996046 0.037171573103442219 0 -0.018627428704357903 0.037894534584507603 0 -0.022694909480217795 0.04086680902518687 0 -0.016656000862579141 0.033859839000261079 0 -0.018627428704357903 0.037894534584507603 0 -0.020707541620662767 0.033464542800012639 0 -0.021971384583996046 0.037171573103442219 0 -0.018627428704357903 0.037894534584507603 0 -0.020707541620662767 0.033464542800012639 0 -0.023670804530543686 0.035136658613904803 0 -0.021971384583996046 0.037171573103442219 0 -0.020707541620662767 0.033464542800012639 0 -0.023670804530543686 0.035136658613904803 0 -0.020707541620662767 0.033464542800012639 0 -0.023974312384379744 0.031337534033306573 0 -0.020707541620662767 0.033464542800012639 0 -0.021282912318007368 0.028444733541979145 0 -0.023974312384379744 0.031337534033306573 0 -0.016656000862579141 0.033859839000261079 0 -0.020707541620662767 0.033464542800012639 0 -0.017120533119876703 0.02883026193325999 0 -0.020707541620662767 0.033464542800012639 0 -0.017120533119876703 0.02883026193325999 0 -0.021282912318007368 0.028444733541979145 0 -0.021282912318007368 0.028444733541979145 0 -0.023974312384379744 0.031337534033306573 0 -0.0241907242776567 0.02664642882227846 0 -0.023974312384379744 0.031337534033306573 0 -0.027091370124208675 0.029232186519364427 0 -0.0241907242776567 0.02664642882227846 0 -0.023670804530543686 0.035136658613904803 0 -0.026908028019764531 0.035061218778783924 0 -0.023974312384379744 0.031337534033306573 0 -0.026908028019764531 0.035061218778783924 0 -0.023974312384379744 0.031337534033306573 0 -0.027091370124208675 0.029232186519364427 0 -0.012003452446078909 0.017713637125045385 0 -0.0122031172776582 0.017002923856505765 0 -0.012030550428987418 0.014481919978632823 0 -0.014496013345913774 0.023423374470404226 0 -0.015274719295356906 0.020733374198815911 0 -0.0122031172776582 0.017002923856505765 0 -0.012030550428987418 0.014481919978632823 0 -0.013693739285901178 0.015523292477477664 0 -0.012511779020256455 0.017058781693076071 0 -0.0122031172776582 0.017002923856505765 0 -0.013693739285901178 0.015523292477477664 0 -0.013002038444846991 0.018240249791153691 0 -0.012990539897372179 0.018234388064309985 0 -0.012030550428987418 0.014481919978632823 0 -0.013459546975280588 0.012640016212867257 0 -0.013511990435105913 0.014160121444895046 0 -0.012030550428987418 0.014481919978632823 0 -0.012061068932211387 0.011278841783695702 0 -0.013459546975280588 0.012640016212867257 0 -0.027091370124208675 0.029232186519364427 0 -0.0241907242776567 0.02664642882227846 0 -0.027194649937178985 0.023380049192153304 0 -0.015274719295356906 0.020733374198815911 0 -0.012564002996431246 0.011997544095049526 0 -0.0241907242776567 0.02664642882227846 0 -0.023388237974708303 0.023251268612180638 0 -0.021775403443167779 0.024925731992518491 0 -0.0241907242776567 0.02664642882227846 0 -0.023388237974708303 0.023251268612180638 0 -0.027194649937178985 0.023380049192153304 0 -0.023388237974708303 0.023251268612180638 0 -0.027194649937178985 0.023380049192153304 0 -0.023227604649527923 0.019406162951417439 0 -0.002148259588340961 -0.0029662905174256018 0 -0.0020565142707389774 -0.0028921116056585608 0 -0.0022573598896278519 -0.0033468987949921867 0 -0.012474313796614024 0.011480581335333563 0 -0.012564002996431246 0.011997544095049526 0 -0.002148259588340961 -0.0029662905174256018 0 -0.0024868403893294564 -0.003015106998012581 0 -0.0026937458174481283 -0.0026202976777545627 0 -0.002148259588340961 -0.0029662905174256018 0 -0.0021317052152133938 -0.0026005287400255568 0 -0.0026937458174481283 -0.0026202976777545627 0 -0.012564002996431246 0.011997544095049526 0 -0.009111472135793627 0.0083580199932004225 0 -0.0021317052152133938 -0.0026005287400255568 0 -0.0027986099747626799 -0.0018409597950493053 0 -0.0026937458174481283 -0.0026202976777545627 0 -0.017120533119876703 0.02883026193325999 0 -0.021282912318007368 0.028444733541979145 0 -0.018553377079564212 0.02543074149083565 0 -0.021282912318007368 0.028444733541979145 0 -0.018553377079564212 0.02543074149083565 0 -0.021775403443167779 0.024925731992518491 0 -0.021282912318007368 0.028444733541979145 0 -0.0241907242776567 0.02664642882227846 0 -0.021775403443167779 0.024925731992518491 0 -0.018553377079564212 0.02543074149083565 0 -0.021775403443167779 0.024925731992518491 0 -0.020557120100654414 0.021903302501093139 0 -0.023388237974708303 0.023251268612180638 0 -0.021775403443167779 0.024925731992518491 0 -0.020557120100654414 0.021903302501093139 0 -0.018553377079564212 0.02543074149083565 0 -0.020557120100654414 0.021903302501093139 0 -0.017308327375081305 0.022141129290936031 0 -0.020557120100654414 0.021903302501093139 0 -0.017308327375081305 0.022141129290936031 0 -0.018299312870127135 0.01926972192083742 0 -0.020557120100654414 0.021903302501093139 0 -0.018299312870127135 0.01926972192083742 0 -0.023227604649527923 0.019406162951417439 0 -0.023388237974708303 0.023251268612180638 0 -0.020557120100654414 0.021903302501093139 0 -0.023227604649527923 0.019406162951417439 0 -0.019323237613702374 0.015324522860085343 0 -0.018299312870127135 0.01926972192083742 0 -0.023227604649527923 0.019406162951417439 0 -0.01219417055585633 0.007698348805583774 0 -0.012505085683605513 0.0092568574284892235 0 -0.0061156206119262375 -0.0012382280600783538 0 -0.002781506516934287 -0.003659963893375548 0 -0.0030454345871114754 -0.0020013820692552343 0 -0.019323237613702374 0.015324522860085343 0 -0.014953450605565587 0.016246656199640452 0 -0.018299312870127135 0.01926972192083742 0 -0.002330571001700945 -0.0032569127913474188 0 -0.0022573598896278519 -0.0033468987949921867 0 -0.0017366072528125292 -0.0033564632702740111 0 -0.002330571001700945 -0.0032569127913474188 0 -0.0022844060521681354 -0.0031656076865342335 0 -0.0022573598896278519 -0.0033468987949921867 0 -0.002148259588340961 -0.0029662905174256018 0 -0.0024868403893294564 -0.003015106998012581 0 -0.0022844060521681354 -0.0031656076865342335 0 -0.002330571001700945 -0.0032569127913474188 0 -0.0024868403893294564 -0.003015106998012581 0 -0.0022844060521681354 -0.0031656076865342335 0 -0.002148259588340961 -0.0029662905174256018 0 -0.0022844060521681354 -0.0031656076865342335 0 -0.0022573598896278519 -0.0033468987949921867 0 -0.012564002996431246 0.011997544095049526 0 -0.012505085683605513 0.0092568574284892235 0 -0.002781506516934287 -0.003659963893375548 0 -0.0022573598896278519 -0.0033468987949921867 0 -0.0017366072528125292 -0.0033564632702740111 0 -0.0020565142707389774 -0.0028921116056585608 0 -0.002781506516934287 -0.003659963893375548 0 -0.0022573598896278519 -0.0033468987949921867 0 -0.002781506516934287 -0.003659963893375548 0 -0.0030454345871114754 -0.0020013820692552343 0 -0.0017366072528125292 -0.0033564632702740111 0 -0.002330571001700945 -0.0032569127913474188 0 -0.0017366072528125292 -0.0033564632702740111 0 -0.0030370586218352882 -0.0044657926347643311 0 -0.002330571001700945 -0.0032569127913474188 0 -0.0030370586218352882 -0.0044657926347643311 0 -0.0035671133751262627 -0.0037145118163497779 0 -0.002330571001700945 -0.0032569127913474188 0 -0.003116320968891491 -0.0029751930390730747 0 -0.0035671133751262627 -0.0037145118163497779 0 -0.002330571001700945 -0.0032569127913474188 0 -0.0024868403893294564 -0.003015106998012581 0 -0.003116320968891491 -0.0029751930390730747 0 -0.0035671133751262627 -0.0037145118163497779 0 -0.0045634967555228233 -0.0035736439699716816 0 -0.004097324599720841 -0.0026106183416037434 0 -0.003116320968891491 -0.0029751930390730747 0 -0.0035671133751262627 -0.0037145118163497779 0 -0.004097324599720841 -0.0026106183416037434 0 -0.0045634967555228233 -0.0035736439699716816 0 -0.0048831491719677298 -0.0028660182324436573 0 -0.004097324599720841 -0.0026106183416037434 0 -0.0035671133751262627 -0.0037145118163497779 0 -0.0042483479297197565 -0.0045576603405810875 0 -0.0045634967555228233 -0.0035736439699716816 0 -0.0030370586218352882 -0.0044657926347643311 0 -0.0035671133751262627 -0.0037145118163497779 0 -0.0042483479297197565 -0.0045576603405810875 0 -0.0042483479297197565 -0.0045576603405810875 0 -0.0053787105664697132 -0.0042802251411782751 0 -0.0045634967555228233 -0.0035736439699716816 0 -0.0053787105664697132 -0.0042802251411782751 0 -0.0060996547442901073 -0.0034477438126216536 0 -0.0052313183034627276 -0.0035387312653275059 0 -0.0053787105664697132 -0.0042802251411782751 0 -0.0045634967555228233 -0.0035736439699716816 0 -0.0052313183034627276 -0.0035387312653275059 0 -0.0053787105664697132 -0.0042802251411782751 0 -0.0060996547442901073 -0.0034477438126216536 0 -0.0068530009988525481 -0.0047284464039439962 0 -0.0060996547442901073 -0.0034477438126216536 0 -0.0068530009988525481 -0.0047284464039439962 0 -0.0067672928749325234 -0.002677545085677701 0 -0.0060996547442901073 -0.0034477438126216536 0 -0.0054666801711411661 -0.0021170442183789892 0 -0.0067672928749325234 -0.002677545085677701 0 -0.0073116870492746094 -0.00091912079216527082 0 -0.0072241147226044834 0.00044091030659408262 0 -0.0060996547442901073 -0.0034477438126216536 0 -0.0048831491719677298 -0.0028660182324436573 0 -0.0049755415576731169 -0.0020695707891373641 0 -0.0060996547442901073 -0.0034477438126216536 0 -0.0052313183034627276 -0.0035387312653275059 0 -0.0048831491719677298 -0.0028660182324436573 0 -0.0045634967555228233 -0.0035736439699716816 0 -0.0052313183034627276 -0.0035387312653275059 0 -0.0048831491719677298 -0.0028660182324436573 0 -0.0060996547442901073 -0.0034477438126216536 0 -0.0054666801711411661 -0.0021170442183789892 0 -0.004921440198358381 -0.0019455905838758353 0 -0.0048831491719677298 -0.0028660182324436573 0 -0.0049755415576731169 -0.0020695707891373641 0 -0.0045142099409200432 -0.0022906619900185132 0 -0.0054666801711411661 -0.0021170442183789892 0 -0.004921440198358381 -0.0019455905838758353 0 -0.0054216410418787813 -0.0010374324895992956 0 -0.0053186469778039687 -0.0041363036038651099 0 -0.0056384505267614406 -0.006330651754872141 0 -0.0054666801711411661 -0.0021170442183789892 0 -0.0066819365705128499 -0.00063450154264424029 0 -0.0067672928749325234 -0.002677545085677701 0 -0.0060819522742686259 -0.0027361179548131493 0 -0.0053186469778039687 -0.0041363036038651099 0 -0.0068510481558178692 -0.00044022031585398165 0 -0.0054216410418787813 -0.0010374324895992956 0 -0.0053801311172326149 -0.00028372009732686277 0 -0.0054666801711411661 -0.0021170442183789892 0 -0.0068510481558178692 -0.00044022031585398165 0 -0.0054216410418787813 -0.0010374324895992956 0 -0.004921440198358381 -0.0019455905838758353 0 -0.0054216410418787813 -0.0010374324895992956 0 -0.0046822934566373292 -0.00023378353841640651 0 -0.0054216410418787813 -0.0010374324895992956 0 -0.0053801311172326149 -0.00028372009732686277 0 -0.0046822934566373292 -0.00023378353841640651 0 -0.0038713742053324346 -0.00062122308198311025 0 -0.0041900809954849355 -0.001870061628605284 0 -0.0034864749386580591 -0.0017667218441801511 0 -0.0076080797739727255 0.0044603462978671481 0 -0.0057051392579921482 0.00029990747237807066 0 -0.004921440198358381 -0.0019455905838758353 0 -0.0046822934566373292 -0.00023378353841640651 0 -0.0036379399977594785 -0.00029134325433247051 0 -0.0037119741733977478 -0.0014102991930531393 0 -0.0033089725253549729 -0.0017757436331688303 0 -0.0033963561441165725 -0.0023012707339704996 0 -0.0072241147226044834 0.00044091030659408262 0 -0.0076080797739727255 0.0044603462978671481 0 -0.0049755415576731169 -0.0020695707891373641 0 -0.0038713742053324346 -0.00062122308198311025 0 -0.0041900809954849355 -0.001870061628605284 0 -0.0037119741733977478 -0.0014102991930531393 0 -0.0033089725253549729 -0.0017757436331688303 0 -0.0034928502276073952 -0.0011306401054899859 0 -0.013459546975280588 0.012640016212867257 0 -0.013511990435105913 0.014160121444895046 0 -0.014861392907853635 0.013998523928030573 0 -0.009111472135793627 0.0083580199932004225 0 -0.0079997855830928367 0.0075548863208678265 0 -0.0027986099747626799 -0.0018409597950493053 0 -0.0033089725253549729 -0.0017757436331688303 0 -0.0034928502276073952 -0.0011306401054899859 0 -0.0027986099747626799 -0.0018409597950493053 0 -0.0033089725253549729 -0.0017757436331688303 0 -0.0033963561441165725 -0.0023012707339704996 0 -0.003116320968891491 -0.0029751930390730747 0 -0.0026937458174481283 -0.0026202976777545627 0 -0.0033963561441165725 -0.0023012707339704996 0 -0.0051549284124474655 -0.00086991228753425219 0 -0.0057051392579921482 0.00029990747237807066 0 -0.0027986099747626799 -0.0018409597950493053 0 -0.0026937458174481283 -0.0026202976777545627 0 -0.0033963561441165725 -0.0023012707339704996 0 -0.0024868403893294564 -0.003015106998012581 0 -0.003116320968891491 -0.0029751930390730747 0 -0.0026937458174481283 -0.0026202976777545627 0 -0.003116320968891491 -0.0029751930390730747 0 -0.004097324599720841 -0.0026106183416037434 0 -0.0034864749386580591 -0.0017667218441801511 0 -0.0045142099409200432 -0.0022906619900185132 0 -0.004097324599720841 -0.0026106183416037434 0 -0.0041900809954849355 -0.001870061628605284 0 -0.0048831491719677298 -0.0028660182324436573 0 -0.0045142099409200432 -0.0022906619900185132 0 -0.004097324599720841 -0.0026106183416037434 0 -0.0049755415576731169 -0.0020695707891373641 0 -0.0045142099409200432 -0.0022906619900185132 0 -0.0041900809954849355 -0.001870061628605284 0 -0.004097324599720841 -0.0026106183416037434 0 -0.0041900809954849355 -0.001870061628605284 0 -0.0034864749386580591 -0.0017667218441801511 0 -0.0029381125339618982 -0.01035931851997441 0 -0.0038647861101017444 -0.010463642746571888 0 -0.0035976478331496936 -0.0094563723941883462 0 -0.0038647861101017444 -0.010463642746571888 0 -0.0035976478331496936 -0.0094563723941883462 0 -0.0043764526354534471 -0.009946248745010185 0 -0.0035976478331496936 -0.0094563723941883462 0 -0.0042900517751884078 -0.0092502455479095379 0 -0.0043764526354534471 -0.009946248745010185 0 -0.0038647861101017444 -0.010463642746571888 0 -0.0043764526354534471 -0.009946248745010185 0 -0.0044867575842415927 -0.010827873772952237 0 -0.0043764526354534471 -0.009946248745010185 0 -0.0052570030687422711 -0.010461410432454892 0 -0.0044867575842415927 -0.010827873772952237 0 -0.0043764526354534471 -0.009946248745010185 0 -0.0052570030687422711 -0.010461410432454892 0 -0.0052543159228830702 -0.0095515142900208551 0 -0.0052570030687422711 -0.010461410432454892 0 -0.0052543159228830702 -0.0095515142900208551 0 -0.0056818220686591517 -0.0099104561234573934 0 -0.0043679230590195758 -0.0086494700562708936 0 -0.00464759192536616 -0.0082915116894100235 0 -0.0044295574996255959 -0.0087790347819506689 0 -0.0042900517751884078 -0.0092502455479095379 0 -0.0045948533751911137 -0.0093744025027062677 0 -0.0042900517751884078 -0.0092502455479095379 0 -0.0043764526354534471 -0.009946248745010185 0 -0.0045948533751911137 -0.0093744025027062677 0 -0.0052543159228830702 -0.0095515142900208551 0 -0.0061014101309966613 -0.0091267905345624629 0 -0.0056818220686591517 -0.0099104561234573934 0 -0.0061014101309966613 -0.0091267905345624629 0 -0.0056818220686591517 -0.0099104561234573934 0 -0.0061125300877064893 -0.010494383192227529 0 -0.00464759192536616 -0.0082915116894100235 0 -0.0053172479695159421 -0.007270152415061704 0 -0.0053172479695159421 -0.007270152415061704 0 -0.0056384505267614406 -0.006330651754872141 0 -0.0052570030687422711 -0.010461410432454892 0 -0.0056818220686591517 -0.0099104561234573934 0 -0.0061125300877064893 -0.010494383192227529 0 -0.0052570030687422711 -0.010461410432454892 0 -0.0061125300877064893 -0.010494383192227529 0 -0.0055323440294536 -0.011147448636897048 0 -0.0060630133299043338 -0.011726783398055239 0 -0.0061125300877064893 -0.010494383192227529 0 -0.0055323440294536 -0.011147448636897048 0 -0.0060630133299043338 -0.011726783398055239 0 -0.0055323440294536 -0.011147448636897048 0 -0.0051275150424726947 -0.011799665090849926 0 -0.0051275150424726947 -0.011799665090849926 0 -0.0049576403558246182 -0.011227311247605721 0 -0.0044635266570955167 -0.011605801616330815 0 -0.0055323440294536 -0.011147448636897048 0 -0.0051275150424726947 -0.011799665090849926 0 -0.0049576403558246182 -0.011227311247605721 0 -0.0052570030687422711 -0.010461410432454892 0 -0.0055323440294536 -0.011147448636897048 0 -0.0049576403558246182 -0.011227311247605721 0 -0.0052570030687422711 -0.010461410432454892 0 -0.0049576403558246182 -0.011227311247605721 0 -0.0044867575842415927 -0.010827873772952237 0 -0.0049576403558246182 -0.011227311247605721 0 -0.0044867575842415927 -0.010827873772952237 0 -0.0044635266570955167 -0.011605801616330815 0 -0.0044867575842415927 -0.010827873772952237 0 -0.0044635266570955167 -0.011605801616330815 0 -0.0041175084491038745 -0.011160241654082741 0 -0.0038647861101017444 -0.010463642746571888 0 -0.0044867575842415927 -0.010827873772952237 0 -0.0041175084491038745 -0.011160241654082741 0 -0.0051275150424726947 -0.011799665090849926 0 -0.0044635266570955167 -0.011605801616330815 0 -0.0046450632692315802 -0.012266072600560398 0 -0.0044635266570955167 -0.011605801616330815 0 -0.0040128686580873886 -0.011632277744520952 0 -0.0041175084491038745 -0.011160241654082741 0 -0.0044635266570955167 -0.011605801616330815 0 -0.0040128686580873886 -0.011632277744520952 0 -0.0041704973735928021 -0.012069539100481299 0 -0.0040128686580873886 -0.011632277744520952 0 -0.003613914819636074 -0.011139670418989481 0 -0.0041175084491038745 -0.011160241654082741 0 -0.0029381125339618982 -0.01035931851997441 0 -0.0038647861101017444 -0.010463642746571888 0 -0.003613914819636074 -0.011139670418989481 0 -0.0034488797448854478 -0.011561619396813456 0 -0.0040128686580873886 -0.011632277744520952 0 -0.003613914819636074 -0.011139670418989481 0 -0.0038647861101017444 -0.010463642746571888 0 -0.003613914819636074 -0.011139670418989481 0 -0.0041175084491038745 -0.011160241654082741 0 -0.0037062217576292397 -0.012335281255355518 0 -0.0041819725153411447 -0.01252308476178189 0 -0.0040023003429933632 -0.012999263533368834 0 -0.0032594198278682626 -0.013366569221531925 0 -0.003618814025912197 -0.01264138334258136 0 -0.0037062217576292397 -0.012335281255355518 0 -0.0040128686580873886 -0.011632277744520952 0 -0.0041704973735928021 -0.012069539100481299 0 -0.0037062217576292397 -0.012335281255355518 0 -0.0041819725153411447 -0.01252308476178189 0 -0.0041704973735928021 -0.012069539100481299 0 -0.0041819725153411447 -0.01252308476178189 0 -0.0041704973735928021 -0.012069539100481299 0 -0.0046450632692315802 -0.012266072600560398 0 -0.0044635266570955167 -0.011605801616330815 0 -0.0041704973735928021 -0.012069539100481299 0 -0.0046450632692315802 -0.012266072600560398 0 -0.0041819725153411447 -0.01252308476178189 0 -0.0047679011265123437 -0.013018393659353774 0 -0.0040023003429933632 -0.012999263533368834 0 -0.0041819725153411447 -0.01252308476178189 0 -0.0046450632692315802 -0.012266072600560398 0 -0.0047679011265123437 -0.013018393659353774 0 -0.0038417928405544573 -0.0019010866483000412 0 -0.0037649538590023967 -0.0025531899059714532 0 -0.0032762619146252604 -0.0025527290807715233 0 -0.0046450632692315802 -0.012266072600560398 0 -0.0053609230375235226 -0.012439486451247992 0 -0.0047679011265123437 -0.013018393659353774 0 -0.0043384687764729596 -0.0064172451859643292 0 -0.0038376237707676559 -0.0074977610448948738 0 -0.0051275150424726947 -0.011799665090849926 0 -0.0046450632692315802 -0.012266072600560398 0 -0.0053609230375235226 -0.012439486451247992 0 -0.0053186469778039687 -0.0041363036038651099 0 -0.0043384687764729596 -0.0064172451859643292 0 -0.0060630133299043338 -0.011726783398055239 0 -0.0051275150424726947 -0.011799665090849926 0 -0.0053609230375235226 -0.012439486451247992 0 -0.0043742459034242709 -0.0012729284373922277 0 -0.0038417928405544573 -0.0019010866483000412 0 -0.0043957644577834708 -0.0020261237523722391 0 -0.0038417928405544573 -0.0019010866483000412 0 -0.0041294466182215063 -0.0024275694753948291 0 -0.0043957644577834708 -0.0020261237523722391 0 -0.0038417928405544573 -0.0019010866483000412 0 -0.0041294466182215063 -0.0024275694753948291 0 -0.0037649538590023967 -0.0025531899059714532 0 -0.0041294466182215063 -0.0024275694753948291 0 -0.0043957644577834708 -0.0020261237523722391 0 -0.0044285696697886606 -0.0028395773879653866 0 -0.0041294466182215063 -0.0024275694753948291 0 -0.0040637287330204013 -0.0028741102845325785 0 -0.0037649538590023967 -0.0025531899059714532 0 -0.0041294466182215063 -0.0024275694753948291 0 -0.0040637287330204013 -0.0028741102845325785 0 -0.0044285696697886606 -0.0028395773879653866 0 -0.0052832591466617819 0.0031731092452805297 0 -0.0055777691601478687 0.0034858995936499215 0 -0.0040637287330204013 -0.0028741102845325785 0 -0.0038468960893564995 -0.003428822030832977 0 -0.0044467793883042938 -0.0028363003316407912 0 -0.0033345876723873632 -0.00080779641151668439 0 -0.0055777691601478687 0.0034858995936499215 0 -0.0040637287330204013 -0.0028741102845325785 0 -0.0038468960893564995 -0.003428822030832977 0 -0.0035628142109928639 -0.0030014203227212337 0 -0.0039548465441593171 -0.0032465019801769393 0 -0.0047368384427352314 -0.0024725112626328323 0 -0.0047662065116468475 -0.0037888007412230974 0 -0.0038468960893564995 -0.003428822030832977 0 -0.0035628142109928639 -0.0030014203227212337 0 -0.0032438993229163115 -0.0034804622609504493 0 -0.0035628142109928639 -0.0030014203227212337 0 -0.0037649538590023967 -0.0025531899059714532 0 -0.0032762619146252604 -0.0025527290807715233 0 -0.0040637287330204013 -0.0028741102845325785 0 -0.0035628142109928639 -0.0030014203227212337 0 -0.0037649538590023967 -0.0025531899059714532 0 -0.0038376237707676559 -0.0074977610448948738 0 -0.0033709200545014367 -0.0082402386111575712 0 -0.0047679011265123437 -0.013018393659353774 0 -0.0042677474032065807 -0.013549793786617857 0 -0.0040023003429933632 -0.012999263533368834 0 -0.0035628142109928639 -0.0030014203227212337 0 -0.0032762619146252604 -0.0025527290807715233 0 -0.0026956250440028965 -0.0032404986276016847 0 -0.0035628142109928639 -0.0030014203227212337 0 -0.0032438993229163115 -0.0034804622609504493 0 -0.0026956250440028965 -0.0032404986276016847 0 -0.0032438993229163115 -0.0034804622609504493 0 -0.0026956250440028965 -0.0032404986276016847 0 -0.0028539968984136951 -0.0037337567233698388 0 -0.0036497188213309422 -0.013575648040816153 0 -0.0042677474032065807 -0.013549793786617857 0 -0.0040023003429933632 -0.012999263533368834 0 -0.0036497188213309422 -0.013575648040816153 0 -0.0038029986758437795 -0.01407952734206353 0 -0.0042677474032065807 -0.013549793786617857 0 -0.0076247373934541082 0.0066097189836810599 0 -0.0083150892473774218 0.008742692725023888 0 -0.0090367222090624814 0.0098809900302997133 0 -0.0089324584113983779 0.010734652743399496 0 -0.0084494905006209878 0.0092134554687753906 0 -0.0093255576208380979 0.010176501791755329 0 -0.0090367222090624814 0.0098809900302997133 0 -0.0089324584113983779 0.010734652743399496 0 -0.0093255576208380979 0.010176501791755329 0 -0.0090367222090624814 0.0098809900302997133 0 -0.0094365882552477891 0.0094032409616778018 0 -0.010612608667899329 0.0096345106797570412 0 -0.010000363038961384 0.010401792280902893 0 -0.0094365882552477891 0.0094032409616778018 0 -0.0093255576208380979 0.010176501791755329 0 -0.010000363038961384 0.010401792280902893 0 -0.0094365882552477891 0.0094032409616778018 0 -0.013002038444846991 0.018240249791153691 0 -0.010787770206555702 0.01274342425717098 0 -0.010787770206555702 0.01274342425717098 0 -0.0079997855830928367 0.0075548863208678265 0 -0.0093255576208380979 0.010176501791755329 0 -0.010000363038961384 0.010401792280902893 0 -0.0093897895922584879 0.011174731622585433 0 -0.013693739285901178 0.015523292477477664 0 -0.013511990435105913 0.014160121444895046 0 -0.014861392907853635 0.013998523928030573 0 -0.012030550428987418 0.014481919978632823 0 -0.013693739285901178 0.015523292477477664 0 -0.013511990435105913 0.014160121444895046 0 -0.0076080797739727255 0.0044603462978671481 0 -0.0079997855830928367 0.0075548863208678265 0 -0.0076080797739727255 0.0044603462978671481 0 -0.0076247373934541082 0.0066097189836810599 0 -0.0079997855830928367 0.0075548863208678265 0 -0.0076247373934541082 0.0066097189836810599 0 -0.0093255576208380979 0.010176501791755329 0 -0.0093897895922584879 0.011174731622585433 0 -0.0089324584113983779 0.010734652743399496 0 -0.0072862075337084727 0.0086263603523135546 0 -0.0079923525633371437 0.0077208232533336023 0 -0.0065177288203451464 0.0063003650692877921 0 -0.0046822934566373292 -0.00023378353841640651 0 -0.0036379399977594785 -0.00029134325433247051 0 -0.003977827221011831 0.00074413770094157049 0 -0.0046822934566373292 -0.00023378353841640651 0 -0.003977827221011831 0.00074413770094157049 0 -0.0053047981522727121 0.00082626906573946186 0 -0.0053801311172326149 -0.00028372009732686277 0 -0.0046822934566373292 -0.00023378353841640651 0 -0.0053047981522727121 0.00082626906573946186 0 -0.0053186469778039687 -0.0041363036038651099 0 -0.0054732495348638636 -0.00038118288637476177 0 -0.0068510481558178692 -0.00044022031585398165 0 -0.0053047981522727121 0.00082626906573946186 0 -0.0067842085378434641 0.0014355439744309847 0 -0.0068510481558178692 -0.00044022031585398165 0 -0.0053801311172326149 -0.00028372009732686277 0 -0.0053047981522727121 0.00082626906573946186 0 -0.0053047981522727121 0.00082626906573946186 0 -0.0067842085378434641 0.0014355439744309847 0 -0.0052840315173649172 0.0020128239394580339 0 -0.0067842085378434641 0.0014355439744309847 0 -0.0052840315173649172 0.0020128239394580339 0 -0.0065909765671742894 0.0032856888436361251 0 -0.003977827221011831 0.00074413770094157049 0 -0.0053047981522727121 0.00082626906573946186 0 -0.0052840315173649172 0.0020128239394580339 0 -0.0076247373934541082 0.0066097189836810599 0 -0.0068600123277184396 0.0056813273593446095 0 -0.0087513318040218675 0.0102244084298138 0 -0.0081317179365038225 0.0096381033445194983 0 -0.0084494905006209878 0.0092134554687753906 0 -0.0081317179365038225 0.0096381033445194983 0 -0.0083030763301269878 0.0091512214600289396 0 -0.0074662551732633444 0.0090061995388268489 0 -0.0081317179365038225 0.0096381033445194983 0 -0.0084494905006209878 0.0092134554687753906 0 -0.0083030763301269878 0.0091512214600289396 0 -0.0059195012740664932 0.0079600453645157412 0 -0.0061044176754489433 0.0080853137978619885 0 -0.0063244064536937417 0.0080182759147997829 0 -0.0068600123277184396 0.0056813273593446095 0 -0.0061882606013522511 0.0047083489470037543 0 -0.0067842085378434641 0.0014355439744309847 0 -0.0067104368748209207 0.0034020423738663269 0 -0.0065909765671742894 0.0032856888436361251 0 -0.0054732495348638636 -0.00038118288637476177 0 -0.0055777691601478687 0.0034858995936499215 0 -0.0098513117319252944 0.011936126757868804 0 -0.0061882606013522511 0.0047083489470037543 0 -0.0061044176754489433 0.0080853137978619885 0 -0.0063532562141197972 0.0080461349117887139 0 -0.0063244064536937417 0.0080182759147997829 0 -0.0055777691601478687 0.0034858995936499215 0 -0.0061882606013522511 0.0047083489470037543 0 -0.0055777691601478687 0.0034858995936499215 0 -0.0052359546871332254 0.0025579789208848972 0 -0.0061044176754489433 0.0080853137978619885 0 -0.0063532562141197972 0.0080461349117887139 0 -0.0061493293139446561 0.0083670910460373425 0 -0.0063532562141197972 0.0080461349117887139 0 -0.0061493293139446561 0.0083670910460373425 0 -0.0063221879346532705 0.0085983074123998169 0 -0.0059195012740664932 0.0079600453645157412 0 -0.0061044176754489433 0.0080853137978619885 0 -0.0058956642885121093 0.0084518289035119629 0 -0.0098513117319252944 0.011936126757868804 0 -0.0091135159003820423 0.014706622074251741 0 -0.0061044176754489433 0.0080853137978619885 0 -0.0061493293139446561 0.0083670910460373425 0 -0.0058956642885121093 0.0084518289035119629 0 -0.012393590783068635 0.020255193575954216 0 -0.011314481136768102 0.021115276042159931 0 -0.012354612161138883 0.021813692030058628 0 -0.012393590783068635 0.020255193575954216 0 -0.011314481136768102 0.021115276042159931 0 -0.011128708193665619 0.020015037769467 0 -0.0098513117319252944 0.011936126757868804 0 -0.010876555261700071 0.014936431682934825 0 -0.0090367222090624814 0.0098809900302997133 0 -0.0084494905006209878 0.0092134554687753906 0 -0.0094365882552477891 0.0094032409616778018 0 -0.0084494905006209878 0.0092134554687753906 0 -0.0083030763301269878 0.0091512214600289396 0 -0.0094365882552477891 0.0094032409616778018 0 -0.0098675363002119227 0.019798190314293453 0 -0.011128708193665619 0.020015037769467 0 -0.010314026624881885 0.020438089739592439 0 -0.013002038444846991 0.018240249791153691 0 -0.010876555261700071 0.014936431682934825 0 -0.011314481136768102 0.021115276042159931 0 -0.011128708193665619 0.020015037769467 0 -0.010314026624881885 0.020438089739592439 0 -0.011314481136768102 0.021115276042159931 0 -0.010314026624881885 0.020438089739592439 0 -0.010205275974040967 0.021874044234589048 0 -0.010205275974040967 0.021874044234589048 0 -0.010836742517874939 0.023059790874249024 0 -0.011463852147693866 0.022394540262028459 0 -0.013559737770112013 0.027285731284258874 0 -0.013125251918639853 0.028370201292327729 0 -0.011314481136768102 0.021115276042159931 0 -0.010205275974040967 0.021874044234589048 0 -0.011463852147693866 0.022394540262028459 0 -0.014788575635128852 0.031596242454139056 0 -0.015646957693447875 0.0331513039376857 0 -0.01449811741174252 0.033275683509884364 0 -0.015646957693447875 0.0331513039376857 0 -0.015222577170119749 0.034276428680223174 0 -0.01449811741174252 0.033275683509884364 0 -0.011677643664594624 0.023337601905812869 0 -0.011463852147693866 0.022394540262028459 0 -0.012330587129413728 0.023392967622118684 0 -0.010836742517874939 0.023059790874249024 0 -0.011677643664594624 0.023337601905812869 0 -0.011492816134756854 0.024284827125260734 0 -0.010836742517874939 0.023059790874249024 0 -0.011677643664594624 0.023337601905812869 0 -0.011463852147693866 0.022394540262028459 0 -0.011314481136768102 0.021115276042159931 0 -0.011463852147693866 0.022394540262028459 0 -0.012354612161138883 0.021813692030058628 0 -0.0058956642885121093 0.0084518289035119629 0 -0.0060719091448481711 0.0086529222425830894 0 -0.0058695189482523358 0.0089395624974228111 0 -0.0091135159003820423 0.014706622074251741 0 -0.0084039201745994101 0.016082471073491117 0 -0.011463852147693866 0.022394540262028459 0 -0.012354612161138883 0.021813692030058628 0 -0.012330587129413728 0.023392967622118684 0 -0.0061493293139446561 0.0083670910460373425 0 -0.0058956642885121093 0.0084518289035119629 0 -0.0060719091448481711 0.0086529222425830894 0 -0.0061493293139446561 0.0083670910460373425 0 -0.0060719091448481711 0.0086529222425830894 0 -0.0063221879346532705 0.0085983074123998169 0 -0.0052359546871332254 0.0025579789208848972 0 -0.0046448500310363999 0.0023774782509621349 0 -0.0063221879346532705 0.0085983074123998169 0 -0.0061050399955849249 0.0089093147423329952 0 -0.0062796487568659897 0.0091402084235615109 0 -0.0047662065116468475 -0.0037888007412230974 0 -0.004770274375911104 -0.005070555343774207 0 -0.0045610144065421025 -0.0048901849005125947 0 -0.0060719091448481711 0.0086529222425830894 0 -0.0063221879346532705 0.0085983074123998169 0 -0.0061050399955849249 0.0089093147423329952 0 -0.0060719091448481711 0.0086529222425830894 0 -0.0061050399955849249 0.0089093147423329952 0 -0.0058695189482523358 0.0089395624974228111 0 -0.011677643664594624 0.023337601905812869 0 -0.012330587129413728 0.023392967622118684 0 -0.012261098503053318 0.023658606030326622 0 -0.012330587129413728 0.023392967622118684 0 -0.012261098503053318 0.023658606030326622 0 -0.012241907638266082 0.025725124433332001 0 -0.0084039201745994101 0.016082471073491117 0 -0.0073085359862982745 0.017034837562309627 0 -0.012261098503053318 0.023658606030326622 0 -0.011980462267890069 0.024827201175852239 0 -0.012241907638266082 0.025725124433332001 0 -0.0058695189482523358 0.0089395624974228111 0 -0.0060389304936110224 0.0091675887037491917 0 -0.005843473820885855 0.0094149041610143216 0 -0.0061050399955849249 0.0089093147423329952 0 -0.0058695189482523358 0.0089395624974228111 0 -0.0060389304936110224 0.0091675887037491917 0 -0.0061050399955849249 0.0089093147423329952 0 -0.0060389304936110224 0.0091675887037491917 0 -0.0062796487568659897 0.0091402084235615109 0 -0.0060389304936110224 0.0091675887037491917 0 -0.0062796487568659897 0.0091402084235615109 0 -0.0060714449370386355 0.0094036364969278339 0 -0.004770274375911104 -0.005070555343774207 0 -0.0043366848664269384 -0.0054188112435356942 0 -0.0047856460931133965 -0.0062065792943744886 0 -0.0046448500310363999 0.0023774782509621349 0 -0.0033476346008321938 0.0038819023364571785 0 -0.0062796487568659897 0.0091402084235615109 0 -0.0060714449370386355 0.0094036364969278339 0 -0.0062404017266356046 0.009663846378234418 0 -0.0060714449370386355 0.0094036364969278339 0 -0.0060159725931674089 0.0096234551381159938 0 -0.0062404017266356046 0.009663846378234418 0 -0.011980462267890069 0.024827201175852239 0 -0.012241907638266082 0.025725124433332001 0 -0.011880383765423726 0.025263254766659738 0 -0.012241907638266082 0.025725124433332001 0 -0.011722337572201673 0.025714721785178717 0 -0.011880383765423726 0.025263254766659738 0 -0.0060389304936110224 0.0091675887037491917 0 -0.0060714449370386355 0.0094036364969278339 0 -0.005843473820885855 0.0094149041610143216 0 -0.0060714449370386355 0.0094036364969278339 0 -0.0059482732148551393 0.0095377405662307058 0 -0.0060159725931674089 0.0096234551381159938 0 -0.0060714449370386355 0.0094036364969278339 0 -0.005843473820885855 0.0094149041610143216 0 -0.0059482732148551393 0.0095377405662307058 0 -0.011606972658209697 0.026280715228483263 0 -0.010854916310391698 0.026388375778095021 0 -0.011659898608521645 0.027099907393098963 0 -0.011722337572201673 0.025714721785178717 0 -0.010854916310391698 0.026388375778095021 0 -0.0110486273086362 0.02452290612591982 0 -0.010854916310391698 0.026388375778095021 0 -0.009398177076641364 0.025898974896486616 0 -0.0110486273086362 0.02452290612591982 0 -0.011606972658209697 0.026280715228483263 0 -0.011722337572201673 0.025714721785178717 0 -0.010854916310391698 0.026388375778095021 0 -0.012241907638266082 0.025725124433332001 0 -0.011606972658209697 0.026280715228483263 0 -0.011659898608521645 0.027099907393098963 0 -0.012241907638266082 0.025725124433332001 0 -0.011606972658209697 0.026280715228483263 0 -0.011722337572201673 0.025714721785178717 0 -0.011722337572201673 0.025714721785178717 0 -0.011880383765423726 0.025263254766659738 0 -0.011121220205121735 0.024614137289149837 0 -0.012283439291328635 0.028766822137572992 0 -0.01277417012841822 0.029797448628221822 0 -0.010854916310391698 0.026388375778095021 0 -0.009398177076641364 0.025898974896486616 0 -0.010292050162616043 0.027123359430438757 0 -0.013318834876223163 0.033804447971123905 0 -0.01277417012841822 0.029797448628221822 0 -0.015185913664786221 0.035838357222536053 0 -0.015222577170119749 0.034276428680223174 0 -0.016513693446614949 0.03469868286699937 0 -0.015646957693447875 0.0331513039376857 0 -0.015222577170119749 0.034276428680223174 0 -0.016513693446614949 0.03469868286699937 0 -0.015185913664786221 0.035838357222536053 0 -0.015222577170119749 0.034276428680223174 0 -0.014267290985511294 0.034420191639581599 0 -0.013125251918639853 0.028370201292327729 0 -0.01277417012841822 0.029797448628221822 0 -0.012261098503053318 0.023658606030326622 0 -0.011980462267890069 0.024827201175852239 0 -0.011121220205121735 0.024614137289149837 0 -0.011677643664594624 0.023337601905812869 0 -0.012261098503053318 0.023658606030326622 0 -0.011492816134756854 0.024284827125260734 0 -0.013245414446496843 0.028758909721012166 0 -0.01277417012841822 0.029797448628221822 0 -0.011980462267890069 0.024827201175852239 0 -0.011880383765423726 0.025263254766659738 0 -0.011121220205121735 0.024614137289149837 0 -0.002904982470861879 -0.0088133914942300686 0 -0.0026660186645615395 -0.0067267162233734992 0 -0.0019549096207930766 -0.0043345869064254318 0 -0.00281027375354367 -0.0048921185116755856 0 -0.0023721571304810441 -0.0049440300426703476 0 -0.0024280169685964178 -0.009622779001309088 0 -0.0020420511505880295 -0.0069825825301144812 0 -0.0021264274012639732 -0.0043578943696674817 0 -0.0029627218336601784 -0.0044297364827353717 0 -0.0028778274229271671 -0.0048557228303355788 0 -0.0021264274012639732 -0.0043578943696674817 0 -0.0022580148985959772 -0.0041959911392522075 0 -0.0029627218336601784 -0.0044297364827353717 0 -0.002904982470861879 -0.0088133914942300686 0 -0.0033709200545014367 -0.0082402386111575712 0 -0.0021217208342869595 -0.003945902771691873 0 -0.0026956250440028965 -0.0032404986276016847 0 -0.0028539968984136951 -0.0037337567233698388 0 -0.0021217208342869595 -0.003945902771691873 0 -0.0028539968984136951 -0.0037337567233698388 0 -0.0028526629953276529 -0.0042068187668745996 0 -0.0028539968984136951 -0.0037337567233698388 0 -0.0032448862812124854 -0.0040137205773290215 0 -0.0028526629953276529 -0.0042068187668745996 0 -0.0032438993229163115 -0.0034804622609504493 0 -0.0028539968984136951 -0.0037337567233698388 0 -0.0032448862812124854 -0.0040137205773290215 0 -0.0029627218336601784 -0.0044297364827353717 0 -0.0037228426820142694 -0.0046622924245851537 0 -0.0028778274229271671 -0.0048557228303355788 0 -0.0032448862812124854 -0.0040137205773290215 0 -0.0028526629953276529 -0.0042068187668745996 0 -0.0036618627385769883 -0.0045307385061882357 0 -0.0026660186645615395 -0.0067267162233734992 0 -0.0032381320872810165 -0.0059930817113917597 0 -0.0036618627385769883 -0.0045307385061882357 0 -0.003869435300128816 -0.0039070852467593771 0 -0.0042342646460926609 -0.0042726554318218962 0 -0.0032448862812124854 -0.0040137205773290215 0 -0.0036618627385769883 -0.0045307385061882357 0 -0.003869435300128816 -0.0039070852467593771 0 -0.0039548465441593171 -0.0032465019801769393 0 -0.0032448862812124854 -0.0040137205773290215 0 -0.003869435300128816 -0.0039070852467593771 0 -0.0038468960893564995 -0.003428822030832977 0 -0.0032438993229163115 -0.0034804622609504493 0 -0.0032448862812124854 -0.0040137205773290215 0 -0.0033345876723873632 -0.00080779641151668439 0 -0.0028416942303002373 -0.0018964253860037493 0 -0.0039548465441593171 -0.0032465019801769393 0 -0.0047662065116468475 -0.0037888007412230974 0 -0.003869435300128816 -0.0039070852467593771 0 -0.0047662065116468475 -0.0037888007412230974 0 -0.003869435300128816 -0.0039070852467593771 0 -0.0042342646460926609 -0.0042726554318218962 0 -0.0047662065116468475 -0.0037888007412230974 0 -0.0042342646460926609 -0.0042726554318218962 0 -0.0045610144065421025 -0.0048901849005125947 0 -0.0036618627385769883 -0.0045307385061882357 0 -0.0042342646460926609 -0.0042726554318218962 0 -0.0045610144065421025 -0.0048901849005125947 0 -0.0037228426820142694 -0.0046622924245851537 0 -0.0045610144065421025 -0.0048901849005125947 0 -0.0040745461691579577 -0.0050959639452354093 0 -0.0040745461691579577 -0.0050959639452354093 0 -0.0043366848664269384 -0.0054188112435356942 0 -0.0036908711424237174 -0.0054160851173955214 0 -0.0032381320872810165 -0.0059930817113917597 0 -0.0036158314056810195 -0.0058535904881713346 0 -0.004770274375911104 -0.005070555343774207 0 -0.0045610144065421025 -0.0048901849005125947 0 -0.0043366848664269384 -0.0054188112435356942 0 -0.0045610144065421025 -0.0048901849005125947 0 -0.0040745461691579577 -0.0050959639452354093 0 -0.0043366848664269384 -0.0054188112435356942 0 -0.0043366848664269384 -0.0054188112435356942 0 -0.004094256705150825 -0.0058785209880001877 0 -0.0036908711424237174 -0.0054160851173955214 0 -0.0043366848664269384 -0.0054188112435356942 0 -0.004094256705150825 -0.0058785209880001877 0 -0.0047856460931133965 -0.0062065792943744886 0 -0.0036908711424237174 -0.0054160851173955214 0 -0.0033736306072151253 -0.0057568467401541475 0 -0.0030135562945247528 -0.0055865216781691828 0 -0.004094256705150825 -0.0058785209880001877 0 -0.0036908711424237174 -0.0054160851173955214 0 -0.0035977582473652936 -0.0059825830176937324 0 -0.0036908711424237174 -0.0054160851173955214 0 -0.0035977582473652936 -0.0059825830176937324 0 -0.0033736306072151253 -0.0057568467401541475 0 -0.0035977582473652936 -0.0059825830176937324 0 -0.0033736306072151253 -0.0057568467401541475 0 -0.0032967994350129532 -0.0059654742254273791 0 -0.0037228426820142694 -0.0046622924245851537 0 -0.0036908711424237174 -0.0054160851173955214 0 -0.0028778274229271671 -0.0048557228303355788 0 -0.0037228426820142694 -0.0046622924245851537 0 -0.0040745461691579577 -0.0050959639452354093 0 -0.0036908711424237174 -0.0054160851173955214 0 -0.002441316048797632 -0.0065959719420435299 0 -0.0020420511505880295 -0.0069825825301144812 0 -0.0036908711424237174 -0.0054160851173955214 0 -0.0028940013538397251 -0.0052466087201743401 0 -0.0030135562945247528 -0.0055865216781691828 0 -0.0036908711424237174 -0.0054160851173955214 0 -0.00281027375354367 -0.0048921185116755856 0 -0.0028940013538397251 -0.0052466087201743401 0 -0.0028940013538397251 -0.0052466087201743401 0 -0.0030135562945247528 -0.0055865216781691828 0 -0.0025228451078328552 -0.0053692749564087832 0 -0.0033736306072151253 -0.0057568467401541475 0 -0.0029606875433198436 -0.0059097514451528967 0 -0.0030135562945247528 -0.0055865216781691828 0 -0.0033736306072151253 -0.0057568467401541475 0 -0.0032967994350129532 -0.0059654742254273791 0 -0.0029606875433198436 -0.0059097514451528967 0 -0.0029606875433198436 -0.0059097514451528967 0 -0.0030135562945247528 -0.0055865216781691828 0 -0.0025860480056025849 -0.0057073016823815598 0 -0.0030135562945247528 -0.0055865216781691828 0 -0.0025860480056025849 -0.0057073016823815598 0 -0.0025228451078328552 -0.0053692749564087832 0 -0.0025860480056025849 -0.0057073016823815598 0 -0.0022205471842733655 -0.0055767235987432776 0 -0.0025228451078328552 -0.0053692749564087832 0 -0.0029606875433198436 -0.0059097514451528967 0 -0.0025860480056025849 -0.0057073016823815598 0 -0.0022131380443440761 -0.0060951467543237312 0 -0.0025860480056025849 -0.0057073016823815598 0 -0.0022205471842733655 -0.0055767235987432776 0 -0.0022131380443440761 -0.0060951467543237312 0 -0.0020820907033045227 -0.0051124205337817665 0 -0.0022205471842733655 -0.0055767235987432776 0 -0.0025228451078328552 -0.0053692749564087832 0 -0.0028940013538397251 -0.0052466087201743401 0 -0.0025228451078328552 -0.0053692749564087832 0 -0.0023721571304810441 -0.0049440300426703476 0 -0.00281027375354367 -0.0048921185116755856 0 -0.0028940013538397251 -0.0052466087201743401 0 -0.0023721571304810441 -0.0049440300426703476 0 -0.0020820907033045227 -0.0051124205337817665 0 -0.0025228451078328552 -0.0053692749564087832 0 -0.0023721571304810441 -0.0049440300426703476 0 -0.0020820907033045227 -0.0051124205337817665 0 -0.0020181848987545531 -0.0047995423555368885 0 -0.0023721571304810441 -0.0049440300426703476 0 0.0024862138348779729 -0.0085300133434003198 0 0.0031005763257361155 -0.0087509881037654974 0 0.0030383400581817026 -0.008190872142132247 0 0.0031005763257361155 -0.0087509881037654974 0 0.0030383400581817026 -0.008190872142132247 0 0.003927324693711513 -0.0081028491232202193 0 0.001826475476208365 -0.0085025124756097862 0 0.0018688533830789661 -0.0083517231376041452 0 0.0015806592851959195 -0.0083640385748528015 0 0.001826475476208365 -0.0085025124756097862 0 0.0015806592851959195 -0.0083640385748528015 0 0.001546973355792939 -0.0084230620345438195 0 -0.00037386416724490706 -0.0066702578077434353 0 -0.0010478226304095992 -0.0020883925875390215 0 0.002470982391945552 -0.0054801008038784455 0 -0.00021167831513775002 -0.0017537694596327143 0 -0.0029606875433198436 -0.0059097514451528967 0 -0.0022131380443440761 -0.0060951467543237312 0 -0.0033312461325229834 -0.0062534272328154811 0 -0.0032967994350129532 -0.0059654742254273791 0 -0.0029606875433198436 -0.0059097514451528967 0 -0.0033312461325229834 -0.0062534272328154811 0 0.0031005763257361155 -0.0087509881037654974 0 0.0044946505920692506 -0.0090637920058445343 0 0.003927324693711513 -0.0081028491232202193 0 -0.00021167831513775002 -0.0017537694596327143 0 0.00048557715049311954 -0.0015112394898308178 0 0.0044946505920692506 -0.0090637920058445343 0 0.005037495580009153 -0.0080698603846534687 0 0.003927324693711513 -0.0081028491232202193 0 -0.0014136092239999875 0.0013437451160944968 0 -0.00064450187182396503 0.0011876886354450667 0 -0.00086372946387849371 0.0023959977078707121 0 -0.0010478226304095992 -0.0020883925875390215 0 -0.0020743029794686035 0.0013212867778236311 0 -0.0035977582473652936 -0.0059825830176937324 0 -0.0033312461325229834 -0.0062534272328154811 0 -0.0040596675844425138 -0.0063655384366873534 0 -0.00071622305654953013 0.00018988273445309534 0 -0.00081604243124759645 1.3198827874313136e-06 0 -0.0012708319700799242 0.00010192764729461065 0 -0.0010478226304095992 -0.0020883925875390215 0 -0.00021167831513775002 -0.0017537694596327143 0 -0.0035977582473652936 -0.0059825830176937324 0 -0.0032967994350129532 -0.0059654742254273791 0 -0.0033312461325229834 -0.0062534272328154811 0 -0.004094256705150825 -0.0058785209880001877 0 -0.0035977582473652936 -0.0059825830176937324 0 -0.0040596675844425138 -0.0063655384366873534 0 -0.00021167831513775002 -0.0017537694596327143 0 -0.0020743029794686035 0.0013212867778236311 0 -0.0017677447060787405 0.0029932083699288317 0 -0.0049392170443516908 0.0036635631267547546 0 -0.0049816428026167679 0.0024453353727150076 0 -0.00064450187182396503 0.0011876886354450667 0 -0.00021332143121580269 0.0019408652887428347 0 0.00029698520924663618 0.0013588376826812153 0 -0.0020743029794686035 0.0013212867778236311 0 -0.0031205023955077887 0.0063391255690740849 0 -0.0020743029794686035 0.0013212867778236311 0 -0.0033476346008321938 0.0038819023364571785 0 -0.004094256705150825 -0.0058785209880001877 0 -0.0040596675844425138 -0.0063655384366873534 0 -0.0047856460931133965 -0.0062065792943744886 0 -0.00064450187182396503 0.0011876886354450667 0 -0.00021332143121580269 0.0019408652887428347 0 -0.00086372946387849371 0.0023959977078707121 0 -0.00030985043923730291 0.0034502638924764836 0 -0.00086372946387849371 0.0023959977078707121 0 0.00035759434013507509 0.0028220944644742054 0 -0.00021332143121580269 0.0019408652887428347 0 -0.00086372946387849371 0.0023959977078707121 0 0.00035759434013507509 0.0028220944644742054 0 0.00082166468511675505 8.489734619784319e-05 0 0.00048557715049311954 -0.0015112394898308178 0 0.0045335413560832162 -0.0066463054507045448 0 0.0055879994013109677 -0.0070682376064263716 0 0.0046840040252676511 -0.0074143939474160467 0 0.0045335413560832162 -0.0066463054507045448 0 0.0046840040252676511 -0.0074143939474160467 0 0.0039927424299889061 -0.0073219043288901093 0 0.005037495580009153 -0.0080698603846534687 0 0.0046840040252676511 -0.0074143939474160467 0 0.003927324693711513 -0.0081028491232202193 0 0.0055879994013109677 -0.0070682376064263716 0 0.005037495580009153 -0.0080698603846534687 0 0.0046840040252676511 -0.0074143939474160467 0 0.003927324693711513 -0.0081028491232202193 0 0.0039927424299889061 -0.0073219043288901093 0 0.0032131735315169925 -0.0076430886160627686 0 0.0046840040252676511 -0.0074143939474160467 0 0.003927324693711513 -0.0081028491232202193 0 0.0039927424299889061 -0.0073219043288901093 0 0.0045335413560832162 -0.0066463054507045448 0 0.0039927424299889061 -0.0073219043288901093 0 0.0034500872980049082 -0.0068599857843961382 0 0.0024453634199596216 -0.0072785614428362384 0 0.0034500872980049082 -0.0068599857843961382 0 0.0032131735315169925 -0.0076430886160627686 0 0.0039927424299889061 -0.0073219043288901093 0 0.0034500872980049082 -0.0068599857843961382 0 0.0032131735315169925 -0.0076430886160627686 0 0.0030383400581817026 -0.008190872142132247 0 0.003927324693711513 -0.0081028491232202193 0 0.0032131735315169925 -0.0076430886160627686 0 0.0025515445942882408 -0.0078891871366135648 0 0.0030383400581817026 -0.008190872142132247 0 0.0032131735315169925 -0.0076430886160627686 0 -0.0086780831863620851 0.02439849369715321 0 -0.0052577161686021461 0.016377249696338591 0 -0.0086780831863620851 0.02439849369715321 0 -0.004283879888942764 0.01710660554053605 0 -0.0052760587992500161 0.020135624539420149 0 -0.0043440761051393188 0.020250134973488477 0 -0.0043756439639774823 0.019027227310810923 0 -0.0056143182734638081 0.027038775412967214 0 -0.0051852185466017605 0.027435982480242052 0 -0.0051604918253834817 0.026957853528431785 0 -0.008857890803288913 0.029959329624305388 0 -0.0088143225699956317 0.029000918131556194 0 -0.010225455010005956 0.0286519093358477 0 -0.0090251355482971526 0.031653736900503014 0 -0.0086780831863620851 0.02439849369715321 0 -0.0088143225699956317 0.029000918131556194 0 -0.010203566229066447 0.028660226399544315 0 -0.0093718421549733883 0.027637186865186646 0 -0.0086443765792459867 0.024721359370755491 0 -0.0086780831863620851 0.02439849369715321 0 -0.009398177076641364 0.025898974896486616 0 -0.0093718421549733883 0.027637186865186646 0 -0.0076660920479819684 0.027334017904069117 0 -0.0086780831863620851 0.02439849369715321 0 -0.0090503426581371588 0.024995711756939466 0 -0.009398177076641364 0.025898974896486616 0 -0.0093718421549733883 0.027637186865186646 0 -0.010292050162616043 0.027123359430438757 0 -0.010150506952682445 0.028573697631041711 0 -0.0093718421549733883 0.027637186865186646 0 -0.010292050162616043 0.027123359430438757 0 -0.010189390440138741 0.028458606762363559 0 -0.011659898608521645 0.027099907393098963 0 -0.012155939341026384 0.028210953682911127 0 -0.010854916310391698 0.026388375778095021 0 -0.010292050162616043 0.027123359430438757 0 -0.011659898608521645 0.027099907393098963 0 -0.010150506952682445 0.028573697631041711 0 -0.010292050162616043 0.027123359430438757 0 -0.011659898608521645 0.027099907393098963 0 -0.0086780831863620851 0.02439849369715321 0 -0.0089746766512831169 0.024974840657645887 0 -0.0059482732148551393 0.0095377405662307058 0 -0.0060159725931674089 0.0096234551381159938 0 -0.0058267660675799865 0.0098684290975445139 0 -0.012241907638266082 0.025725124433332001 0 -0.011659898608521645 0.027099907393098963 0 -0.012155939341026384 0.028210953682911127 0 -0.0073085359862982745 0.017034837562309627 0 -0.0052577161686021461 0.016377249696338591 0 -0.005843473820885855 0.0094149041610143216 0 -0.0059482732148551393 0.0095377405662307058 0 -0.0058267660675799865 0.0098684290975445139 0 -0.0031205023955077887 0.0063391255690740849 0 -0.0052577161686021461 0.016377249696338591 0 -0.0060159725931674089 0.0096234551381159938 0 -0.0062123689243236231 0.0097819185197666886 0 -0.0058267660675799865 0.0098684290975445139 0 -0.0060159725931674089 0.0096234551381159938 0 -0.0062147205274794958 0.009663480249591596 0 -0.0062123689243236231 0.0097819185197666886 0 -0.004104250749725283 0.0043560025040067247 0 -0.0033476346008321938 0.0038819023364571785 0 -0.0033476346008321938 0.0038819023364571785 0 -0.0031205023955077887 0.0063391255690740849 0 -0.0031205023955077887 0.0063391255690740849 0 -0.001216433215896822 0.0066854739963136366 0 -0.0014489207321914921 0.011901012858900597 0 -0.0019168102640361949 0.011287379563212381 0 -0.0014727909228760324 0.010890813168662873 0 -0.00021332143121580269 0.0019408652887428347 0 0.00029698520924663618 0.0013588376826812153 0 0.00035759434013507509 0.0028220944644742054 0 -0.0014489207321914921 0.011901012858900597 0 -0.0022546754390928418 0.011773628888605166 0 -0.0019168102640361949 0.011287379563212381 0 -0.0022546754390928418 0.011773628888605166 0 -0.0019168102640361949 0.011287379563212381 0 -0.0022805686140135576 0.010829869058632664 0 -0.0052577161686021461 0.016377249696338591 0 -0.004283879888942764 0.01710660554053605 0 -0.0019168102640361949 0.011287379563212381 0 -0.0022805686140135576 0.010829869058632664 0 -0.0014727909228760324 0.010890813168662873 0 0.00042206021895072667 0.0042968257256174357 0 -0.00030985043923730291 0.0034502638924764836 0 0.00035759434013507509 0.0028220944644742054 0 0.00016786231035179861 0.0061329546729804452 0 -0.001216433215896822 0.0066854739963136366 0 -0.0014915158827649886 0.0098557208076809066 0 -0.0014727909228760324 0.010890813168662873 0 -0.0018895233511715813 0.010343485969233382 0 -0.0029812644933128272 0.017671387505893303 0 -0.004283879888942764 0.01710660554053605 0 -0.0022805686140135576 0.010829869058632664 0 -0.0014727909228760324 0.010890813168662873 0 -0.0018895233511715813 0.010343485969233382 0 -0.0031954890256958479 0.010970281103136531 0 -0.0030989559797222027 0.014636643169310551 0 -0.001550694352940353 0.012728884499949559 0 -0.004283879888942764 0.01710660554053605 0 -0.0019767298432317709 0.011556235491712466 0 -0.0045123379045698209 0.025697622659600176 0 -0.0044957413053906773 0.026590962358755594 0 -0.0053048770418434622 0.026346974752140782 0 -0.0051852185466017605 0.027435982480242052 0 -0.0044957413053906773 0.026590962358755594 0 -0.0051604918253834817 0.026957853528431785 0 -0.0044957413053906773 0.026590962358755594 0 -0.0051604918253834817 0.026957853528431785 0 -0.0053048770418434622 0.026346974752140782 0 -0.0056143182734638081 0.027038775412967214 0 -0.0051604918253834817 0.026957853528431785 0 -0.0053048770418434622 0.026346974752140782 0 -0.0056143182734638081 0.027038775412967214 0 -0.0053048770418434622 0.026346974752140782 0 -0.0060064521813297063 0.026678957376746366 0 -0.0054002193280038458 0.02562889673849203 0 -0.0060057092726017395 0.025913054467677697 0 -0.0053048770418434622 0.026346974752140782 0 -0.0074884170515225491 0.038704006955142242 0 -0.0079890686358962126 0.038646652862940119 0 -0.0077909759103616865 0.040182069479826756 0 -0.0060057092726017395 0.025913054467677697 0 -0.0053048770418434622 0.026346974752140782 0 -0.0060064521813297063 0.026678957376746366 0 -0.0069900825055415842 0.034237337937314039 0 -0.0093258572497561636 0.039286435418030001 0 -0.0074884170515225491 0.038704006955142242 0 -0.0077909759103616865 0.040182069479826756 0 -0.0075036388740986944 0.040456110826206051 0 -0.0082467424222835862 0.042756626972484044 0 -0.0095035721727819919 0.042993149269534889 0 -0.010100044198014661 0.049864011407536574 0 -0.0095035721727819919 0.042993149269534889 0 -0.013138105941956671 0.054035515947523628 0 -0.014448436751144253 0.052778949871612441 0 -0.013329407829291675 0.052841825599961381 0 -0.01300240891426321 0.053806576107536752 0 -0.014225288853965542 0.053716746504085804 0 -0.014403881503229252 0.052408122024028059 0 -0.013712068405991065 0.052437990050875932 0 -0.014044027370720772 0.052024826637149517 0 -0.013124735988581809 0.052099078844680839 0 -0.013712068405991065 0.052437990050875932 0 -0.014448436751144253 0.052778949871612441 0 -0.013329407829291675 0.052841825599961381 0 -0.013712068405991065 0.052437990050875932 0 -0.014044027370720772 0.052024826637149517 0 -0.014448436751144253 0.052778949871612441 0 -0.0095035721727819919 0.042993149269534889 0 -0.010049555220055489 0.047528477616058322 0 -0.0093258572497561636 0.039286435418030001 0 -0.011138788951707248 0.039921608045230365 0 -0.014401788280506042 0.052332831579871543 0 -0.014566575252926981 0.052185911879383158 0 -0.014621099679064936 0.051456043696402075 0 -0.008857890803288913 0.029959329624305388 0 -0.0076036466622809292 0.031154201810014916 0 -0.0076261651670113256 0.029221633228929914 0 -0.014044027370720772 0.052024826637149517 0 -0.014448436751144253 0.052778949871612441 0 -0.014604689492961415 0.051356222169395671 0 -0.0095035721727819919 0.042993149269534889 0 -0.0093258572497561636 0.039286435418030001 0 -0.0090251355482971526 0.031653736900503014 0 -0.0093258572497561636 0.039286435418030001 0 -0.014401788280506042 0.052332831579871543 0 -0.014604689492961415 0.051356222169395671 0 -0.014621099679064936 0.051456043696402075 0 -0.0088143225699956317 0.029000918131556194 0 -0.0076261651670113256 0.029221633228929914 0 -0.0076660920479819684 0.027334017904069117 0 -0.008857890803288913 0.029959329624305388 0 -0.0088143225699956317 0.029000918131556194 0 -0.0076261651670113256 0.029221633228929914 0 -0.014604689492961415 0.051356222169395671 0 -0.014621099679064936 0.051456043696402075 0 -0.01464290006592339 0.050517203499628113 0 -0.014044027370720772 0.052024826637149517 0 -0.013509384085509425 0.051481228692334104 0 -0.013124735988581809 0.052099078844680839 0 -0.014044027370720772 0.052024826637149517 0 -0.014604689492961415 0.051356222169395671 0 -0.013509384085509425 0.051481228692334104 0 -0.014604689492961415 0.051356222169395671 0 -0.013509384085509425 0.051481228692334104 0 -0.01464290006592339 0.050517203499628113 0 -0.013509384085509425 0.051481228692334104 0 -0.013481073887528443 0.050336144299705093 0 -0.014622694052958476 0.050536117218471906 0 -0.011211090314917802 0.04425252558507832 0 -0.01295798545426724 0.040082127911011338 0 -0.0088143225699956317 0.029000918131556194 0 -0.0093718421549733883 0.027637186865186646 0 -0.0076660920479819684 0.027334017904069117 0 -0.011138788951707248 0.039921608045230365 0 -0.01295798545426724 0.040082127911011338 0 -0.01229935779284131 0.051265749785244466 0 -0.01132170747395614 0.050517774011676987 0 -0.012443903493755305 0.050118285792487414 0 -0.013509384085509425 0.051481228692334104 0 -0.013481073887528443 0.050336144299705093 0 -0.01229935779284131 0.051265749785244466 0 -0.013481073887528443 0.050336144299705093 0 -0.01229935779284131 0.051265749785244466 0 -0.012443903493755305 0.050118285792487414 0 -0.013509384085509425 0.051481228692334104 0 -0.01229935779284131 0.051265749785244466 0 -0.013124735988581809 0.052099078844680839 0 -0.01229935779284131 0.051265749785244466 0 -0.012331380186067465 0.052445042900236084 0 -0.013124735988581809 0.052099078844680839 0 -0.01229935779284131 0.051265749785244466 0 -0.012331380186067465 0.052445042900236084 0 -0.011442416027993027 0.052177337696805971 0 -0.012331380186067465 0.052445042900236084 0 -0.011677020408806032 0.053062027064524814 0 -0.011442416027993027 0.052177337696805971 0 -0.012331380186067465 0.052445042900236084 0 -0.013124735988581809 0.052099078844680839 0 -0.013329407829291675 0.052841825599961381 0 -0.012331380186067465 0.052445042900236084 0 -0.013329407829291675 0.052841825599961381 0 -0.0125339051462082 0.053334972724770703 0 -0.013712068405991065 0.052437990050875932 0 -0.013124735988581809 0.052099078844680839 0 -0.013329407829291675 0.052841825599961381 0 -0.013138105941956671 0.054035515947523628 0 -0.013329407829291675 0.052841825599961381 0 -0.0125339051462082 0.053334972724770703 0 -0.012268620092059467 0.054153727223911118 0 -0.013138105941956671 0.054035515947523628 0 -0.0125339051462082 0.053334972724770703 0 -0.012331380186067465 0.052445042900236084 0 -0.0125339051462082 0.053334972724770703 0 -0.011677020408806032 0.053062027064524814 0 -0.011770869539648352 0.053889547454977378 0 -0.012268620092059467 0.054153727223911118 0 -0.0125339051462082 0.053334972724770703 0 -0.011770869539648352 0.053889547454977378 0 -0.0125339051462082 0.053334972724770703 0 -0.011677020408806032 0.053062027064524814 0 -0.011770869539648352 0.053889547454977378 0 -0.011677020408806032 0.053062027064524814 0 -0.010951631363645917 0.053682406581441515 0 -0.011677020408806032 0.053062027064524814 0 -0.010951631363645917 0.053682406581441515 0 -0.010898733496876938 0.052859390443310582 0 -0.010951631363645917 0.053682406581441515 0 -0.010075490779835612 0.053302173046656937 0 -0.010898733496876938 0.052859390443310582 0 -0.010079769611756502 0.054404533928734539 0 -0.010951631363645917 0.053682406581441515 0 -0.010075490779835612 0.053302173046656937 0 -0.010079769611756502 0.054404533928734539 0 -0.010075490779835612 0.053302173046656937 0 -0.0089381751476904237 0.053883630325703785 0 -0.010384766492287282 0.052247825008484523 0 -0.0091235022351907336 0.052674798712513238 0 -0.0096808758689129141 0.051683443274329742 0 -0.010075490779835612 0.053302173046656937 0 -0.010384766492287282 0.052247825008484523 0 -0.010898733496876938 0.052859390443310582 0 -0.010075490779835612 0.053302173046656937 0 -0.010384766492287282 0.052247825008484523 0 -0.0091235022351907336 0.052674798712513238 0 -0.010384766492287282 0.052247825008484523 0 -0.011442416027993027 0.052177337696805971 0 -0.010898733496876938 0.052859390443310582 0 -0.011677020408806032 0.053062027064524814 0 -0.011442416027993027 0.052177337696805971 0 -0.010898733496876938 0.052859390443310582 0 -0.007452552067748152 0.053465369294140599 0 -0.0089381751476904237 0.053883630325703785 0 -0.0091235022351907336 0.052674798712513238 0 -0.0080652630511407856 0.05445204259573088 0 -0.007452552067748152 0.053465369294140599 0 -0.0089381751476904237 0.053883630325703785 0 -0.010075490779835612 0.053302173046656937 0 -0.0089381751476904237 0.053883630325703785 0 -0.0091235022351907336 0.052674798712513238 0 -0.007452552067748152 0.053465369294140599 0 -0.0091235022351907336 0.052674798712513238 0 -0.0076394065566181158 0.051806004932445179 0 -0.0055355063974405934 0.052248924737061858 0 -0.0061170695514951275 0.052015411003399056 0 -0.0076394065566181158 0.051806004932445179 0 -0.0092623426866807294 0.05104456088166192 0 -0.0077651647096724126 0.050719240211844117 0 -0.0091235022351907336 0.052674798712513238 0 -0.0076394065566181158 0.051806004932445179 0 -0.0096808758689129141 0.051683443274329742 0 -0.0076394065566181158 0.051806004932445179 0 -0.0096808758689129141 0.051683443274329742 0 -0.0092623426866807294 0.05104456088166192 0 -0.0092623426866807294 0.05104456088166192 0 -0.0077651647096724126 0.050719240211844117 0 -0.0087938151884859057 0.049726513282716905 0 -0.0096808758689129141 0.051683443274329742 0 -0.0092623426866807294 0.05104456088166192 0 -0.010393693060819451 0.05085886562285713 0 -0.01229935779284131 0.051265749785244466 0 -0.011442416027993027 0.052177337696805971 0 -0.010946320628579189 0.051336689914001248 0 -0.010384766492287282 0.052247825008484523 0 -0.011442416027993027 0.052177337696805971 0 -0.010946320628579189 0.051336689914001248 0 -0.010384766492287282 0.052247825008484523 0 -0.0096808758689129141 0.051683443274329742 0 -0.010946320628579189 0.051336689914001248 0 -0.0096808758689129141 0.051683443274329742 0 -0.010946320628579189 0.051336689914001248 0 -0.010393693060819451 0.05085886562285713 0 -0.010393693060819451 0.05085886562285713 0 -0.01132170747395614 0.050517774011676987 0 -0.010453840018726141 0.049970848380365772 0 -0.0092623426866807294 0.05104456088166192 0 -0.010393693060819451 0.05085886562285713 0 -0.010453840018726141 0.049970848380365772 0 -0.010946320628579189 0.051336689914001248 0 -0.010393693060819451 0.05085886562285713 0 -0.01132170747395614 0.050517774011676987 0 -0.01229935779284131 0.051265749785244466 0 -0.010946320628579189 0.051336689914001248 0 -0.01132170747395614 0.050517774011676987 0 -0.015998119770084307 0.049580537471550369 0 -0.010453840018726141 0.049970848380365772 0 -0.013323423925173005 0.047768431525214539 0 -0.01132170747395614 0.050517774011676987 0 -0.011599529537789267 0.049713289600356168 0 -0.010453840018726141 0.049970848380365772 0 -0.013741148577537367 0.0477223103138271 0 -0.012236206792735741 0.048516235390795907 0 -0.010453840018726141 0.049970848380365772 0 -0.010577125333485399 0.04892258465717058 0 -0.013323423925173005 0.047768431525214539 0 -0.010577125333485399 0.04892258465717058 0 -0.013323423925173005 0.047768431525214539 0 -0.012626538807846355 0.044519903951118878 0 -0.011119423685638553 0.048069433457146538 0 -0.012466237144487614 0.044976011589471065 0 -0.010845829926773718 0.048856164140570077 0 -0.010494576699555346 0.046972555697385295 0 -0.012955531651172534 0.045019280856862735 0 -0.013323423925173005 0.047768431525214539 0 -0.012626538807846355 0.044519903951118878 0 -0.017114260410320332 0.045212030683241027 0 -0.015998119770084307 0.049580537471550369 0 -0.013323423925173005 0.047768431525214539 0 -0.017114260410320332 0.045212030683241027 0 -0.0077651647096724126 0.050719240211844117 0 -0.007277874501535565 0.049368615018066754 0 -0.0087938151884859057 0.049726513282716905 0 -0.007277874501535565 0.049368615018066754 0 -0.0087938151884859057 0.049726513282716905 0 -0.0091074201025810476 0.048227763042656129 0 -0.010449828986027117 0.049536443632164973 0 -0.011119423685638553 0.048069433457146538 0 -0.0092623426866807294 0.05104456088166192 0 -0.010845829926773718 0.048856164140570077 0 -0.0087938151884859057 0.049726513282716905 0 -0.0092623426866807294 0.05104456088166192 0 -0.010453840018726141 0.049970848380365772 0 -0.010577125333485399 0.04892258465717058 0 -0.010845829926773718 0.048856164140570077 0 -0.0087938151884859057 0.049726513282716905 0 -0.0091074201025810476 0.048227763042656129 0 -0.010494576699555346 0.046972555697385295 0 -0.0091074201025810476 0.048227763042656129 0 -0.0091689813567259019 0.045656245374823455 0 -0.010845829926773718 0.048856164140570077 0 -0.010494576699555346 0.046972555697385295 0 -0.0091074201025810476 0.048227763042656129 0 -0.00584871200063743 0.04765125873348728 0 -0.007277874501535565 0.049368615018066754 0 -0.0091074201025810476 0.048227763042656129 0 -0.00584871200063743 0.04765125873348728 0 -0.0091074201025810476 0.048227763042656129 0 -0.0091689813567259019 0.045656245374823455 0 -0.00584871200063743 0.04765125873348728 0 -0.0066021365808666844 0.043510095493269958 0 -0.0091689813567259019 0.045656245374823455 0 -0.0066021365808666844 0.043510095493269958 0 -0.0091689813567259019 0.045656245374823455 0 -0.010371837447732204 0.040910016551572878 0 -0.0091689813567259019 0.045656245374823455 0 -0.010371837447732204 0.040910016551572878 0 -0.012955531651172534 0.045019280856862735 0 -0.010494576699555346 0.046972555697385295 0 -0.0091689813567259019 0.045656245374823455 0 -0.012955531651172534 0.045019280856862735 0 -0.0061889788963661917 0.039373386941328213 0 -0.0066021365808666844 0.043510095493269958 0 -0.010371837447732204 0.040910016551572878 0 -0.012626538807846355 0.044519903951118878 0 -0.014662378030851433 0.040202556417170923 0 -0.017114260410320332 0.045212030683241027 0 -0.012466237144487614 0.044976011589471065 0 -0.013308595790530738 0.042937717179154948 0 -0.010371837447732204 0.040910016551572878 0 -0.012955531651172534 0.045019280856862735 0 -0.014662378030851433 0.040202556417170923 0 -0.018627428704357903 0.037894534584507603 0 -0.014662378030851433 0.040202556417170923 0 -0.019305107825102481 0.041944892301005357 0 -0.014662378030851433 0.040202556417170923 0 -0.019305107825102481 0.041944892301005357 0 -0.017114260410320332 0.045212030683241027 0 -0.019305107825102481 0.041944892301005357 0 -0.017114260410320332 0.045212030683241027 0 -0.02234516151335357 0.044419786444289504 0 -0.018627428704357903 0.037894534584507603 0 -0.019305107825102481 0.041944892301005357 0 -0.022694909480217795 0.04086680902518687 0 -0.019305107825102481 0.041944892301005357 0 -0.02234516151335357 0.044419786444289504 0 -0.022694909480217795 0.04086680902518687 0 -0.02234516151335357 0.044419786444289504 0 -0.022694909480217795 0.04086680902518687 0 -0.026497292106660002 0.041914880154886772 0 -0.024246027890599008 0.038213715114164083 0 -0.022694909480217795 0.04086680902518687 0 -0.026497292106660002 0.041914880154886772 0 -0.014788575635128852 0.031596242454139056 0 -0.013899136924099499 0.032282960247026156 0 -0.01449811741174252 0.033275683509884364 0 -0.016832325041154273 0.036228250503752502 0 -0.01617000790027727 0.041113876637449566 0 -0.013899136924099499 0.032282960247026156 0 -0.01449811741174252 0.033275683509884364 0 -0.01387548478323063 0.034523085652179403 0 -0.02234516151335357 0.044419786444289504 0 -0.026497292106660002 0.041914880154886772 0 -0.026435761831818397 0.04704239676584402 0 -0.01617000790027727 0.041113876637449566 0 -0.016006785673340827 0.045435372817784751 0 -0.02234516151335357 0.044419786444289504 0 -0.026435761831818397 0.04704239676584402 0 -0.02132930090766948 0.04834390890546017 0 -0.015185913664786221 0.035838357222536053 0 -0.014267290985511294 0.034420191639581599 0 -0.01387114697459416 0.034522502057109945 0 -0.015222577170119749 0.034276428680223174 0 -0.01449811741174252 0.033275683509884364 0 -0.014267290985511294 0.034420191639581599 0 -0.01449811741174252 0.033275683509884364 0 -0.014267290985511294 0.034420191639581599 0 -0.01387548478323063 0.034523085652179403 0 -0.016140096358615547 0.041049899930771142 0 -0.01617000790027727 0.041113876637449566 0 -0.01295798545426724 0.040082127911011338 0 -0.01617000790027727 0.041113876637449566 0 -0.013318834876223163 0.033804447971123905 0 -0.01295798545426724 0.040082127911011338 0 -0.015185913664786221 0.035838357222536053 0 -0.013845499971557349 0.036979771654991909 0 -0.01387114697459416 0.034522502057109945 0 -0.013481073887528443 0.050336144299705093 0 -0.01464097030779205 0.048823717698751934 0 -0.013098727637046075 0.049244077241901017 0 -0.013481073887528443 0.050336144299705093 0 -0.014622694052958476 0.050536117218471906 0 -0.01464097030779205 0.048823717698751934 0 -0.013481073887528443 0.050336144299705093 0 -0.012443903493755305 0.050118285792487414 0 -0.013098727637046075 0.049244077241901017 0 -0.011599529537789267 0.049713289600356168 0 -0.012443903493755305 0.050118285792487414 0 -0.013098727637046075 0.049244077241901017 0 -0.013741148577537367 0.0477223103138271 0 -0.016006785673340827 0.045435372817784751 0 -0.01132170747395614 0.050517774011676987 0 -0.011599529537789267 0.049713289600356168 0 -0.012443903493755305 0.050118285792487414 0 -0.015998119770084307 0.049580537471550369 0 -0.017114260410320332 0.045212030683241027 0 -0.02132930090766948 0.04834390890546017 0 -0.017114260410320332 0.045212030683241027 0 -0.02234516151335357 0.044419786444289504 0 -0.02132930090766948 0.04834390890546017 0 
</DataArray>
</PointData>
<CellData Scalars="region_id,cross_section_updated," Vectors="" Tensors="stress,">
<DataArray type="Float64" Name="region_id" format="ascii">
5 5 6 5 5 5 5 6 5 5 5 5 5 5 5 5 5 5 5 5 6 5 5 5 5 6 5 5 5 5 5 5 5 6 5 5 5 5 5 5 5 5 6 5 5 5 5 5 5 5 5 5 5 5 6 6 5 5 5 5 5 5 5 5 6 5 5 5 5 5 5 5 5 5 5 5 5 5 5 5 5 5 5 5 5 5 5 6 5 5 5 5 5 5 5 5 5 5 5 6 5 5 5 6 5 5 5 5 5 5 5 5 5 5 5 5 5 5 5 5 5 5 5 5 5 5 5 5 5 5 5 5 5 5 5 5 5 5 5 5 5 5 5 5 5 5 5 5 5 6 5 6 5 5 5 5 5 5 5 5 5 5 5 5 5 5 5 5 5 5 5 5 5 5 5 5 5 5 6 5 5 6 5 6 5 5 5 5 5 5 5 5 5 5 5 5 5 5 6 5 6 5 5 5 5 5 5 5 6 5 6 5 5 5 5 5 5 6 5 5 6 5 5 5 5 5 5 6 6 5 5 6 5 6 5 6 6 5 5 5 6 5 5 5 5 5 5 5 5 5 5 5 5 5 6 5 5 5 5 5 5 5 6 5 5 5 5 5 5 5 6 5 5 5 5 6 5 5 5 5 5 5 6 5 5 5 6 5 5 5 5 5 5 5 6 5 5 5 5 5 5 6 5 5 5 5 5 5 6 5 5 5 5 5 5 5 6 5 5 5 5 5 5 5 5 5 5 5 5 5 5 5 5 5 5 5 5 5 6 6 5 5 5 5 5 6 5 5 5 5 5 5 5 6 5 6 5 5 5 6 5 5 5 6 5 6 5 5 5 5 5 5 5 6 5 5 5 5 5 5 5 6 5 5 5 6 5 5 5 5 5 5 5 5 5 5 5 5 5 5 5 5 5 5 5 5 5 5 5 5 5 5 5 5 5 5 5 5 6 5 5 5 5 5 5 5 5 5 5 5 5 5 5 5 5 5 5 5 5 5 5 5 5 5 5 5 5 5 5 5 5 6 5 5 5 5 5 5 5 5 5 5 5 5 5 5 5 5 5 5 5 5 6 5 5 5 5 5 5 5 6 5 5 5 5 5 6 5 5 6 5 6 5 5 5 5 6 5 5 6 5 5 5 5 5 5 6 5 5 5 5 5 5 5 5 5 5 5 5 5 5 5 5 5 5 5 6 5 5 5 5 5 5 5 5 5 5 5 6 6 5 5 5 5 5 5 5 5 5 5 5 5 5 5 5 5 5 5 5 5 5 6 5 6 6 5 5 6 5 5 5 5 5 5 5 5 5 5 5 5 5 6 5 5 5 5 5 5 5 6 6 5 5 5 5 5 5 5 5 6 6 5 5 5 6 5 5 5 5 5 5 5 5 5 5 5 5 5 5 5 5 5 5 5 5 5 5 5 5 5 5 5 5 5 5 5 5 5 5 5 6 5 5 6 5 5 5 5 6 5 5 5 6 5 5 5 6 5 5 6 5 5 5 5 5 5 5 5 5 5 5 5 5 5 5 5 5 5 5 5 5 6 5 5 5 6 5 5 5 5 5 6 5 5 5 5 5 5 6 5 5 5 5 5 5 5 5 5 5 5 5 5 5 5 5 5 5 6 5 5 5 5 5 5 5 5 5 5 5 5 5 5 5 5 5 5 5 5 5 6 5 5 5 5 5 5 5 5 5 5 5 5 5 5 5 6 5 5 5 5 5 5 5 5 5 5 5 5 5 5 5 5 5 5 6 5 5 5 5 5 5 5 6 5 5 5 5 5 5 5 5 5 5 5 5 5 5 5 5 5 5 5 5 5 6 5 5 5 5 5 5 5 5 5 6 5 5 5 5 5 5 5 5 6 5 5 5 5 5 5 5 5 5 5 5 5 5 5 5 5 5 5 5 6 5 5 5 5 5 6 5 5 5 6 5 5 5 5 5 5 6 5 5 5 5 5 5 5 5 5 5 6 5 5 5 5 5 5 5 5 5 5 5 5 6 5 6 5 5 5 5 5 5 5 6 5 6 5 5 5 5 5 5 5 5 5 5 5 5 5 5 5 5 5 5 5 5 5 5 5 5 5 5 5 5 5 5 5 5 5 5 5 5 5 5 5 5 5 5 5 5 5 6 6 5 5 6 5 5 5 5 5 5 5 5 5 5 5 5 5 5 5 5 6 5 5 5 5 6 5 5 6 5 5 5 5 5 5 6 5 6 5 5 6 5 5 5 5 5 5 5 5 5 5 6 5 5 5 5 5 6 6 5 5 5 5 6 5 5 6 5 6 5 5 5 5 5 6 5 5 6 5 5 5 5 5 5 5 5 5 5 5 5 6 5 5 5 5 5 5 5 5 5 5 5 5 5 5 5 6 5 6 5 6 6 5 6 5 5 6 5 5 5 5 5 5 6 5 6 5 5 6 5 5 5 6 5 5 6 5 5 5 5 5 6 5 5 6 5 5 5 5 5 6 5 6 5 5 6 5 5 6 5 5 5 5 5 5 5 5 6 5 5 5 5 5 5 5 5 5 5 6 5 5 5 5 6 5 5 6 5 5 5 5 5 6 5 5 5 5 5 6 5 6 5 5 5 5 5 5 6 5 5 5 5 5 5 5 5 6 6 6 5 5 5 5 6 5 6 5 5 5 6 6 5 5 5 6 5 5 5 6 5 6 5 6 6 5 6 5 5 5 5 6 5 5 5 6 5 6 5 6 5 5 5 5 5 5 5 6 5 5 5 5 6 5 5 5 5 5 5 5 5 6 5 6 6 5 5 5 6 5 5 5 5 6 6 5 5 6 6 5 5 5 5 5 6 5 5 5 5 5 5 5 5 6 5 6 5 5 5 5 5 5 5 5 5 5 5 5 5 5 5 5 5 6 5 5 5 5 5 5 5 5 5 5 5 5 5 5 5 5 5 5 5 5 5 5 5 5 5 6 5 6 5 5 5 5 5 6 6 5 5 5 5 6 6 5 6 5 5 6 5 5 6 5 5 5 5 6 6 5 5 5 5 5 5 5 5 6 5 5 6 5 5 5 6 5 5 6 5 5 5 5 5 5 6 5 5 5 5 5 5 6 5 5 5 5 5 6 5 5 6 6 5 5 6 5 5 6 5 5 5 5 5 5 5 5 5 5 5 5 6 5 6 5 5 6 5 5 5 5 5 5 6 5 5 5 6 6 6 5 5 5 6 6 5 6 6 5 5 6 5 5 6 5 6 5 6 5 5 5 6 6 5 5 6 6 6 6 5 5 5 6 6 5 5 6 6 6 5 6 6 5 5 6 5 6 6 5 6 5 5 6 5 6 6 5 5 5 5 6 6 5 5 6 5 5 5 6 5 5 5 5 5 5 5 5 5 5 5 5 5 5 5 5 5 5 5 5 5 5 5 5 5 5 5 5 5 5 5 5 5 5 5 5 5 5 5 5 5 5 5 5 5 5 5 5 5 5 5 5 5 5 5 5 5 5 6 5 6 5 5 5 5 5 5 5 5 5 5 5 5 5 5 6 5 5 5 5 5 5 5 5 5 5 6 5 5 5 5 5 5 5 5 5 5 5 5 5 5 5 5 5 5 5 5 5 5 5 5 5 5 5 5 5 5 5 5 5 5 5 5 5 5 5 5 5 5 5 5 5 5 6 5 5 5 6 5 6 5 5 5 5 5 6 5 6 5 5 5 5 5 5 5 5 5 5 5 5 5 5 5 5 5 5 5 5 5 5 5 5 5 6 5 5 5 5 5 5 6 5 6 5 5 5 6 5 5 6 5 5 5 5 5 5 5 5 5 5 5 5 5 5 5 5 5 5 5 5 5 5 5 5 5 5 5 5 5 5 5 5 5 5 5 5 5 6 5 6 5 5 5 5 5 5 5 5 5 5 6 5 5 5 5 5 5 5 5 5 5 5 5 5 5 5 5 5 6 5 5 5 6 6 5 6 5 5 5 5 5 5 5 5 6 5 5 5 5 6 5 5 5 5 5 5 5 6 5 5 6 5 6 5 5 6 5 5 6 6 5 5 5 5 5 5 5 5 5 5 5 5 5 5 5 6 5 6 5 5 5 6 5 6 5 5 5 5 5 5 5 5 5 5 5 5 6 5 6 5 5 5 5 5 5 5 5 6 5 5 6 5 5 5 6 6 5 5 5 5 5 5 5 5 5 5 5 5 5 5 5 5 5 5 5 5 5 6 5 5 5 5 5 6 5 6 5 5 5 5 6 5 5 6 5 5 5 5 5 6 5 5 5 5 6 5 5 5 5 5 5 5 6 5 5 5 6 5 5 5 5 5 5 5 5 5 5 5 6 5 5 5 5 5 5 5 5 6 5 5 5 5 5 5 6 5 5 5 5 5 5 6 5 5 5 5 5 5 5 5 5 5 5 6 5 5 5 6 5 5 5 6 5 6 5 5 5 5 5 5 6 5 5 5 5 5 5 5 5 5 5 5 5 5 5 5 6 5 5 5 5 5 6 5 5 5 5 5 5 5 5 6 5 5 5 5 5 5 5 5 5 5 5 5 5 5 5 5 6 5 5 5 5 6 5 5 5 5 5 5 5 5 5 5 5 5 5 5 5 5 5 5 5 5 5 5 5 5 5 5 6 5 5 5 6 5 6 5 5 5 5 6 5 6 5 5 5 5 5 6 5 5 5 5 5 5 5 5 5 6 5 5 5 5 5 5 5 5 5 5 5 5 5 5 5 5 5 5 5 5 5 5 5 5 6 6 5 5 5 5 5 6 5 5 5 6 5 5 5 6 5 5 6 5 6 5 5 5 5 6 5 5 5 5 6 6 5 5 5 5 5 5 5 5 5 5 5 5 6 5 5 5 5 6 5 5 5 5 5 6 5 5 6 5 5 5 5 5 5 5 5 5 5 5 5 5 5 5 5 6 5 5 6 5 5 5 6 5 5 5 5 5 5 5 5 5 5 5 6 5 5 5 5 5 5 5 5 5 5 5 5 5 5 5 5 6 5 5 6 5 6 5 5 6 5 6 5 6 5 5 5 5 5 5 5 5 5 5 5 5 5 6 5 6 6 5 5 6 6 5 5 6 6 5 5 5 6 5 6 5 5 6 5 5 5 5 6 6 5 6 5 5 6 6 5 5 6 5 5 5 6 5 5 5 6 6 6 5 5 6 5 6 6 5 5 5 5 5 5 5 5 5 5 5 6 6 5 6 5 6 5 6 5 5 5 6 5 5 5 5 5 6 5 5 5 5 5 5 5 5 5 5 5 5 5 5 5 5 5 5 5 5 5 5 5 5 6 5 5 5 5 5 5 5 5 5 5 5 5 5 5 5 5 5 5 6 5 5 5 5 5 5 5 5 5 5 5 6 5 5 5 5 5 6 5 5 5 5 5 5 5 5 5 5 5 5 5 5 6 5 5 5 5 5 5 5 5 5 5 5 5 5 5 6 5 6 5 5 5 5 6 5 5 5 5 5 5 5 5 5 5 5 5 6 5 6 5 5 5 5 6 5 5 5 5 5 5 5 6 5 5 5 5 5 5 5 6 5 5 5 6 5 6 5 5 5 5 5 5 5 5 5 6 5 5 5 5 5 5 5 5 5 5 5 5 5 5 5 5 5 5 5 5 5 5 5 5 5 5 5 5 5 5 5 5 5 5 5 5 5 5 5 5 5 5 5 6 5 5 6 5 5 5 5 5 5 5 5 5 5 6 5 5 5 5 5 6 5 5 6 5 5 5 5 5 5 6 5 5 5 5 6 5 5 6 5 6 5 5 5 5 5 5 5 5 5 5 5 6 5 6 5 5 5 5 6 5 5 5 5 5 5 5 5 5 5 5 5 5 5 5 5 5 5 5 5 5 6 5 5 5 5 6 5 5 5 5 5 5 5 6 5 5 5 5 5 6 5 5 5 6 5 5 5 6 5 5 6 5 5 5 6 5 5 6 5 5 5 5 5 5 5 5 5 5 5 5 5 5 5 5 5 5 5 5 5 5 5 5 5 5 5 5 5 5 5 6 5 5 5 5 5 5 5 5 5 5 5 6 5 5 5 5 5 5 5 5 5 5 5 5 5 5 5 6 6 5 5 5 6 5 5 5 5 6 5 5 6 5 5 5 5 5 5 5 5 5 5 5 5 5 6 6 5 5 5 5 5 5 5 5 5 5 5 6 5 5 6 5 5 5 5 5 5 5 5 5 5 5 5 5 5 5 5 5 5 5 6 5 5 5 6 5 5 5 5 5 6 5 5 5 5 5 5 5 5 5 5 5 5 5 5 5 5 5 5 5 5 6 5 5 6 5 5 5 5 5 5 5 5 5 5 5 5 5 5 5 5 5 5 5 6 5 5 5 5 5 5 5 5 5 5 5 5 5 5 5 5 5 5 5 5 5 5 5 5 5 5 5 5 5 5 5 5 6 5 5 5 5 5 5 6 5 5 5 5 5 6 5 5 5 5 6 5 5 5 5 5 5 5 5 5 5 5 5 5 5 5 5 5 5 5 5 5 5 6 5 5 5 5 5 5 5 6 5 5 6 5 5 6 5 5 5 5 5 5 6 5 5 5 5 5 5 5 5 5 5 6 5 6 5 5 5 5 5 5 5 5 6 5 5 6 5 5 5 6 5 5 5 6 5 5 5 6 6 5 5 6 5 5 6 5 5 6 5 5 5 5 5 5 5 5 5 6 5 5 5 6 5 5 5 6 5 5 5 6 5 6 5 5 6 5 5 5 5 5 5 5 5 6 5 5 6 5 5 5 5 5 5 5 5 5 5 5 5 5 6 5 6 5 5 5 6 6 5 6 5 5 5 5 6 5 6 5 5 5 5 5 5 5 5 5 6 5 5 5 5 5 5 5 5 5 5 5 5 5 5 5 5 5 5 5 5 5 5 5 5 5 5 5 5 6 5 5 5 5 5 5 6 5 5 5 5 5 5 6 5 5 5 5 5 5 6 5 5 5 6 5 5 5 6 5 5 6 5 5 5 5 5 5 6 5 5 5 6 6 5 5 5 5 5 5 5 5 5 5 5 5 5 5 5 5 5 6 5 5 5 5 5 5 5 6 5 5 5 5 5 6 5 5 5 5 5 6 5 5 6 5 5 5 5 6 5 5 5 5 5 5 6 5 6 5 6 6 5 6 5 5 5 6 5 5 5 5 5 6 5 5 5 6 5 5 5 5 6 6 6 5 5 5 5 6 6 5 6 5 5 5 5 5 5 6 5 6 5 5 6 5 5 5 6 5 5 6 5 5 5 5 5 5 5 5 5 5 5 5 6 5 5 5 5 6 5 5 5 5 6 5 5 5 5 5 5 5 5 5 6 6 6 5 5 5 6 6 5 5 6 5 6 5 5 5 5 5 5 5 6 5 5 5 5 5 5 5 5 5 5 5 5 5 5 5 5 6 5 5 5 5 5 5 5 5 5 6 5 5 6 5 6 5 6 5 5 6 5 5 5 6 6 5 5 6 5 5 5 6 5 5 5 5 6 5 5 5 5 5 5 5 5 5 5 5 6 6 5 5 5 5 5 5 5 5 5 5 5 5 5 5 5 5 5 5 5 5 5 5 5 5 5 5 5 5 5 5 5 5 6 5 5 5 5 5 5 5 5 5 5 5 5 5 5 5 5 5 5 5 6 5 5 5 5 5 5 6 6 5 5 6 6 5 5 5 6 5 5 5 5 5 5 5 5 5 5 5 5 5 5 5 5 5 5 5 5 5 5 5 6 5 6 5 6 5 5 5 5 5 5 6 5 6 6 5 5 6 5 5 5 5 5 5 6 6 5 5 6 6 5 5 6 6 5 5 5 5 5 5 5 5 6 5 5 5 5 5 6 5 5 6 5 5 5 6 5 5 5 5 5 5 5 5 5 5 5 5 5 5 5 5 5 5 5 5 5 5 5 5 5 5 5 5 5 5 5 5 5 5 6 5 5 6 5 6 6 5 5 5 5 5 5 5 5 5 6 5 5 5 5 5 6 5 5 5 5 5 5 5 6 5 5 5 5 5 5 5 5 6 5 5 5 5 5 6 5 5 5 5 5 5 5 5 5 5 5 5 5 5 5 5 5 5 5 5 5 5 5 5 5 5 5 5 5 5 6 6 5 5 5 5 5 5 5 6 5 5 5 6 5 6 5 5 5 5 5 5 5 5 5 5 5 5 5 5 5 5 5 5 5 5 5 6 5 5 5 5 5 5 6 5 5 5 5 5 5 5 6 5 5 6 5 5 5 5 5 5 6 5 5 5 6 5 5 6 6 5 5 5 5 5 5 5 5 5 5 5 5 5 5 5 5 5 5 5 5 5 5 5 5 5 5 5 5 6 5 5 5 5 5 5 5 5 5 5 5 5 5 5 5 5 5 5 5 6 5 5 5 6 6 5 5 5 5 5 6 5 5 5 6 5 5 5 5 5 6 5 5 5 5 5 5 5 5 5 5 5 5 5 5 5 5 5 5 5 5 5 6 5 5 5 5 5 5 6 5 5 5 5 5 5 5 5 5 5 5 5 6 5 5 5 5 6 5 6 5 5 5 5 5 5 5 5 5 5 5 5 5 6 5 5 5 5 5 6 5 5 5 5 5 5 6 5 5 5 5 5 5 5 5 5 5 5 5 6 5 5 6 5 5 6 5 5 6 5 5 5 5 5 5 5 5 5 5 6 5 5 5 5 5 5 5 5 6 5 5 5 6 5 5 5 6 5 5 6 5 5 5 6 5 5 5 5 5 6 5 6 5 5 5 5 6 6 5 5 5 6 5 5 5 5 6 5 5 5 5 5 5 5 5 5 5 5 5 5 5 5 6 5 5 6 6 5 5 5 5 6 5 5 5 5 5 5 6 5 5 5 5 5 5 6 5 5 5 5 5 5 5 5 6 5 5 5 5 5 5 5 5 5 5 6 5 5 6 5 5 6 5 5 5 5 5 6 6 5 5 6 6 5 6 5 6 5 6 6 5 5 6 5 6 5 6 5 6 5 6 5 5 6 5 6 5 6 5 5 5 5 5 5 6 5 5 5 6 5 5 5 5 5 5 5 5 5 6 5 5 6 5 6 5 6 5 5 5 6 6 5 5 5 5 5 5 5 5 5 5 5 6 5 5 5 5 5 6 5 5 5 5 5 5 5 5 5 5 5 5 5 5 5 5 5 6 5 5 5 5 5 5 6 5 5 5 6 5 5 6 5 5 5 6 5 6 6 5 5 5 5 5 5 5 5 5 6 5 5 5 5 5 5 5 6 5 6 5 6 5 5 5 5 5 5 5 5 5 5 5 5 5 5 5 5 5 5 5 5 5 5 5 5 5 5 5 5 5 5 5 5 5 5 5 5 5 6 5 5 6 6 5 5 5 5 6 5 5 5 5 5 6 5 5 6 6 5 5 5 5 5 5 6 5 6 5 5 6 6 5 6 5 5 5 6 5 5 5 5 6 5 5 5 6 5 5 6 6 5 5 5 6 5 5 5 5 6 5 5 6 5 5 5 6 5 5 6 5 5 5 6 5 6 5 5 6 5 5 6 6 5 5 6 5 6 6 5 5 5 5 6 5 5 5 5 6 5 5 5 5 5 5 5 5 5 5 5 5 6 5 5 5 5 6 5 6 5 5 5 5 5 6 6 6 5 5 5 5 5 5 5 5 6 5 5 5 5 5 5 6 5 5 5 5 6 5 5 5 5 5 5 5 5 5 5 5 5 5 5 5 5 5 5 6 5 6 5 5 6 6 5 6 5 5 6 5 6 5 6 5 6 5 5 5 5 6 5 5 5 6 5 5 5 5 5 5 5 5 5 5 5 5 5 5 5 5 5 5 5 5 5 5 5 5 5 6 5 5 5 5 5 6 5 5 5 5 5 5 5 5 5 5 5 6 5 5 5 5 5 6 5 5 6 6 5 5 5 6 5 5 6 6 5 6 5 5 5 5 5 5 5 5 5 5 5 5 5 5 5 5 6 5 5 5 5 6 5 5 5 5 5 5 5 5 6 6 5 5 6 5 5 5 5 5 5 5 5 5 6 6 5 5 6 5 5 5 6 5 5 5 5 5 5 5 5 5 5 5 5 5 5 5 5 5 5 5 5 5 5 5 5 5 5 6 5 5 5 5 5 5 5 5 5 5 5 5 5 5 5 5 5 5 5 5 6 5 5 5 6 6 5 5 5 6 5 5 6 5 5 5 5 5 6 5 6 5 5 5 5 5 5 5 5 6 5 5 5 6 5 5 6 5 6 5 5 5 6 5 5 5 6 5 5 5 5 5 5 5 5 5 5 5 5 5 5 5 5 5 6 5 5 5 5 5 5 5 5 5 6 5 5 5 5 5 5 5 5 6 5 5 5 5 5 5 5 5 5 5 5 5 5 6 5 5 5 6 5 5 5 5 5 5 5 5 5 5 5 5 5 5 5 5 5 5 5 6 5 5 5 6 5 6 5 5 5 6 5 5 5 6 6 5 5 5 5 5 5 5 5 5 5 5 5 5 5 5 5 5 5 5 5 5 5 6 5 5 5 5 6 5 5 5 5 6 5 5 5 5 5 5 5 6 5 5 5 5 6 5 5 5 5 5 5 6 5 5 5 5 5 5 6 5 5 5 6 5 5 5 5 5 5 5 5 5 6 5 5 5 5 5 5 6 5 5 5 5 5 5 5 5 5 5 5 6 5 5 6 5 5 5 5 5 6 5 5 6 5 5 5 5 5 5 5 6 6 5 5 5 5 6 5 5 5 5 5 5 6 5 5 5 5 5 5 5 5 5 5 6 5 5 5 5 5 5 5 5 5 5 5 5 6 5 6 5 5 5 6 5 5 6 5 5 5 5 6 5 5 5 5 5 6 5 5 5 5 5 5 5 5 6 5 5 5 5 6 5 5 5 5 5 5 5 6 5 5 5 5 5 5 5 5 5 5 6 5 5 5 6 5 6 5 5 5 5 5 5 6 5 6 5 6 5 5 5 5 6 5 5 5 5 5 5 5 5 5 5 5 5 5 5 6 5 6 5 5 5 5 5 5 5 6 5 5 5 5 5 5 5 5 5 5 5 5 5 6 5 5 5 5 6 5 5 5 5 5 5 5 5 5 5 5 5 5 5 5 5 5 5 5 5 5 5 5 5 6 5 5 5 5 6 5 5 5 6 5 5 6 5 5 6 5 5 5 5 5 5 5 5 5 5 5 5 5 5 5 6 5 5 6 5 5 5 5 5 5 5 6 5 5 5 5 5 6 5 5 5 6 5 5 5 6 5 5 5 5 5 5 5 6 5 5 5 6 5 6 6 5 5 5 5 5 6 5 5 5 5 5 5 5 5 5 5 6 5 5 5 5 5 5 5 5 5 5 5 5 5 5 5 5 5 5 5 5 5 5 5 5 5 5 5 5 5 5 5 5 5 5 5 5 5 6 5 5 5 5 5 5 5 5 5 5 5 5 5 5 5 5 6 5 5 5 5 5 5 5 5 5 6 5 5 5 5 5 5 5 6 5 5 5 5 5 5 5 5 5 5 5 5 5 5 5 5 5 5 5 5 5 6 5 5 5 5 5 5 5 5 5 5 5 5 5 5 5 5 5 6 5 5 5 5 5 5 5 5 5 5 5 5 5 5 5 5 5 5 5 5 5 5 5 5 5 5 5 5 5 5 5 5 5 5 5 5 5 5 5 5 5 5 5 5 5 5 6 5 5 5 5 5 5 5 5 5 5 5 5 5 6 5 6 5 5 5 5 5 6 5 5 5 5 5 6 6 5 5 5 5 5 5 5 5 5 5 5 5 5 5 5 5 5 6 6 5 5 5 5 5 5 6 5 6 5 5 5 5 5 5 5 5 5 6 5 5 5 5 5 5 5 5 5 5 5 5 5 5 5 5 5 5 5 6 5 5 5 5 5 6 5 6 5 5 5 5 5 5 5 6 5 5 5 6 5 5 5 6 5 5 6 5 5 5 6 5 5 6 5 6 5 6 5 5 6 5 5 5 5 5 5 5 5 5 5 5 5 5 5 5 5 5 5 5 5 5 6 5 6 5 5 5 5 5 5 5 6 5 5 5 5 5 5 5 5 5 5 5 5 5 5 5 5 5 5 5 6 5 5 5 6 5 5 5 5 5 5 5 5 5 5 6 5 5 5 5 6 5 5 6 5 5 5 5 5 6 5 5 5 5 6 5 6 5 5 6 5 5 5 5 5 5 5 6 5 5 6 5 6 5 5 5 5 5 5 5 5 5 5 5 5 5 5 5 5 5 5 6 5 5 5 5 5 5 5 6 5 5 5 5 6 5 5 5 5 5 5 5 5 5 6 5 5 5 5 6 5 5 5 5 5 5 5 5 5 5 5 5 6 5 5 5 5 5 5 5 5 5 6 5 5 5 5 5 5 5 5 5 5 5 5 6 5 5 6 5 5 5 5 5 5 5 5 5 6 6 6 5 5 5 6 5 5 5 5 5 5 6 5 5 5 6 6 5 5 5 5 5 5 5 5 5 5 5 5 6 5 5 5 6 6 5 5 5 5 5 6 5 5 5 5 6 5 5 5 5 6 5 5 5 5 5 6 6 6 5 5 5 6 6 5 5 5 5 5 5 5 5 5 6 6 5 5 5 6 6 5 5 5 5 5 5 5 5 5 5 5 5 5 5 5 5 5 6 5 6 5 5 5 5 6 5 5 5 5 5 5 5 6 5 5 5 5 5 5 5 6 5 5 6 5 6 6 5 5 5 6 6 5 5 5 6 6 5 5 5 5 5 5 5 5 5 5 6 5 5 5 5 5 5 5 6 5 5 5 5 6 5 5 5 5 5 5 6 5 5 5 5 6 5 6 5 5 5 5 5 5 5 5 5 5 5 5 5 5 6 5 5 5 5 5 5 5 6 5 5 5 5 6 5 5 5 6 5 5 5 5 5 5 5 5 5 5 5 5 5 5 5 5 5 5 5 5 5 5 6 5 6 5 5 6 5 5 5 6 5 5 6 5 5 5 5 5 5 5 5 5 5 5 5 5 5 5 5 5 5 5 5 6 6 6 5 5 5 5 5 5 5 5 5 5 5 5 5 6 5 5 5 6 5 5 6 5 5 5 5 6 5 5 6 6 5 5 5 5 6 5 5 6 5 6 5 5 5 5 5 5 5 5 5 5 5 5 6 5 5 5 5 5 5 5 6 5 6 5 5 5 5 6 5 5 5 5 5 5 5 5 5 5 5 5 5 5 5 5 5 5 5 5 5 5 5 6 5 5 5 6 5 6 5 5 5 6 5 5 5 5 5 6 5 5 6 5 5 5 5 5 5 5 5 6 5 5 5 5 5 6 5 5 5 5 5 5 5 5 5 5 5 5 5 5 6 5 5 5 5 6 5 5 5 5 5 5 5 5 5 5 5 5 6 5 5 5 5 6 5 5 5 5 5 5 5 5 5 5 5 5 5 6 5 5 6 5 5 5 6 5 5 5 5 5 5 5 5 5 5 5 5 5 6 6 5 6 6 5 5 5 6 6 5 6 5 6 5 6 5 5 5 6 5 6 5 5 5 5 6 5 5 5 5 5 5 6 5 5 5 5 5 6 5 5 6 5 5 6 5 5 6 5 5 5 5 5 6 5 6 5 5 5 5 5 5 5 5 5 5 5 5 5 6 5 5 6 5 5 5 5 5 5 5 5 5 6 5 5 5 5 5 5 5 5 5 6 5 5 6 5 6 5 5 5 5 5 5 5 6 5 5 5 5 5 5 5 6 5 6 5 5 6 5 5 5 6 5 5 5 5 6 5 5 5 5 5 6 5 5 5 5 5 5 5 5 5 5 5 5 5 5 5 5 5 5 5 5 5 6 5 5 6 5 5 5 6 5 5 5 5 6 5 5 5 5 5 5 5 5 5 5 5 5 5 5 5 5 5 5 5 5 5 5 5 6 5 5 5 5 5 5 6 5 5 5 5 5 5 5 5 5 5 5 5 5 6 5 6 5 5 6 5 5 5 5 6 6 5 6 5 6 5 5 5 5 5 6 5 5 6 6 5 5 5 5 5 6 5 5 6 5 5 5 5 5 5 5 5 6 6 5 5 5 6 5 6 5 5 5 5 5 6 5 6 5 5 5 5 5 6 6 5 5 5 5 6 5 5 5 5 6 5 5 5 5 5 5 5 5 5 5 5 5 5 5 5 5 5 6 5 5 6 5 5 5 6 5 5 5 5 5 5 5 5 5 5 5 5 5 5 5 5 5 5 5 6 5 5 5 5 5 5 5 5 5 5 5 5 5 5 6 6 5 5 5 6 5 5 5 5 5 6 5 5 5 5 5 5 5 5 5 5 5 6 5 5 6 5 5 5 5 5 5 5 5 5 5 6 5 5 5 6 5 6 5 6 5 5 5 6 6 5 6 5 5 6 5 5 6 6 5 5 5 6 5 5 6 5 6 5 5 5 6 5 5 6 6 5 6 5 5 6 5 6 5 5 5 5 5 5 5 5 5 6 5 5 5 5 5 6 5 5 5 5 5 5 5 5 5 5 6 5 5 5 5 6 6 5 5 6 5 6 5 5 5 5 5 6 5 5 6 5 6 5 5 5 5 5 5 5 6 5 5 5 5 5 5 5 5 5 6 5 6 5 6 5 6 5 5 5 5 6 5 5 5 5 5 6 6 5 5 5 5 5 5 6 5 5 5 5 5 6 5 5 5 5 6 5 5 6 5 6 5 5 5 6 5 6 5 5 6 6 6 5 5 5 5 5 5 6 6 6 5 5 5 5 6 5 6 5 6 5 5 5 5 5 5 6 5 5 5 5 5 5 5 5 5 5 5 5 5 5 5 5 5 5 5 5 5 5 5 5 5 5 5 5 5 5 5 5 5 5 5 5 5 5 5 5 5 5 5 5 5 5 5 5 5 6 5 5 5 6 6 5 5 5 5 5 5 5 5 5 5 5 5 5 5 5 5 5 5 5 6 5 5 5 5 5 5 5 6 5 5 6 5 5 6 5 5 6 5 6 5 5 6 5 5 5 6 5 6 5 6 6 5 5 5 6 6 5 5 6 5 5 6 5 5 5 5 5 5 5 5 5 5 5 5 6 5 5 5 5 6 5 5 5 5 6 5 5 5 5 5 5 5 5 5 6 5 6 5 5 5 5 6 5 5 5 6 5 5 5 5 5 5 6 5 5 6 5 5 5 6 5 5 5 5 5 5 5 6 5 5 5 5 5 6 5 5 5 5 5 5 5 5 5 5 5 5 5 5 5 6 5 5 5 5 5 6 5 5 6 5 6 5 5 5 5 6 6 5 5 6 5 5 5 5 5 5 5 5 5 5 5 6 5 6 5 5 5 5 5 6 5 5 5 6 5 5 5 6 5 5 5 5 5 5 5 5 5 5 5 5 5 6 5 5 5 5 5 5 5 6 5 6 5 5 5 5 5 5 5 6 6 5 5 5 5 5 5 5 5 5 6 5 5 5 5 5 5 6 6 6 5 6 5 5 5 5 5 5 6 5 6 5 6 5 6 5 5 5 5 5 5 6 5 5 6 5 5 5 5 6 5 5 5 5 5 5 5 5 5 5 5 5 5 5 5 5 5 5 5 5 5 6 5 6 5 5 5 5 5 5 5 5 5 5 5 5 5 5 5 5 5 5 5 5 5 5 5 5 5 5 5 5 5 5 5 5 5 5 5 5 5 5 5 5 5 5 5 5 5 5 5 5 5 5 5 5 5 5 5 5 5 5 6 5 5 5 5 5 5 5 5 5 5 5 5 5 5 5 5 5 5 5 5 5 5 5 6 5 5 5 6 5 6 5 5 5 5 5 5 5 5 5 5 5 5 5 5 5 5 5 5 5 5 5 5 5 5 5 5 5 5 5 5 5 5 5 5 5 5 5 5 5 6 5 6 5 5 5 5 5 5 5 5 5 5 5 5 5 5 5 5 5 5 5 5 5 5 5 5 5 6 5 5 5 5 5 5 5 5 5 5 5 5 5 5 5 5 5 5 5 5 5 5 5 5 5 5 5 5 5 5 5 5 5 5 5 5 5 5 5 5 5 5 5 5 5 5 5 5 5 5 5 5 5 5 5 5 5 5 5 5 5 5 5 5 5 5 5 5 5 6 5 5 5 5 5 5 5 6 5 5 6 5 5 5 5 5 5 5 5 5 5 5 5 5 5 5 5 5 5 5 5 6 5 5 5 5 5 5 5 5 5 5 5 5 5 5 5 5 5 5 5 5 5 5 5 5 5 5 5 5 5 5 5 5 6 5 5 5 5 6 5 6 5 5 5 5 5 5 6 5 5 6 5 5 6 6 5 6 5 5 5 6 5 5 5 5 5 5 5 5 5 5 5 5 5 5 5 6 5 5 5 5 5 5 5 5 6 5 5 5 5 5 5 5 5 5 5 5 5 5 5 5 5 5 5 5 5 5 5 5 5 5 5 5 5 5 5 5 5 5 5 5 5 6 5 5 5 5 5 5 5 6 5 5 6 5 6 5 5 5 5 5 5 5 5 5 5 5 6 6 5 5 6 5 5 6 6 5 5 5 5 6 5 6 5 5 6 5 6 6 5 6 5 6 5 5 5 5 5 5 5 6 5 6 5 5 5 5 5 6 5 5 5 6 5 5 6 5 6 5 6 6 5 5 6 5 5 5 5 5 5 6 5 5 5 5 5 5 5 5 6 6 5 5 5 6 5 5 5 5 6 6 5 6 5 5 5 6 5 5 5 5 5 5 5 5 5 5 5 5 5 5 5 5 6 5 5 5 5 5 5 6 5 6 5 5 5 6 6 5 5 6 5 6 5 5 5 5 5 5 5 5 5 5 5 5 6 6 5 5 5 5 5 6 5 5 5 5 5 5 5 6 5 5 5 6 5 6 5 5 6 5 5 5 5 5 5 5 5 5 6 5 5 6 5 5 5 5 5 5 5 5 5 5 5 6 5 5 5 5 5 5 5 5 5 5 5 5 5 5 5 5 5 5 5 5 5 5 6 5 5 5 5 5 5 5 5 5 5 5 6 5 5 5 5 6 5 5 5 5 5 5 5 5 5 5 5 6 5 5 5 5 5 6 5 6 5 5 5 5 5 5 5 5 5 6 5 5 6 5 5 6 5 5 5 5 6 5 5 5 5 5 5 5 5 5 5 5 5 5 5 5 5 5 5 5 5 5 6 5 5 6 5 6 5 5 5 5 5 5 5 5 5 6 5 5 6 6 6 5 5 5 6 5 5 5 5 5 5 6 6 5 6 5 5 6 5 5 6 5 5 5 5 6 5 5 5 5 6 5 5 5 5 5 5 5 5 5 5 5 6 5 5 6 5 6 6 5 5 6 6 6 5 5 5 5 5 5 5 5 5 5 6 5 5 5 5 5 5 5 5 5 6 5 5 5 5 5 6 5 5 5 5 5 5 5 5 5 5 6 5 5 5 5 5 5 5 5 5 5 5 5 5 5 5 5 5 5 5 5 5 5 5 5 6 6 5 5 5 5 5 5 5 5 6 5 5 5 5 5 5 5 5 5 5 5 5 5 5 5 5 6 5 5 5 5 6 5 5 5 6 6 5 5 5 5 5 5 6 5 6 5 5 5 6 5 5 5 5 5 5 5 5 6 5 6 6 5 5 5 5 5 5 5 5 5 5 5 5 6 5 5 6 5 6 5 5 5 5 5 5 5 5 5 5 5 5 5 5 5 5 5 5 5 5 5 5 5 6 5 5 5 5 5 6 5 5 5 5 5 5 5 5 5 5 6 5 5 5 6 5 5 5 5 5 5 5 5 5 5 5 6 6 5 5 5 5 5 6 5 5 5 6 5 5 5 5 5 5 5 5 5 5 6 5 5 5 5 5 5 5 6 6 5 6 5 5 5 5 6 5 5 5 5 5 6 5 5 5 5 5 5 5 5 5 5 6 5 5 5 5 5 5 5 5 5 5 6 5 5 5 5 5 5 5 6 5 5 5 5 5 5 5 5 5 5 5 5 5 5 5 5 5 5 5 5 6 5 5 5 6 5 5 5 5 5 5 5 5 5 5 5 5 5 6 5 6 6 5 6 6 5 5 5 5 5 6 5 5 5 5 5 5 5 6 5 5 6 5 5 6 5 5 6 5 5 6 6 6 6 5 5 6 6 5 5 6 5 5 6 5 5 5 5 6 6 6 6 5 5 5 6 5 6 5 6 5 6 6 5 5 5 5 5 5 5 6 5 5 6 5 6 5 5 6 6 5 5 5 5 5 5 5 5 5 5 5 5 5 5 5 5 5 6 5 5 5 5 5 5 5 5 5 5 5 5 5 5 5 5 5 6 5 5 5 5 5 5 5 5 5 5 5 5 5 5 6 6 5 5 5 5 6 5 6 5 5 5 6 6 5 6 5 5 5 5 5 5 5 5 5 5 5 5 5 5 5 5 5 5 5 6 5 6 5 5 5 5 6 5 5 5 5 5 5 5 5 5 5 5 5 5 5 5 5 5 5 5 5 6 5 5 5 5 5 5 5 5 5 5 5 5 5 5 6 5 5 5 5 5 5 5 5 5 5 5 5 5 5 5 5 5 5 5 5 5 5 5 5 5 5 5 5 5 5 5 5 5 5 5 5 5 5 5 5 5 5 5 5 5 5 5 5 5 5 5 5 5 5 5 5 5 5 5 5 5 5 6 5 5 5 6 5 5 6 5 5 5 5 5 5 5 5 5 5 5 6 5 5 5 5 6 5 5 5 5 5 5 5 5 5 5 5 5 5 5 5 5 5 5 5 5 5 5 5 5 5 5 5 5 5 6 5 5 5 5 6 5 5 5 5 5 5 5 5 5 5 6 5 5 6 5 5 5 5 5 5 5 5 5 5 5 5 6 5 5 5 5 5 5 5 5 6 5 5 5 5 5 5 5 5 5 5 6 5 6 5 5 5 6 5 5 5 6 5 6 5 6 6 5 5 5 5 5 6 5 5 5 5 5 5 5 5 5 5 5 5 5 5 5 5 5 5 5 5 5 5 5 6 5 5 6 5 5 5 6 5 6 5 5 5 5 5 5 5 5 5 5 5 5 6 5 5 5 5 5 5 5 5 5 5 5 5 5 5 5 5 5 5 5 6 5 5 5 5 5 5 5 5 5 5 5 5 5 5 5 5 5 5 5 5 5 5 5 5 5 5 5 6 5 5 5 5 5 5 5 5 5 5 5 5 5 5 5 5 5 5 6 5 5 5 6 5 5 5 6 6 5 5 5 5 5 6 5 5 5 5 5 5 5 6 6 5 5 5 6 5 6 5 5 5 5 5 5 6 6 5 5 6 6 5 5 5 5 5 5 5 5 5 5 6 5 5 5 5 5 5 6 5 5 5 5 5 5 5 5 5 5 5 5 5 5 5 5 5 6 5 5 5 5 6 5 5 6 5 5 5 5 5 5 5 5 5 5 5 6 5 6 5 6 5 5 5 5 5 5 5 5 5 5 5 5 5 5 5 5 5 5 5 6 5 5 6 5 5 5 6 5 5 6 5 5 5 5 6 5 5 5 5 5 5 5 6 5 5 5 5 5 5 5 5 5 5 5 5 5 5 5 5 5 5 5 5 5 5 5 5 5 5 5 5 5 6 5 5 5 5 5 5 5 5 5 5 5 5 5 5 5 5 5 5 5 5 5 5 5 5 5 5 5 5 5 5 5 5 5 5 5 5 5 6 6 6 5 5 6 5 5 5 6 5 6 5 5 5 5 5 6 5 5 5 5 5 5 5 6 5 5 5 5 5 5 5 5 5 5 5 5 5 5 6 5 5 5 6 5 6 5 5 5 5 5 5 5 5 6 5 5 5 5 5 5 5 6 5 6 5 6 5 5 5 5 5 5 5 5 6 5 5 6 6 6 5 6 5 6 5 5 5 5 5 5 5 5 5 5 5 5 5 5 5 5 5 5 5 5 5 6 5 5 6 6 5 5 5 6 5 5 5 5 5 5 5 6 5 6 5 5 5 5 6 5 5 6 5 5 5 5 5 5 5 6 5 5 6 5 5 5 6 5 5 5 5 5 5 5 5 5 6 5 5 5 5 5 5 6 5 5 6 5 5 5 5 6 5 5 5 5 5 5 6 6 6 5 5 5 6 5 6 5 6 5 5 5 5 5 5 6 5 5 5 6 5 5 5 6 5 5 5 5 5 5 5 5 5 5 5 5 6 5 5 5 6 5 5 5 5 5 6 6 5 5 6 5 6 6 6 5 5 5 6 5 5 5 5 5 6 5 5 5 5 5 5 5 5 5 5 5 5 6 5 5 5 5 5 5 6 5 5 6 5 5 6 5 5 5 5 5 6 5 5 6 5 6 5 6 5 5 5 5 5 5 6 5 5 5 5 6 5 5 5 5 5 5 5 5 5 5 6 5 5 5 5 5 6 5 5 5 5 5 5 5 5 5 5 5 5 5 5 5 6 5 5 5 5 5 6 5 6 5 5 5 5 5 6 5 5 5 5 5 6 5 5 5 5 5 6 5 5 5 5 5 5 5 5 5 5 6 5 6 5 6 5 5 6 5 5 5 5 5 5 5 5 6 5 6 5 5 5 5 5 5 5 5 5 5 6 5 5 5 5 5 5 5 5 5 5 6 5 5 5 6 5 6 6 5 5 5 6 5 5 5 6 6 5 5 5 5 5 5 5 5 5 5 6 6 5 5 5 5 5 6 5 5 5 5 5 5 5 5 5 5 6 5 6 6 6 5 5 5 5 5 5 5 5 6 5 5 5 5 5 5 5 5 5 5 5 5 5 5 5 5 5 5 5 5 5 5 5 5 5 5 5 5 5 6 5 5 5 5 6 5 5 5 5 5 5 5 5 6 5 5 5 5 5 5 5 5 6 5 5 5 5 5 5 5 5 5 5 5 5 5 5 5 5 5 5 5 5 5 5 5 5 5 5 6 5 5 5 5 5 5 6 5 6 5 5 6 5 5 5 6 5 6 5 5 5 6 5 5 5 6 5 5 5 5 5 5 6 5 5 5 5 5 5 5 5 5 5 5 5 5 5 5 5 5 5 5 5 5 5 5 5 5 5 5 6 5 6 5 5 5 5 6 5 5 5 5 5 5 5 5 5 5 5 5 5 6 5 5 6 5 5 6 5 5 5 5 5 6 5 5 5 5 5 5 5 5 6 5 6 5 5 5 5 5 6 6 5 5 6 5 5 5 6 5 5 5 5 5 5 5 6 5 5 5 5 5 5 5 5 5 5 5 5 5 5 5 5 6 5 5 5 5 5 6 5 6 5 5 5 5 5 5 5 5 5 5 5 5 6 5 6 5 5 5 5 5 5 6 6 5 5 5 5 5 5 5 5 5 5 5 5 5 5 5 5 5 5 5 5 5 6 5 5 6 5 5 5 5 5 6 5 5 5 5 5 5 6 5 5 5 5 5 5 5 5 5 5 5 5 5 5 5 5 6 5 5 6 5 5 5 5 6 5 5 5 5 5 5 5 5 5 5 5 6 5 5 5 5 5 5 5 5 5 5 5 5 5 5 5 5 5 5 5 6 5 5 5 5 5 5 5 5 5 5 5 5 6 5 5 5 5 5 5 5 5 5 5 5 5 5 6 6 5 5 5 5 5 5 6 5 5 5 5 5 5 5 5 5 5 5 5 5 5 5 5 5 5 5 5 5 5 5 5 5 5 5 5 5 5 5 5 5 5 5 6 5 5 5 5 5 5 5 5 6 5 5 5 5 5 5 5 5 5 5 5 5 6 5 5 5 5 6 5 6 5 5 5 5 5 5 5 5 6 5 5 5 5 5 5 5 5 5 5 6 5 5 5 6 5 5 6 5 5 5 5 6 5 5 6 5 5 5 5 5 5 5 5 6 5 5 5 6 5 5 5 5 5 5 5 6 5 6 5 6 5 6 6 5 5 5 6 6 6 5 5 6 5 5 5 6 5 5 5 5 6 5 5 5 5 5 5 5 5 5 5 5 5 5 5 5 5 5 5 5 5 5 5 5 5 5 5 5 5 5 5 5 5 5 5 5 5 5 5 6 5 5 5 5 5 5 5 5 6 5 5 5 5 6 5 5 6 5 5 6 5 5 5 5 6 5 5 5 5 5 6 5 5 5 5 5 5 5 5 5 5 5 5 5 6 6 5 5 5 6 5 5 5 5 5 5 5 5 5 5 5 5 5 5 6 5 5 5 5 5 5 6 5 5 6 5 5 5 5 5 5 5 5 5 5 6 5 5 5 5 5 6 5 5 5 5 5 5 5 5 5 5 6 5 5 5 5 5 5 5 5 5 5 5 5 5 5 5 6 5 5 5 5 5 5 5 5 5 5 5 5 5 5 5 5 5 5 5 5 5 5 5 6 5 6 5 5 5 6 5 5 5 5 5 5 5 5 5 6 5 5 5 6 5 5 5 5 5 5 5 5 5 5 5 5 5 5 5 5 6 5 5 5 5 5 6 5 5 5 6 5 6 5 5 5 5 5 5 6 5 5 5 5 5 5 5 5 5 5 5 5 5 5 5 5 5 5 5 5 5 5 5 5 5 5 5 6 5 5 6 5 5 5 5 5 5 5 6 5 5 5 5 6 5 5 6 5 5 5 5 5 5 6 5 5 5 6 5 5 5 6 5 5 5 5 5 6 5 5 5 5 5 6 5 5 5 5 5 5 5 5 6 5 5 6 5 5 5 5 6 5 5 5 5 6 5 5 5 5 6 5 5 5 6 5 6 5 5 5 5 5 5 5 5 5 5 6 5 5 5 5 5 5 5 6 6 5 5 5 5 5 6 5 5 5 5 5 6 5 5 5 6 5 5 6 5 5 6 5 5 5 6 5 5 5 5 5 5 6 5 5 5 5 5 6 5 5 5 5 5 6 5 5 5 5 5 5 6 5 5 5 5 6 5 5 5 5 5 6 5 5 5 5 5 5 5 5 5 5 6 5 5 5 5 5 5 5 6 5 5 5 5 6 6 5 5 6 5 5 5 5 5 5 5 6 5 5 5 5 5 5 5 6 5 6 5 5 6 5 5 5 5 6 5 6 5 5 5 5 5 5 5 5 5 5 6 5 5 5 5 5 6 5 5 5 6 5 5 5 5 6 5 5 6 5 5 5 5 5 6 5 6 5 6 6 5 5 5 5 6 6 5 5 5 5 5 5 5 5 5 5 5 5 5 6 5 5 5 5 5 5 6 6 5 5 5 5 5 5 5 5 5 5 5 5 5 6 5 5 5 5 5 5 5 5 5 5 5 5 5 5 5 5 5 5 5 5 5 5 5 5 5 5 5 5 5 5 5 5 5 6 5 5 6 5 5 5 5 5 5 5 6 5 5 5 6 5 5 6 5 5 5 6 6 5 5 5 5 6 6 5 5 5 5 5 5 5 5 5 5 5 5 5 5 6 5 5 6 5 5 5 6 5 5 5 5 6 5 5 6 5 5 5 5 5 5 5 5 5 5 5 6 5 5 5 5 5 5 5 6 5 5 5 5 5 5 5 5 5 5 5 5 5 5 5 5 5 5 6 5 5 5 5 5 5 6 5 6 5 5 5 5 5 6 5 5 6 5 5 5 6 5 5 5 6 5 5 5 5 5 5 5 5 5 5 5 5 5 5 6 5 5 5 5 6 6 5 5 5 5 5 5 5 5 5 5 5 5 5 5 5 5 5 5 5 6 5 5 5 5 5 5 5 5 6 5 6 5 5 5 5 5 5 5 6 5 6 5 5 5 5 5 6 5 5 5 5 5 5 6 5 5 5 5 5 6 6 5 5 5 6 6 6 5 5 5 5 5 6 5 5 5 5 5 6 5 5 5 5 6 5 6 6 5 6 6 5 5 5 6 5 5 5 6 5 5 5 6 5 5 5 6 5 5 5 5 5 5 5 5 6 5 5 5 6 5 5 5 5 5 5 6 5 5 5 5 5 5 6 5 5 5 5 5 5 5 5 5 5 5 5 5 5 6 5 6 5 5 5 6 5 5 6 5 6 5 6 5 5 6 5 5 5 5 5 5 6 5 5 5 5 6 5 5 5 5 5 5 6 5 5 5 5 5 5 5 5 5 5 6 5 5 5 5 5 5 5 5 5 5 5 5 5 5 5 5 5 5 5 6 6 5 5 5 6 5 5 6 5 5 6 5 5 6 5 5 6 6 5 5 5 5 6 5 5 5 5 5 5 5 5 5 5 5 6 6 5 5 5 6 5 6 5 6 5 5 5 5 5 6 5 5 6 5 6 5 5 6 6 6 5 5 5 5 6 5 5 6 5 6 5 5 6 5 5 5 5 5 5 5 5 6 5 6 6 5 5 5 5 5 6 6 5 5 5 6 6 5 5 5 5 5 5 5 5 6 5 6 5 5 5 5 5 5 5 5 5 5 5 5 5 5 5 5 5 5 5 5 5 5 5 5 5 5 5 5 5 6 5 5 5 5 5 5 5 5 5 5 5 5 5 5 5 6 5 5 6 5 5 5 5 5 6 5 5 5 5 5 5 5 5 5 5 5 5 5 6 5 5 5 5 5 5 5 5 5 6 5 5 6 5 5 5 5 6 6 6 5 5 5 5 5 6 5 5 5 
</DataArray>
<DataArray type="Float64" Name="stress" NumberOfComponents="9" format="ascii">
-203956.56241295376 573251655.58380127 0 573251655.58380127 -3446289990.7187471 0 0 0 0 -642571.30986105755 962936.43098449707 0 962936.43098449707 -204196861.7101593 0 0 0 0 76749.691293425087 931064.4406140931 0 931064.4406140931 -1746657.1826637089 0 0 0 0 490726651.57735848 -383539085.6037674 0 -383539085.6037674 -941198334.12715149 0 0 0 0 528933201.19360507 468876766.10722733 0 468876766.10722733 -3459089447.7985229 0 0 0 0 -156470339.65873241 952703995.47676468 0 952703995.47676468 -1124045273.2286224 0 0 0 0 -256189789.26141965 990982714.71247864 0 990982714.71247864 -769144086.79374981 0 0 0 0 42758.599213244372 1050046.972662881 0 1050046.972662881 -1824183.0365673378 0 0 0 0 -398699719.14232159 1322312644.8535805 0 1322312644.8535805 -1388923455.650116 0 0 0 0 220140.39088970423 618654354.06524658 0 618654354.06524658 -1949636479.7267609 0 0 0 0 -688155.5012959044 513607598.19417739 0 513607598.19417739 -913150318.32901001 0 0 0 0 94420921.675430477 345289156.80626678 0 345289156.80626678 -1203241122.4309616 0 0 0 0 -103988485.43951368 220140727.75003052 0 220140727.75003052 -1059623032.4396667 0 0 0 0 -99274341.085144758 200956307.06443787 0 200956307.06443787 -1151060223.9421844 0 0 0 0 -2495589.5123998579 172390743.02839661 0 172390743.02839661 -1342835979.6599045 0 0 0 0 329056460.6219697 745675101.59939575 0 745675101.59939575 -1554537649.1471481 0 0 0 0 84097563.3857131 344498044.239151 0 344498044.239151 -1014026181.985734 0 0 0 0 252463970.54443824 120284523.47477722 0 120284523.47477722 -1043642400.0092564 0 0 0 0 595899211.56303358 -246756938.44885635 0 -246756938.44885635 -412442046.21308136 0 0 0 0 1512605437.0273123 243413806.15533829 0 243413806.15533829 -1386020762.3493652 0 0 0 0 49231.38095345581 1747371.5934109744 0 1747371.5934109744 -3175704.0538870245 0 0 0 0 -398093949.42646903 808237407.73156738 0 808237407.73156738 242066831.87363434 0 0 0 0 -58150432.986203313 918828229.30231094 0 918828229.30231094 -1432513555.9749908 0 0 0 0 524315456.89948648 956821111.38427734 0 956821111.38427734 -1430038703.0251923 0 0 0 0 524163056.16262704 1423806166.7074127 0 1423806166.7074127 -3457874177.4365997 0 0 0 0 324233.36388656375 2254497.3265755251 0 2254497.3265755251 -3020766.3764653504 0 0 0 0 1437243874.2157812 -677472092.81473541 0 -677472092.81473541 -2479632578.4606476 0 0 0 0 -275771884.22477096 1825438531.7628136 0 1825438531.7628136 -1214271546.4430008 0 0 0 0 1288529997.5007424 -18446294.390193939 0 -18446294.390193939 -3457218788.2490997 0 0 0 0 69647999.443873882 167369053.50677872 0 167369053.50677872 -1965698674.7438431 0 0 0 0 69199785.525760025 575628122.95826173 0 575628122.95826173 -2689284001.6186981 0 0 0 0 489480549.00136441 -775940774.79724121 0 -775940774.79724121 -793829495.57815552 0 0 0 0 -1382525460.9803395 1550963155.0903196 0 1550963155.0903196 -5378150286.4756775 0 0 0 0 331004.65958284418 -1278247.9744519517 0 -1278247.9744519517 -4559452.4655680358 0 0 0 0 -1464044013.1182091 1523968515.8408165 0 1523968515.8408165 -2335527496.1591034 0 0 0 0 -341260904.12218577 1203669452.911911 0 1203669452.911911 -3467263086.307157 0 0 0 0 -1063097800.1167548 885820204.63019562 0 885820204.63019562 -1434191386.8175507 0 0 0 0 -1094591029.3516142 1313635986.4167633 0 1313635986.4167633 -1479365383.1865888 0 0 0 0 -105148535.48201001 -552442262.39432526 0 -552442262.39432526 1067438519.5601311 0 0 0 0 350475087.21941644 -2587415790.3457642 0 -2587415790.3457642 20088614.574478149 0 0 0 0 199835028.35836577 -181556009.83716202 0 -181556009.83716202 -187077165.79679108 0 0 0 0 1030944762.692127 244029590.88449192 0 244029590.88449192 -229592679.64122009 0 0 0 0 2155354.0180221475 -2427055.7504111752 0 -2427055.7504111752 -11279572.56049639 0 0 0 0 1323118961.7009287 -836599967.38936758 0 -836599967.38936758 163136220.29218292 0 0 0 0 682835199.1760664 -43140595.397506714 0 -43140595.397506714 -13676761.353618622 0 0 0 0 400949597.16857219 -95531583.811676025 0 -95531583.811676025 -5206457.4930648804 0 0 0 0 657050984.32023287 -55671174.503395081 0 -55671174.503395081 -73299707.806877136 0 0 0 0 451986767.87781382 3527348.1785125732 0 3527348.1785125732 -395923574.87649536 0 0 0 0 -221325517.97040009 530656794.77295303 0 530656794.77295303 -370415027.98898315 0 0 0 0 209901503.31605053 1591918839.5818443 0 1591918839.5818443 -1037417572.7899323 0 0 0 0 -533564471.517712 1280782846.1833954 0 1280782846.1833954 254429676.16036224 0 0 0 0 -745856412.16675591 1400982885.5980682 0 1400982885.5980682 -1010107752.4412043 0 0 0 0 -730727202.02629268 775737267.33748245 0 775737267.33748245 -1007873554.7948151 0 0 0 0 863953632.13607597 -330954684.07991791 0 -330954684.07991791 99772198.687576294 0 0 0 0 3439459.7946726941 -2204690.9963044189 0 -2204690.9963044189 -13919939.318534568 0 0 0 0 2277194.3980636834 1591564.1425790526 0 1591564.1425790526 -2472017.451439023 0 0 0 0 559249094.64476418 1631262251.3445559 0 1631262251.3445559 -1615575084.70755 0 0 0 0 633906586.40818167 726850451.36691284 0 726850451.36691284 -1296445359.4705505 0 0 0 0 -376604495.07598829 -85464922.620452881 0 -85464922.620452881 46989934.093299866 0 0 0 0 -19415764.300960779 130913234.16221619 0 130913234.16221619 -262004846.52933502 0 0 0 0 963231660.65467954 53941815.157707214 0 53941815.157707214 -428503769.27833557 0 0 0 0 880872373.22550595 -16441715.535090446 0 -16441715.535090446 -295264647.33683777 0 0 0 0 871996052.70382595 523550211.44426727 0 523550211.44426727 361272905.75006104 0 0 0 0 795466244.53695178 329788585.68179703 0 329788585.68179703 -110216970.10643005 0 0 0 0 1690670.2618670356 4238096.1567629781 0 4238096.1567629781 -15735648.802501731 0 0 0 0 611496634.45922232 250309241.34251404 0 250309241.34251404 162198939.44248962 0 0 0 0 435688389.62205219 -103985044.26934052 0 -103985044.26934052 7016584.4779167175 0 0 0 0 416228129.27104759 -175831678.93529701 0 -175831678.93529701 -135026520.7244873 0 0 0 0 545041809.22829819 53186549.495849609 0 53186549.495849609 -407639625.05870056 0 0 0 0 -386654457.26179296 344163839.84369659 0 344163839.84369659 -283188344.77310181 0 0 0 0 25046366.798968554 432777075.31529236 0 432777075.31529236 -427590803.19108582 0 0 0 0 341263610.47929382 8878850.8277168274 0 8878850.8277168274 -153282178.85173035 0 0 0 0 677495463.74502707 -2661291.6091537476 0 -2661291.6091537476 -319325552.98487854 0 0 0 0 187475048.03803158 497414230.5838089 0 497414230.5838089 -171210707.82189941 0 0 0 0 123256509.95989466 374496447.5065918 0 374496447.5065918 -348145957.07497025 0 0 0 0 402708350.31752336 -13301759.364467621 0 -13301759.364467621 115133391.87722015 0 0 0 0 104296705.51389802 309376419.48224068 0 309376419.48224068 -553594928.02146912 0 0 0 0 -507376612.21007943 538153348.75369263 0 538153348.75369263 -157015189.06799316 0 0 0 0 -455051071.70849013 361240114.35970306 0 361240114.35970306 27746733.119598389 0 0 0 0 -236204589.0082854 585219672.86958313 0 585219672.86958313 -229658646.02493286 0 0 0 0 12767238.521374464 309630254.5100441 0 309630254.5100441 340835.73377990723 0 0 0 0 -252275825.53723383 236336544.74725342 0 236336544.74725342 142359742.16835022 0 0 0 0 -228893112.2224164 556036708.35324097 0 556036708.35324097 -176174913.41908264 0 0 0 0 -240545952.10246772 497588495.55505371 0 497588495.55505371 -7550304.6271572113 0 0 0 0 -240385352.64332223 374543232.75330526 0 374543232.75330526 52961510.49005127 0 0 0 0 911927890.32654428 55442955.807601929 0 55442955.807601929 -208039483.29492188 0 0 0 0 669308590.31485033 190966071.48258972 0 190966071.48258972 -169108406.50645447 0 0 0 0 811587.62803811417 3380708.8102282519 0 3380708.8102282519 -11360822.650093593 0 0 0 0 309398075.74495316 -293107821.61061096 0 -293107821.61061096 -70368167.093257904 0 0 0 0 236940782.2628274 -322505375.86777496 0 -322505375.86777496 -162599450.80630684 0 0 0 0 342529562.21637142 -137512960.8716917 0 -137512960.8716917 -209537853.20089722 0 0 0 0 300660733.6626687 -20817136.417160034 0 -20817136.417160034 117191624.12225342 0 0 0 0 32333866.433855593 -130251775.15032387 0 -130251775.15032387 -277464228.83862305 0 0 0 0 96831947.200032234 -243425263.55183029 0 -243425263.55183029 -151499467.82559967 0 0 0 0 -31213468.884380519 -265491605.55994415 0 -265491605.55994415 -511095873.45895386 0 0 0 0 -74859309.635216475 -262071537.88118744 0 -262071537.88118744 -184640233.89264679 0 0 0 0 -131782107.23045778 -164000172.69147491 0 -164000172.69147491 -105830910.14559174 0 0 0 0 -264630747.5640834 -16391884.164100647 0 -16391884.164100647 5956754.4386291504 0 0 0 0 -250403027.70832199 -292556217.83795929 0 -292556217.83795929 -225352463.38781738 0 0 0 0 500685.85746246536 79917.455981043866 0 79917.455981043866 -3397898.8885121495 0 0 0 0 -64004.001893446351 -71896356.343101501 0 -71896356.343101501 242954442.64715576 0 0 0 0 66690047.063036427 -23041648.953326225 0 -23041648.953326225 6987783.7681884766 0 0 0 0 -29098467.177170038 -47863151.341407776 0 -47863151.341407776 -72194787.035766602 0 0 0 0 85725.261749414509 -312295.05466136779 0 -312295.05466136779 -1362387.980233103 0 0 0 0 -585084496.76921165 -295382521.61495972 0 -295382521.61495972 -50177339.615081787 0 0 0 0 187067765.94160265 104979756.24876404 0 104979756.24876404 -792904979.75656128 0 0 0 0 -721516188.1363554 -584419771.83625031 0 -584419771.83625031 -522997030.24688721 0 0 0 0 -153493635.16011274 -222417056.10264587 0 -222417056.10264587 -274468739.01064301 0 0 0 0 -233928223.25017363 -445283106.52001953 0 -445283106.52001953 -739047206.21990967 0 0 0 0 -35490155.168196678 -201555187.42534256 0 -201555187.42534256 -892561900.13331604 0 0 0 0 -130130211.25729537 -393644312.67782211 0 -393644312.67782211 -1596460316.3369598 0 0 0 0 -82226384.554556131 -155301701.42625427 0 -155301701.42625427 -775418423.51868248 0 0 0 0 -276314472.57332641 226111525.35336304 0 226111525.35336304 -1230186940.5505219 0 0 0 0 509300.86441547319 -343881723.86174393 0 -343881723.86174393 -1648982656.8548584 0 0 0 0 -419021907.23499495 59057842.922931671 0 59057842.922931671 -1148724773.0152588 0 0 0 0 -241508112.7713092 36438736.137199402 0 36438736.137199402 -1192122860.2880707 0 0 0 0 110790340.04852337 290501697.82036591 0 290501697.82036591 -1106385739.4655457 0 0 0 0 -40159682.079799175 122212891.58892632 0 122212891.58892632 -1007260037.9005127 0 0 0 0 -55884946.781054735 189222801.59970856 0 189222801.59970856 -1266469504.6125183 0 0 0 0 542748662.91110575 404261321.58547592 0 404261321.58547592 -1059138733.8813477 0 0 0 0 132748175.08121085 172726188.93810272 0 172726188.93810272 -698340517.371521 0 0 0 0 131970573.28555441 377541324.21252441 0 377541324.21252441 -1057807790.5504875 0 0 0 0 -632043667.22337556 944592736.02176952 0 944592736.02176952 -634571473.23780823 0 0 0 0 167172337.35467863 300292465.48713684 0 300292465.48713684 -489450283.42356491 0 0 0 0 61249439.709823966 376731339.58884811 0 376731339.58884811 -491386103.17132568 0 0 0 0 213022176.15513611 87147074.279418945 0 87147074.279418945 -326310004.3581543 0 0 0 0 99867520.738678604 -24850556.090474129 0 -24850556.090474129 -430926603.23027039 0 0 0 0 88823053.951402783 76333851.493099213 0 76333851.493099213 -785559873.94689941 0 0 0 0 -9526887.2188801765 -39677129.679199219 0 -39677129.679199219 -473302375.91664505 0 0 0 0 132711387.93457127 181363095.06780243 0 181363095.06780243 -1048139381.1387177 0 0 0 0 -169907868.58351001 115915211.13706779 0 115915211.13706779 127525714.02336121 0 0 0 0 -45986202.518056512 294009899.94858551 0 294009899.94858551 -528983949.65286255 0 0 0 0 59594482.280337453 198814260.79840851 0 198814260.79840851 -627045036.16755676 0 0 0 0 -86498450.938887715 119273620.90356064 0 119273620.90356064 -756410232.70567703 0 0 0 0 -31568061.026119724 348271888.32446194 0 348271888.32446194 -1099103182.6194839 0 0 0 0 -110125152.04705508 787862059.8693924 0 787862059.8693924 -1542271071.304985 0 0 0 0 79478229.382141843 562070428.67057419 0 562070428.67057419 -1555907402.9347153 0 0 0 0 -443428704.21686029 533517175.97420502 0 533517175.97420502 -534693063.83627319 0 0 0 0 276168132.17312962 964165012.67235756 0 964165012.67235756 -3466327324.6234016 0 0 0 0 481632863.5898456 550952082.92241669 0 550952082.92241669 -2719355176.7398071 0 0 0 0 394646798.59127122 547325535.6237793 0 547325535.6237793 -2718280289.0340614 0 0 0 0 293924589.98260599 534724117.48463058 0 534724117.48463058 -2124665333.1208649 0 0 0 0 526504616.85474479 172647207.39533615 0 172647207.39533615 -2792546570.7288933 0 0 0 0 661163018.42688632 454304512.96633339 0 454304512.96633339 -3464437483.7753334 0 0 0 0 522224234.79104227 296021589.77586812 0 296021589.77586812 -2764950532.3273392 0 0 0 0 109942879.02684531 148468536.90781593 0 148468536.90781593 -1429348483.8015289 0 0 0 0 236812891.94443059 -64407777.158027649 0 -64407777.158027649 -1785025001.6301384 0 0 0 0 -58969355.333700418 -194182059.99463654 0 -194182059.99463654 -503782569.27099609 0 0 0 0 98739769.426613331 -321391206.3466301 0 -321391206.3466301 -1345661180.5214252 0 0 0 0 -698058.22942330921 -1073886.5868613608 0 -1073886.5868613608 -973615.55154630914 0 0 0 0 -277380849.06343055 -706738661.64861298 0 -706738661.64861298 -1290134683.9513435 0 0 0 0 -766636.75816514273 949304.82389222737 0 949304.82389222737 -3700388.7437556759 0 0 0 0 107881955.71310735 272605934.65859985 0 272605934.65859985 -2558681630.7177467 0 0 0 0 118717509.32336938 -401315946.93880844 0 -401315946.93880844 -2329156878.5403023 0 0 0 0 153592936.52302882 -234528487.98630524 0 -234528487.98630524 -3464127305.36689 0 0 0 0 79319005.944014668 -201098923.12881279 0 -201098923.12881279 -2571743997.3023071 0 0 0 0 -243474079.23468608 -838453536.77432251 0 -838453536.77432251 -3464213785.4940748 0 0 0 0 -1205869028.58426 -121311256.82128143 0 -121311256.82128143 -2403059114.2227249 0 0 0 0 -1075036251.7386642 -799486927.87034607 0 -799486927.87034607 -1677225145.5890198 0 0 0 0 -510588312.70018417 -1231572404.4915085 0 -1231572404.4915085 -2520693662.662384 0 0 0 0 -152900537.83624816 -1338475298.1657104 0 -1338475298.1657104 -2500451204.651535 0 0 0 0 136840211.79452026 -1152336498.1788177 0 -1152336498.1788177 -4008960391.2833176 0 0 0 0 -2226423683.8656926 -710884942.65792847 0 -710884942.65792847 -3466092886.7977419 0 0 0 0 323599023.03731996 -2317460528.0933533 0 -2317460528.0933533 -2690402179.1202011 0 0 0 0 -177966157.45455176 -969729538.51339722 0 -969729538.51339722 -1244101602.8785629 0 0 0 0 -537998638.28330588 -1366471187.0706043 0 -1366471187.0706043 -926675626.45085144 0 0 0 0 -31921054.535730362 349376634.84992218 0 349376634.84992218 -1265184265.0131073 0 0 0 0 -613843111.27693462 -407356337.44491577 0 -407356337.44491577 -490970193.32585144 0 0 0 0 -634529736.22597647 -689097897.80406189 0 -689097897.80406189 -2157599313.4642258 0 0 0 0 -766387851.47103071 849350061.97740173 0 849350061.97740173 -1858324932.0477781 0 0 0 0 -1606398180.2239728 809740223.76288986 0 809740223.76288986 -327341712.1834259 0 0 0 0 -299431511.76587093 410052775.60162354 0 410052775.60162354 -392599308.66557693 0 0 0 0 -714359473.82903695 569907236.33663845 0 569907236.33663845 -400784858.6831665 0 0 0 0 -374666570.22707385 425698084.95128298 0 425698084.95128298 -782365134.45819092 0 0 0 0 -1072176325.7674093 504318710.92423248 0 504318710.92423248 -231385975.37363052 0 0 0 0 -856991366.4472456 743466096.36819077 0 743466096.36819077 -449305813.72984314 0 0 0 0 -408411638.44603729 51407163.253578186 0 51407163.253578186 30719460.886413574 0 0 0 0 171732069.56832218 87789798.205284119 0 87789798.205284119 -324955799.99153709 0 0 0 0 -2272959.3939491711 1106786.6739744358 0 1106786.6739744358 -8348645.3303046869 0 0 0 0 -186402540.44861364 -11128646.752498627 0 -11128646.752498627 138804922.71170044 0 0 0 0 -1556579135.0162435 247390632.07077026 0 247390632.07077026 -40299465.523498535 0 0 0 0 -287945.2119005546 -154678.04662017152 0 -154678.04662017152 -203676.37742398493 0 0 0 0 -1384660196.7155509 768051665.87026978 0 768051665.87026978 -298359437.54094696 0 0 0 0 -771877.83742722729 849323.31071612798 0 849323.31071612798 -621953.98149736971 0 0 0 0 -511746711.6119315 344798619.33089149 0 344798619.33089149 -309511062.78907776 0 0 0 0 -679338878.65486813 600879386.52870178 0 600879386.52870178 -228286670.27242279 0 0 0 0 -157072969.91357422 -176272403.48808289 0 -176272403.48808289 -77710383.603057861 0 0 0 0 -1079426316.1285825 120926593.15237427 0 120926593.15237427 224339864.7906189 0 0 0 0 -661990456.07734489 -390927498.73210144 0 -390927498.73210144 163063365.86914444 0 0 0 0 -435235733.39813995 198773323.70050812 0 198773323.70050812 121269602.78953552 0 0 0 0 -407519138.22317696 211858608.77997208 0 211858608.77997208 91320363.016540527 0 0 0 0 -379963808.29674482 432555615.21430969 0 432555615.21430969 55817366.321792603 0 0 0 0 -149814673.72250366 222396551.22960663 0 222396551.22960663 58767923.031112671 0 0 0 0 -249006582.45640182 336294135.11209106 0 336294135.11209106 -17270921.499343872 0 0 0 0 -220407731.09667301 116462554.19993019 0 116462554.19993019 164193709.90672302 0 0 0 0 -57091118.642649889 133896195.37119102 0 133896195.37119102 -12060916.365661621 0 0 0 0 -20718685.582992554 10934717.565567017 0 10934717.565567017 5499800.1629486084 0 0 0 0 -7324011.7544927597 8534453.6384773254 0 8534453.6384773254 1042626.6378555298 0 0 0 0 -3544665.1459239661 4893855.1246414483 0 4893855.1246414483 4577509.5063612461 0 0 0 0 6667002.9238386154 17711684.828063965 0 17711684.828063965 -4052205.9707870483 0 0 0 0 -3516759.4827418346 7398381.9582337141 0 7398381.9582337141 -8040847.2535840794 0 0 0 0 -10841979.522660255 22892441.914134979 0 22892441.914134979 -178108.10844421387 0 0 0 0 7025165.669593811 -10738755.873947144 0 -10738755.873947144 -21253330.466579437 0 0 0 0 -12879566.73764801 9938244.6629142761 0 9938244.6629142761 -2464476.8632354736 0 0 0 0 -12215591.448574066 8762183.7383174896 0 8762183.7383174896 -19427995.607025146 0 0 0 0 627725.60493755341 614422.75319290161 0 614422.75319290161 -13847621.361888885 0 0 0 0 -9863842.4812927246 3055658.5902671814 0 3055658.5902671814 -10890277.657730103 0 0 0 0 -31495395.616281986 8563289.7994232178 0 8563289.7994232178 22594738.012710571 0 0 0 0 -7574184.4431613702 1059710.5236872584 0 1059710.5236872584 -10360095.999576997 0 0 0 0 -61280878.240190506 178852766.1082077 0 178852766.1082077 -271277664.33435822 0 0 0 0 -2327721.6777977254 3699418.6133593265 0 3699418.6133593265 -9236678.9855015576 0 0 0 0 33986247.461574331 40187688.954648018 0 40187688.954648018 -12018169.291366577 0 0 0 0 -13223998.007436275 3610433.9264068604 0 3610433.9264068604 3138113.0774650574 0 0 0 0 -105492033.65745984 72079394.633071899 0 72079394.633071899 1621099.1042098999 0 0 0 0 -110475899.06633461 -44168979.941885233 0 -44168979.941885233 -18066586.229431152 0 0 0 0 -128542149.46641636 -36115143.841938019 0 -36115143.841938019 -171035338.38626099 0 0 0 0 30165097.081598759 214165736.03329468 0 214165736.03329468 -141144753.12652588 0 0 0 0 -5145624.9560200311 -3692631.7587025706 0 -3692631.7587025706 97665.551231462508 0 0 0 0 66537077.162804365 52946203.103851318 0 52946203.103851318 -350526450.2244873 0 0 0 0 -28604960.889674902 -20344009.724376678 0 -20344009.724376678 8258233.3090362549 0 0 0 0 -15253100.164316691 -100144.05694298446 0 -100144.05694298446 -8848301.9414508231 0 0 0 0 -19719197.928356171 4175211.7172966003 0 4175211.7172966003 -18028416.361166 0 0 0 0 -10740421.047688484 45114.478197097778 0 45114.478197097778 -19682120.102874756 0 0 0 0 -16255082.85084343 13165326.595199585 0 13165326.595199585 -20435250.876754761 0 0 0 0 -29525976.515155792 13448623.43730545 0 13448623.43730545 -27209670.580429554 0 0 0 0 -19302349.350925446 6239514.0064697266 0 6239514.0064697266 -32945239.824920654 0 0 0 0 -18297928.103527069 4947840.859380722 0 4947840.859380722 -27530054.439872742 0 0 0 0 -11167144.993278462 2086027.63258636 0 2086027.63258636 -14297453.965780675 0 0 0 0 -2614621.1785377283 -2889925.652131319 0 -2889925.652131319 -30626755.646888547 0 0 0 0 3590505.2797279358 -38550044.492835999 0 -38550044.492835999 -6883659.4795608521 0 0 0 0 -341030374.38630867 240533892.79207993 0 240533892.79207993 108520697.04511642 0 0 0 0 3800152.8040529247 -3179291.5490307808 0 -3179291.5490307808 -8786695.646334365 0 0 0 0 -18552007.903587341 -340183264.39059448 0 -340183264.39059448 -317775843.04006767 0 0 0 0 -6541544.5398756256 -4628332.8344876859 0 -4628332.8344876859 -13360323.875905968 0 0 0 0 -375918666.51809025 247162295.33019638 0 247162295.33019638 269680403.06578827 0 0 0 0 -60651.115923944861 -1127514.3767118696 0 -1127514.3767118696 -2744299.8056882401 0 0 0 0 -7915754.3633060893 -2505783.6252724081 0 -2505783.6252724081 -8881124.5842790697 0 0 0 0 -59352287.840375662 56316563.061920166 0 56316563.061920166 106404912.52030754 0 0 0 0 -2161066.967508316 -2012045.4523773193 0 -2012045.4523773193 -5475174.7202262878 0 0 0 0 -175296799.98976323 -81507988.971923828 0 -81507988.971923828 -24048049.288642883 0 0 0 0 -6581295.696221659 -6997680.2617710819 0 -6997680.2617710819 -15389048.803464055 0 0 0 0 75628130.137759849 -192236358.10366154 0 -192236358.10366154 -177002205.28875732 0 0 0 0 -359153351.62129593 -24398946.395967484 0 -24398946.395967484 -30312539.048942566 0 0 0 0 -91438172.25898838 -110708529.40149164 0 -110708529.40149164 -35546547.550167084 0 0 0 0 -46996417.483417511 -99476015.610282898 0 -99476015.610282898 -66702675.448191643 0 0 0 0 -5506353.3773841858 -89552005.139211655 0 -89552005.139211655 -65708029.032164574 0 0 0 0 -4190239.1931583881 -78992734.03973937 0 -78992734.03973937 -27819261.41882515 0 0 0 0 -50295760.505153656 -94368213.840074539 0 -94368213.840074539 -4660715.5112690926 0 0 0 0 -82494212.399618149 -89152715.327755928 0 -89152715.327755928 -1288672.7637081146 0 0 0 0 -106942460.30529022 -67544916.943719864 0 -67544916.943719864 43423462.572177887 0 0 0 0 -157644309.08570957 -77702184.996413708 0 -77702184.996413708 43670696.848636627 0 0 0 0 -81476662.982502937 -8993871.4966306686 0 -8993871.4966306686 6420157.5576286316 0 0 0 0 61186872.04949379 -77586741.833667755 0 -77586741.833667755 -2301832.9424624443 0 0 0 0 -22977445.527872086 -51611400.882359266 0 -51611400.882359266 10160082.735837936 0 0 0 0 141123.54331326298 -7029660.2321651978 0 -7029660.2321651978 -39135438.575120158 0 0 0 0 -13687864.47121048 24180894.762588501 0 24180894.762588501 -41910387.331180573 0 0 0 0 -4122328.9089279175 26165249.61914444 0 26165249.61914444 -41866891.318283081 0 0 0 0 -13931747.303195953 21028818.673149109 0 21028818.673149109 -25098488.196655273 0 0 0 0 -24497986.313037872 39615708.689460754 0 39615708.689460754 -32060675.516708374 0 0 0 0 5569715.181350708 31843277.750564575 0 31843277.750564575 -51530726.420326233 0 0 0 0 -10286071.136323929 34591627.499214172 0 34591627.499214172 -51983271.93548584 0 0 0 0 238872115.57665253 50987910.444091797 0 50987910.444091797 -85972639.024612427 0 0 0 0 274547.4100446282 -11522055.553836331 0 -11522055.553836331 -46419482.470174097 0 0 0 0 -8687325.2230796814 229668510.02377319 0 229668510.02377319 75101422.090415955 0 0 0 0 85399194.49102211 -56465669.77564621 0 -56465669.77564621 -38974671.017414093 0 0 0 0 108656691.36637211 -110611454.39612937 0 -110611454.39612937 -10829042.50576973 0 0 0 0 70491215.083454132 -64321346.335163116 0 -64321346.335163116 -56574386.430812836 0 0 0 0 71011420.406902313 -52300926.814044952 0 -52300926.814044952 -89476844.845270157 0 0 0 0 150769855.22434044 -80649018.69597435 0 -80649018.69597435 -67209354.278375626 0 0 0 0 107764182.13819122 -39303804.801275253 0 -39303804.801275253 -40694245.084644794 0 0 0 0 96763.42196200043 -15638902.270010712 0 -15638902.270010712 -52936793.425755128 0 0 0 0 79379599.812017441 -18678511.094482422 0 -18678511.094482422 -650414883.77653503 0 0 0 0 594273903.5281353 -390374186.27249908 0 -390374186.27249908 -862265922.12004089 0 0 0 0 -441726116.15123081 1934003.3320064545 0 1934003.3320064545 161243675.82049561 0 0 0 0 -326597211.37283325 142108314.1194458 0 142108314.1194458 168789191.7459259 0 0 0 0 -723690.30618410045 2339888.1529609282 0 2339888.1529609282 -1119550.3729433566 0 0 0 0 131517076.80378532 -101088634.61016083 0 -101088634.61016083 -520992220.34760284 0 0 0 0 35146881.924224854 -89020258.264724731 0 -89020258.264724731 -235264711.85571098 0 0 0 0 122044376.43823195 -78018014.355491638 0 -78018014.355491638 -263651507.12493896 0 0 0 0 33911894.278118134 -27706080.533065796 0 -27706080.533065796 -287364154.18393707 0 0 0 0 -187146158.81148243 -71499492.246921539 0 -71499492.246921539 313310685.32644653 0 0 0 0 496896752.35638714 72580045.273254395 0 72580045.273254395 -463948403.05703735 0 0 0 0 -1139611.1839191532 1650004.1768008247 0 1650004.1768008247 1026130.8614337742 0 0 0 0 219313868.71201515 36200278.793960571 0 36200278.793960571 -240966043.34684753 0 0 0 0 -182503241.35302353 -10416594.054725647 0 -10416594.054725647 -61485426.743270874 0 0 0 0 1248516.3344764709 103102863.03964996 0 103102863.03964996 -50454182.417789459 0 0 0 0 -1619942.3174741415 4959350.40686162 0 4959350.40686162 -3631823.6201876551 0 0 0 0 -108574354.73935604 58597818.852848053 0 58597818.852848053 -15069496.10900116 0 0 0 0 -5837999.6564617157 16367038.959102631 0 16367038.959102631 -16887727.872764587 0 0 0 0 -21555928.207739115 26592458.014482498 0 26592458.014482498 -8703170.9409790039 0 0 0 0 -9893526.1177101135 13507318.950927734 0 13507318.950927734 -15628136.82598877 0 0 0 0 -16565126.923377991 21283121.04864502 0 21283121.04864502 -18431635.18624115 0 0 0 0 57799101.867030144 59271795.635623932 0 59271795.635623932 -5371867.8312988281 0 0 0 0 -85186595.667571068 80742367.611602783 0 80742367.611602783 86886131.306640625 0 0 0 0 -2334436.6396717299 6143944.9690907476 0 6143944.9690907476 -6002738.9499496296 0 0 0 0 -112735389.1775465 -6700218.1941375732 0 -6700218.1941375732 58721834.54296875 0 0 0 0 125506798.46990967 -14814128.702248573 0 -14814128.702248573 -159375015.20391846 0 0 0 0 -182979940.25731277 253392766.39630127 0 253392766.39630127 175188736.24515533 0 0 0 0 371305157.60283279 -145417331.01899719 0 -145417331.01899719 -515622376.44721985 0 0 0 0 30935512.770667076 14749306.916023254 0 14749306.916023254 86571937.78635025 0 0 0 0 274939033.88565588 265830226.24559784 0 265830226.24559784 42712738.984207153 0 0 0 0 -2469324.1528515616 3530701.5836864486 0 3530701.5836864486 2563780.1593993679 0 0 0 0 -12168757.457413673 150225950.14356995 0 150225950.14356995 -28646090.06449461 0 0 0 0 -92252148.127569437 108532296.00913239 0 108532296.00913239 120289167.93118286 0 0 0 0 -199601024.04806423 -32225594.491706848 0 -32225594.491706848 73753582.560911179 0 0 0 0 -6688841.9991718233 -177167812.45918655 0 -177167812.45918655 158615797.98097992 0 0 0 0 -344937869.54425979 27737573.603618622 0 27737573.603618622 -235541695.51652527 0 0 0 0 58720174.297816753 97948249.331298828 0 97948249.331298828 -874915791.13730621 0 0 0 0 -1171043.57822634 -958362.31573930383 0 -958362.31573930383 -289356.51583829231 0 0 0 0 -33805318.575229645 -241606765.12594604 0 -241606765.12594604 -382996665.12940216 0 0 0 0 -3721598.9682106972 -11878241.852855682 0 -11878241.852855682 -268656747.61068726 0 0 0 0 -37079887.014966011 -25796384.267059326 0 -25796384.267059326 -206958906.12207031 0 0 0 0 7729027.0641899109 -39786718.872695923 0 -39786718.872695923 -208044180.29134369 0 0 0 0 -31734247.915748596 -55142027.409118652 0 -55142027.409118652 -231066368.45827484 0 0 0 0 -87903844.477726936 -66631404.28401947 0 -66631404.28401947 -111980179.41061401 0 0 0 0 93692946.289947271 44911988.628124237 0 44911988.628124237 -134886016.4914856 0 0 0 0 -99884.67566742911 38143.532943474129 0 38143.532943474129 303555.24776384979 0 0 0 0 -78578385.941514969 -23275809.619674683 0 -23275809.619674683 17212728.210884094 0 0 0 0 -24666714.559884071 1093335.5670318604 0 1093335.5670318604 93886588.950698853 0 0 0 0 -28832714.172128677 -24119111.808052063 0 -24119111.808052063 -112956743.08007812 0 0 0 0 -36057083.564693451 -22964732.663909912 0 -22964732.663909912 -112504129.29484558 0 0 0 0 32963039.238464355 10486757.274261475 0 10486757.274261475 -129575557.43777466 0 0 0 0 -10500813.239933014 1839366.2449951172 0 1839366.2449951172 -128179390.83271408 0 0 0 0 -19554621.536358833 9076527.3654785156 0 9076527.3654785156 -18033692.664886475 0 0 0 0 -36622961.000204086 -5088542.1831054688 0 -5088542.1831054688 -28633579.024536133 0 0 0 0 -75481924.472139359 -42761343.181255341 0 -42761343.181255341 -28653239.043029785 0 0 0 0 -47036535.242935181 -26738512.694763184 0 -26738512.694763184 -16368286.594772339 0 0 0 0 -65416016.560260773 -9511717.6828460693 0 -9511717.6828460693 16634614.829528809 0 0 0 0 -52703305.78569603 -15173923.006469727 0 -15173923.006469727 19022285.384384155 0 0 0 0 -39654451.829711914 -17689348.871696472 0 -17689348.871696472 31773379.498886108 0 0 0 0 -60397582.157720566 -14541002.389984131 0 -14541002.389984131 52971981.590026855 0 0 0 0 -5397698.8658294678 -39382947.325698853 0 -39382947.325698853 46135134.099884033 0 0 0 0 -40972681.352199554 -7093208.2698669434 0 -7093208.2698669434 6849931.6741333008 0 0 0 0 -47969275.070003033 -18888000.271064758 0 -18888000.271064758 69239577.567230225 0 0 0 0 -36940354.701161385 -33778349.765548706 0 -33778349.765548706 65909147.001953125 0 0 0 0 13815657.522438049 -58124662.916984558 0 -58124662.916984558 36737334.660797119 0 0 0 0 -34346739.716295242 -25470743.689361572 0 -25470743.689361572 42850375.652442932 0 0 0 0 10730937.6386168 -1383173.0932254791 0 -1383173.0932254791 6578229.6972808838 0 0 0 0 1444700.5360391419 -3579409.2767419573 0 -3579409.2767419573 -544438.34733244777 0 0 0 0 226763.10347786359 -474730.26306772605 0 -474730.26306772605 471309.65140111744 0 0 0 0 12227778.214240551 -42276859.967758179 0 -42276859.967758179 -43992413.229721069 0 0 0 0 -35727465.051054955 -7318833.3367996216 0 -7318833.3367996216 33956511.774841309 0 0 0 0 36510207.854203939 -27263117.003101349 0 -27263117.003101349 -77959865.187927246 0 0 0 0 -66826514.414796829 3770354.2685699463 0 3770354.2685699463 34680138.894691467 0 0 0 0 2692893.4554376602 -135355523.54460335 0 -135355523.54460335 49838994.686676025 0 0 0 0 2040823.60969389 -3907245.8077472299 0 -3907245.8077472299 -4514787.1214571521 0 0 0 0 1085241.7468653321 5589943.2155151367 0 5589943.2155151367 1451475.7820129395 0 0 0 0 12613227.58608669 3300062.5427398682 0 3300062.5427398682 -4616053.1666717529 0 0 0 0 20826983.280164257 11954042.321640015 0 11954042.321640015 -9228895.3526000977 0 0 0 0 10133028.277922034 14478711.211883545 0 14478711.211883545 -6915017.6432800293 0 0 0 0 296368.57704585791 2868727.4414520264 0 2868727.4414520264 -3739936.5314865112 0 0 0 0 54304344.463210106 -19305573.34261322 0 -19305573.34261322 -49649838.412002563 0 0 0 0 959617.35491609573 -12773292.98526001 0 -12773292.98526001 -10118317.537536621 0 0 0 0 3772049.7765149483 1814104.4939798387 0 1814104.4939798387 -13871532.694922477 0 0 0 0 23418894.297035217 -39165981.950935364 0 -39165981.950935364 -29454157.881950378 0 0 0 0 8011286.7691397583 -12488130.26282043 0 -12488130.26282043 -8118424.1804730296 0 0 0 0 -13596403.258174896 -21453009.106643677 0 -21453009.106643677 -12246843.894226074 0 0 0 0 23569979.526103973 -51841188.392532349 0 -51841188.392532349 -13986400.416137695 0 0 0 0 30746778.04992485 -51077851.50188446 0 -51077851.50188446 -14022772.452037811 0 0 0 0 14191640.305021107 9454711.7063551508 0 9454711.7063551508 -32340242.644015141 0 0 0 0 28481323.760998249 26518309.838729858 0 26518309.838729858 2602017.7631835938 0 0 0 0 36792015.605239868 -6922610.2744674683 0 -6922610.2744674683 -40762534.321163177 0 0 0 0 27917047.572225571 24817514.975372314 0 24817514.975372314 1053537.1060400009 0 0 0 0 -1408683.1511225414 -701478.39773074165 0 -701478.39773074165 237093.78331039846 0 0 0 0 264941.47048139572 -11511088.568214417 0 -11511088.568214417 -56424134.298965454 0 0 0 0 246831.78985596879 -95711.965508062392 0 -95711.965508062392 -12144.123284414411 0 0 0 0 818280.02798306942 -23931367.626541138 0 -23931367.626541138 -66455954.541725159 0 0 0 0 2275153.288308382 -7689223.6732940674 0 -7689223.6732940674 -75250788.305358887 0 0 0 0 91604272.010014534 91642348.812171936 0 91642348.812171936 83908660.908203125 0 0 0 0 25011476.152107239 18681996.775894165 0 18681996.775894165 1531015.7794036865 0 0 0 0 24113802.357923508 25156377.345489502 0 25156377.345489502 10375350.272652864 0 0 0 0 24575538.024466395 21461179.534552574 0 21461179.534552574 10443912.007965088 0 0 0 0 61314868.411376953 -6123628.6182155609 0 -6123628.6182155609 -71640207.671522141 0 0 0 0 8008321.6552278399 -59762.064479079098 0 -59762.064479079098 -49612730.587725699 0 0 0 0 57387368.651438713 13023416.747280002 0 13023416.747280002 -63548179.56791687 0 0 0 0 27932432.25996685 28223896.75138092 0 28223896.75138092 5630708.0314331055 0 0 0 0 77526259.540664673 -9461868.7516345978 0 -9461868.7516345978 -72517339.240491867 0 0 0 0 75028711.393268585 -5411570.7993869781 0 -5411570.7993869781 -78756076.790058136 0 0 0 0 89035430.81047821 -19915385.538928986 0 -19915385.538928986 -78038781.473890305 0 0 0 0 78174097.380867004 -16593293.346129417 0 -16593293.346129417 -74410600.625326157 0 0 0 0 211031931.23953247 -302013068.53374958 0 -302013068.53374958 204623537.39601135 0 0 0 0 2981686.4990818389 -17543459.825301953 0 -17543459.825301953 -59943811.353216909 0 0 0 0 81630156.014205933 -13746414.780092239 0 -13746414.780092239 -81890821.922170162 0 0 0 0 78121024.617391169 -21129402.563234523 0 -21129402.563234523 -75528818.749076843 0 0 0 0 79337528.10295105 -15077541.290641785 0 -15077541.290641785 -72965239.674234033 0 0 0 0 5330550.1104560029 -4078445.55519142 0 -4078445.55519142 -7927275.1421953216 0 0 0 0 174783635.08753967 -49950394.183609009 0 -49950394.183609009 -71106016.346603394 0 0 0 0 175645963.71342659 -116581080.33021545 0 -116581080.33021545 119737366.34707642 0 0 0 0 75677979.482955933 -121166535.35371399 0 -121166535.35371399 73988808.593566895 0 0 0 0 -10266740.043525696 -41411090.321670532 0 -41411090.321670532 109541956.96175385 0 0 0 0 133699781.43224335 -148599589.09393311 0 -148599589.09393311 151621845.8012085 0 0 0 0 -72229084.574344635 27353466.55947876 0 27353466.55947876 100176472.09426498 0 0 0 0 3523236.1194953918 27466058.046722412 0 27466058.046722412 -7181243.5207366943 0 0 0 0 -2054119.2805404663 439864.48767089844 0 439864.48767089844 -9776591.7537536621 0 0 0 0 42787671.22776413 79235618.558486938 0 79235618.558486938 -176135246.14341736 0 0 0 0 55476974.056159973 216899167.00097656 0 216899167.00097656 -467389404.54766464 0 0 0 0 47361816.77189827 125643581.64958191 0 125643581.64958191 7905060.1929931641 0 0 0 0 -354579926.04654121 298532826.1260376 0 298532826.1260376 318220281.70860291 0 0 0 0 -26652191.947118998 -224155028.88851261 0 -224155028.88851261 412586962.98814392 0 0 0 0 101838223.35538864 -70216819.639333725 0 -70216819.639333725 -44188424.201602459 0 0 0 0 80189479.906257629 -30180840.610645294 0 -30180840.610645294 -56643692.47228384 0 0 0 0 90588378.314037323 -27689032.201835632 0 -27689032.201835632 -88336838.283194542 0 0 0 0 112099916.24405289 -44383868.42794323 0 -44383868.42794323 -100911942.2101059 0 0 0 0 80886461.212005615 -10010256.931461334 0 -10010256.931461334 -127754729.26229382 0 0 0 0 88690749.76858902 -42703680.173512697 0 -42703680.173512697 -146590679.26930618 0 0 0 0 100142412.85076904 -912749.83735752106 0 -912749.83735752106 -104530540.88483334 0 0 0 0 96581160.112781525 -9709332.8522176743 0 -9709332.8522176743 -114614826.89241505 0 0 0 0 104787359.46464539 -38959419.061584949 0 -38959419.061584949 -96885995.25447464 0 0 0 0 95758914.575019836 -13389125.148048401 0 -13389125.148048401 -95357236.524488807 0 0 0 0 83805406.074485779 2481578.6411671638 0 2481578.6411671638 -84827069.876804352 0 0 0 0 88470130.6667099 1147900.9125108719 0 1147900.9125108719 -93881505.872289538 0 0 0 0 93145741.662679672 2401734.4035787582 0 2401734.4035787582 -103907238.62615871 0 0 0 0 91875116.751617432 31962670.592445374 0 31962670.592445374 -89503795.298953056 0 0 0 0 94170042.587020874 19557427.485773087 0 19557427.485773087 -107454294.59068108 0 0 0 0 80729498.770996094 10444870.355650902 0 10444870.355650902 -83250568.813353062 0 0 0 0 84451660.115013123 18416885.50702095 0 18416885.50702095 -80952206.991630554 0 0 0 0 88074711.065979004 30326227.46700573 0 30326227.46700573 -80409172.284633219 0 0 0 0 102698638.86802292 73646737.099269509 0 73646737.099269509 -50643016.153216958 0 0 0 0 3989033.7644073139 7892151.6222433522 0 7892151.6222433522 -46933945.758159265 0 0 0 0 76408350.240440369 55902860.215188503 0 55902860.215188503 -31395427.827325344 0 0 0 0 67242770.556598663 26610392.969551086 0 26610392.969551086 -45014743.655296326 0 0 0 0 95496628.11693573 49351377.488591194 0 49351377.488591194 -74912898.854831576 0 0 0 0 87927782.042446136 42335011.091351748 0 42335011.091351748 -71496919.758924484 0 0 0 0 84584752.464696884 26645051.068643808 0 26645051.068643808 -73409098.84062767 0 0 0 0 81702066.411262512 62988516.611944199 0 62988516.611944199 -86118376.222554803 0 0 0 0 79730412.463096619 65385203.941626072 0 65385203.941626072 -61719372.657518983 0 0 0 0 84119942.025787354 53697760.14166069 0 53697760.14166069 -91586956.738048553 0 0 0 0 75797056.133201599 55627973.847561359 0 55627973.847561359 -100986157.33867645 0 0 0 0 77086618.552101135 47839945.832654953 0 47839945.832654953 -84035881.573621154 0 0 0 0 92881353.364368439 37194115.702724934 0 37194115.702724934 -131907442.72708893 0 0 0 0 90905605.611312866 28891542.79695797 0 28891542.79695797 -97423134.64874053 0 0 0 0 100173160.11902112 63396.886412583292 0 63396.886412583292 -150307411.77806282 0 0 0 0 92222001.539196014 22470123.304021835 0 22470123.304021835 -122179533.875494 0 0 0 0 78577157.090473175 60362390.997555256 0 60362390.997555256 -145285299.48437738 0 0 0 0 94743597.587486267 25100308.012226105 0 25100308.012226105 -200349357.18262267 0 0 0 0 74426823.502612114 50171349.140243053 0 50171349.140243053 -120590203.36733723 0 0 0 0 35535402.796619415 98654032.312820673 0 98654032.312820673 -88758865.474964142 0 0 0 0 55028040.886924505 137151378.09945452 0 137151378.09945452 -255825001.4093895 0 0 0 0 46691189.105390549 157716904.39546263 0 157716904.39546263 -119493659.54868102 0 0 0 0 67838838.547483444 75199180.18692255 0 75199180.18692255 -291183199.321105 0 0 0 0 70928403.616715908 34945734.165057182 0 34945734.165057182 -196325388.67014217 0 0 0 0 23229793.57270813 -89982819.411685467 0 -89982819.411685467 -282154672.05393124 0 0 0 0 66622600.534934998 -36026106.812199593 0 -36026106.812199593 -174815330.74371672 0 0 0 0 66317827.189472198 -30304582.227469444 0 -30304582.227469444 -200345081.35363865 0 0 0 0 33702711.99754405 -68834401.972581506 0 -68834401.972581506 -128062460.19290161 0 0 0 0 34757675.38325119 -60000668.661409378 0 -60000668.661409378 -86308151.501151085 0 0 0 0 -16102654.424312592 -113952614.08388329 0 -113952614.08388329 -167932212.61681175 0 0 0 0 -28125917.074456692 -94742881.29294467 0 -94742881.29294467 -116487858.7492733 0 0 0 0 -52720112.654720306 -122409207.08185911 0 -122409207.08185911 -123871513.95377922 0 0 0 0 -25293919.91047217 -2462252.1381607056 0 -2462252.1381607056 -402082229.44363403 0 0 0 0 -18469078.112154257 54333377.072914124 0 54333377.072914124 -356174389.71385193 0 0 0 0 64262.127072915639 27078.649124316871 0 27078.649124316871 -1450922.7365833987 0 0 0 0 18824056.065322995 -7471816.4666595459 0 -7471816.4666595459 -467257722.63418579 0 0 0 0 36586391.366029501 35408857.968734741 0 35408857.968734741 -512876334.55619049 0 0 0 0 23299872.04681915 52218328.305633545 0 52218328.305633545 -440410143.46016693 0 0 0 0 3196169.3629854321 39934198.303520203 0 39934198.303520203 -400753134.47006226 0 0 0 0 24514661.636289746 83748254.535598755 0 83748254.535598755 -392232888.26773071 0 0 0 0 -9028657.6437084228 68599240.411315918 0 68599240.411315918 -237315853.79360962 0 0 0 0 -16606408.893987134 65973089.047985077 0 65973089.047985077 -243639478.96809387 0 0 0 0 5700173.3622391988 69953145.255187988 0 69953145.255187988 -325115241.44779968 0 0 0 0 9267675.4160388708 68072359.785522461 0 68072359.785522461 -341661382.46944046 0 0 0 0 -12754510.361050937 56067647.31980896 0 56067647.31980896 -335448096.70214844 0 0 0 0 -6402525.890562769 31252815.520675659 0 31252815.520675659 -243132774.05528259 0 0 0 0 5881168.793632526 41897528.413360596 0 41897528.413360596 -299977745.90651989 0 0 0 0 6704301.0093269516 33996897.842376709 0 33996897.842376709 -342157789.09525299 0 0 0 0 3226452.9197452292 32062689.675857544 0 32062689.675857544 -299019760.61256981 0 0 0 0 -4524747.7714550681 53863010.965812683 0 53863010.965812683 -277979286.67535019 0 0 0 0 -19758151.142060917 17250124.81199646 0 17250124.81199646 -293645687.60765457 0 0 0 0 47539.4436766609 52216104.889247894 0 52216104.889247894 -329911865.5552063 0 0 0 0 -60680066.162241623 85155182.916465759 0 85155182.916465759 -140731192.93713379 0 0 0 0 1336791.0694348589 19505473.133743286 0 19505473.133743286 -350739853.8739624 0 0 0 0 19881663.375736974 18562798.248886108 0 18562798.248886108 -352853189.56262207 0 0 0 0 70650.825840437814 -109913.48017661273 0 -109913.48017661273 -445388.47377203702 0 0 0 0 20551916.180811092 41851018.222763062 0 41851018.222763062 -389113135.22408462 0 0 0 0 19687519.118408106 21537426.491127014 0 21537426.491127014 -364455991.13363647 0 0 0 0 14651456.34630708 51520720.166946411 0 51520720.166946411 -355055432.9664917 0 0 0 0 -5792678.1930728704 18738579.622375488 0 18738579.622375488 -16990212.160339355 0 0 0 0 8082636.3112453222 6766947.5546722412 0 6766947.5546722412 -30311305.840521812 0 0 0 0 -12028338.336308643 3784991.9173583984 0 3784991.9173583984 9052549.7557830811 0 0 0 0 2706500.2905347347 -1170724.7882995605 0 -1170724.7882995605 -6646188.0269622803 0 0 0 0 -40529.913828453275 111185.67225572467 0 111185.67225572467 -134352.28323964775 0 0 0 0 20114110.676535975 -19371825.095947266 0 -19371825.095947266 -85564453.499481201 0 0 0 0 2792.3310168413536 10370920.597587585 0 10370920.597587585 31291539.18107605 0 0 0 0 -23760730.460926108 10567466.126823425 0 10567466.126823425 9908348.1871948242 0 0 0 0 -3114819.0379523188 -5208729.4648132324 0 -5208729.4648132324 9316470.9028768539 0 0 0 0 6066336.3928692266 -4070034.8176956177 0 -4070034.8176956177 6060759.5458526611 0 0 0 0 -124014.00644032125 386442.55066850805 0 386442.55066850805 -337557.32246617973 0 0 0 0 -2658192.3085838407 1250102.6851501465 0 1250102.6851501465 8316665.572265625 0 0 0 0 5983921.118753517 1826602.7699213028 0 1826602.7699213028 -1013411.783996582 0 0 0 0 686053.21101157705 -88178.866115611047 0 -88178.866115611047 -3992035.8669739291 0 0 0 0 -133816481.2941239 -26716499.074462891 0 -26716499.074462891 -13320166.947792053 0 0 0 0 509496.24857503927 1406102.5628332719 0 1406102.5628332719 -3451117.8157876208 0 0 0 0 -74009930.811161935 -148127527.86524773 0 -148127527.86524773 -124235319.95062256 0 0 0 0 -39932445.305212319 -162769698.69624138 0 -162769698.69624138 -200436711.10501099 0 0 0 0 -43683456.5078125 -156514888.18618774 0 -156514888.18618774 -169397944.08851624 0 0 0 0 -43464612.823660135 -134785630.2787323 0 -134785630.2787323 -164226825.99880219 0 0 0 0 -463264.88800701412 2171845.3099150583 0 2171845.3099150583 -2803139.4818862528 0 0 0 0 -347034.83573941514 10637226.450346947 0 10637226.450346947 -2274021.1225891113 0 0 0 0 -13193857.057349145 -4566840.7780075073 0 -4566840.7780075073 -4724580.5410308838 0 0 0 0 -1843770.4227319143 2573851.0179696195 0 2573851.0179696195 -2114339.4978625029 0 0 0 0 128797505.30515122 25465025.748065948 0 25465025.748065948 -186871081.36149597 0 0 0 0 5042466.0297812819 2857211.6715354919 0 2857211.6715354919 -11382979.80267334 0 0 0 0 112787400.49885026 -170094940.3642149 0 -170094940.3642149 -349580386.47521973 0 0 0 0 105229045.87383676 -217784598.00855255 0 -217784598.00855255 -194602685.1877594 0 0 0 0 -34067965.225833654 -135797267.05125809 0 -135797267.05125809 -195665011.82914734 0 0 0 0 323919663.51779985 -247319402.20601273 0 -247319402.20601273 -392797432.41595459 0 0 0 0 125879.08385998535 1556355.7109648346 0 1556355.7109648346 -4169319.6870621592 0 0 0 0 416542976.24239564 -303930949.56225586 0 -303930949.56225586 -733544679.33900452 0 0 0 0 -411500840.10462427 544141628.21328735 0 544141628.21328735 677509940.86950684 0 0 0 0 261415582.101511 408730604.19422913 0 408730604.19422913 -1393113265.890152 0 0 0 0 -568413112.04642105 1037652083.1751175 0 1037652083.1751175 -12105551.166687012 0 0 0 0 301977683.35589004 -61308341.147396088 0 -61308341.147396088 -297851365.25684357 0 0 0 0 300210912.75763011 -37592007.154174805 0 -37592007.154174805 -564708755.44898987 0 0 0 0 336266307.6180377 101438656.10573006 0 101438656.10573006 -139686355.40641785 0 0 0 0 11815428.61500597 304902984.83011627 0 304902984.83011627 -194946708.49832058 0 0 0 0 -60418609.061721683 238385716.27186584 0 238385716.27186584 -184831820.20741272 0 0 0 0 -640160219.59676337 566347323.04196453 0 566347323.04196453 -136620801.23681641 0 0 0 0 -189736080.09335637 693908594.92557526 0 693908594.92557526 -934283918.2293396 0 0 0 0 177675025.35343456 -325835319.90940857 0 -325835319.90940857 -1083405655.6985321 0 0 0 0 -522020820.87547207 -396961916.0213089 0 -396961916.0213089 933543131.50299072 0 0 0 0 -322691142.63139057 -939668100.50036621 0 -939668100.50036621 -54131912.929870605 0 0 0 0 251321782.78846428 -15504635.412483215 0 -15504635.412483215 -213171704.73559475 0 0 0 0 57859869.115356177 112970852.95024109 0 112970852.95024109 191237249.03988647 0 0 0 0 -47359647.26390028 66225660.647819519 0 66225660.647819519 -347337970.40817261 0 0 0 0 -20280551.48427248 157903598.85578156 0 157903598.85578156 -584495898.4677124 0 0 0 0 62554917.915168047 140706884.56183624 0 140706884.56183624 -670024210.96150208 0 0 0 0 -3160972.2437742525 -768915.49787072837 0 -768915.49787072837 -825558.37069640169 0 0 0 0 25157830.66001296 -92624833.072784424 0 -92624833.072784424 -739279659.93092346 0 0 0 0 83335048.773542166 194371668.98173523 0 194371668.98173523 -783523792.67199707 0 0 0 0 -133595640.50005698 -35798392.0675354 0 -35798392.0675354 -277052488.82720947 0 0 0 0 -372465.89944791794 -55851468.813613892 0 -55851468.813613892 -275426185.4959774 0 0 0 0 12554398.074151993 26052295.198265076 0 26052295.198265076 -559136626.42433167 0 0 0 0 13820705.679470733 -11337060.111243963 0 -11337060.111243963 -348148171.71505737 0 0 0 0 -14990430.903245926 45488970.566894531 0 45488970.566894531 -261217711.92277527 0 0 0 0 63837918.780826569 -32947179.811599731 0 -32947179.811599731 -323086890.00857353 0 0 0 0 -38233015.189426646 10814162.363838196 0 10814162.363838196 -424254611.50405884 0 0 0 0 -1403306.2894831896 62238968.604324341 0 62238968.604324341 -456346595.38189697 0 0 0 0 19800206.336139917 -67589053.281135559 0 -67589053.281135559 -676680136.2660675 0 0 0 0 -1001143.62921959 44996.482055254281 0 44996.482055254281 99626.628171004355 0 0 0 0 -2598092.6366970385 1033886.2855748236 0 1033886.2855748236 -1833210.4917819765 0 0 0 0 63463806.281149387 52600543.129043579 0 52600543.129043579 -1002244733.1173401 0 0 0 0 -138795002.1169908 56442002.408172607 0 56442002.408172607 -23636551.56482029 0 0 0 0 -327536511.90034795 -40829088.999694824 0 -40829088.999694824 -490556522.72502136 0 0 0 0 -97377918.50054656 193535105.42268944 0 193535105.42268944 -421299602.72827148 0 0 0 0 -24446004.852827549 30762466.605300903 0 30762466.605300903 -482694152.25495148 0 0 0 0 -51985403.12075448 -64354966.94519043 0 -64354966.94519043 -310265001.11083984 0 0 0 0 -76094819.318410873 57134346.996032715 0 57134346.996032715 -200356476.64150238 0 0 0 0 59240242.285710096 37304807.577880859 0 37304807.577880859 -289364467.12094116 0 0 0 0 -17669833.212461829 146619879.99998474 0 146619879.99998474 -188438512.58425903 0 0 0 0 49045062.74865067 98565816.973693848 0 98565816.973693848 -473928822.58868408 0 0 0 0 13842892.131214619 119026401.68149567 0 119026401.68149567 -244006403.59646606 0 0 0 0 -8799962.4609420188 102193396.75768423 0 102193396.75768423 -138438713.79052734 0 0 0 0 -13679293.493783459 48276464.688955307 0 48276464.688955307 23013887.856201172 0 0 0 0 93834665.353404403 -8442096.0633850098 0 -8442096.0633850098 -55289654.944007874 0 0 0 0 104059354.96132469 123745976.83821106 0 123745976.83821106 -188223980.16900635 0 0 0 0 22278158.239440203 141424430.60275269 0 141424430.60275269 -150629195.76248169 0 0 0 0 57679218.881111443 -6567573.4202766418 0 -6567573.4202766418 51622106.858093262 0 0 0 0 14127535.197301671 -84021744.556223869 0 -84021744.556223869 -64764515.268615723 0 0 0 0 -33350327.493302345 67260806.894332886 0 67260806.894332886 24743558.0418396 0 0 0 0 105972153.58004487 24115094.706655025 0 24115094.706655025 30191561.277984619 0 0 0 0 102775748.87738323 46405474.747703552 0 46405474.747703552 19583395.358108521 0 0 0 0 -11036.783867699851 -147297.76252329722 0 -147297.76252329722 7063.0692600160837 0 0 0 0 4226962.6763944626 -16902621.577697754 0 -16902621.577697754 50334728.488296509 0 0 0 0 -39975.482157675287 -112003.08649644093 0 -112003.08649644093 72320.165761590004 0 0 0 0 -488806.29205361602 -1250957.1352378801 0 -1250957.1352378801 3408.7207274325192 0 0 0 0 814725.1315856427 -688757.93426513672 0 -688757.93426513672 -1233753.6586914062 0 0 0 0 77644434.884264335 6823799.0803487301 0 6823799.0803487301 -31030894.695068359 0 0 0 0 856402.54086728441 6456.0988800998311 0 6456.0988800998311 -760073.73584078252 0 0 0 0 59201588.173788249 -5719368.2983779907 0 -5719368.2983779907 1582499.5330505371 0 0 0 0 56792577.334564835 -17133765.683586121 0 -17133765.683586121 -48808390.510238647 0 0 0 0 10113660.024067193 16077731.286384583 0 16077731.286384583 -30442915.130432129 0 0 0 0 -23745455.914851665 -70543028.742706299 0 -70543028.742706299 -152095217.00798798 0 0 0 0 -18173097.44965744 349788.58082580566 0 349788.58082580566 6230329.899181366 0 0 0 0 -27482834.509547234 -37318251.854736328 0 -37318251.854736328 4011188.5350341797 0 0 0 0 -8318541.2273218632 7011006.173412323 0 7011006.173412323 -79335999.861572266 0 0 0 0 -8678146.5259246826 -36857278.602996826 0 -36857278.602996826 -67615163.268585205 0 0 0 0 -42558920.666109085 12839091.287887573 0 12839091.287887573 1186575.607711792 0 0 0 0 -66368200.876853585 2142746.7668838501 0 2142746.7668838501 -87627264.358703613 0 0 0 0 16246932.828670979 52180313.820159912 0 52180313.820159912 16626242.029708862 0 0 0 0 -81152425.205058098 -6836881.6241607666 0 -6836881.6241607666 30146031.852752686 0 0 0 0 -22725881.741223812 63573897.956130981 0 63573897.956130981 56901976.706703186 0 0 0 0 386933.43600759073 -1695747.4418748319 0 -1695747.4418748319 -413386.69291654229 0 0 0 0 581962.92824029922 -1174804.4083862305 0 -1174804.4083862305 -2001605.1665267944 0 0 0 0 542018.82617282867 -309563.2188949585 0 -309563.2188949585 -728810.15811920166 0 0 0 0 9519346.9789766669 -29150323.584461689 0 -29150323.584461689 34010775.862579346 0 0 0 0 -25371797.491934776 8700772.3307266235 0 8700772.3307266235 63707628.640487671 0 0 0 0 -787761.8291759491 -2222905.0308303833 0 -2222905.0308303833 28672027.227638245 0 0 0 0 -5148577.3384685516 -35185483.178115845 0 -35185483.178115845 18190391.883415222 0 0 0 0 2693947.8258093596 -1750352.2434310913 0 -1750352.2434310913 4347779.0072631836 0 0 0 0 2269276.8565516588 -363082.93691552803 0 -363082.93691552803 -1313186.5946222804 0 0 0 0 1613911.0875296262 55806.052959162742 0 55806.052959162742 -835859.00444638729 0 0 0 0 623634.67717084289 -8280488.1438808441 0 -8280488.1438808441 4901489.4038085938 0 0 0 0 -12381318.173356056 7056235.3165435791 0 7056235.3165435791 -832005.69697093964 0 0 0 0 4236109.1941058338 769826.06722164154 0 769826.06722164154 -601108.62496948242 0 0 0 0 4149733.3147386014 -10881020.369392395 0 -10881020.369392395 -6513012.9295654297 0 0 0 0 65873170.352718517 -41421045.158035278 0 -41421045.158035278 -23441751.288970947 0 0 0 0 17793595.758535802 -26730747.531272888 0 -26730747.531272888 -4663640.5104904175 0 0 0 0 55624169.887064695 -17270625.389976501 0 -17270625.389976501 -9555219.7397460938 0 0 0 0 1517371.6659638882 -55551.994682312012 0 -55551.994682312012 -1228137.9586486816 0 0 0 0 835254.99939911312 -79933.418399722548 0 -79933.418399722548 -849576.31072752178 0 0 0 0 525935.73810494982 -308.35674855904654 0 -308.35674855904654 -482415.91400182247 0 0 0 0 1166913.0991305709 -2570114.1806335449 0 -2570114.1806335449 -12921902.183326721 0 0 0 0 15412793.283983022 -2607475.9931106567 0 -2607475.9931106567 -2253409.1374893188 0 0 0 0 48899146.221878722 -50229822.018302917 0 -50229822.018302917 33321611.088409424 0 0 0 0 636661.09198711324 -131987.63009572774 0 -131987.63009572774 -510002.20786899328 0 0 0 0 -2343042.3048016727 -929491.83093261719 0 -929491.83093261719 16937170.29549408 0 0 0 0 56463168.176161319 -13880481.63470459 0 -13880481.63470459 -27556969.96685791 0 0 0 0 23722280.594978563 -133879566.58790588 0 -133879566.58790588 70439133.049339294 0 0 0 0 -23382441.973897409 26942866.804450989 0 26942866.804450989 -63186467.736602783 0 0 0 0 -8677762.806714002 -25244188.754703522 0 -25244188.754703522 -40206901.074203491 0 0 0 0 12253544.113294363 12625372.017028809 0 12625372.017028809 -31623858.58902359 0 0 0 0 -31803642.928293884 37106391.868202209 0 37106391.868202209 -66564331.519561768 0 0 0 0 -7405768.288233757 54083597.255661011 0 54083597.255661011 -122636539.89709473 0 0 0 0 898320.34330606461 -7802439.361579895 0 -7802439.361579895 -64311262.751266479 0 0 0 0 -1753700.1825923324 1814956.0721740723 0 1814956.0721740723 -47329982.819000244 0 0 0 0 -23593625.956702791 11125405.113235474 0 11125405.113235474 -97973779.25194931 0 0 0 0 -32647451.563017905 43255450.693511963 0 43255450.693511963 -110229642.71795654 0 0 0 0 -15267153.448970325 24943929.171867371 0 24943929.171867371 -136851860.16816711 0 0 0 0 -24406689.237721056 71654518.137115479 0 71654518.137115479 -164375355.05578613 0 0 0 0 -6918634.2225426324 40708226.750795364 0 40708226.750795364 -233837211.17160034 0 0 0 0 -4109372.2096239924 95048697.072418213 0 95048697.072418213 -220765908.2662735 0 0 0 0 -4848329.6102452278 58963916.671432495 0 58963916.671432495 -205898118.78106689 0 0 0 0 -21650041.515716635 41166948.307570934 0 41166948.307570934 -133275253.99710083 0 0 0 0 -35634.94489908684 12807432.862201691 0 12807432.862201691 -212879015.68764496 0 0 0 0 -14706293.9010377 27103412.512069702 0 27103412.512069702 -184424144.46308136 0 0 0 0 -18990268.061115976 63740564.305337906 0 63740564.305337906 -203400499.63398743 0 0 0 0 -26279728.398506515 17955788.518302917 0 17955788.518302917 -124106668.5736084 0 0 0 0 -17030989.425218593 35023428.818252563 0 35023428.818252563 -177854363.38616943 0 0 0 0 -32093771.521831695 -5425712.2224273682 0 -5425712.2224273682 -93820764.045639038 0 0 0 0 -30993.383222596789 -2002675.8329536668 0 -2002675.8329536668 -117067665.36738586 0 0 0 0 -32420225.074582458 -6672461.649307251 0 -6672461.649307251 -83846501.153385162 0 0 0 0 -31816864.409849308 31996404.809341431 0 31996404.809341431 -103193954.06933594 0 0 0 0 -27957937.984045595 4271995.1898269653 0 4271995.1898269653 -67710005.309066772 0 0 0 0 -46859772.864136487 -11649449.077308655 0 -11649449.077308655 -56906131.700504303 0 0 0 0 2633.6021246899945 -20346133.734107971 0 -20346133.734107971 -89514331.217266083 0 0 0 0 -32579053.705282331 -37560459.261955261 0 -37560459.261955261 -80528067.592330933 0 0 0 0 20027995.022401884 -9304910.7121047974 0 -9304910.7121047974 -67785172.134155273 0 0 0 0 23003379.122510172 30312413.779031754 0 30312413.779031754 2920898.6592712402 0 0 0 0 -44743.424636364172 -24748146.073860168 0 -24748146.073860168 -31367024.64932251 0 0 0 0 15719623.090797428 -7835928.7282600403 0 -7835928.7282600403 -188146897.28633118 0 0 0 0 109567.79908047679 -38603.665240183473 0 -38603.665240183473 -115093.93969623744 0 0 0 0 14072680.40676108 -75040486.744789124 0 -75040486.744789124 -174475750.26078033 0 0 0 0 -38212815.664861679 -146907289.8915329 0 -146907289.8915329 -97694083.305130005 0 0 0 0 47600.998896514371 46572.476453658193 0 46572.476453658193 -222625.57872307301 0 0 0 0 -3073889.1848869845 -33203135.211425781 0 -33203135.211425781 -5968756.9209012985 0 0 0 0 -61869786.455084525 -85547104.314620972 0 -85547104.314620972 -146992210.63954544 0 0 0 0 -19589963.39924714 -30715962.934303284 0 -30715962.934303284 -87425064.001708984 0 0 0 0 18834884.637804929 15515700.380451202 0 15515700.380451202 -38804914.682983398 0 0 0 0 72666.685873254042 142490.0856654346 0 142490.0856654346 -479595.16194348782 0 0 0 0 -59258070.599245541 2093798.5472106934 0 2093798.5472106934 -23862688.007507324 0 0 0 0 35438121.9385833 -6355190.1587409973 0 -6355190.1587409973 -87129302.971588135 0 0 0 0 18363628.718871281 -36643141.72448349 0 -36643141.72448349 -70659381.747390747 0 0 0 0 84991.431117139145 -10221.597966447473 0 -10221.597966447473 -133997.799963817 0 0 0 0 -9341549.0351650119 -12930075.967704773 0 -12930075.967704773 -96768734.226570129 0 0 0 0 -7735025.5138843507 -34830069.221664429 0 -34830069.221664429 -112308412.80037689 0 0 0 0 -30372323.631279111 -110830059.44464111 0 -110830059.44464111 -121194125.8904953 0 0 0 0 62977.461749022259 12345.105032637715 0 12345.105032637715 -89846.732185188681 0 0 0 0 -4604168.5421368331 -33111987.940887451 0 -33111987.940887451 -168124982.26420593 0 0 0 0 -3171987.4927616864 -36316934.082263947 0 -36316934.082263947 -162152419.70257568 0 0 0 0 26242.07105005869 -29553.186310019344 0 -29553.186310019344 -118394.04686272144 0 0 0 0 -8105203.1809956729 -13609600.000473022 0 -13609600.000473022 -55263507.314460754 0 0 0 0 -2933039.5279729888 -36848440.186035156 0 -36848440.186035156 -41929142.759872437 0 0 0 0 -13316660.942445397 -2283984.0520553589 0 -2283984.0520553589 -47830987.404464722 0 0 0 0 3310081.2061312273 -16742007.153594971 0 -16742007.153594971 -115988768.24900818 0 0 0 0 -892144.71788353473 -14836920.909973145 0 -14836920.909973145 -115934571.53584957 0 0 0 0 3928.2450447438869 -1282900.652961731 0 -1282900.652961731 -101052580.71263123 0 0 0 0 4424154.3024632558 -16157742.521705627 0 -16157742.521705627 -114582174.53285217 0 0 0 0 8736.1614594459788 1344736.0236549377 0 1344736.0236549377 -137817066.70398712 0 0 0 0 4883341.1840545665 885849.03987693787 0 885849.03987693787 -145063075.20861816 0 0 0 0 -3165146.0714314003 12229870.144504547 0 12229870.144504547 -154350204.28652954 0 0 0 0 4626983.9997440577 -7913990.9507904053 0 -7913990.9507904053 -143529147.96861267 0 0 0 0 6080273.2717515109 -4005062.4266552925 0 -4005062.4266552925 -139994074.83164978 0 0 0 0 1665017.2829620615 -10202262.518772125 0 -10202262.518772125 -146626134.81878662 0 0 0 0 1078094.7305369079 -12034583.215713501 0 -12034583.215713501 -147921845.79997253 0 0 0 0 3119710.4330833778 2947874.7169494629 0 2947874.7169494629 -167475186.88209534 0 0 0 0 -4491034.422365576 -19939916.776407242 0 -19939916.776407242 -188876013.62536621 0 0 0 0 -5157542.5471985936 -19684118.870391846 0 -19684118.870391846 -155887857.99817657 0 0 0 0 8467880.5584027767 -6826356.9638671875 0 -6826356.9638671875 -178888069.58947754 0 0 0 0 2218003.3801736329 -5659443.7479581833 0 -5659443.7479581833 -175710791.76293945 0 0 0 0 5548639.4152644575 5121667.4918613434 0 5121667.4918613434 -224710628.75210571 0 0 0 0 -28466206.174589805 -569229.29421234131 0 -569229.29421234131 -164193256.45445251 0 0 0 0 -179929.02144921583 739.27552895247936 0 739.27552895247936 -228543.7509998139 0 0 0 0 445783.58445176482 15535897.230781555 0 15535897.230781555 -197707918.51583862 0 0 0 0 -3384162.0990757942 18129544.509216309 0 18129544.509216309 -189317107.26997375 0 0 0 0 7077858.7575973943 10249609.349536896 0 10249609.349536896 -176200903.03227234 0 0 0 0 -129746.7137774482 -42939.368694990873 0 -42939.368694990873 -305951.13620037772 0 0 0 0 1093578.2739084363 4401949.6624832153 0 4401949.6624832153 -166171271.12407684 0 0 0 0 -38545824.631310165 -8013612.8384246826 0 -8013612.8384246826 -202323187.1993618 0 0 0 0 45645482.618880764 42077480.605197906 0 42077480.605197906 -298974549.04885864 0 0 0 0 -13740009.150805086 -112117372.53357697 0 -112117372.53357697 -326027257.21363831 0 0 0 0 27273366.834128231 -11839521.591545105 0 -11839521.591545105 -14210360.847304344 0 0 0 0 -215759.00797605509 -220867.22688820213 0 -220867.22688820213 -823241.52782108635 0 0 0 0 32135314.168038633 66077623.603775799 0 66077623.603775799 -145958325.72001648 0 0 0 0 32044176.959555894 75621313.119865417 0 75621313.119865417 -4546502.4657745361 0 0 0 0 -17537471.190208554 5527808.4741287231 0 5527808.4741287231 -74596110.486740112 0 0 0 0 3444843.0454456955 -12430246.599304199 0 -12430246.599304199 -88636608.46105957 0 0 0 0 -4826593.497652173 10086459.531089783 0 10086459.531089783 -138865734.30263519 0 0 0 0 26999354.60522671 24814664.189817429 0 24814664.189817429 -251350875.38972473 0 0 0 0 -26176.610128485801 -42504.733674921095 0 -42504.733674921095 -337766.11050076224 0 0 0 0 -24711.517193779782 -18883831.484413147 0 -18883831.484413147 -157651708.32088089 0 0 0 0 16126911.500354387 -9228856.5956268311 0 -9228856.5956268311 -218898655.79134369 0 0 0 0 13498971.216325104 -20445826.512294769 0 -20445826.512294769 -142472661.17424011 0 0 0 0 14232135.317415476 -11892814.468292236 0 -11892814.468292236 -108066436.39824998 0 0 0 0 25624739.526896641 -23919274.836307526 0 -23919274.836307526 -153072576.68589783 0 0 0 0 9394936.6890783906 -26260079.327140808 0 -26260079.327140808 -108312877.10354614 0 0 0 0 9035567.4040210247 -23554060.056617737 0 -23554060.056617737 -61638855.010986328 0 0 0 0 6201633.5441566706 -14170218.079421997 0 -14170218.079421997 -74045957.47203064 0 0 0 0 -3444198.3410755098 -22803326.097198486 0 -22803326.097198486 -75279894.71546936 0 0 0 0 2615207.8022990227 -27702899.103515625 0 -27702899.103515625 -106578631.23977661 0 0 0 0 -20511242.514200032 -23498190.528297424 0 -23498190.528297424 -105139671.50792694 0 0 0 0 -21971845.010779813 -43397060.849502563 0 -43397060.849502563 -67334098.846588135 0 0 0 0 -23320111.247692637 -32612166.005844116 0 -32612166.005844116 -108048165.52263832 0 0 0 0 -17230020.816504188 -33120043.951026917 0 -33120043.951026917 -108225294.38778877 0 0 0 0 8203146.6180530339 20552.815734863281 0 20552.815734863281 -206168711.61184311 0 0 0 0 -38283604.816177785 -65865855.098148346 0 -65865855.098148346 -165334885.66600037 0 0 0 0 4306274.6680831239 5351841.317276001 0 5351841.317276001 -141421471.02541351 0 0 0 0 -8375861.9446071088 -12017224.243148804 0 -12017224.243148804 -149283657.55960083 0 0 0 0 -81588.581840639308 18507.939440652728 0 18507.939440652728 -94918.34525285475 0 0 0 0 -18115434.198583122 8809048.5870752335 0 8809048.5870752335 -138003762.45037842 0 0 0 0 -10341969.624213398 1268730.4983062744 0 1268730.4983062744 -237136754.09467316 0 0 0 0 -5574120.6740029752 24114545.914886475 0 24114545.914886475 -206306597.77818298 0 0 0 0 -1588583.3722355366 -36469105.564559937 0 -36469105.564559937 -168855313.27102661 0 0 0 0 12942234.888889134 -36265477.808288574 0 -36265477.808288574 -207112152.1953125 0 0 0 0 15951528.29790768 -44980507.238426208 0 -44980507.238426208 -308898437.66127777 0 0 0 0 12641719.19308579 -45108672.971580505 0 -45108672.971580505 -188102811.85957336 0 0 0 0 23915020.230225444 43709389.280975342 0 43709389.280975342 -193708607.98934937 0 0 0 0 -65468515.574123204 16738064.854705811 0 16738064.854705811 -237853259.44442749 0 0 0 0 -28245539.27620922 -28520308.069187164 0 -28520308.069187164 -204194892.03817749 0 0 0 0 27665560.346746311 16395760.553314209 0 16395760.553314209 -193916059.35140991 0 0 0 0 -31762079.158385236 -43630559.715842247 0 -43630559.715842247 -153441420.19221497 0 0 0 0 72360673.680228561 44160527.529174805 0 44160527.529174805 -120187753.75416565 0 0 0 0 39214191.110561639 -4877764.7958545685 0 -4877764.7958545685 -173337014.23588562 0 0 0 0 35190071.08657673 1920921.4184188843 0 1920921.4184188843 -172396025.50077629 0 0 0 0 -1728566.5227218568 8769366.310218811 0 8769366.310218811 -120440904.6350708 0 0 0 0 2588694.1015578508 -5064282.2534141541 0 -5064282.2534141541 -118595472.0377655 0 0 0 0 -9221704.0616458356 -33977263.942359924 0 -33977263.942359924 -96477707.29359436 0 0 0 0 2350995.1294924617 -20752224.010879517 0 -20752224.010879517 -116165644.08994961 0 0 0 0 13136125.426751226 -36231254.915088654 0 -36231254.915088654 -94830206.675720215 0 0 0 0 -8640576.8065348864 -93123849.673950195 0 -93123849.673950195 -219877879.39801025 0 0 0 0 28241.989776140166 87644.670195329934 0 87644.670195329934 -274482.54354266822 0 0 0 0 -24580394.817069948 45176220.979354858 0 45176220.979354858 36806169.024398804 0 0 0 0 15482026.579970181 97071510.318725586 0 97071510.318725586 -26045559.485229492 0 0 0 0 -8331793.2228068411 45424353.618743896 0 45424353.618743896 -35887611.915344238 0 0 0 0 21619214.028461382 78894697.466564178 0 78894697.466564178 -101674641.18118286 0 0 0 0 -23011506.122893631 19140595.171203613 0 19140595.171203613 -82938532.600215912 0 0 0 0 -19811818.238562316 14273416.665939331 0 14273416.665939331 -76196870.932846069 0 0 0 0 -42699410.308625519 -23866127.215545654 0 -23866127.215545654 -78512033.524339676 0 0 0 0 -65554630.228548527 -24512484.933639526 0 -24512484.933639526 -68152270.026183128 0 0 0 0 -26719143.454746783 -21311115.8878479 0 -21311115.8878479 -33568488.124972343 0 0 0 0 -26565785.917750388 -4449059.2943954468 0 -4449059.2943954468 -66746458.267318726 0 0 0 0 25363747.718490645 -50909784.398452759 0 -50909784.398452759 -59020412.108039856 0 0 0 0 -28020868.691653907 -5764026.1894226074 0 -5764026.1894226074 35790598.477946043 0 0 0 0 30069834.94893989 -41741270.939125061 0 -41741270.939125061 -128723211.16293335 0 0 0 0 20697532.697009623 -56308949.728225708 0 -56308949.728225708 -150894119.96001625 0 0 0 0 7355993.201451689 -4825499.5655212402 0 -4825499.5655212402 -140297339.21307373 0 0 0 0 157557.96277186723 -13925.846224624664 0 -13925.846224624664 -194484.31598636508 0 0 0 0 -46971126.026325718 -76468246.727086782 0 -76468246.727086782 -88770575.110046387 0 0 0 0 -568633.40019598883 44506734.229969978 0 44506734.229969978 -72819463.357925415 0 0 0 0 -24612684.920423061 -11991873.008117676 0 -11991873.008117676 -6569687.7373542786 0 0 0 0 12485540.378725708 1752192.7544136047 0 1752192.7544136047 -121594578.87867737 0 0 0 0 9767798.6645819247 -15117185.526489258 0 -15117185.526489258 -97047769.56741333 0 0 0 0 3696236.5052014738 -11708965.246562958 0 -11708965.246562958 -65946656.059890747 0 0 0 0 -42865725.86187496 -60181086.364204407 0 -60181086.364204407 -113339395.91116333 0 0 0 0 19327008.101026833 -17497300.451324463 0 -17497300.451324463 -156377798.43711853 0 0 0 0 -3707474.2126965597 19918895.382966995 0 19918895.382966995 -57539241.556976318 0 0 0 0 -16020190.158472508 6408519.5352706909 0 6408519.5352706909 -2656173.8860015869 0 0 0 0 -6289946.8095068336 -1192602.1379699707 0 -1192602.1379699707 -17190369.824714661 0 0 0 0 -2827985.766393587 10543972.736913681 0 10543972.736913681 -17534081.717041016 0 0 0 0 9932130.6423793137 -2575642.7425231934 0 -2575642.7425231934 -43939468.747650146 0 0 0 0 6167437.4459875822 -3001526.8406181335 0 -3001526.8406181335 -7659432.9116821289 0 0 0 0 5939994.0928037241 -266313.6907119751 0 -266313.6907119751 -33696784.517272949 0 0 0 0 -7185442.6122460365 -21410757.237281799 0 -21410757.237281799 -39060717.23759079 0 0 0 0 81504954.489792585 42768414.217338562 0 42768414.217338562 -34219647.076141357 0 0 0 0 23581146.987930983 -4895336.9735107422 0 -4895336.9735107422 -35047963.693840027 0 0 0 0 864069.94660529646 3320154.4427730516 0 3320154.4427730516 -9292442.6412238628 0 0 0 0 1449805.6686320305 29534773.236755371 0 29534773.236755371 11687650.756736755 0 0 0 0 -11490721.477637678 -21356592.662979126 0 -21356592.662979126 -43215825.894622803 0 0 0 0 -3358992.504345417 -21108382.871894836 0 -21108382.871894836 -45793675.335617065 0 0 0 0 -13809144.518666267 12200603.582931519 0 12200603.582931519 -14787882.354385376 0 0 0 0 6129827.5255037844 -2472135.9984946251 0 -2472135.9984946251 -58339531.78112793 0 0 0 0 4186248.6598390341 15344125.189819336 0 15344125.189819336 -7317487.6856689453 0 0 0 0 18764327.763759613 -21563904.50340271 0 -21563904.50340271 -226253420.07290649 0 0 0 0 -1041472.7361257588 -664995.30631413311 0 -664995.30631413311 676818.72268819436 0 0 0 0 -22338908.426563263 -43163646.910980225 0 -43163646.910980225 -123422155.19009399 0 0 0 0 -26998978.291660309 -34973430.150154114 0 -34973430.150154114 -80721013.729522705 0 0 0 0 -9490254.4880886078 -12905146.141921997 0 -12905146.141921997 -56552296.114784241 0 0 0 0 -21600370.445085526 21662493.294937134 0 21662493.294937134 -65945810.188800812 0 0 0 0 -13539415.803460598 11728111.88835907 0 11728111.88835907 -56630195.025299072 0 0 0 0 -30491595.891311646 39093255.971717834 0 39093255.971717834 -47661270.504486084 0 0 0 0 -12939901.052085876 20396776.745071411 0 20396776.745071411 -138011387.00391006 0 0 0 0 8471549.0193681717 33789162.332237244 0 33789162.332237244 -28490869.420959473 0 0 0 0 -33957746.666611433 28706256.085596085 0 28706256.085596085 -23903551.481567383 0 0 0 0 -32338967.368562698 33662985.812789917 0 33662985.812789917 -22787571.76071167 0 0 0 0 -21050854.763932705 19363130.695487976 0 19363130.695487976 -5012449.82762146 0 0 0 0 3155296.5240268707 7375265.4668731689 0 7375265.4668731689 14010779.778747559 0 0 0 0 55649899.633778721 279170.29013824463 0 279170.29013824463 -27112341.031982422 0 0 0 0 -4115991.8534855843 27409038.329421997 0 27409038.329421997 -25767437.11100769 0 0 0 0 -616815.7615275383 13582987.46660614 0 13582987.46660614 -10556966.343605042 0 0 0 0 29999206.888247371 41557022.817352295 0 41557022.817352295 -7644699.997341156 0 0 0 0 -30493932.559859276 68027887.181945801 0 68027887.181945801 -57513801.950775146 0 0 0 0 -47195244.626829147 39664994.385032654 0 39664994.385032654 654996.01523971558 0 0 0 0 11221634.339417458 76170856.536037445 0 76170856.536037445 -55924994.04624939 0 0 0 0 -25793216.739970446 131089658.87665176 0 131089658.87665176 -133617250.33517456 0 0 0 0 5286577.3758630753 103204393.3379364 0 103204393.3379364 -134171555.00323057 0 0 0 0 -304116.22394786845 1266304.6162203457 0 1266304.6162203457 -1762051.3951353207 0 0 0 0 -300350828.3026132 189265130.41899872 0 189265130.41899872 -81747356.187667847 0 0 0 0 -147572907.62349975 42706183.010250092 0 42706183.010250092 22084020.272109985 0 0 0 0 13141007.099709809 -67139640.733306885 0 -67139640.733306885 -103987178.30947304 0 0 0 0 -282288409.20270663 -353505197.70080566 0 -353505197.70080566 -380967612.64517212 0 0 0 0 55787361.296022825 -33353513.881095886 0 -33353513.881095886 -141175109.74850464 0 0 0 0 23493441.296404183 -90027805.058570862 0 -90027805.058570862 -236904167.37049866 0 0 0 0 -14946373.068337947 -47307020.717056274 0 -47307020.717056274 -58615163.108474731 0 0 0 0 16713651.547418177 -50693916.312854767 0 -50693916.312854767 -143653588.84054565 0 0 0 0 -31482446.958761603 -74202729.292198181 0 -74202729.292198181 -102338920.10546875 0 0 0 0 -177255.46796032143 2789989.841460729 0 2789989.841460729 -5489786.6888255775 0 0 0 0 -44176590.550735474 58604270.681933701 0 58604270.681933701 7777197.7214013338 0 0 0 0 3416404.6775465012 46278571.3280904 0 46278571.3280904 -10046101.250458479 0 0 0 0 417603.99412536621 74962504.780270755 0 74962504.780270755 -2500266.2033813689 0 0 0 0 28271440.680263519 98268052.511950374 0 98268052.511950374 -2044251.437340498 0 0 0 0 27967615.73393631 56519134.163683653 0 56519134.163683653 -8259162.6784741879 0 0 0 0 49532705.264766693 46983032.151868254 0 46983032.151868254 -9733342.748278141 0 0 0 0 19684776.012428284 69793872.41689837 0 69793872.41689837 -11186773.70922175 0 0 0 0 81320608.177961349 84664001.86089021 0 84664001.86089021 -16336876.408257008 0 0 0 0 3269899.0041832994 12476404.364368884 0 12476404.364368884 -49867386.501951598 0 0 0 0 65604349.152540207 45880978.47706604 0 45880978.47706604 -56931282.396896362 0 0 0 0 53472794.515951157 72388145.696064711 0 72388145.696064711 -30213674.231678486 0 0 0 0 54138661.356328964 61530325.284402847 0 61530325.284402847 1910407.3835361004 0 0 0 0 49555570.595428467 68215859.573772192 0 68215859.573772192 -28469388.073736191 0 0 0 0 79428251.401779175 146088350.81317139 0 146088350.81317139 -65428056.598999023 0 0 0 0 103673530.61684799 44101835.441092491 0 44101835.441092491 -43789658.364206553 0 0 0 0 -5431951.5456237793 -31054100.752029419 0 -31054100.752029419 20488789.045783997 0 0 0 0 -7520080.2861480713 100231324.52137756 0 100231324.52137756 -197539733.25042725 0 0 0 0 -83293567.48125267 143865946.17437744 0 143865946.17437744 93461076.636047363 0 0 0 0 -10756820.48078537 31687665.969116211 0 31687665.969116211 -50585036.645420074 0 0 0 0 8849729.8321781158 36350447.225341797 0 36350447.225341797 -48858497.125091553 0 0 0 0 68142953.151312828 5701773.0645446777 0 5701773.0645446777 -43839818.572921753 0 0 0 0 43941781.837861061 37352804.546199799 0 37352804.546199799 -79127187.851257324 0 0 0 0 49201830.735627651 51393497.880634308 0 51393497.880634308 -99758182.218353271 0 0 0 0 33283132.65031147 84101403.918624878 0 84101403.918624878 -122684342.11343384 0 0 0 0 69421701.533040047 6633954.4841308594 0 6633954.4841308594 -81219380.970855713 0 0 0 0 82743010.370599747 54019904.283508301 0 54019904.283508301 -157234479.35324097 0 0 0 0 109127478.59035873 15579678.327545166 0 15579678.327545166 -125239001.53057861 0 0 0 0 97348873.71773386 12334755.647687912 0 12334755.647687912 -110493656.41525269 0 0 0 0 5971267.1760521671 -21075521.570769683 0 -21075521.570769683 -50569131.829957865 0 0 0 0 70150163.15167141 -5910344.2550048828 0 -5910344.2550048828 -76489088.381895065 0 0 0 0 27193345.136995316 2902325.0036029816 0 2902325.0036029816 -77834681.960113525 0 0 0 0 46489960.686853409 29561847.29372406 0 29561847.29372406 -55978470.21769762 0 0 0 0 18432834.563563585 54947748.084728792 0 54947748.084728792 -10141555.742227197 0 0 0 0 18909139.763525009 57385610.74055028 0 57385610.74055028 -11019236.87280035 0 0 0 0 4868114.1147258515 15201153.954719866 0 15201153.954719866 -55884158.583591387 0 0 0 0 632315640.62129211 587103132.26753211 0 587103132.26753211 -600617222.84032011 0 0 0 0 -34673027.179130077 165204288.40661669 0 165204288.40661669 -114690223.74980068 0 0 0 0 1916551199.9238777 29681188.955821514 0 29681188.955821514 -482233314.80297613 0 0 0 0 1992413.8942779177 -1531588.2167810025 0 -1531588.2167810025 -2796426.5153208952 0 0 0 0 -1111946738.0484657 -315089943.09766102 0 -315089943.09766102 131720013.01759338 0 0 0 0 -31964466.314569473 -161999831.12998009 0 -161999831.12998009 -348170249.17788279 0 0 0 0 90547066.446239471 13127970.774255991 0 13127970.774255991 -506143982.86742687 0 0 0 0 64033207.163809776 -1074964.8877187967 0 -1074964.8877187967 -188059348.16683841 0 0 0 0 -58470586.047466278 -441108605.15984416 0 -441108605.15984416 49812147.006302208 0 0 0 0 215509853.53313303 86223364.157283723 0 86223364.157283723 -224053579.76915789 0 0 0 0 9469382.034650825 9252729.6209230777 0 9252729.6209230777 -22076138.681852765 0 0 0 0 -9549887.5768203735 -14841755.810022175 0 -14841755.810022175 -86357976.460033715 0 0 0 0 -13392936.246414185 -2738934.5023526549 0 -2738934.5023526549 -97103835.53798911 0 0 0 0 -37417194.41488266 -14085491.318995714 0 -14085491.318995714 -72920260.428372145 0 0 0 0 -36241329.225253582 -44875415.300121516 0 -44875415.300121516 -89208500.575653791 0 0 0 0 34281978.566835403 -39245090.994888633 0 -39245090.994888633 -123315945.31181765 0 0 0 0 -119860085.94980907 -101031016.8615877 0 -101031016.8615877 -85494146.833578825 0 0 0 0 -44743430.713106632 -21937178.522779018 0 -21937178.522779018 -65202985.34103179 0 0 0 0 -53300154.794830322 -39802794.28147459 0 -39802794.28147459 -95566808.640018225 0 0 0 0 -82321985.925508499 -48747490.613491893 0 -48747490.613491893 -43721402.819728136 0 0 0 0 -28586306.171829224 8580120.249945879 0 8580120.249945879 -52834251.1276052 0 0 0 0 -342291.41937033739 888375.98660075152 0 888375.98660075152 -6064831.7616445459 0 0 0 0 -74919273.786746979 -21329218.873745203 0 -21329218.873745203 -31563792.053945661 0 0 0 0 -47777186.516273499 8505592.2348136902 0 8505592.2348136902 -6474430.9756374359 0 0 0 0 -10530746.881808281 39311136.853206694 0 39311136.853206694 -20995570.55995512 0 0 0 0 39505505.308673859 27556476.848508716 0 27556476.848508716 -69678723.038428485 0 0 0 0 23420094.893028259 20564021.786395788 0 20564021.786395788 -69422000.868331432 0 0 0 0 -38724265.404422164 3001124.6221208833 0 3001124.6221208833 -55809670.21254015 0 0 0 0 -7894036.4769363403 13140182.145301342 0 13140182.145301342 -72949356.80543983 0 0 0 0 -14997535.708244324 12248877.443825364 0 12248877.443825364 -73050077.089411885 0 0 0 0 -10523687.400108337 4496509.8022315502 0 4496509.8022315502 -75326141.594724298 0 0 0 0 -6447355.2524108887 4752403.4426055998 0 4752403.4426055998 -75369339.405659437 0 0 0 0 32715866.027860641 446814.36004936695 0 446814.36004936695 -86686158.517876983 0 0 0 0 23404350.207298279 953888.29764807224 0 953888.29764807224 -86308914.549862653 0 0 0 0 273300.59778188355 -3669063.8887221431 0 -3669063.8887221431 -26253663.279619362 0 0 0 0 34684409.488378525 3492150.7837124467 0 3492150.7837124467 -84453585.111935854 0 0 0 0 3724879.6736691892 3173321.1692061173 0 3173321.1692061173 -25971289.968412295 0 0 0 0 40993277.385829926 11816406.371244073 0 11816406.371244073 -76760256.297430754 0 0 0 0 22334211.764274597 -145257.28274559975 0 -145257.28274559975 -83937118.601195574 0 0 0 0 109637971.08614063 143910737.48264599 0 143910737.48264599 -187315063.25065637 0 0 0 0 -285269415.18461275 -107916772.99209261 0 -107916772.99209261 -58455103.016224861 0 0 0 0 163392676.08315563 -212931833.55490112 0 -212931833.55490112 -28174865.015090942 0 0 0 0 97332877.520314217 -63394918.35244751 0 -63394918.35244751 26902563.376220703 0 0 0 0 130383578.94026566 -19929156.685173035 0 -19929156.685173035 -204930071.78457642 0 0 0 0 6886246.9117028331 -22224757.116040256 0 -22224757.116040256 -48874211.660442546 0 0 0 0 -29176899.052335143 -2032771.5596461296 0 -2032771.5596461296 -80518908.186447144 0 0 0 0 -1744216.7181967965 17054497.700395465 0 17054497.700395465 -47623644.387488566 0 0 0 0 18219477.775724888 8370412.8607959747 0 8370412.8607959747 -95463025.210303307 0 0 0 0 -12605179.47174108 49424924.075072527 0 49424924.075072527 -64780766.863982201 0 0 0 0 -24284767.727659225 25021452.498998463 0 25021452.498998463 33608494.221822739 0 0 0 0 65436777.885274887 -39798634.772311211 0 -39798634.772311211 -33413090.945690632 0 0 0 0 12235647.354310036 4731671.7842712402 0 4731671.7842712402 -60877786.10201931 0 0 0 0 20387572.574043512 7498022.3112430573 0 7498022.3112430573 -89784838.569009781 0 0 0 0 42353351.879810333 8817827.4524517059 0 8817827.4524517059 -91111913.540389061 0 0 0 0 66197503.185710907 -15407840.094585419 0 -15407840.094585419 -81898666.890182495 0 0 0 0 80875832.669512749 6180722.9327549934 0 6180722.9327549934 -128278292.50953102 0 0 0 0 96988989.49887085 25637810.078542709 0 25637810.078542709 -111793964.07455254 0 0 0 0 39842960.242235184 32849272.430862427 0 32849272.430862427 -106843763.09254074 0 0 0 0 -18183434.765426636 129282920.97941589 0 129282920.97941589 -97378740.222515106 0 0 0 0 21799136.801418304 65108084.111610413 0 65108084.111610413 -49031717.058403015 0 0 0 0 104367947.29894471 102482294.97756642 0 102482294.97756642 -193273190.47959137 0 0 0 0 95096113.179950714 -310338409.31641054 0 -310338409.31641054 345054490.12337542 0 0 0 0 182527365.68156052 81253203.851910591 0 81253203.851910591 -187859306.28550339 0 0 0 0 8354149.7798194885 -26822371.749094963 0 -26822371.749094963 106585956.2372551 0 0 0 0 314425688.44908142 -122458828.59240818 0 -122458828.59240818 -223764218.04561567 0 0 0 0 194888981.97153091 36404783.431682587 0 36404783.431682587 -267395141.60710144 0 0 0 0 66477367.924495697 -41356789.873443604 0 -41356789.873443604 -62193014.588298798 0 0 0 0 184514206.91486359 -58688271.889985085 0 -58688271.889985085 -89899712.536640167 0 0 0 0 166595683.67024994 -188021040.73131514 0 -188021040.73131514 85711886.288637161 0 0 0 0 310118355.07910538 -56760122.870323181 0 -56760122.870323181 -386241186.26126194 0 0 0 0 1031637327.6248093 -1105033157.3003654 0 -1105033157.3003654 -254935979.55678427 0 0 0 0 613651286.4196167 589376185.08701897 0 589376185.08701897 -1189355448.7148314 0 0 0 0 2511048612.9057312 -820915945.27741814 0 -820915945.27741814 -2744598281.3793483 0 0 0 0 -923626117.0722084 1125557714.4895921 0 1125557714.4895921 -899011376.23282051 0 0 0 0 2688333554.5093555 281595062.58930862 0 281595062.58930862 -4306841982.7110786 0 0 0 0 456608610.72670174 1818004818.6309128 0 1818004818.6309128 -2927311912.8863735 0 0 0 0 -246700549.90391541 423266462.0914526 0 423266462.0914526 -226549735.67869568 0 0 0 0 -192484098.13057709 396106031.28546906 0 396106031.28546906 -223037876.03476191 0 0 0 0 107288321.91747284 262680700.84040642 0 262680700.84040642 -460489960.25955582 0 0 0 0 321986249.77066803 789980076.08555508 0 789980076.08555508 -1325633624.5963421 0 0 0 0 523903050.49149323 44129805.343992233 0 44129805.343992233 -379129785.41844749 0 0 0 0 -158253393.50080872 234418322.39923668 0 234418322.39923668 -109598162.53250694 0 0 0 0 -46116530.223964691 231512469.63903713 0 231512469.63903713 -115076808.48300552 0 0 0 0 -20621047.794659853 104041870.48933971 0 104041870.48933971 13271127.009590149 0 0 0 0 -132847660.3694458 75020423.076530457 0 75020423.076530457 76714667.1977005 0 0 0 0 -452944079.71600723 207161023.14674664 0 207161023.14674664 2710229.9393539429 0 0 0 0 -134053965.04617453 66967653.080802202 0 66967653.080802202 62864846.791229248 0 0 0 0 58978593.32012558 -68448101.705995083 0 -68448101.705995083 -1462677.9625015259 0 0 0 0 -190128498.18915558 -48732636.542097569 0 -48732636.542097569 18760113.546888351 0 0 0 0 95870042.808408737 -28618594.023796082 0 -28618594.023796082 26196591.370731354 0 0 0 0 -190401211.14770889 -297122587.09669846 0 -297122587.09669846 -296297841.33508337 0 0 0 0 -1016858505.0744572 967374891.31925094 0 967374891.31925094 -342179171.73727608 0 0 0 0 -3359331.6802032813 -595349.18790604651 0 -595349.18790604651 -10495571.136379598 0 0 0 0 -2894623.3546575615 2932089.0138512123 0 2932089.0138512123 -269001.34386471566 0 0 0 0 -621008112.85768414 201954713.58628404 0 201954713.58628404 -119008039.60788155 0 0 0 0 54951389.565527678 -40844796.671463013 0 -40844796.671463013 -293080931.15010452 0 0 0 0 101832.52892355762 -768455.82170258462 0 -768455.82170258462 -6975916.7803710187 0 0 0 0 -144416279.60843575 358658237.21725464 0 358658237.21725464 425948744.50642395 0 0 0 0 16456879.855261385 -69281071.153961182 0 -69281071.153961182 -219506244.86787415 0 0 0 0 3600628.7280762196 -13557691.31539917 0 -13557691.31539917 -157924829.92547607 0 0 0 0 143553221.634085 -15081933.969905853 0 -15081933.969905853 -215899266.26167297 0 0 0 0 70612839.560032785 -42539981.580924988 0 -42539981.580924988 8976983.9176025391 0 0 0 0 234021990.50085339 34297730.926055908 0 34297730.926055908 -720070528.91821289 0 0 0 0 76700029.323135495 577254758.96201324 0 577254758.96201324 -292831718.08261871 0 0 0 0 -100266680.86678839 289425374.1027298 0 289425374.1027298 -456824359.10998535 0 0 0 0 152166046.78387451 -55677961.609954834 0 -55677961.609954834 -790117632.85533142 0 0 0 0 -522606655.58722061 -672644656.56305695 0 -672644656.56305695 -58861468.314888 0 0 0 0 211307646.50799561 -179882268.25366974 0 -179882268.25366974 -97833567.890914917 0 0 0 0 93072526.447714567 95938458.365121841 0 95938458.365121841 -330906630.91455078 0 0 0 0 107683366.07901096 -85738308.454879761 0 -85738308.454879761 -167272396.11408997 0 0 0 0 217991508.11898756 -79776473.579566956 0 -79776473.579566956 -196004607.56580353 0 0 0 0 -306032395.79402035 -121123526.56674576 0 -121123526.56674576 588604715.73326111 0 0 0 0 -66886501.694389284 -56174539.55846405 0 -56174539.55846405 -147430622.62498474 0 0 0 0 2089351.9695032211 -873146.992306225 0 -873146.992306225 -25851856.03310506 0 0 0 0 7816853.0166122587 -53474489.950270653 0 -53474489.950270653 -270466601.29177856 0 0 0 0 -297400600.70268244 -49349826.735015869 0 -49349826.735015869 188729087.66046143 0 0 0 0 -162481402.98140472 124170570.04260254 0 124170570.04260254 -88014591.096618652 0 0 0 0 25550719.920490921 35364644.524032593 0 35364644.524032593 -307057689.49546814 0 0 0 0 6713529.2936467445 -22099422.041209877 0 -22099422.041209877 -55443651.636145197 0 0 0 0 134868466.47211015 74476230.77835083 0 74476230.77835083 -398476487.48945618 0 0 0 0 17900693.219918787 -29353323.8957901 0 -29353323.8957901 -91350896.36271286 0 0 0 0 6978801.2012768872 2481888.0415344387 0 2481888.0415344387 -14936806.606628567 0 0 0 0 -34961615.761196248 2152353.0038976669 0 2152353.0038976669 -77794490.582881927 0 0 0 0 1555027.8438560367 -10959679.161680222 0 -10959679.161680222 -92912513.627618551 0 0 0 0 -30967588.291647196 15735808.783292055 0 15735808.783292055 -84089030.884029388 0 0 0 0 -17300395.431503296 12327490.897388458 0 12327490.897388458 -83477182.084922791 0 0 0 0 23640015.491119951 43041373.0128479 0 43041373.0128479 -18377963.317749023 0 0 0 0 76382776.704906642 -63335805.882110596 0 -63335805.882110596 -36779562.613838196 0 0 0 0 5898808.2219554679 -18426137.055289701 0 -18426137.055289701 -49503358.721330054 0 0 0 0 -62892845.273217499 -211284976.80845642 0 -211284976.80845642 134908204.22171021 0 0 0 0 6603656.6570067694 -15559572.42449617 0 -15559572.42449617 -47930320.704757459 0 0 0 0 9967549.9456410408 -42750973.846542358 0 -42750973.846542358 55330113.085876465 0 0 0 0 -9771126.8141272664 -3728762.9451446533 0 -3728762.9451446533 -18984545.507095337 0 0 0 0 2015271.0154064766 1170252.3252975792 0 1170252.3252975792 -12017273.195720553 0 0 0 0 -7897510.9850460291 -6342143.0645980835 0 -6342143.0645980835 -19963677.91104126 0 0 0 0 17201943.84845382 -14785666.392120361 0 -14785666.392120361 -115828763.52479553 0 0 0 0 8895197.5070187151 24647723.935462952 0 24647723.935462952 -131643148.81063843 0 0 0 0 21180665.111483186 2482155.0269889832 0 2482155.0269889832 -150712647.93011475 0 0 0 0 10504775.127992906 -15152476.476104259 0 -15152476.476104259 -231064968.98287964 0 0 0 0 40808793.377086639 -26547546.64037323 0 -26547546.64037323 -226812574.37393188 0 0 0 0 36620428.665621877 -43712460.633865356 0 -43712460.633865356 -123036518.51927948 0 0 0 0 33985534.390987277 14734709.337150574 0 14734709.337150574 -99113828.054321289 0 0 0 0 23748933.785379697 -3220769.4115701914 0 -3220769.4115701914 -62683171.063446045 0 0 0 0 23025496.196496941 -20245886.083448648 0 -20245886.083448648 -63217441.758255005 0 0 0 0 912454.15375034511 -4209615.7740657143 0 -4209615.7740657143 -11618699.53784943 0 0 0 0 10133417.828863531 -10874663.734523773 0 -10874663.734523773 -43785278.394821167 0 0 0 0 10172.372858047485 1766705.3094024658 0 1766705.3094024658 -6898199.4870691299 0 0 0 0 -1656278.5584745407 2200732.5510635376 0 2200732.5510635376 -6186328.7272338867 0 0 0 0 -4459579.712243557 1576145.3498764038 0 1576145.3498764038 -26949712.479553223 0 0 0 0 -2159017.3354508877 5533048.0062675476 0 5533048.0062675476 -33509473.480682373 0 0 0 0 -743306.14556100639 372390.28809554502 0 372390.28809554502 -8851501.6044962406 0 0 0 0 49113.517348132795 -1436792.1130115539 0 -1436792.1130115539 -4897771.3665139107 0 0 0 0 2034079.0316317081 2704100.3206481934 0 2704100.3206481934 -19932689.11758709 0 0 0 0 -2483920.0903660059 6096743.1675682068 0 6096743.1675682068 -34373719.61289978 0 0 0 0 -4362444.6488258243 7265392.575592041 0 7265392.575592041 -31841281.962989807 0 0 0 0 2658436.0233162344 2649726.2588672638 0 2649726.2588672638 -60483776.39163208 0 0 0 0 1181660.4428914119 -1519811.7678675726 0 -1519811.7678675726 -26969217.417923242 0 0 0 0 421350.1721265316 9673332.2140045166 0 9673332.2140045166 -69797222.588623047 0 0 0 0 2030508.1889271736 2508476.8243961334 0 2508476.8243961334 -14264337.936279297 0 0 0 0 5052974.9903450795 226414.84772878699 0 226414.84772878699 -36171095.004799008 0 0 0 0 2459913.1209950447 3644215.9278755188 0 3644215.9278755188 -23532769.752052307 0 0 0 0 -6214175.4618877638 13753043.788576748 0 13753043.788576748 -20993332.184332624 0 0 0 0 -4118292.9150619507 7008595.4654159546 0 7008595.4654159546 -22368022.095497131 0 0 0 0 -19265044.331608534 7877081.2877635956 0 7877081.2877635956 -85607301.132261276 0 0 0 0 -11011955.600289345 9529347.7152099609 0 9529347.7152099609 -21719643.305202484 0 0 0 0 -4345166.2133691311 -3195528.4479103088 0 -3195528.4479103088 -81720107.581615448 0 0 0 0 -694486.35342302918 2624080.1705691814 0 2624080.1705691814 -43431178.669754028 0 0 0 0 -1354209.637287932 -2868974.2775138468 0 -2868974.2775138468 -10106315.750641303 0 0 0 0 19137235.436819077 5706462.7209320068 0 5706462.7209320068 -64228786.684719086 0 0 0 0 -14378707.252907395 5450179.5328445435 0 5450179.5328445435 -44011334.446159363 0 0 0 0 37996.057327722054 -766167.89244854078 0 -766167.89244854078 -1543297.0552208964 0 0 0 0 7332621.5765372515 1534113.4352798462 0 1534113.4352798462 -66079359.815707684 0 0 0 0 -3348709.6186888218 2434102.7276382446 0 2434102.7276382446 -19726612.410552979 0 0 0 0 720631.53854942322 12832997.380943298 0 12832997.380943298 -66832000.578071594 0 0 0 0 16171053.694807053 19347339.127212524 0 19347339.127212524 -64923863.948623657 0 0 0 0 -3163995.7712779045 23027336.377336502 0 23027336.377336502 -65907079.929046631 0 0 0 0 78486025.854013443 74029287.865550995 0 74029287.865550995 -108176471.75967407 0 0 0 0 37842584.136861801 7851936.8292694092 0 7851936.8292694092 -77218532.328216553 0 0 0 0 -4707705.3211743832 26447339.753927231 0 26447339.753927231 -60666074.200668335 0 0 0 0 16462163.084173203 20446409.089439392 0 20446409.089439392 -81656784.382080078 0 0 0 0 -11139428.124051332 6023298.0753955841 0 6023298.0753955841 -43679549.431884766 0 0 0 0 -94228920.626367569 41281915.325790405 0 41281915.325790405 -51754160.431884766 0 0 0 0 32142504.949723244 7169972.5920715332 0 7169972.5920715332 -50095165.736328125 0 0 0 0 1406256.8831799212 -4496831.38418175 0 -4496831.38418175 1244249.9520055801 0 0 0 0 5482430.3982696533 -927504.08936309814 0 -927504.08936309814 -46362615.688644409 0 0 0 0 21442737.383276463 15783075.721263885 0 15783075.721263885 -59214138.889434814 0 0 0 0 6696008.5850329399 13874769.855606079 0 13874769.855606079 -40468426.389621735 0 0 0 0 9752113.3319253922 24695969.887863159 0 24695969.887863159 -44996657.094482422 0 0 0 0 2193469.9454593658 12528000.168190002 0 12528000.168190002 -57797943.85748291 0 0 0 0 3214482.7984107733 14439606.05900383 0 14439606.05900383 -66747115.261032104 0 0 0 0 4790118.3468694687 40227266.602806091 0 40227266.602806091 -28099604.491149902 0 0 0 0 -35651734.005913496 22099061.110588074 0 22099061.110588074 -34297814.690731049 0 0 0 0 -30396114.651771307 25168336.024396896 0 25168336.024396896 -43651186.23324585 0 0 0 0 -5422927.1636610031 2498922.0112457275 0 2498922.0112457275 -20884289.917503357 0 0 0 0 -3530621.9711725712 7689607.0335979462 0 7689607.0335979462 -28008574.874191284 0 0 0 0 -25133171.704887748 15188814.297164917 0 15188814.297164917 -28996181.21307373 0 0 0 0 -186545.296251297 -524609.73371887207 0 -524609.73371887207 -45914227.889427185 0 0 0 0 -128987.90768623352 662730.65293884277 0 662730.65293884277 -4102080.5661315918 0 0 0 0 209657.27600103617 -8248814.4784173965 0 -8248814.4784173965 -11047319.589752197 0 0 0 0 509029.37584250444 -2464778.7045473605 0 -2464778.7045473605 -9459431.0961140618 0 0 0 0 -722216.24137592316 7335375.7656402588 0 7335375.7656402588 -22864697.915100098 0 0 0 0 70844.152284863871 202247.59210652858 0 202247.59210652858 -1419232.8365106583 0 0 0 0 -4423722.0961952209 4069736.0553894043 0 4069736.0553894043 -15505340.950775146 0 0 0 0 -2135460.3451323137 1153128.0565834492 0 1153128.0565834492 -12582863.02822949 0 0 0 0 928798.55802755593 -962331.68691744655 0 -962331.68691744655 -5597558.4809236079 0 0 0 0 -3595007.906255722 1309242.1823120117 0 1309242.1823120117 -35227271.035118103 0 0 0 0 -755875.09131490032 -2599952.5104705468 0 -2599952.5104705468 -11487445.514431175 0 0 0 0 -9765307.0181794167 10084827.996276855 0 10084827.996276855 -57430919.713760376 0 0 0 0 -24362817.246366978 14834894.204544067 0 14834894.204544067 -43978901.678825378 0 0 0 0 18323.284078237484 -297840.1763586849 0 -297840.1763586849 -2652823.5065943208 0 0 0 0 -4324037.3765716553 3606526.1901626587 0 3606526.1901626587 -30650012.394844055 0 0 0 0 5934947.0582876205 4430373.1764369011 0 4430373.1764369011 -26629901.932792664 0 0 0 0 7959283.8775305748 708478.97576665878 0 708478.97576665878 -24977335.709255219 0 0 0 0 38448172.780123711 1225211.5231122971 0 1225211.5231122971 -46613228.458709717 0 0 0 0 6194925.2925338745 36054759.658358574 0 36054759.658358574 -4431191.1859951019 0 0 0 0 5462258.716053009 -2302675.3489804268 0 -2302675.3489804268 -17389154.493030548 0 0 0 0 7919134.8193202708 3336580.4287624191 0 3336580.4287624191 -22502452.480426647 0 0 0 0 -11457440.570449829 61780546.667243958 0 61780546.667243958 -26823711.347984314 0 0 0 0 5846381.8409696687 2834039.0674694809 0 2834039.0674694809 -7800481.6098247133 0 0 0 0 -34384009.577972412 -38736507.336269379 0 -38736507.336269379 100227159.36254406 0 0 0 0 -12833055.25750351 62692956.828048706 0 62692956.828048706 -25324676.516223907 0 0 0 0 5509083.2399487989 9605255.9002439808 0 9605255.9002439808 -21641269.079729468 0 0 0 0 10971444.258383751 -7781339.3854665756 0 -7781339.3854665756 -23222359.857151031 0 0 0 0 3763190.3968753815 1326219.8581352234 0 1326219.8581352234 -21301316.456981659 0 0 0 0 116492521.41067505 -57289220.714103699 0 -57289220.714103699 -47434460.548904419 0 0 0 0 8815238.658259077 -4554689.5274472609 0 -4554689.5274472609 -26972867.067155756 0 0 0 0 213687133.86675835 -24400788.406745911 0 -24400788.406745911 -278420036.56151581 0 0 0 0 18999147.202468872 -21604064.293060303 0 -21604064.293060303 41718008.355621338 0 0 0 0 -502896.04785220698 -624344.68325920776 0 -624344.68325920776 1277869.9169003032 0 0 0 0 214935290.41528511 34387472.035186768 0 34387472.035186768 -117374606.96635056 0 0 0 0 -3521414.8381958008 24379896.230682373 0 24379896.230682373 9335296.5872974396 0 0 0 0 30487992.768616199 50055070.034015179 0 50055070.034015179 -76375076.696586609 0 0 0 0 -2424125.0192664862 24770618.665902615 0 24770618.665902615 -58069936.979496002 0 0 0 0 12798165.230810165 18007381.657478333 0 18007381.657478333 -68844081.244955063 0 0 0 0 -2959598.2681531901 10149416.190918408 0 10149416.190918408 -11029286.040491518 0 0 0 0 -722777.63842391968 6570293.7831349373 0 6570293.7831349373 -76201709.361667633 0 0 0 0 -616438.62366852164 1622008.6803585291 0 1622008.6803585291 -40796103.936332703 0 0 0 0 -1295862.6393497735 -3022924.8704265729 0 -3022924.8704265729 -14306347.537168425 0 0 0 0 -298895537.73524475 -40110159.797943115 0 -40110159.797943115 -174010157.2855072 0 0 0 0 -12883872.114814758 182393304.1852951 0 182393304.1852951 -117893097.70567703 0 0 0 0 128909215.25556564 -66382813.112293243 0 -66382813.112293243 -34585537.429702759 0 0 0 0 -128555999.30765629 -83840159.341405869 0 -83840159.341405869 67066040.945877075 0 0 0 0 -116292343.14356995 164010398.90578461 0 164010398.90578461 -50684410.472061157 0 0 0 0 1251366.2968348404 -330483.69360706117 0 -330483.69360706117 -588206.87998971343 0 0 0 0 -20172295.603203773 -61775101.715251923 0 -61775101.715251923 64306320.501537323 0 0 0 0 6728977.4602664951 -2397420.0615036041 0 -2397420.0615036041 -23743673.609728515 0 0 0 0 7975738.8912596703 3430969.6017818451 0 3430969.6017818451 -28550007.355033875 0 0 0 0 11456027.571712494 -10925082.710199356 0 -10925082.710199356 -24773012.885891914 0 0 0 0 6045505.8330532555 -4201179.6431439565 0 -4201179.6431439565 -23492903.198172472 0 0 0 0 6450784.2437682152 3579143.3834514618 0 3579143.3834514618 -26082203.814834595 0 0 0 0 942329.56133651733 -2395224.5347576141 0 -2395224.5347576141 -32449879.415061951 0 0 0 0 5202073.0658993451 -7651315.6642140942 0 -7651315.6642140942 -16008006.876048483 0 0 0 0 104308.47503113747 10926175.930630386 0 10926175.930630386 -41753147.392242432 0 0 0 0 -15311434.521363378 15403681.543709755 0 15403681.543709755 -51663950.119037628 0 0 0 0 363600640.89897919 96264850.455524445 0 96264850.455524445 -132627307.04744732 0 0 0 0 133525147.15369034 139801642.05772781 0 139801642.05772781 34809680.175739288 0 0 0 0 157184409.10438776 30008663.903752327 0 30008663.903752327 -119087135.78227997 0 0 0 0 185010339.35727501 44124484.213752747 0 44124484.213752747 -135261151.9210813 0 0 0 0 125541280.64994717 -52958193.911342621 0 -52958193.911342621 -93603948.94346714 0 0 0 0 46334844.459362984 24918941.198617458 0 24918941.198617458 -116280711.08433533 0 0 0 0 6828740.3176671993 -6786027.3544267248 0 -6786027.3544267248 -16184408.280825727 0 0 0 0 1906830.4267473221 12740313.456508636 0 12740313.456508636 -43681868.420511246 0 0 0 0 63420089.094294548 47723457.68965292 0 47723457.68965292 -122710834.25287628 0 0 0 0 36244254.508808374 21954772.045274496 0 21954772.045274496 -114910471.4228096 0 0 0 0 50540028.304899693 57022065.756438255 0 57022065.756438255 -49564000.329711914 0 0 0 0 42914866.53002739 29772569.92842865 0 29772569.92842865 -55704023.432893753 0 0 0 0 -20044988.719774663 40516115.944000244 0 40516115.944000244 -90470532.11568737 0 0 0 0 -215765.30653354526 -2021928.1075055599 0 -2021928.1075055599 -31619827.79019928 0 0 0 0 11691659.708337158 -9662270.5385036469 0 -9662270.5385036469 -26763109.685691833 0 0 0 0 -1344034.0482227802 2722302.5077810287 0 2722302.5077810287 -24600365.415061951 0 0 0 0 5710447.4499208927 8486354.9752750397 0 8486354.9752750397 -39265083.019147873 0 0 0 0 7490619.230472479 -4669615.4568295861 0 -4669615.4568295861 -18165769.778259702 0 0 0 0 -11220773.161111355 22123673.004142225 0 22123673.004142225 -67773073.634778976 0 0 0 0 -1558654.8319849968 13860145.430843353 0 13860145.430843353 -26357834.103492737 0 0 0 0 9353460.6272602081 11394798.728160858 0 11394798.728160858 -47259510.36038208 0 0 0 0 9735578.6092479229 16504689.854533195 0 16504689.854533195 -35521927.974212646 0 0 0 0 83363.677795549389 5133999.6988380179 0 5133999.6988380179 -4253172.3622683901 0 0 0 0 6246648.3468995094 38565808.879277229 0 38565808.879277229 -36192907.529865265 0 0 0 0 41381220.303474426 30237913.806785583 0 30237913.806785583 -58982715.539236069 0 0 0 0 4390728.6799276685 4010434.4645067044 0 4010434.4645067044 -1953885.146680993 0 0 0 0 7999987.8139608074 -8516309.0381546021 0 -8516309.0381546021 -35154467.421539307 0 0 0 0 20725044.613487661 -16785187.266952515 0 -16785187.266952515 -29916346.660125732 0 0 0 0 -675033.00216019154 -15685602.419212341 0 -15685602.419212341 -15806897.453224182 0 0 0 0 -19653889.875293374 100223319.11236191 0 100223319.11236191 -29405159.195529938 0 0 0 0 -4899057.1452845335 -7489423.7914924622 0 -7489423.7914924622 -22891382.706665039 0 0 0 0 2672351.144352538 -1107951.09305372 0 -1107951.09305372 -14403802.489116754 0 0 0 0 7388608.8820765018 117594980.04564285 0 117594980.04564285 -41719128.647190094 0 0 0 0 59838346.537946701 103105454.57384109 0 103105454.57384109 -64375351.374977112 0 0 0 0 123865386.86216736 -184991562.62715912 0 -184991562.62715912 -140557807.17510986 0 0 0 0 83479634.274817228 115684581.40070701 0 115684581.40070701 -59386666.471336365 0 0 0 0 223870292.26639557 71444983.035301208 0 71444983.035301208 -57031956.927936554 0 0 0 0 39660.798913468607 -91647.52365242783 0 -91647.52365242783 -261482.06053678365 0 0 0 0 -80569292.751178741 28140473.880779266 0 28140473.880779266 14023261.243354797 0 0 0 0 1664077.9954362609 2400392.4567410192 0 2400392.4567410192 -1727887.5547294579 0 0 0 0 568280206.37958527 -110099951.67633057 0 -110099951.67633057 1061061.9149684906 0 0 0 0 666514365.7277441 137393053.91696548 0 137393053.91696548 -106171174.56834412 0 0 0 0 -115340025.38454902 140283371.02892303 0 140283371.02892303 -47645489.142791748 0 0 0 0 10575185.197631836 -19432563.681892395 0 -19432563.681892395 92695998.098045349 0 0 0 0 49290976.179258585 2415040.1596908569 0 2415040.1596908569 -250611734.3927002 0 0 0 0 -89696275.310386777 203366313.63044739 0 203366313.63044739 -185977665.87590027 0 0 0 0 -767285.82971167332 101509.2438683901 0 101509.2438683901 -523235.1425966844 0 0 0 0 -35158860.947678924 -111806851.89406586 0 -111806851.89406586 33422483.582633972 0 0 0 0 11087758.341912568 62765255.421725273 0 62765255.421725273 -28662777.617980957 0 0 0 0 -177824814.49847019 19896683.954330444 0 19896683.954330444 8636501.7759246826 0 0 0 0 -48640594.261104822 3029154.2882766724 0 3029154.2882766724 -3173964.1149520874 0 0 0 0 -65164259.092525363 56638493.68962574 0 56638493.68962574 -14620034.606307983 0 0 0 0 711679.49354672432 37276612.130828857 0 37276612.130828857 -26872092.976867676 0 0 0 0 12811073.764501572 26023849.99911499 0 26023849.99911499 -25023956.966110229 0 0 0 0 115076413.27181005 -29424413.554588318 0 -29424413.554588318 -23531179.191492915 0 0 0 0 4809773.5517538963 -6336207.9718449786 0 -6336207.9718449786 -8410272.2543805391 0 0 0 0 3652806.0289018936 -772580.7554380931 0 -772580.7554380931 -13552811.507332951 0 0 0 0 7081500.0212279186 -734372.42577535845 0 -734372.42577535845 -23708050.31662719 0 0 0 0 18482996.922246933 -13361864.894264221 0 -13361864.894264221 -2063189.1887664795 0 0 0 0 8019904.9447450638 -5435544.0973072052 0 -5435544.0973072052 -21443290.899017334 0 0 0 0 1659063.9412178993 5195156.1399040222 0 5195156.1399040222 -23649550.450558662 0 0 0 0 64644608.042279243 88540446.592422485 0 88540446.592422485 -48417762.533538818 0 0 0 0 5759507.5683909906 -3453869.5856366819 0 -3453869.5856366819 -9682143.1348930821 0 0 0 0 8903956.5044908524 -8704106.8166885376 0 -8704106.8166885376 6366279.5004501343 0 0 0 0 952449.58798181452 4480644.9711679704 0 4480644.9711679704 -19521659.932265818 0 0 0 0 13027947.057724938 -9070126.0657558441 0 -9070126.0657558441 -8055555.8258056641 0 0 0 0 509307.52925825119 4338571.0627250671 0 4338571.0627250671 -20382372.684509277 0 0 0 0 7473285.3061256409 63021638.590517044 0 63021638.590517044 -123774498.09555054 0 0 0 0 11931657.531191349 -371408.15792268794 0 -371408.15792268794 -23037042.222562637 0 0 0 0 383109.13572574873 1950102.5874904878 0 1950102.5874904878 -4772483.1847176626 0 0 0 0 -9281431.2135304213 38730778.601790547 0 38730778.601790547 -89609211.866210938 0 0 0 0 -37554282.082626343 34570736.911819458 0 34570736.911819458 -77073620.601356506 0 0 0 0 -20887508.083492279 13587363.339588165 0 13587363.339588165 -62053191.906173706 0 0 0 0 -4942008.183212053 8764996.899660185 0 8764996.899660185 -9564761.3884226829 0 0 0 0 -15565081.751098633 21363979.524604797 0 21363979.524604797 -62640210.931135178 0 0 0 0 -4099784.7042064667 12494541.138313293 0 12494541.138313293 -25290497.577266693 0 0 0 0 1840361.0476298332 5915248.0066108704 0 5915248.0066108704 -14337076.487852097 0 0 0 0 1535217.3605891985 6169215.5400183303 0 6169215.5400183303 -13996251.770519912 0 0 0 0 101648.58601760864 -1775235.3241348267 0 -1775235.3241348267 -21818153.939590454 0 0 0 0 -1469638.7211741949 6021521.584897738 0 6021521.584897738 -15015813.491408382 0 0 0 0 993403.59753894806 3268085.1667938232 0 3268085.1667938232 -6525625.2548446655 0 0 0 0 2466278.5649020057 2193587.989755597 0 2193587.989755597 -12292532.425211169 0 0 0 0 9691110.3782593329 2839063.3967620553 0 2839063.3967620553 -20121661.785176612 0 0 0 0 2926532.9304380417 9374950.7197265625 0 9374950.7197265625 -24790655.40271759 0 0 0 0 88660.648209149367 -126258.08161714673 0 -126258.08161714673 -2169170.5098588523 0 0 0 0 3226225.8960371017 6205972.1223602295 0 6205972.1223602295 -27903452.244895935 0 0 0 0 385907.001994133 9284658.9552078247 0 9284658.9552078247 -23873022.322984695 0 0 0 0 181791871.03167081 -253257862.18240356 0 -253257862.18240356 -63156657.047637939 0 0 0 0 208971924.49271935 56091518.73157835 0 56091518.73157835 -198760449.72572327 0 0 0 0 2198537.6436269875 -3085248.5999013316 0 -3085248.5999013316 -10038872.785919838 0 0 0 0 -248917364.51948637 16314331.503990173 0 16314331.503990173 -67057642.125816345 0 0 0 0 -28287161.548150182 -63396149.61239624 0 -63396149.61239624 -113437870.27401733 0 0 0 0 88621747.743947029 53869196.439601898 0 53869196.439601898 -207529416.12162781 0 0 0 0 -395474.87481600523 125313.59579274245 0 125313.59579274245 -428119.20328936726 0 0 0 0 -181665481.32817268 -164814848.62887955 0 -164814848.62887955 299471896.53386688 0 0 0 0 2571079.0710102026 1270651.6730335914 0 1270651.6730335914 -23421471.213686511 0 0 0 0 996735.01173019409 4064837.3219604492 0 4064837.3219604492 -29958944.090087891 0 0 0 0 252499.67215439025 1803284.833898697 0 1803284.833898697 -19305697.696474761 0 0 0 0 10529123.365801632 -459162.24672698975 0 -459162.24672698975 -34598976.663784027 0 0 0 0 -1989275.7725839615 -11156592.211288452 0 -11156592.211288452 -27751259.592353821 0 0 0 0 8468649.8135377467 -9639429.3421020508 0 -9639429.3421020508 -46130502.594726562 0 0 0 0 -14547225.487775326 9286747.6975860596 0 9286747.6975860596 -5782131.2422943115 0 0 0 0 -8026486.4848890305 227886210.87549591 0 227886210.87549591 912337.77732849121 0 0 0 0 -63864265.39964056 -252126111.94195557 0 -252126111.94195557 13696924.372470856 0 0 0 0 -284711696.85037166 -155785027.85025978 0 -155785027.85025978 75770818.54473877 0 0 0 0 -53681.772770182113 -211995.32469386188 0 -211995.32469386188 -300064.85845645517 0 0 0 0 15138430.124118447 11115495.661224365 0 11115495.661224365 -20105845.053771973 0 0 0 0 24153921.701066017 -39287544.842514038 0 -39287544.842514038 -78791316.436805725 0 0 0 0 -91742031.430986881 -15728547.126647949 0 -15728547.126647949 -54363956.146316528 0 0 0 0 187761370.79900879 -115741764.18704033 0 -115741764.18704033 -96692081.494293213 0 0 0 0 -1827475.2956862764 4094101.8144650552 0 4094101.8144650552 -15764821.987702474 0 0 0 0 39753621.562410355 10045774.006416321 0 10045774.006416321 40675637.447570801 0 0 0 0 158881637.59846002 41202142.958452702 0 41202142.958452702 -62136124.002151489 0 0 0 0 5554161.6664800048 23746069.518417358 0 23746069.518417358 -23578065.974861145 0 0 0 0 51214257.89384675 20807344.175422668 0 20807344.175422668 -11652321.329879761 0 0 0 0 20132795.947088361 -31150838.552852631 0 -31150838.552852631 -21172367.660583496 0 0 0 0 8909805.5540575981 -7847806.0788803101 0 -7847806.0788803101 -19192980.502775192 0 0 0 0 39568747.337253213 1116911.6147003174 0 1116911.6147003174 -21793804.424118042 0 0 0 0 4173954.1461257935 2633070.1492919922 0 2633070.1492919922 -14250373.390319824 0 0 0 0 360473.16716188157 488857.25700689107 0 488857.25700689107 -2037263.8091354053 0 0 0 0 -4091947.1889429092 -15901333.623802185 0 -15901333.623802185 667343.41189956665 0 0 0 0 -40892.751079124966 -1157719.8429210293 0 -1157719.8429210293 -1077575.7036608905 0 0 0 0 -51578.235918342718 -757858.90345809981 0 -757858.90345809981 -2300880.004662551 0 0 0 0 -60102354.665638506 -50123450.058579445 0 -50123450.058579445 -9892757.4194946289 0 0 0 0 -13467083.555504799 -19426520.622558594 0 -19426520.622558594 -14137259.442779541 0 0 0 0 -3531.0213704109192 -774683.15929412842 0 -774683.15929412842 -6823637.6418228149 0 0 0 0 -298763.10689054942 2022293.0982033834 0 2022293.0982033834 -5626993.3542587813 0 0 0 0 -3232092.7694544569 2660447.6734390259 0 2660447.6734390259 -18685210.437774658 0 0 0 0 578439.49139600992 233650.56115722656 0 233650.56115722656 -6510262.6749649048 0 0 0 0 574374.66216778755 -111426.48370361328 0 -111426.48370361328 -6800717.15574646 0 0 0 0 2889363.4088344872 4556973.2278747559 0 4556973.2278747559 -22291199.511791229 0 0 0 0 -309388.52978713223 2548234.6683223918 0 2548234.6683223918 -7606162.3657504581 0 0 0 0 -150571.42938464112 429871.02961340547 0 429871.02961340547 -4510482.5810091645 0 0 0 0 190602.6681188345 -223653.87223815918 0 -223653.87223815918 -6431270.4026489258 0 0 0 0 3321350.4120160937 4039153.8547439575 0 4039153.8547439575 16284301.830688477 0 0 0 0 1080699.2145147307 2353357.7712408341 0 2353357.7712408341 -19647466.8979377 0 0 0 0 2291958.2046032459 2497397.1087438688 0 2497397.1087438688 -6773206.0637683198 0 0 0 0 10363823.884981632 6553647.5459976196 0 6553647.5459976196 -15782528.354370117 0 0 0 0 4102405.5047820508 3392123.1688899994 0 3392123.1688899994 -11521026.530426025 0 0 0 0 4470412.1670247614 16983831.624778748 0 16983831.624778748 -33196518.613769531 0 0 0 0 -5053007.129370451 10057093.002670288 0 10057093.002670288 -7298356.2672729492 0 0 0 0 704965.29983301461 6818487.32239151 0 6818487.32239151 -20692370.984283447 0 0 0 0 357723.9229281994 704942.22683181241 0 704942.22683181241 -1692833.3837225586 0 0 0 0 -6107337.3696316332 -5759758.6969070435 0 -5759758.6969070435 -15048425.262031555 0 0 0 0 -4332505.501887843 -12344053.04420948 0 -12344053.04420948 -42107665.597106934 0 0 0 0 2406582.716961652 407925.37815093994 0 407925.37815093994 -72640024.243083954 0 0 0 0 -17853135.255273573 18172280.92257309 0 18172280.92257309 -45727770.344833374 0 0 0 0 -6777145.7352103293 26362979.416816711 0 26362979.416816711 -67312245.943511963 0 0 0 0 5756285.2034808844 3965381.7642440796 0 3965381.7642440796 -71190880.460281372 0 0 0 0 -6190273.7495802343 -5688585.2482089996 0 -5688585.2482089996 -52464208.802307129 0 0 0 0 -4438493.6840019673 -9926196.7614555359 0 -9926196.7614555359 2553910.6792449951 0 0 0 0 -16032.756394828728 -51444.84526034072 0 -51444.84526034072 -48255.039266642183 0 0 0 0 -962147.99394142628 6217098.4865951538 0 6217098.4865951538 -11207875.017059326 0 0 0 0 -29580.955439810525 -98574.893888827413 0 -98574.893888827413 -94800.484076015651 0 0 0 0 -3960994.1142212152 -11743690.329360962 0 -11743690.329360962 -21779424.989917755 0 0 0 0 -2510132.1655957699 2231091.2081756592 0 2231091.2081756592 -33564061.06016922 0 0 0 0 1817319.7589085177 10628614.533401489 0 10628614.533401489 -43544652.134078979 0 0 0 0 -3529513.8901861506 1396945.4941902161 0 1396945.4941902161 -16786485.024108887 0 0 0 0 5256228.0335549861 -3191552.8122138977 0 -3191552.8122138977 -54636610.306640625 0 0 0 0 7331433.0452822894 323965.60829162598 0 323965.60829162598 -50552348.787094116 0 0 0 0 9378337.5291901678 -746314.43218994141 0 -746314.43218994141 -50660347.320098877 0 0 0 0 9528293.0671729594 -32663.181800842285 0 -32663.181800842285 -70078472.622955322 0 0 0 0 2392308.4169624196 4776517.4104385376 0 4776517.4104385376 -38310735.709044456 0 0 0 0 -2719319.7416890902 9177287.3274326324 0 9177287.3274326324 -13727820.136276245 0 0 0 0 1471392.3582329853 195348.49766540527 0 195348.49766540527 -36237154.115868092 0 0 0 0 -2463960.1297721155 2030315.7386436462 0 2030315.7386436462 -36137032.956436157 0 0 0 0 -6992373.5919095753 -7740517.1686172485 0 -7740517.1686172485 -54484243.240661621 0 0 0 0 -14867479.161202645 930611.81541442871 0 930611.81541442871 -47041954.308731079 0 0 0 0 -5929783.9379412858 10785212.960876465 0 10785212.960876465 -38854197.759054184 0 0 0 0 15127.296936543349 6337510.2798972605 0 6337510.2798972605 -59209096.580581665 0 0 0 0 -1436481.783876054 -20365623.565643311 0 -20365623.565643311 -40987533.071395874 0 0 0 0 94739.532479613583 157491.92324448004 0 157491.92324448004 -577431.89929188788 0 0 0 0 180029.06983738393 -9426590.3314208984 0 -9426590.3314208984 -5063667.3635559082 0 0 0 0 -1388939.6520829219 -1861584.6783294678 0 -1861584.6783294678 -86173125.686126709 0 0 0 0 -4804371.2478552982 5774667.9511871338 0 5774667.9511871338 -52416827.050193787 0 0 0 0 -19616868.665581621 10477313.544969559 0 10477313.544969559 -37006578.645690918 0 0 0 0 -21362931.976742454 39493921.347259521 0 39493921.347259521 -82110551.542739868 0 0 0 0 4899288.8581257444 5403683.7891578674 0 5403683.7891578674 -8291196.8998413086 0 0 0 0 5274124.7402958283 2010934.4496202469 0 2010934.4496202469 -10828618.286193848 0 0 0 0 4211445.6321972609 2229889.8292922974 0 2229889.8292922974 -9853637.1403961182 0 0 0 0 -2454803.6521231495 -121521.19223022461 0 -121521.19223022461 -10814176.108795166 0 0 0 0 101273.67901645601 3121109.8321685791 0 3121109.8321685791 -9374154.1362915039 0 0 0 0 2307045.2185681351 2656521.2635803223 0 2656521.2635803223 -10663251.848522186 0 0 0 0 -10916.344676979435 4990137.3916015625 0 4990137.3916015625 -12721432.673080444 0 0 0 0 3670462.0407420266 1705652.3489379883 0 1705652.3489379883 -27258248.723197937 0 0 0 0 -541302.01417151093 1048063.09715271 0 1048063.09715271 -27900074.652862549 0 0 0 0 362482.06552916765 4826623.0346984863 0 4826623.0346984863 -24621050.750595093 0 0 0 0 7540421.8780100718 3820486.9810600281 0 3820486.9810600281 -46280302.568450928 0 0 0 0 7058957.0600488447 2644428.563533783 0 2644428.563533783 -47155671.83493042 0 0 0 0 7022776.6539025307 4270472.1309967041 0 4270472.1309967041 -51878642.377605438 0 0 0 0 2051284.5939432271 -3521019.1669960022 0 -3521019.1669960022 -63045775.145477295 0 0 0 0 3127234.5147498399 18272013.403594971 0 18272013.403594971 -56634914.790687561 0 0 0 0 3697304.0752620101 10496731.940292358 0 10496731.940292358 -37096102.581787109 0 0 0 0 7706292.9476186931 16865144.369873047 0 16865144.369873047 -32224997.31237793 0 0 0 0 837332.75458432734 5723896.425491333 0 5723896.425491333 -24675613.556152344 0 0 0 0 -1878397.9275205359 20943707.691482544 0 20943707.691482544 -6172379.2119750977 0 0 0 0 -10373591.630218357 10345669.850204468 0 10345669.850204468 -23541053.795349121 0 0 0 0 248278.49617350366 68149.961189672351 0 68149.961189672351 -1514658.4174355045 0 0 0 0 -4956199.5828371644 4216875.4622650146 0 4216875.4622650146 -2663885.3402175903 0 0 0 0 496044.12431755534 476819.85396581888 0 476819.85396581888 -2034310.1515883356 0 0 0 0 9556569.54012537 25953652.525634766 0 25953652.525634766 -12493765.708374023 0 0 0 0 15341523.112111822 4621186.7461700439 0 4621186.7461700439 -43760017.417999268 0 0 0 0 11885738.610511139 31166152.717910767 0 31166152.717910767 -25811044.640579224 0 0 0 0 2100622.7621635199 -39178.808731079102 0 -39178.808731079102 -11919492.045303345 0 0 0 0 1028343.2313103825 -405102.34669494629 0 -405102.34669494629 -8287653.4127197266 0 0 0 0 36668.26840013075 -9742.1157881505787 0 -9742.1157881505787 -333359.03820981085 0 0 0 0 -169390.52239149221 111020.96778151393 0 111020.96778151393 270817.90582165122 0 0 0 0 1568882.4709928185 -10764846.730712891 0 -10764846.730712891 -21898607.592224121 0 0 0 0 -43281682.739920855 -6046846.2955322266 0 -6046846.2955322266 -9728017.7354736328 0 0 0 0 -4799716.5324676335 7635444.6295471191 0 7635444.6295471191 275660.96621704102 0 0 0 0 32506362.679914206 8260135.2352294922 0 8260135.2352294922 -10701316.728050232 0 0 0 0 1070321.3685825816 -1693835.3813988343 0 -1693835.3813988343 -1579543.461916849 0 0 0 0 -261648.5183032811 1779319.7613125592 0 1779319.7613125592 -3168204.7402722463 0 0 0 0 200799.83547121286 334115.81921386719 0 334115.81921386719 -2514398.3805541992 0 0 0 0 1302945.5009173367 -1647951.8636165932 0 -1647951.8636165932 -7926207.012099579 0 0 0 0 -1597207.6888774633 8246186.7657775879 0 8246186.7657775879 -13828394.377723694 0 0 0 0 -637868.58688950539 4783687.4638671875 0 4783687.4638671875 -24312993.265899658 0 0 0 0 -465797.39106984274 1923921.3149667308 0 1923921.3149667308 -7405482.2596759368 0 0 0 0 2233109.2136004567 3265970.0070037842 0 3265970.0070037842 -18868038.875335693 0 0 0 0 -1026507.99321004 9995554.6776580811 0 9995554.6776580811 -21242449.404510498 0 0 0 0 665502.34389673546 -843723.97646424547 0 -843723.97646424547 -6426456.3722541481 0 0 0 0 2135613.5666544437 -4929465.5614852905 0 -4929465.5614852905 6267855.3905487061 0 0 0 0 -1118722.6934285462 6874638.1561431885 0 6874638.1561431885 -38923423.283935547 0 0 0 0 1450255.8322059363 -7256504.8103523254 0 -7256504.8103523254 1636879.5947265625 0 0 0 0 -795988.04918515682 3754177.069519043 0 3754177.069519043 -14580772.565811157 0 0 0 0 -756026.4067980086 -1126436.6020074561 0 -1126436.6020074561 1101070.4734930694 0 0 0 0 321921.35709173069 -66318.376826934516 0 -66318.376826934516 -5293837.1248017736 0 0 0 0 1340936.7234966606 -2402509.8472442627 0 -2402509.8472442627 -5440967.2627105713 0 0 0 0 31832388.653382674 -29564993.300773621 0 -29564993.300773621 -38648872.55751133 0 0 0 0 4576126.7788395248 -19896037.702997208 0 -19896037.702997208 -39791492.761352539 0 0 0 0 19278439.97833842 -2461174.4150085449 0 -2461174.4150085449 -51848030.469970703 0 0 0 0 5003091.0857060254 3272179.7475891113 0 3272179.7475891113 -43177143.311203003 0 0 0 0 11682438.107488632 -163793.11141967773 0 -163793.11141967773 -41507118.798332214 0 0 0 0 38451089.891453691 -8039625.5512084961 0 -8039625.5512084961 -66415285.49130249 0 0 0 0 -21281118.663469762 31275517.415328979 0 31275517.415328979 -67022647.18182373 0 0 0 0 -28123.247248457516 -247106.73651979119 0 -247106.73651979119 -1514070.1506798919 0 0 0 0 -3317365.5898932181 1426623.3002090454 0 1426623.3002090454 578726.89588928223 0 0 0 0 691171.708116733 -1750987.3148422241 0 -1750987.3148422241 -5161404.3297119141 0 0 0 0 18066.126166882503 -228573.52044309676 0 -228573.52044309676 -1965057.6334787197 0 0 0 0 1313386.3255197816 3122692.7131500244 0 3122692.7131500244 -8613491.2919158936 0 0 0 0 -11549539.658408411 -21544499.360364914 0 -21544499.360364914 -33358599.133178711 0 0 0 0 691171.70811635361 -117957.70135498047 0 -117957.70135498047 -3973935.4671859741 0 0 0 0 180271.80741922531 -596067.88174990565 0 -596067.88174990565 -1152343.1346598119 0 0 0 0 -5268.2157278534924 479041.50061798096 0 479041.50061798096 -1324479.2998504639 0 0 0 0 3359.0501458345043 482513.58106994629 0 482513.58106994629 -1326618.0808372498 0 0 0 0 -175343.3550802439 -319586.96261370182 0 -319586.96261370182 -415367.9625703916 0 0 0 0 -35896120.617325909 -50909052.909667969 0 -50909052.909667969 -62493498.135192871 0 0 0 0 -31887497.9809689 -32638967.573512077 0 -32638967.573512077 -18655857.949737549 0 0 0 0 5057578.9655477479 1253824.8443183899 0 1253824.8443183899 -46479698.339508057 0 0 0 0 -12100633.896618996 -23078931.82440567 0 -23078931.82440567 -76397502.926254272 0 0 0 0 -97675.604813824088 -21665354.326702099 0 -21665354.326702099 -92656336.025253296 0 0 0 0 -17722998.534376599 -17888729.165481567 0 -17888729.165481567 -70002187.244569778 0 0 0 0 88970.630155578081 -75195.410825908184 0 -75195.410825908184 -1645779.8899986525 0 0 0 0 23426237.097879797 -30644022.805366516 0 -30644022.805366516 -17634389.839516163 0 0 0 0 15874034.442206807 -12741554.449226379 0 -12741554.449226379 -36669825.848342896 0 0 0 0 36082665.533633836 -29504857.908729553 0 -29504857.908729553 -49093018.120819092 0 0 0 0 22721940.331212699 8843208.72315979 0 8843208.72315979 -66341451.221382141 0 0 0 0 32105589.94335106 -13521679.471195221 0 -13521679.471195221 -28136473.133529663 0 0 0 0 2502883.9617133141 -12439664.876464844 0 -12439664.876464844 -27596694.038360596 0 0 0 0 -498920.51986389147 -805296.76825496182 0 -805296.76825496182 -2968968.961183168 0 0 0 0 12191268.240874171 10533824.853710175 0 10533824.853710175 -7597176.9583892822 0 0 0 0 1643992.6741425991 -13944767.848388672 0 -13944767.848388672 -19410736.800674438 0 0 0 0 -102393892.16045403 -74702988.922546387 0 -74702988.922546387 15644175.018795967 0 0 0 0 18450433.51755771 36134514.954504013 0 36134514.954504013 -107792102.42668152 0 0 0 0 14277743.252705455 -6455465.9076919556 0 -6455465.9076919556 -50063440.457000732 0 0 0 0 335234.9614366485 -463643.14956572652 0 -463643.14956572652 -5607801.3397157323 0 0 0 0 162257.63423585892 -3970713.407043457 0 -3970713.407043457 -48429735.325866699 0 0 0 0 -6429007.1134396195 -1516713.5237121582 0 -1516713.5237121582 -27357955.355895996 0 0 0 0 -492626.81335006614 -4170551.4291396812 0 -4170551.4291396812 -4777490.8202605527 0 0 0 0 682447.60928798595 -1593430.1827020682 0 -1593430.1827020682 -8126433.4296161085 0 0 0 0 26527880.820127368 39179363.587463379 0 39179363.587463379 -2707484.028968811 0 0 0 0 128814.63900319487 -2624463.2658452988 0 -2624463.2658452988 -27500891.550842285 0 0 0 0 1139126.7718350189 3186596.8253714629 0 3186596.8253714629 -9487231.0719466656 0 0 0 0 3284122.6173551399 1383353.5696275234 0 1383353.5696275234 -30270722.154632568 0 0 0 0 3915717.1602733135 -10971530.684539795 0 -10971530.684539795 -49879455.642089844 0 0 0 0 151530.37433681279 91850.148834336549 0 91850.148834336549 -1158478.2052350938 0 0 0 0 -17463577.128685653 -22207464.023368835 0 -22207464.023368835 -41348938.395751953 0 0 0 0 -9095953.1075778604 -20556449.044334412 0 -20556449.044334412 -41616458.152599335 0 0 0 0 -1410274.3706496358 -29802031.653396606 0 -29802031.653396606 -74565365.845769882 0 0 0 0 -2650797.5201717615 -21762522.742889404 0 -21762522.742889404 -50818328.945343018 0 0 0 0 9227710.2100760937 -29910933.404693604 0 -29910933.404693604 -50014625.985830307 0 0 0 0 5062826.2759799957 -32921044.988388062 0 -32921044.988388062 -63868560.900299072 0 0 0 0 256608.49322962761 -28648341.281494141 0 -28648341.281494141 -40102778.173095703 0 0 0 0 -612942.59339022636 -25564125.875764847 0 -25564125.875764847 -22645481.354919434 0 0 0 0 6571863.8384073973 -22999850.669433594 0 -22999850.669433594 -48725636.503723145 0 0 0 0 6586798.2745248079 -23574516.169433594 0 -23574516.169433594 -56227061.013435364 0 0 0 0 1198648.0137451887 -16163914.340805054 0 -16163914.340805054 -37954115.577957153 0 0 0 0 823714.53437530994 -14572031.452636719 0 -14572031.452636719 -32970064.133514404 0 0 0 0 436390.09677009028 -3148209.7553771287 0 -3148209.7553771287 -10944746.391092679 0 0 0 0 -5380977.9832936525 -14332052.410369873 0 -14332052.410369873 -3695557.092956543 0 0 0 0 719717.28726236033 -1460874.2789141207 0 -1460874.2789141207 -3704012.1011552811 0 0 0 0 2530832.5156126022 -1506342.7569122314 0 -1506342.7569122314 -3019008.8479232788 0 0 0 0 2330436.4670130014 -1927732.6864967346 0 -1927732.6864967346 -3126471.9509277344 0 0 0 0 1441249.7663327176 -2490597.9398799464 0 -2490597.9398799464 -4788978.2973736972 0 0 0 0 2025661.7674694061 739699.36982727051 0 739699.36982727051 -6629885.7804718018 0 0 0 0 -3763235.4881734848 -4559733.2821044922 0 -4559733.2821044922 -10511014.509166718 0 0 0 0 213290.94970035553 805854.55728149414 0 805854.55728149414 -11181158.851394653 0 0 0 0 -8097295.5829861164 -25751783.201507568 0 -25751783.201507568 -25820469.745666504 0 0 0 0 -8214446.8707876205 -22180689.975341797 0 -22180689.975341797 -23088562.214050293 0 0 0 0 11452023.999205589 -6621157.5781402588 0 -6621157.5781402588 -21532599.6484375 0 0 0 0 1131383.4639750249 -1490476.3428618833 0 -1490476.3428618833 -1708218.3655084893 0 0 0 0 2107630.2387361526 -11742225.482457161 0 -11742225.482457161 -25786453.063598633 0 0 0 0 1815696.0279964395 -1072974.7482901812 0 -1072974.7482901812 -9821979.4504699707 0 0 0 0 1881582.0575819016 -1729024.154510498 0 -1729024.154510498 -6553863.3696174622 0 0 0 0 1092091.5479108843 -2046238.2257310711 0 -2046238.2257310711 -8790396.7698671371 0 0 0 0 -280879.478909556 -3312322.8667010516 0 -3312322.8667010516 -10081526.137838122 0 0 0 0 44731.986283970502 -79438.236583089456 0 -79438.236583089456 -86868.882265970111 0 0 0 0 16730407.615410686 -1941042.9564361572 0 -1941042.9564361572 -38366169.380340576 0 0 0 0 11979369.020585895 -3847089.6140365601 0 -3847089.6140365601 -24186442.714447021 0 0 0 0 2963243.5309598446 -755886.00018692017 0 -755886.00018692017 -5848769.3061828613 0 0 0 0 3780504.8442596351 742306.87253654934 0 742306.87253654934 -12612134.980658956 0 0 0 0 1507969.6855918816 -831755.08073577285 0 -831755.08073577285 -7421607.4509546012 0 0 0 0 -225131.97494485974 1524231.4036216736 0 1524231.4036216736 -11142047.789825439 0 0 0 0 1199098.1975450264 -4671664.9724929128 0 -4671664.9724929128 -7760002.3480657563 0 0 0 0 -524046.98147001921 -3177950.6116646491 0 -3177950.6116646491 -10918122.016566213 0 0 0 0 12365081.393970251 -13929998.008850098 0 -13929998.008850098 -17943929.304840088 0 0 0 0 17928358.978877962 -12555083.323852539 0 -12555083.323852539 -31078085.34362793 0 0 0 0 -1327908.891956459 2138709.9119835012 0 2138709.9119835012 -6924271.7724529915 0 0 0 0 904508.65963745117 -544196.40565490723 0 -544196.40565490723 -1725467.8621063232 0 0 0 0 -329801.99948120117 1267795.0833129883 0 1267795.0833129883 -2642905.189453125 0 0 0 0 -47685.839616358513 -1303569.1959287748 0 -1303569.1959287748 -14126262.131679554 0 0 0 0 -19454.259188652039 1340100.0396118164 0 1340100.0396118164 -6440578.6895751953 0 0 0 0 603154.70325449761 -1352801.4499851055 0 -1352801.4499851055 -12456164.416752629 0 0 0 0 6307.1658259630203 1135858.5755691528 0 1135858.5755691528 -5360975.6460876465 0 0 0 0 482012.26678573852 2592425.6343168207 0 2592425.6343168207 -8885596.9985766541 0 0 0 0 1823532.2901496887 41083.462280273438 0 41083.462280273438 -4935897.9580535889 0 0 0 0 1560500.9007012844 -1156031.1367340088 0 -1156031.1367340088 -4249382.307434082 0 0 0 0 1268053.3073797226 -1589822.6458740234 0 -1589822.6458740234 -9741446.0186462402 0 0 0 0 1328695.0986868066 -3843355.5383404186 0 -3843355.5383404186 -3156295.1886501312 0 0 0 0 1306183.826625295 -4468228.1692883391 0 -4468228.1692883391 -5143492.1830550358 0 0 0 0 3335992.1304931641 -4112356.1779785156 0 -4112356.1779785156 -2921064.5794677734 0 0 0 0 3106474.4383010864 -1355240.7076721191 0 -1355240.7076721191 -5435362.4282226562 0 0 0 0 2151879.966002482 -2653474.7651188001 0 -2653474.7651188001 -6869164.3559657261 0 0 0 0 1782727.7510620323 -3050944.055534441 0 -3050944.055534441 -7606441.7199319527 0 0 0 0 246046.21083198389 1494863.8513792604 0 1494863.8513792604 -6616283.2625693344 0 0 0 0 430753.67426510417 2222727.5448306389 0 2222727.5448306389 -10012242.641090453 0 0 0 0 1725895.7839207649 -2512011.7736053467 0 -2512011.7736053467 -3509864.8187561035 0 0 0 0 2067331.8186256886 -2126125.6789016724 0 -2126125.6789016724 -3640133.3459777832 0 0 0 0 2597886.6841411591 -555119.22592163086 0 -555119.22592163086 -3682560.6208496094 0 0 0 0 1237654.8573067705 1144897.5477328748 0 1144897.5477328748 -12481192.433731347 0 0 0 0 851382.20953618386 -4094339.0726910084 0 -4094339.0726910084 -2737384.4486976415 0 0 0 0 1373434.7759513855 -637734.55584716797 0 -637734.55584716797 -3534116.838104248 0 0 0 0 4283766.3167396784 -4208274.2807922363 0 -4208274.2807922363 -3596897.0583496094 0 0 0 0 1285771.3928804821 -4738435.7046348788 0 -4738435.7046348788 -5316028.2522920296 0 0 0 0 215544.24232532154 1088617.8968862072 0 1088617.8968862072 -16064335.356105328 0 0 0 0 -1037842.3763265393 146891.01633603498 0 146891.01633603498 -2458257.6674066186 0 0 0 0 3187859.1549329758 -14822915.122329712 0 -14822915.122329712 -12918120.727342606 0 0 0 0 1388294.9803439316 -5088663.2233962715 0 -5088663.2233962715 -1590789.285081856 0 0 0 0 1148579.1522978232 -2692701.6070188135 0 -2692701.6070188135 -5433229.8556878194 0 0 0 0 -21658009.0219841 -19341989.606414795 0 -19341989.606414795 -2027695.4016723633 0 0 0 0 7262890.4087550044 -2041123.807554245 0 -2041123.807554245 -3000745.5121154785 0 0 0 0 1190938.3630232525 -2013731.0589900962 0 -2013731.0589900962 -7172406.1506778076 0 0 0 0 15269753.21771431 -44519687.911140442 0 -44519687.911140442 -25218774.468856812 0 0 0 0 -41290.738677652669 1917152.1852728426 0 1917152.1852728426 -4267035.5238437206 0 0 0 0 267190.52093756595 -1818197.0703661665 0 -1818197.0703661665 -5687418.9355989546 0 0 0 0 780287.2815040946 2050320.4546775818 0 2050320.4546775818 -7334123.6804199219 0 0 0 0 -43864.364269725513 768369.76823029667 0 768369.76823029667 -11421447.485575974 0 0 0 0 785390.79802131653 761047.79595947266 0 761047.79595947266 -7276432.8327789307 0 0 0 0 3327440.3394675255 -725244.75433349609 0 -725244.75433349609 -14905706.26751709 0 0 0 0 483644.83375886315 1203739.3926770911 0 1203739.3926770911 -7913883.2407718934 0 0 0 0 1035673.8968946636 1891809.298157692 0 1891809.298157692 -6885622.6259307861 0 0 0 0 -90506.501119921275 -2254031.7868990041 0 -2254031.7868990041 -7813137.3837974332 0 0 0 0 -44948.074491146603 1117314.2522314601 0 1117314.2522314601 -7978297.9410814829 0 0 0 0 -5640531.1434688568 8966980.3922920227 0 8966980.3922920227 -16336333.83164978 0 0 0 0 6680945.8911918998 8155219.4257049561 0 8155219.4257049561 50749008.113922119 0 0 0 0 -7457022.3310129642 -23726780.426361084 0 -23726780.426361084 12768834.726242065 0 0 0 0 5023.9620255827904 -366997.38679504395 0 -366997.38679504395 -2910756.6486206055 0 0 0 0 70434.201007914002 327378.88595694676 0 327378.88595694676 -5305838.4991708435 0 0 0 0 218531.22884539474 -667871.39363939315 0 -667871.39363939315 -13420534.215364158 0 0 0 0 8231557.4251878262 -16819885.985580444 0 -16819885.985580444 9624558.3874206543 0 0 0 0 106702.70449337363 1384475.1090545654 0 1384475.1090545654 -14898445.464317322 0 0 0 0 1200620.6926889403 -828449.24159457162 0 -828449.24159457162 -1771420.6870667338 0 0 0 0 -25735480.470390081 -42020224.871131897 0 -42020224.871131897 37998549.518981934 0 0 0 0 -27265757.043361068 3809106.0632324219 0 3809106.0632324219 6239355.157699585 0 0 0 0 -9625149.7628942616 65124686.257089615 0 65124686.257089615 -97407128.01751709 0 0 0 0 -283936.46827242232 -336483.63655877858 0 -336483.63655877858 338853.57907928526 0 0 0 0 14811169.3182735 17403711.073272705 0 17403711.073272705 10406609.852986336 0 0 0 0 73524533.920262635 55868988.933074951 0 55868988.933074951 -175038045.47366333 0 0 0 0 -58870777.003516853 -64790559.23002243 0 -64790559.23002243 -10148969.137664795 0 0 0 0 -3682850.0482759476 -78295570.897354126 0 -78295570.897354126 -90881024.996200562 0 0 0 0 25466467.208273053 -25608563.056175232 0 -25608563.056175232 -25491956.990661621 0 0 0 0 -19990861.657121778 -38328270.268554688 0 -38328270.268554688 16910029.350456238 0 0 0 0 -6474176.7974479198 -27460184.747055054 0 -27460184.747055054 -3247230.9309082031 0 0 0 0 -89743145.523189545 -57642043.906049728 0 -57642043.906049728 -130731496.93209839 0 0 0 0 -89271671.361019135 -88426786.071111679 0 -88426786.071111679 -110689731.3143692 0 0 0 0 -122309386.28096151 -40874145.935846329 0 -40874145.935846329 -85765008.070026398 0 0 0 0 -136541204.11635017 -22864096.376556396 0 -22864096.376556396 -129079329.77200508 0 0 0 0 -67213537.885534286 -7082818.8622837067 0 -7082818.8622837067 -126462279.87748909 0 0 0 0 -107659294.51715279 -8093398.8986167908 0 -8093398.8986167908 -85832294.773406982 0 0 0 0 -107308783.30371761 55623511.532742023 0 55623511.532742023 -166185261.60625458 0 0 0 0 -182458058.84019852 14725281.441318512 0 14725281.441318512 -150530880.44036293 0 0 0 0 -222045956.01193619 47804886.907531738 0 47804886.907531738 -216087237.77776527 0 0 0 0 -141722788.07472229 17531353.615851402 0 17531353.615851402 -208774851.100811 0 0 0 0 -199268238.58712006 -33081990.115655899 0 -33081990.115655899 -204905926.11534405 0 0 0 0 -152533089.37528658 -72666397.767026186 0 -72666397.767026186 -130988975.65337563 0 0 0 0 -130005793.50603676 -14125442.648761749 0 -14125442.648761749 -201301201.67320251 0 0 0 0 -120070213.53438282 -21474064.588356972 0 -21474064.588356972 -193266792.24537277 0 0 0 0 -151790770.4652853 -96644531.788707733 0 -96644531.788707733 -109995011.0146637 0 0 0 0 -70732493.31198597 -81982130.214994431 0 -81982130.214994431 -119846119.19241333 0 0 0 0 38118444.028141975 -102584912.4858799 0 -102584912.4858799 -121310082.69656372 0 0 0 0 3065037.7480449677 -131460533.27809525 0 -131460533.27809525 -75564833.919155121 0 0 0 0 -80575499.290504932 -125294768.38463044 0 -125294768.38463044 -49876267.368026733 0 0 0 0 -69567125.006900787 -131241201.9549942 0 -131241201.9549942 -51739606.545490265 0 0 0 0 14619246.148657799 -181788680.14392662 0 -181788680.14392662 -81621984.516322136 0 0 0 0 15753629.554586411 -200735266.5719862 0 -200735266.5719862 -170530993.41693878 0 0 0 0 -28132806.107229233 -117386824.52583122 0 -117386824.52583122 -96814633.748246431 0 0 0 0 -117468531.5306201 -93810519.344397545 0 -93810519.344397545 -99750826.774002075 0 0 0 0 -63763388.074951172 -138473052.30444336 0 -138473052.30444336 -93101440.110210419 0 0 0 0 -67535274.325699806 -64513229.98464489 0 -64513229.98464489 -84757297.813892365 0 0 0 0 -37813803.886814117 -134657102.30704927 0 -134657102.30704927 -123864824.09051514 0 0 0 0 34154240.882899284 -112590980.41161537 0 -112590980.41161537 -117949927.80618858 0 0 0 0 40702085.918598294 -146638497.82031441 0 -146638497.82031441 -176367548.67766571 0 0 0 0 47320577.967123985 5444633.0562543869 0 5444633.0562543869 -45058520.370214462 0 0 0 0 -15413965.804347157 -37129952.077035427 0 -37129952.077035427 -20449175.07657814 0 0 0 0 2006902.9767789841 -77357599.239952087 0 -77357599.239952087 -139840811.23230839 0 0 0 0 -54926190.058716297 -10691248.801026821 0 -10691248.801026821 9170822.0241546631 0 0 0 0 -7707135.2150030136 -50869781.089530945 0 -50869781.089530945 -61536586.760910034 0 0 0 0 -78785261.308979034 -76751948.393793106 0 -76751948.393793106 -68370554.748147964 0 0 0 0 -31030139.53368187 -37952806.852931976 0 -37952806.852931976 -86474438.180171967 0 0 0 0 -32467814.828621864 -2571407.0023822784 0 -2571407.0023822784 -85460087.622596741 0 0 0 0 -23542285.80947876 -31830521.940242767 0 -31830521.940242767 -40450097.310574055 0 0 0 0 -73556484.079183578 -18803464.795220375 0 -18803464.795220375 -43149030.151885986 0 0 0 0 -65067049.368341446 -9442337.6203174591 0 -9442337.6203174591 -39951285.137584686 0 0 0 0 -30003276.988122582 23174421.292768955 0 23174421.292768955 -23386674.172164917 0 0 0 0 5026262.3060855865 -25247428.081972122 0 -25247428.081972122 12542062.225122452 0 0 0 0 6119232.0680475235 54410092.021244049 0 54410092.021244049 42474059.351930141 0 0 0 0 -42620768.998860359 35695905.5236063 0 35695905.5236063 130904278.44850254 0 0 0 0 -1192135474.8021491 1680562623.389782 0 1680562623.389782 61051964.124210358 0 0 0 0 -10788087.386131287 34593272.615478516 0 34593272.615478516 -22882527.346622467 0 0 0 0 -31062022.338331223 -13593487.934400558 0 -13593487.934400558 20951016.191069603 0 0 0 0 1619494.0182266235 -13161940.079242706 0 -13161940.079242706 44878043.652542114 0 0 0 0 37553704.145606995 -39644047.621204376 0 -39644047.621204376 51434712.88914299 0 0 0 0 1569331063.1056285 -522134017.21857643 0 -522134017.21857643 1416618567.7235126 0 0 0 0 -58261955.260936737 53354627.720239639 0 53354627.720239639 29394258.675617218 0 0 0 0 -5615889.1137862867 2104585.3750377828 0 2104585.3750377828 -399940.16884145327 0 0 0 0 -13235518.445186615 86298950.777795792 0 86298950.777795792 27830528.611871719 0 0 0 0 -1639610.0050390016 165214.59018519148 0 165214.59018519148 -390781.8469955005 0 0 0 0 92010546.091658592 22734160.4328022 0 22734160.4328022 -13970729.717288971 0 0 0 0 32024798.980927944 59952665.824793339 0 59952665.824793339 -29984918.392478943 0 0 0 0 -3526341.8772182465 33027007.490989685 0 33027007.490989685 -44199857.579786301 0 0 0 0 -1997599.564874649 70687264.957241058 0 70687264.957241058 -88163272.55226326 0 0 0 0 -11561315.539821625 15256784.974590302 0 15256784.974590302 -119368212.32423401 0 0 0 0 -3267009.9631520659 90793671.597189367 0 90793671.597189367 -44378168.244377136 0 0 0 0 -24460765.917291641 106958767.26120758 0 106958767.26120758 -173667728.78223419 0 0 0 0 -9112107.9794020653 101269942.36186421 0 101269942.36186421 -180578919.96244431 0 0 0 0 -1084907.26125741 43512311.793698788 0 43512311.793698788 -116118357.94199753 0 0 0 0 -54059138.736621857 100854162.41740608 0 100854162.41740608 -145824399.18339252 0 0 0 0 -19986686.701496124 40957756.506425858 0 40957756.506425858 -94812597.209629059 0 0 0 0 -77356689.681266785 38270102.488779068 0 38270102.488779068 -92451997.93774128 0 0 0 0 -12787899.084742665 3459196.9836885929 0 3459196.9836885929 -40375564.993595123 0 0 0 0 -134846973.50717926 -49305280.663601875 0 -49305280.663601875 861920444.82727146 0 0 0 0 -5041483.0517179249 1097845.0787161142 0 1097845.0787161142 -1530224.0065503572 0 0 0 0 67875504.86738205 23061923.993396759 0 23061923.993396759 879336588.52823448 0 0 0 0 -212149071.38265419 498897685.30021286 0 498897685.30021286 1841455731.4269485 0 0 0 0 -37386455.264598846 7799769.7784976959 0 7799769.7784976959 -3664744.8480796814 0 0 0 0 14179264.167604446 148131378.13037872 0 148131378.13037872 -251413001.08963394 0 0 0 0 -43534889.553161621 218667331.95688438 0 218667331.95688438 -332279880.9996233 0 0 0 0 -71662302.383646011 211619124.07285118 0 211619124.07285118 -292343011.10095215 0 0 0 0 58702295.857106209 -27650788.481311798 0 -27650788.481311798 -290785379.41503906 0 0 0 0 -169277083.25175858 388426681.3475523 0 388426681.3475523 -573776243.0355854 0 0 0 0 6464199.0795340538 119944000.61843348 0 119944000.61843348 -692172523.5428772 0 0 0 0 -447966798.24309921 407060683.04364586 0 407060683.04364586 -270642396.90126419 0 0 0 0 -2343531.7071944647 443756.95171039458 0 443756.95171039458 162830.9426642023 0 0 0 0 -224737094.76901293 178889131.77235794 0 178889131.77235794 -85901083.003097534 0 0 0 0 -164168635.19143486 293210575.85518074 0 293210575.85518074 -270848511.69096184 0 0 0 0 -109478972.73379159 222020357.85962105 0 222020357.85962105 -178183089.61793518 0 0 0 0 -110702253.78491497 215170148.82978725 0 215170148.82978725 -216311894.66775894 0 0 0 0 -42179846.675424576 206459422.03825378 0 206459422.03825378 -264858787.13590574 0 0 0 0 -113855288.41798019 191499538.77494907 0 191499538.77494907 -197573905.61487579 0 0 0 0 -115014853.8731451 193841700.6477747 0 193841700.6477747 -201668409.37042427 0 0 0 0 -105432536.3089323 158841440.87938881 0 158841440.87938881 -143855738.20266151 0 0 0 0 -128969621.25444198 142432425.3580296 0 142432425.3580296 -96779017.300079346 0 0 0 0 -117293581.67361069 93742725.976600647 0 93742725.976600647 -175625032.78090668 0 0 0 0 -84105550.004674911 106673106.03892517 0 106673106.03892517 -171272241.34825134 0 0 0 0 -116815109.93008995 39385919.886756897 0 39385919.886756897 -127363711.30996704 0 0 0 0 -55283054.93884182 44615980.715551376 0 44615980.715551376 -128304427.30277634 0 0 0 0 -24484574.004920006 66070460.881141663 0 66070460.881141663 -153287986.18821335 0 0 0 0 -17809928.58423996 128258217.40964127 0 128258217.40964127 -211969900.67352295 0 0 0 0 -65836783.37305069 141021980.09877205 0 141021980.09877205 -191543112.60978127 0 0 0 0 -76525160.425067902 159901511.77493668 0 159901511.77493668 -208187927.87875175 0 0 0 0 -116853860.74565887 153343238.97206068 0 153343238.97206068 -202977628.94958496 0 0 0 0 -96731834.835018158 202034150.57131767 0 202034150.57131767 -203971275.01945877 0 0 0 0 -126213441.84698677 177360227.79820442 0 177360227.79820442 -214650212.97003841 0 0 0 0 -124057880.05713463 182957843.24569988 0 182957843.24569988 -239791857.08467865 0 0 0 0 -174697936.78316307 164286363.15210915 0 164286363.15210915 -203337718.15625858 0 0 0 0 -143183763.58952999 112401778.14332867 0 112401778.14332867 -223752697.03531837 0 0 0 0 -157997040.47291279 125781370.16976547 0 125781370.16976547 -197247867.56658936 0 0 0 0 -191803953.60348511 36601220.642185211 0 36601220.642185211 -169557689.84850693 0 0 0 0 -201900020.84151268 93533349.713682175 0 93533349.713682175 -300183514.86446381 0 0 0 0 -267657989.71805859 119731757.30674076 0 119731757.30674076 -220000000.44242096 0 0 0 0 -307161940.97197342 112953741.15222549 0 112953741.15222549 -302797429.43317604 0 0 0 0 -148097619.76572418 141369996.39488173 0 141369996.39488173 -232308131.00445175 0 0 0 0 -150584186.64484024 159783971.91625118 0 159783971.91625118 -317735912.5461731 0 0 0 0 -93310689.092240334 105829192.82565784 0 105829192.82565784 -498379161.27269936 0 0 0 0 -251048285.9117918 -48362514.368288994 0 -48362514.368288994 -287256270.24330521 0 0 0 0 -66577398.56921196 16584103.465568542 0 16584103.465568542 -249784945.70787954 0 0 0 0 -250564320.18981266 20398551.447340965 0 20398551.447340965 -1068670423.6052017 0 0 0 0 -571473252.64885235 96326602.030478477 0 96326602.030478477 -393032484.31108856 0 0 0 0 -324109485.30117023 32130075.308460712 0 32130075.308460712 -384271219.14421463 0 0 0 0 -304733144.15389633 175901684.57769394 0 175901684.57769394 -313813306.36045361 0 0 0 0 -70680372.486223698 102040127.39913034 0 102040127.39913034 -152429941.37627792 0 0 0 0 -3084353.4291763306 67594890.348046303 0 67594890.348046303 -154075714.39365959 0 0 0 0 -98764360.084900379 153614604.06810474 0 153614604.06810474 -304717415.10954285 0 0 0 0 -69431683.664196014 97168146.573206902 0 97168146.573206902 -201308417.38023874 0 0 0 0 -49972934.39424181 26398310.927452087 0 26398310.927452087 -245444212.84033585 0 0 0 0 -11813653.074541092 -29694303.447038651 0 -29694303.447038651 -163085993.9611268 0 0 0 0 -21021144.309615135 -51630416.147057533 0 -51630416.147057533 -95354478.560256958 0 0 0 0 -10843587.221279621 -70760686.101465702 0 -70760686.101465702 -100209816.45954895 0 0 0 0 -89109568.038393497 -137205938.89879084 0 -137205938.89879084 -202726575.4270277 0 0 0 0 320607.54543777928 -194817.07470294856 0 -194817.07470294856 -240713.55886545405 0 0 0 0 -50321477.819752693 -30263787.36947155 0 -30263787.36947155 -95560092.212070465 0 0 0 0 -251193102.86974335 -224416977.78969193 0 -224416977.78969193 -104937179.7681427 0 0 0 0 -22415110.835960388 -71257833.895368576 0 -71257833.895368576 -89271643.462370396 0 0 0 0 913474.5823194026 -605068.18502438068 0 -605068.18502438068 -413346.54937169887 0 0 0 0 -407979725.74296284 -165371550.21991348 0 -165371550.21991348 -48672771.854364395 0 0 0 0 -223657.58878439321 100513.01153397979 0 100513.01153397979 -952813.24572457932 0 0 0 0 -662459972.89147568 -463611721.93271351 0 -463611721.93271351 -375562773.63287926 0 0 0 0 -157881403.80201912 -244987604.28316975 0 -244987604.28316975 -475916523.46829987 0 0 0 0 -78696161.264076233 -46999143.118103027 0 -46999143.118103027 -79193123.620756149 0 0 0 0 -197959210.85508752 -138333009.26378727 0 -138333009.26378727 -95294945.51540184 0 0 0 0 -193707192.19528008 -124365685.20593834 0 -124365685.20593834 -81572622.834838867 0 0 0 0 -633549.84668476868 449884.97613390861 0 449884.97613390861 -2490075.1161576137 0 0 0 0 54258884.359600663 42738840.723081172 0 42738840.723081172 -5262181.237074852 0 0 0 0 -2769312.8023647321 671655.63595607993 0 671655.63595607993 -1770702.9515540088 0 0 0 0 -3889186.7793045044 9938191.8465394974 0 9938191.8465394974 -74727035.205316782 0 0 0 0 58531492.021272659 26512461.914896965 0 26512461.914896965 -118067234.57380867 0 0 0 0 11326371.800136089 103293760.43253016 0 103293760.43253016 -853556654.81951141 0 0 0 0 56313029.311910152 -6679434.2505731583 0 -6679434.2505731583 -608643657.98093224 0 0 0 0 -122946944.52287292 -5040682.4211559296 0 -5040682.4211559296 -76518959.018857956 0 0 0 0 -29526013.882756948 316333695.01724678 0 316333695.01724678 -609074029.81373405 0 0 0 0 46361027.22536087 -58723725.788013458 0 -58723725.788013458 -825070184.99230003 0 0 0 0 -390732257.0954771 -167139545.2550993 0 -167139545.2550993 -539235242.87197876 0 0 0 0 -30803393.591077805 117622805.96257877 0 117622805.96257877 -676871571.09975433 0 0 0 0 -135262828.44677162 173440348.98961067 0 173440348.98961067 -478962117.5156002 0 0 0 0 -176675820.31345272 18360260.117248535 0 18360260.117248535 -314294484.90443039 0 0 0 0 -142726340.701334 7501491.7977313995 0 7501491.7977313995 -371618076.97240448 0 0 0 0 -169313918.30926648 -39816725.689942822 0 -39816725.689942822 -200031856.58487701 0 0 0 0 -167162478.53989848 26405975.170133382 0 26405975.170133382 -310418915.49530029 0 0 0 0 -185232660.96528721 -20556581.324273109 0 -20556581.324273109 -476491299.64079094 0 0 0 0 -251165958.6478653 765176.01912117004 0 765176.01912117004 -264411174.79404831 0 0 0 0 -336063467.55223846 13423303.558721542 0 13423303.558721542 -265697002.46568298 0 0 0 0 -72928624.729986906 -25591039.02966392 0 -25591039.02966392 -191371828.35747147 0 0 0 0 -86103837.800228477 -82074875.862974405 0 -82074875.862974405 -95558857.355424881 0 0 0 0 -129805364.09156704 -66293592.587697029 0 -66293592.587697029 -219841362.73640633 0 0 0 0 -234192637.14547157 70430512.909702301 0 70430512.909702301 -271010567.25567722 0 0 0 0 -351251883.0772028 149262407.54115963 0 149262407.54115963 -237562547.35600704 0 0 0 0 -190740973.13890743 276762182.61071205 0 276762182.61071205 -662351482.55669594 0 0 0 0 -137486932.2270627 -114969818.58109498 0 -114969818.58109498 -272104419.1614666 0 0 0 0 38146907.537576199 285894145.23728752 0 285894145.23728752 -495085637.21835041 0 0 0 0 -1383930.8529681256 79719.831741889939 0 79719.831741889939 -273587.66044614743 0 0 0 0 -269195973.52188206 297043354.37208486 0 297043354.37208486 -198528770.01164341 0 0 0 0 -132623278.59523582 47749629.19201088 0 47749629.19201088 85913852.122541904 0 0 0 0 -107835637.51633167 471689627.54211855 0 471689627.54211855 -275720117.01674652 0 0 0 0 -9826568.4437150955 612337298.68040323 0 612337298.68040323 -47708586.237882614 0 0 0 0 46289385.227486134 514749912.74780369 0 514749912.74780369 -628082211.71206665 0 0 0 0 129541198.55267948 36587916.18880558 0 36587916.18880558 -296202.92225265503 0 0 0 0 1117083.9906072379 2265858.0110322684 0 2265858.0110322684 -10564559.136791876 0 0 0 0 587834428.32607079 219744650.65157604 0 219744650.65157604 -133673818.91950512 0 0 0 0 371230.3597712242 630857.16541503742 0 630857.16541503742 -3808804.5893297177 0 0 0 0 -831493756.60214829 -1044492575.8455672 0 -1044492575.8455672 -744071994.36627388 0 0 0 0 -185954396.0687027 -179199305.22256517 0 -179199305.22256517 -193928799.4774394 0 0 0 0 31534487.410101891 -258891200.69400167 0 -258891200.69400167 -297936692.32488155 0 0 0 0 -9436938.1644005962 10243898.010756681 0 10243898.010756681 -9699780.2761506159 0 0 0 0 28213938.060961008 -204732066.98899451 0 -204732066.98899451 -507836778.58676291 0 0 0 0 -48803677.720236778 -246607876.20073414 0 -246607876.20073414 -286467293.59420156 0 0 0 0 1637731.0627596383 4557594.9992066333 0 4557594.9992066333 -15591780.330997992 0 0 0 0 101671171.97205162 52062643.390075684 0 52062643.390075684 -139086780.34863424 0 0 0 0 -17900874.37830162 26352879.462476254 0 26352879.462476254 -401195017.89686203 0 0 0 0 5554263.9515404701 -59134854.657569885 0 -59134854.657569885 -158295534.73995209 0 0 0 0 -26421936.428792953 127704488.94073868 0 127704488.94073868 894808.80879402161 0 0 0 0 404472468.48176908 66113413.845914841 0 66113413.845914841 -67919367.063631058 0 0 0 0 309139336.71019626 -74667387.762231827 0 -74667387.762231827 -123517363.34290314 0 0 0 0 103010345.64259815 -103471548.86382484 0 -103471548.86382484 -206985835.59415412 0 0 0 0 172654165.44254684 -1748892.0557823181 0 -1748892.0557823181 -88702743.09765625 0 0 0 0 113637853.18724108 67323927.253265381 0 67323927.253265381 -185070315.82663345 0 0 0 0 143645432.54774094 -16069232.231292725 0 -16069232.231292725 -1482306.6575398445 0 0 0 0 246427919.38156509 258399626.76854324 0 258399626.76854324 49435700.887767792 0 0 0 0 126853770.94879913 144299762.68292809 0 144299762.68292809 11282459.440960884 0 0 0 0 -42059241.014160156 253887921.31290245 0 253887921.31290245 -11510385.357601166 0 0 0 0 107808272.25317764 207920485.5577755 0 207920485.5577755 -190236772.75465775 0 0 0 0 30182870.606728554 249903748.01424885 0 249903748.01424885 -19456632.571716309 0 0 0 0 50011712.583473206 208429053.41353035 0 208429053.41353035 -43491937.538063049 0 0 0 0 203471863.12575912 275056009.02647018 0 275056009.02647018 -54182129.680877686 0 0 0 0 59252609.691410065 200286654.54666138 0 200286654.54666138 -39540336.829408646 0 0 0 0 -36311468.605098724 148518326.58398438 0 148518326.58398438 -10434376.159284353 0 0 0 0 -39139178.908638 243812065.82670403 0 243812065.82670403 -9004324.4946746826 0 0 0 0 10058502.906917572 187918005.27189636 0 187918005.27189636 -7662763.7742233276 0 0 0 0 -33808697.607215881 129742402.31175995 0 129742402.31175995 70111736.105099678 0 0 0 0 -88692533.314144135 193553960.05799294 0 193553960.05799294 63413426.234237671 0 0 0 0 -82235938.809444427 206507076.8039608 0 206507076.8039608 30977723.869377136 0 0 0 0 -71585068.005144119 325765067.67652798 0 325765067.67652798 -186427534.36436462 0 0 0 0 -226578571.31911469 230137637.37905693 0 230137637.37905693 60718724.224773407 0 0 0 0 -83879073.699489057 75917680.666460246 0 75917680.666460246 191140231.50560379 0 0 0 0 -82914222.985294342 379476914.06065559 0 379476914.06065559 103202927.67337966 0 0 0 0 159027711.77630234 64776338.391962051 0 64776338.391962051 65160512.215297699 0 0 0 0 174528431.72843933 197789863.47573853 0 197789863.47573853 116963788.39532471 0 0 0 0 -239780616.7088623 -37871364.490679741 0 -37871364.490679741 -329830824.67039967 0 0 0 0 -362580318.61203194 -157437476.57133865 0 -157437476.57133865 -325290427.64989281 0 0 0 0 -116899957.32549667 -153925882.22323012 0 -153925882.22323012 -460799960.08352089 0 0 0 0 -151075130.21728706 -10206831.232136726 0 -10206831.232136726 37757117.68009758 0 0 0 0 -143732161.22091675 149635590.54282093 0 149635590.54282093 -188044975.53760052 0 0 0 0 149666575.29784775 -47074485.485972404 0 -47074485.485972404 7394720.278181076 0 0 0 0 -156559940.3512845 -120290370.09989035 0 -120290370.09989035 111633591.38315964 0 0 0 0 -2060958.2322610237 1973169.6660986189 0 1973169.6660986189 3876582.6440476831 0 0 0 0 675651021.65361786 1029811083.2262473 0 1029811083.2262473 509171906.50716734 0 0 0 0 -3447430.6344407201 3295682.1297678575 0 3295682.1297678575 -3087476.9017393235 0 0 0 0 -39731862.299548149 -900800237.18194079 0 -900800237.18194079 -1592056734.4259586 0 0 0 0 1889073900.3790894 1153636270.9745541 0 1153636270.9745541 -1586075307.5544491 0 0 0 0 -2587308636.1609879 301999138.58655167 0 301999138.58655167 1176352010.2471619 0 0 0 0 -83580030.38067627 422080994.92046642 0 422080994.92046642 -431426529.26443481 0 0 0 0 -39447387.110401154 86439032.44320488 0 86439032.44320488 -1439473307.9994469 0 0 0 0 -38402781.365212053 311656608.34297293 0 311656608.34297293 -410775349.96217728 0 0 0 0 13367044.329639435 190526346.38540459 0 190526346.38540459 -255925609.03773308 0 0 0 0 -166844233.617342 -509170914.57783079 0 -509170914.57783079 -1040361607.5653038 0 0 0 0 -1233271383.9574661 -1557899551.3343048 0 -1557899551.3343048 -1820130012.0594702 0 0 0 0 -435868231.71735954 -289258378.74739361 0 -289258378.74739361 183726349.44479561 0 0 0 0 -168096.40083920769 533707.72922158742 0 533707.72922158742 -728992.30211638846 0 0 0 0 -128147141.44639587 -224349288.40687847 0 -224349288.40687847 134702682.87487793 0 0 0 0 -288373273.05198669 -283197866.98249149 0 -283197866.98249149 175729580.85224295 0 0 0 0 110320560.25958633 -27547724.282566071 0 -27547724.282566071 -37717472.981054306 0 0 0 0 128238911.78893471 -109092567.49293804 0 -109092567.49293804 -202126064.79142952 0 0 0 0 267623574.23038673 -27390439.478737831 0 -27390439.478737831 -221574865.97119904 0 0 0 0 -40801052.751876831 -170288624.3296032 0 -170288624.3296032 -147931324.68393898 0 0 0 0 24945400.931470394 230263357.85806942 0 230263357.85806942 -194031971.53055954 0 0 0 0 212311274.80643272 -61037137.739089966 0 -61037137.739089966 -519733786.71706963 0 0 0 0 290144142.55306721 -42243285.779971123 0 -42243285.779971123 -137687918.50960922 0 0 0 0 220984622.93089294 -4024165.2233886719 0 -4024165.2233886719 -156019253.7881813 0 0 0 0 -3054323.815618515 10320997.234491348 0 10320997.234491348 -29066098.906200409 0 0 0 0 -1906154.9882526398 498402.56225013733 0 498402.56225013733 -28595550.868330002 0 0 0 0 -46556323.332035065 -115080556.36345208 0 -115080556.36345208 -33761570.556123495 0 0 0 0 -14848394.308004379 30089991.02368021 0 30089991.02368021 30890747.889882565 0 0 0 0 335590.562084198 15325163.500447273 0 15325163.500447273 -22292865.004034996 0 0 0 0 -3618322.7363243103 -6280634.668497324 0 -6280634.668497324 22023022.326983452 0 0 0 0 -15906538.798797607 -14064114.210524559 0 -14064114.210524559 31280097.235052973 0 0 0 0 1974127.6894388981 -6766667.0224547302 0 -6766667.0224547302 -16577805.904148944 0 0 0 0 -465919.66053390503 10531623.177524567 0 10531623.177524567 -36331650.665096283 0 0 0 0 19525742.796205521 25937641.807258368 0 25937641.807258368 -48400765.543312371 0 0 0 0 67049992.647071838 -56413239.45662117 0 -56413239.45662117 -34993627.019926071 0 0 0 0 473937.7055779621 -19201.709372318815 0 -19201.709372318815 -1339532.3240941213 0 0 0 0 -736910.13028352195 465788.49874594435 0 465788.49874594435 -5287190.1051663999 0 0 0 0 -78182781.724140167 -67294525.715510368 0 -67294525.715510368 90834144.976951599 0 0 0 0 -4259078.4829226434 7591992.8214657679 0 7591992.8214657679 -736478.91446766932 0 0 0 0 -5982303.5257120132 8513147.0856291056 0 8513147.0856291056 1040380.7693805695 0 0 0 0 14933385.706926346 28198292.798464775 0 28198292.798464775 46449305.12525177 0 0 0 0 -4027700.5844306946 -1849476.3715867996 0 -1849476.3715867996 25271043.322218895 0 0 0 0 -27382447.162876129 -6995399.34126091 0 -6995399.34126091 24895947.084721565 0 0 0 0 7428298.9571685791 -32755189.724658966 0 -32755189.724658966 28114841.834965706 0 0 0 0 10630090.34103775 16487231.171907902 0 16487231.171907902 31376512.267176628 0 0 0 0 -76698079.881163359 28083624.228365719 0 28083624.228365719 33866419.409017563 0 0 0 0 -66362324.794435263 -47291229.411362112 0 -47291229.411362112 28727493.039511681 0 0 0 0 242777.18796250364 720798.65684146713 0 720798.65684146713 -2336661.5532059101 0 0 0 0 -87244076.4120121 357619873.1536088 0 357619873.1536088 -447095165.07888508 0 0 0 0 -223079883.14357376 144141834.8579998 0 144141834.8579998 -100809645.23281431 0 0 0 0 274646208.2454567 122939588.0981369 0 122939588.0981369 -332943785.60545319 0 0 0 0 475136751.70761299 169585485.17478085 0 169585485.17478085 -695036175.03168869 0 0 0 0 -650764.89214920951 -1078123.1416745824 0 -1078123.1416745824 -982269.05861986056 0 0 0 0 -78363165.345378876 -182133467.47596383 0 -182133467.47596383 95928068.901233435 0 0 0 0 317096694.80561638 37302561.548846245 0 37302561.548846245 -789391225.35207939 0 0 0 0 -369265928.76663589 -1005762704.4275751 0 -1005762704.4275751 -457106807.57987881 0 0 0 0 -141598326.22464943 -174299462.5601418 0 -174299462.5601418 421257935.66071987 0 0 0 0 11965181.968456268 -145876466.96739674 0 -145876466.96739674 -335446179.10258955 0 0 0 0 21544013.331150055 -46741810.534795761 0 -46741810.534795761 -34891352.791712761 0 0 0 0 -24054860.85360527 -8254949.6871848106 0 -8254949.6871848106 -30210728.507662296 0 0 0 0 2659705.9583958583 -820400.14423906803 0 -820400.14423906803 -4372746.4554717336 0 0 0 0 7036488.178355664 218941955.22507167 0 218941955.22507167 349485786.64548588 0 0 0 0 -4262224.0114555359 5517843.8939247131 0 5517843.8939247131 -23881937.591281891 0 0 0 0 949550.37460030545 7797808.8137854934 0 7797808.8137854934 -20121085.955080356 0 0 0 0 48744.854736328125 3681200.0174655914 0 3681200.0174655914 -30226344.386226654 0 0 0 0 1753824.4479915909 5936655.8133939169 0 5936655.8133939169 -19808759.619130891 0 0 0 0 -6372349.423974514 70319740.395796299 0 70319740.395796299 -190677187.12770081 0 0 0 0 1870464.2063598633 7186411.1514253616 0 7186411.1514253616 -23861318.602161407 0 0 0 0 -1041118.4682175119 3598598.3084204737 0 3598598.3084204737 872699.99307712726 0 0 0 0 207409864.18075466 -217490263.0283258 0 -217490263.0283258 -1427419669.8468637 0 0 0 0 2169927.8957080841 1624691.0489883423 0 1624691.0489883423 -18521566.372205734 0 0 0 0 9805521.4646044113 5287836.5364256501 0 5287836.5364256501 -19584996.008649476 0 0 0 0 -8564.5561321973801 238343.59423174616 0 238343.59423174616 -1149767.6362592448 0 0 0 0 3491901.3303565979 6726867.3196277618 0 6726867.3196277618 -23702933.471969604 0 0 0 0 238892410.61513424 95478305.306959152 0 95478305.306959152 297548529.6612587 0 0 0 0 286655248.12840998 -38587141.828214407 0 -38587141.828214407 -5048291.6330947876 0 0 0 0 -354876029.22146797 869382701.40696144 0 869382701.40696144 -174503211.36807442 0 0 0 0 -62062903.10545826 -482071512.45523262 0 -482071512.45523262 625711784.80964184 0 0 0 0 31209428.497056484 -391172976.59102345 0 -391172976.59102345 -350280819.49604034 0 0 0 0 32201560.2015028 -280132840.66565132 0 -280132840.66565132 56358263.59923172 0 0 0 0 65656035.084837914 -113025696.27924538 0 -113025696.27924538 -7980956.4453296661 0 0 0 0 65668928.992822811 -114295204.40978719 0 -114295204.40978719 63565278.319961548 0 0 0 0 144239974.34556007 -102074215.52857018 0 -102074215.52857018 -86905398.39028129 0 0 0 0 675108.84090232849 -134903009.79778862 0 -134903009.79778862 -5802113.3464508057 0 0 0 0 77099085.22354269 -41791100.335495949 0 -41791100.335495949 -39240127.465461731 0 0 0 0 252877749.16268015 -16982813.101160049 0 -16982813.101160049 -38010160.440757751 0 0 0 0 217160474.6541028 -28816818.644922256 0 -28816818.644922256 -94032374.344671726 0 0 0 0 243526188.77349901 -71592109.35548377 0 -71592109.35548377 -25394076.429935455 0 0 0 0 1830576.5388233927 8362278.075128492 0 8362278.075128492 -18600473.460796259 0 0 0 0 133872122.07994246 -63492154.385001183 0 -63492154.385001183 20356787.561447144 0 0 0 0 -986744.47440349683 9996918.7687975131 0 9996918.7687975131 -3384314.3552031061 0 0 0 0 62019834.221500397 96996992.899908066 0 96996992.899908066 11401343.556113243 0 0 0 0 -20995900.672365189 16497357.581715584 0 16497357.581715584 76963181.61763382 0 0 0 0 3535633.8816146851 4801119.4796774387 0 4801119.4796774387 -1198411.0629777908 0 0 0 0 -710422.36709475145 4242766.8274720721 0 4242766.8274720721 -4856383.7011762103 0 0 0 0 31439974.805080414 -9043138.9488830566 0 -9043138.9488830566 5568090.6349811554 0 0 0 0 1291767.3842075267 2822014.6831610724 0 2822014.6831610724 -2779352.6191245411 0 0 0 0 138586090.32217598 15173139.187086105 0 15173139.187086105 -94437246.746177673 0 0 0 0 -229437414.98069382 125718904.44681358 0 125718904.44681358 450238509.74438286 0 0 0 0 208248240.29012966 -100710830.33909416 0 -100710830.33909416 38024402.292732239 0 0 0 0 199973465.11206055 149638787.11814117 0 149638787.11814117 -277440194.00066948 0 0 0 0 170466754.74580669 -174813413.93555737 0 -174813413.93555737 -115534629.10858631 0 0 0 0 169797937.91835403 -279877397.38082695 0 -279877397.38082695 -732756073.89675331 0 0 0 0 125719638.49243069 -25201467.999937057 0 -25201467.999937057 -218679006.32120895 0 0 0 0 -156198681.04213667 -235855197.43872118 0 -235855197.43872118 -113748722.22584534 0 0 0 0 -296536675.94409752 -439916232.76719785 0 -439916232.76719785 -373914901.32765484 0 0 0 0 -16269427.291662216 -97365912.911196232 0 -97365912.911196232 -211242552.02377701 0 0 0 0 219577253.81179142 -127886000.26256561 0 -127886000.26256561 -313923629.21766472 0 0 0 0 221919229.33231163 -227286118.64388847 0 -227286118.64388847 132196847.13779688 0 0 0 0 281475.50235822517 150408.74860772304 0 150408.74860772304 -549339.74868272897 0 0 0 0 -237313762.48892307 -406401874.37414074 0 -406401874.37414074 -642377282.92596436 0 0 0 0 315515.20453901321 -282941.15778298583 0 -282941.15778298583 -2171050.3961009532 0 0 0 0 -222336878.02555111 340113193.45390373 0 340113193.45390373 -449783539.86751175 0 0 0 0 277890552.16923499 -931956055.66097593 0 -931956055.66097593 -550724183.65348816 0 0 0 0 306831453.5115118 -10056497.754894257 0 -10056497.754894257 -1310041186.7441759 0 0 0 0 201745579.53565359 153361824.00876558 0 153361824.00876558 -1113740786.7036171 0 0 0 0 135990216.86298609 -141363879.96392822 0 -141363879.96392822 -273508242.08113289 0 0 0 0 213253022.36637115 -184498454.57846451 0 -184498454.57846451 -320786163.84295988 0 0 0 0 49935979.564365387 8246783.4614658356 0 8246783.4614658356 -256069710.09952974 0 0 0 0 -66734245.946100712 36383391.490716457 0 36383391.490716457 -31793890.243040085 0 0 0 0 574095.73750524083 241459.27210307308 0 241459.27210307308 -2866693.6033202065 0 0 0 0 -238537.64252853394 326713.38383865356 0 326713.38383865356 -4000196.0563907623 0 0 0 0 1649879.353304863 388379.86293315887 0 388379.86293315887 -5180178.3168315887 0 0 0 0 2953923.0750998789 2670424.8461798239 0 2670424.8461798239 -7026981.7453630036 0 0 0 0 2013641.277589798 346796.94526147842 0 346796.94526147842 -5129393.4265155792 0 0 0 0 158339204.15261555 67264225.663980722 0 67264225.663980722 21772282.042190075 0 0 0 0 3531242.7606277466 -936351.48207759857 0 -936351.48207759857 -4613416.5542171597 0 0 0 0 1734237.1782810851 -172528.48359397473 0 -172528.48359397473 -7145418.2230970738 0 0 0 0 1172347.0334272122 -1844108.5500610888 0 -1844108.5500610888 -4801587.8050617268 0 0 0 0 258431539.48275703 -40643935.341361895 0 -40643935.341361895 -132328179.91080666 0 0 0 0 2201588.2477407455 1030595.0877285004 0 1030595.0877285004 -4470762.0801467896 0 0 0 0 38785979.473093033 -63480966.849529266 0 -63480966.849529266 -186392061.24029827 0 0 0 0 185067031.29589653 69175795.108439445 0 69175795.108439445 -330926046.88622141 0 0 0 0 40743768.763343096 157876114.88143384 0 157876114.88143384 -86759975.64440155 0 0 0 0 192665701.38360023 5175601.6362695694 0 5175601.6362695694 -17510091.827184677 0 0 0 0 33683796.180207372 -159318705.74202719 0 -159318705.74202719 -793355694.8460083 0 0 0 0 -138754063.39043808 337091901.98176861 0 337091901.98176861 -585847973.24718761 0 0 0 0 11718486.200386047 62052306.028333664 0 62052306.028333664 -188403736.23901081 0 0 0 0 -196869663.96344185 44360817.469260216 0 44360817.469260216 118290012.80064011 0 0 0 0 -61060947.866177559 184737061.891572 0 184737061.891572 -46680170.22032547 0 0 0 0 122777086.24823761 70882450.624562263 0 70882450.624562263 15328813.527673006 0 0 0 0 -13233658.609839439 -7277028.6728503704 0 -7277028.6728503704 152660390.97178745 0 0 0 0 84843857.443325043 155583442.43864942 0 155583442.43864942 70617895.142534256 0 0 0 0 2627768.6784076691 -47582180.074540973 0 -47582180.074540973 149848862.19659805 0 0 0 0 -98573928.95160675 -61595151.895112991 0 -61595151.895112991 237156000.84149361 0 0 0 0 140327054.64688492 109163675.13553524 0 109163675.13553524 -70470637.41768837 0 0 0 0 131486169.58740234 132731256.09740639 0 132731256.09740639 -82241468.304525852 0 0 0 0 71455892.034852982 125724465.77696609 0 125724465.77696609 55167659.003881693 0 0 0 0 120665556.24891424 124582638.34358323 0 124582638.34358323 55161768.697585106 0 0 0 0 -27217007.310493469 94446528.476330757 0 94446528.476330757 204402543.99661636 0 0 0 0 2068229.910071895 1926262.3361010868 0 1926262.3361010868 -7878344.1320210863 0 0 0 0 75689781.174139977 88670356.144905806 0 88670356.144905806 59616936.42389679 0 0 0 0 244527443.54751968 243701289.49274254 0 243701289.49274254 263470716.94053459 0 0 0 0 77930941.053575516 163364388.38384199 0 163364388.38384199 225343468.17663765 0 0 0 0 118777568.13634777 208378955.5105499 0 208378955.5105499 346162242.62110567 0 0 0 0 193924240.57504272 90736599.333551884 0 90736599.333551884 108806589.51601028 0 0 0 0 158562.56687845429 265713.3533165371 0 265713.3533165371 -212009.8200548552 0 0 0 0 201997617.19178009 -211173390.05005401 0 -211173390.05005401 273625795.22881752 0 0 0 0 869075.21652636584 308613.8477947705 0 308613.8477947705 -1282901.4145905359 0 0 0 0 127012751.40650749 -193207146.90790522 0 -193207146.90790522 296725201.42735815 0 0 0 0 370816082.9490242 -22997554.763987303 0 -22997554.763987303 144246708.21968693 0 0 0 0 352963815.03286743 184837213.16030765 0 184837213.16030765 164115905.51876402 0 0 0 0 -171939570.4502964 -156997030.02446789 0 -156997030.02446789 417878495.30532646 0 0 0 0 -454672.81956782565 -522147.28277207771 0 -522147.28277207771 -83872.542869924568 0 0 0 0 -128758273.97684479 158527573.40127468 0 158527573.40127468 -46669126.8306088 0 0 0 0 350986563.41857338 43172920.833011106 0 43172920.833011106 -107082744.39056897 0 0 0 0 155864.55025899503 -2737694.4148802967 0 -2737694.4148802967 -3900169.4056905829 0 0 0 0 6738582.9634914398 -1234182.2369632721 0 -1234182.2369632721 -4140050.512140274 0 0 0 0 216439913.57618761 -159237245.76552755 0 -159237245.76552755 -15778053.477751791 0 0 0 0 58301269.105855942 202563754.16820049 0 202563754.16820049 81365431.636144638 0 0 0 0 53239347.11401844 146930867.80199814 0 146930867.80199814 112420671.53798676 0 0 0 0 264703029.26372433 111351153.0160265 0 111351153.0160265 24540710.980852127 0 0 0 0 1694270.3097037179 -1541340.5929136141 0 -1541340.5929136141 -7958995.7826733142 0 0 0 0 4817202.2413806915 -1782682.2061471939 0 -1782682.2061471939 -2523659.3215894699 0 0 0 0 111739386.29884529 -115113025.43464977 0 -115113025.43464977 -299759500.65205395 0 0 0 0 45696767.113018036 7638431.4851523638 0 7638431.4851523638 -204270752.36155486 0 0 0 0 -62912218.438533783 -178904389.74326086 0 -178904389.74326086 -271269942.27420473 0 0 0 0 -7004460.1700105388 9124992.4751423001 0 9124992.4751423001 -1729207.2928413325 0 0 0 0 26538577.446586609 -138760658.69465601 0 -138760658.69465601 -177591388.48241758 0 0 0 0 -34433577.993179321 -38800306.088458538 0 -38800306.088458538 -242963439.50945175 0 0 0 0 -103296879.4645195 -52794181.726037025 0 -52794181.726037025 -222120084.4051609 0 0 0 0 -85115529.220153809 -221825040.56411934 0 -221825040.56411934 -203997430.00777414 0 0 0 0 -248298465.01559639 -170727547.42456138 0 -170727547.42456138 -38934077.125106335 0 0 0 0 -104760827.20369184 -16966814.864420447 0 -16966814.864420447 44164691.253731728 0 0 0 0 -116515551.3723526 133249872.12748958 0 133249872.12748958 -141453280.67889622 0 0 0 0 -1172858.2766039371 391777.98285124201 0 391777.98285124201 -2916588.4634424383 0 0 0 0 -81204100.636030197 -65723507.010387063 0 -65723507.010387063 -154874418.87499005 0 0 0 0 -11450888.304968834 60671379.306497797 0 60671379.306497797 -253338382.6051333 0 0 0 0 252671458.77230549 -402290114.11682397 0 -402290114.11682397 -313968603.21099341 0 0 0 0 -1328661.002939296 -2172255.5982298777 0 -2172255.5982298777 -1753189.6728165131 0 0 0 0 -129257359.12409687 177479622.04977512 0 177479622.04977512 137566937.30846453 0 0 0 0 -231936320.32325935 -95367243.840338409 0 -95367243.840338409 234282836.73730803 0 0 0 0 358712457.58847094 428562540.5749023 0 428562540.5749023 -604064998.00983334 0 0 0 0 -455361326.56276321 -659344437.4358263 0 -659344437.4358263 48064450.496036053 0 0 0 0 -706133316.06193161 173607083.5830369 0 173607083.5830369 11244666.861548424 0 0 0 0 367251655.57965088 -573922540.55322099 0 -573922540.55322099 -106005772.85210419 0 0 0 0 -33476620.342916489 9518594.4154839516 0 9518594.4154839516 165545380.55571556 0 0 0 0 -88429094.760616302 -74755086.39251852 0 -74755086.39251852 36809720.230917215 0 0 0 0 -99022986.837734222 -68004339.788867474 0 -68004339.788867474 233055793.3670392 0 0 0 0 -193866104.74388504 -12650891.45938313 0 -12650891.45938313 333076049.35895699 0 0 0 0 205227987.82459545 45801948.008652657 0 45801948.008652657 -66600703.042847395 0 0 0 0 -1146984.4668033579 -1607090.3018081468 0 -1607090.3018081468 -860255.91656476865 0 0 0 0 -44679372.467365265 64049401.589245856 0 64049401.589245856 -22487577.859350026 0 0 0 0 -38833834.006109238 114980565.04930013 0 114980565.04930013 -76134768.871963501 0 0 0 0 -17022280.581504822 80340474.311750978 0 80340474.311750978 -99379499.998327613 0 0 0 0 -116996657.20702362 213411077.6058017 0 213411077.6058017 90350671.407851726 0 0 0 0 -230204877.20418024 -21801035.130086839 0 -21801035.130086839 -37143156.249514163 0 0 0 0 -64175970.827320099 69936165.763300657 0 69936165.763300657 -18967462.957823366 0 0 0 0 -73582899.443255424 21200942.041730508 0 21200942.041730508 -130181446.39031148 0 0 0 0 90112584.661875725 4956121.905580461 0 4956121.905580461 -151332764.9112711 0 0 0 0 -48834.885021047667 141114.31647343095 0 141114.31647343095 81592.844553970499 0 0 0 0 11408270.060219765 -7214826.1559117436 0 -7214826.1559117436 -121932710.57956767 0 0 0 0 15592732.843988419 -30915051.169248343 0 -30915051.169248343 -90632186.566689014 0 0 0 0 86761324.802266598 134871358.51297936 0 134871358.51297936 3674247.0166877508 0 0 0 0 74379188.586649895 -56384457.567920357 0 -56384457.567920357 -278363008.19405031 0 0 0 0 33232288.406110764 21593390.293844879 0 21593390.293844879 -140315403.30729806 0 0 0 0 -95695974.944471359 125148160.80398393 0 125148160.80398393 -289500.81465280056 0 0 0 0 -139460.45883354079 306538.50170720159 0 306538.50170720159 178938.33300820796 0 0 0 0 -30933942.888786316 94036827.489791155 0 94036827.489791155 -103302556.5675686 0 0 0 0 56949623.995268106 144032944.78921765 0 144032944.78921765 -175809997.39597845 0 0 0 0 -26815800.855224609 49735333.640206873 0 49735333.640206873 -125974575.88025653 0 0 0 0 -22992978.168165207 67272953.850379378 0 67272953.850379378 -148522104.93619299 0 0 0 0 -50897484.946857452 57864189.823151708 0 57864189.823151708 -72928858.678836167 0 0 0 0 -106858197.75429392 89143076.985279053 0 89143076.985279053 -87626567.738344789 0 0 0 0 -296934.96189708542 273303.69066265854 0 273303.69066265854 196957.89488233428 0 0 0 0 -117283349.69029975 6033643.9163858443 0 6033643.9163858443 -113383661.86676693 0 0 0 0 -69725380.513895988 -285430851.51125908 0 -285430851.51125908 -411334309.68686438 0 0 0 0 -206854822.47619438 -244115756.24238753 0 -244115756.24238753 -196371509.04191685 0 0 0 0 -152713047.73604774 -128928875.33388388 0 -128928875.33388388 -61917723.266504526 0 0 0 0 -275746786.973423 -241970094.31878448 0 -241970094.31878448 226288083.29374111 0 0 0 0 -166362636.30756378 -130401845.70954168 0 -130401845.70954168 -248501867.65989447 0 0 0 0 -132845960.00609207 60474879.873841882 0 60474879.873841882 -3169191.698557429 0 0 0 0 47099307.819097519 200061234.62340128 0 200061234.62340128 96335239.54586482 0 0 0 0 60500404.131742477 274292218.57234764 0 274292218.57234764 63330119.734088182 0 0 0 0 -44540998.209007561 55935823.632471047 0 55935823.632471047 207355178.65762067 0 0 0 0 263173230.13777161 -66934206.556657314 0 -66934206.556657314 49760096.848950297 0 0 0 0 156980.07799965702 2766802.4888984542 0 2766802.4888984542 -3343730.9097129228 0 0 0 0 274251352.79888439 -138245489.70675868 0 -138245489.70675868 -119208104.47167683 0 0 0 0 100126325.95551109 -61091817.629215658 0 -61091817.629215658 -50735065.89409852 0 0 0 0 208213122.74059677 87676834.158683777 0 87676834.158683777 139984619.70159006 0 0 0 0 5454.4588206931949 -862298.6444867542 0 -862298.6444867542 164330.569136317 0 0 0 0 -194477022.44305414 -573656413.74110866 0 -573656413.74110866 -1549248576.7080288 0 0 0 0 -205546042.64877129 -77891428.56029892 0 -77891428.56029892 474104561.64779854 0 0 0 0 -231522404.74501324 -93905199.970246315 0 -93905199.970246315 137553933.32917023 0 0 0 0 881822.93914823257 -634497.65306471521 0 -634497.65306471521 -5402300.9280988695 0 0 0 0 11373384.930178285 -6351848.9119127393 0 -6351848.9119127393 -1103056.7559585571 0 0 0 0 187914.73593816315 -5106124.4817882534 0 -5106124.4817882534 -4452011.3274435224 0 0 0 0 800821184.59429777 69087390.395127028 0 69087390.395127028 -621718035.51907921 0 0 0 0 57978807.998587608 -177020077.23630041 0 -177020077.23630041 30625723.958144486 0 0 0 0 97685357.245952606 143462137.52539134 0 143462137.52539134 -192442613.7706455 0 0 0 0 274052889.24396706 8124372.732455492 0 8124372.732455492 -152082244.45520139 0 0 0 0 -38091020.674171448 12498178.612965822 0 12498178.612965822 -243452429.59990835 0 0 0 0 -35431287.793002129 114951762.57602233 0 114951762.57602233 -141359629.56936896 0 0 0 0 -223143.92973412201 119703.37258020579 0 119703.37258020579 109470.31718632166 0 0 0 0 -59094207.251968384 138517929.22553957 0 138517929.22553957 -82242901.585556567 0 0 0 0 -167835322.92188168 107429045.64582556 0 107429045.64582556 -59684393.56628108 0 0 0 0 -96805837.35877037 75357092.775672793 0 75357092.775672793 -33585802.944007635 0 0 0 0 68249854.400993824 41704816.995628566 0 41704816.995628566 -748193273.03295612 0 0 0 0 59554477.344118118 29643475.02999258 0 29643475.02999258 -241856331.18672764 0 0 0 0 -64665281.735376358 -15647940.635390639 0 -15647940.635390639 -174738706.18502247 0 0 0 0 -219864.6654586792 -167016973.66883183 0 -167016973.66883183 -479009777.58766508 0 0 0 0 -5633575.478140831 -161737022.07788551 0 -161737022.07788551 -284699526.02392244 0 0 0 0 57914534.28988266 -243154670.53710055 0 -243154670.53710055 -390342276.26753378 0 0 0 0 57060821.014932632 -298692985.55307376 0 -298692985.55307376 -606382875.60073614 0 0 0 0 182839011.34596825 -203893857.70759386 0 -203893857.70759386 -535213910.32042086 0 0 0 0 -184996437.83385658 -867622698.99736941 0 -867622698.99736941 -966189946.65002847 0 0 0 0 200961877.46294093 -256968980.45771295 0 -256968980.45771295 -1557173415.8407702 0 0 0 0 -382672301.88227826 169128620.77043733 0 169128620.77043733 -86920289.384588957 0 0 0 0 -71907044.546800613 203419151.89629239 0 203419151.89629239 -81515607.459360361 0 0 0 0 -672547.82410066621 -2599170.1953566475 0 -2599170.1953566475 -2848203.0211284654 0 0 0 0 9737786.5430870056 396609539.27736837 0 396609539.27736837 -1024446224.9005289 0 0 0 0 -580621158.53070354 -947814260.7871027 0 -947814260.7871027 -441254736.51270103 0 0 0 0 -556347071.33377862 -999993425.11446214 0 -999993425.11446214 -346017256.88094425 0 0 0 0 219733013.12281799 659979998.83467388 0 659979998.83467388 -1157757685.06511 0 0 0 0 -39251386.030869007 49765501.229288101 0 49765501.229288101 -34179932.006000519 0 0 0 0 -676926.5923266859 -2812139.2791847195 0 -2812139.2791847195 -6804974.4517581947 0 0 0 0 642852521.82850504 152177601.10519814 0 152177601.10519814 -595393684.39371014 0 0 0 0 -99085703.219773769 21323939.635504723 0 21323939.635504723 -26178728.913795471 0 0 0 0 -188701909.9180603 112977990.72414017 0 112977990.72414017 -35114702.233638763 0 0 0 0 -56189991.871097565 53878428.930856705 0 53878428.930856705 -32227802.814944267 0 0 0 0 -110811967.22512054 90226180.412218094 0 90226180.412218094 -56386374.338665009 0 0 0 0 126314588.3116498 -216206870.01984024 0 -216206870.01984024 -397254435.35537386 0 0 0 0 -45390273.434200048 185584668.48764086 0 185584668.48764086 -244414520.42419052 0 0 0 0 -753295460.02456379 -1031839364.2866526 0 -1031839364.2866526 -215781699.64215946 0 0 0 0 -236836.63646578006 -1675470.2718599227 0 -1675470.2718599227 -2807024.39641154 0 0 0 0 -165686232.14217997 53537619.527567863 0 53537619.527567863 -21174751.923567772 0 0 0 0 -360769841.22100735 251325777.99123955 0 251325777.99123955 -207884706.26896763 0 0 0 0 64362326.822990358 -108276432.25353456 0 -108276432.25353456 -61656387.349266052 0 0 0 0 75273162.982512951 38708306.308131218 0 38708306.308131218 -179607013.5651226 0 0 0 0 135550974.49373752 106639165.70385265 0 106639165.70385265 -117853704.82267189 0 0 0 0 -56188575.811333179 54536710.348368645 0 54536710.348368645 -87524612.139454842 0 0 0 0 64831488.477980137 90284677.277845383 0 90284677.277845383 -110362519.9016304 0 0 0 0 51427945.058281898 58955224.244818687 0 58955224.244818687 -99251399.486514568 0 0 0 0 132695359.9724187 -135490351.41289234 0 -135490351.41289234 -126315172.39434624 0 0 0 0 45933411.511955947 74045762.544734001 0 74045762.544734001 -25741701.332735062 0 0 0 0 83858135.211998701 -214106574.5713892 0 -214106574.5713892 90577258.705936432 0 0 0 0 80685636.949507594 5695900.1546533704 0 5695900.1546533704 -2973978.7623825073 0 0 0 0 93261785.674271226 -84908116.94443512 0 -84908116.94443512 51310369.780128479 0 0 0 0 6027728.6604344845 -53844335.850414276 0 -53844335.850414276 50225038.124430537 0 0 0 0 25163343.178264499 75367324.873897552 0 75367324.873897552 -11732950.278369904 0 0 0 0 -197100893.59088063 -195544807.83624649 0 -195544807.83624649 -246675058.03982162 0 0 0 0 266070.23671232309 943283.05557936896 0 943283.05557936896 224317.68363359571 0 0 0 0 24832051.86374855 -179927908.68523121 0 -179927908.68523121 202387506.80167866 0 0 0 0 -380911718.85496569 -315783738.97040653 0 -315783738.97040653 -121364162.2349472 0 0 0 0 94693279.583785295 -442383073.35045433 0 -442383073.35045433 -800257170.1295929 0 0 0 0 -306473862.6507802 -149169249.86926079 0 -149169249.86926079 -46618654.612369537 0 0 0 0 -1464748.3330364178 -747523.43036258314 0 -747523.43036258314 406062.12876459956 0 0 0 0 38603947.797222614 24925592.811584473 0 24925592.811584473 -927848580.70604515 0 0 0 0 -75722636.978822231 -433044912.2263937 0 -433044912.2263937 -1421207937.200861 0 0 0 0 -1369919372.0778017 -235572439.14711189 0 -235572439.14711189 -65328627.411113739 0 0 0 0 -31709017.031792641 -192304684.71644497 0 -192304684.71644497 -130603452.89890099 0 0 0 0 30389452.564657211 -581031340.34042358 0 -581031340.34042358 -656779075.43823624 0 0 0 0 -111304042.86822414 -133432351.85885429 0 -133432351.85885429 -109169601.64278126 0 0 0 0 -425303957.98766589 -365193009.19238949 0 -365193009.19238949 -227669473.09080124 0 0 0 0 -126129689.42558813 -17180372.422160149 0 -17180372.422160149 35878801.871070862 0 0 0 0 -44811910.53891778 2245883.5875644684 0 2245883.5875644684 -217741419.45201683 0 0 0 0 89209388.505112648 124361810.94464493 0 124361810.94464493 39628673.0879668 0 0 0 0 45637.539902687073 95437538.116159439 0 95437538.116159439 -65652731.242471695 0 0 0 0 -204203355.71907234 -59956208.417147636 0 -59956208.417147636 -39849458.948508263 0 0 0 0 -107989719.39388749 -241948761.69461346 0 -241948761.69461346 -365186683.22605133 0 0 0 0 -381656249.6761384 9539711.8316707611 0 9539711.8316707611 -567156364.72128391 0 0 0 0 -226837291.3938365 -568759194.08998728 0 -568759194.08998728 -680612857.31261063 0 0 0 0 -65479501.510623932 -317717332.29941368 0 -317717332.29941368 -395444308.03949022 0 0 0 0 32550011.240269184 -382769234.07434082 0 -382769234.07434082 -374588954.19970322 0 0 0 0 -221553586.85949832 -252327412.21471214 0 -252327412.21471214 -127716716.95628357 0 0 0 0 -31323491.512201786 -606555.810546875 0 -606555.810546875 -186027167.70805931 0 0 0 0 -69030697.77442503 -73427924.01881218 0 -73427924.01881218 1375711.2469367981 0 0 0 0 -11159641.533874869 -47215841.525312424 0 -47215841.525312424 191620547.00133514 0 0 0 0 113988010.40824962 74089666.146606445 0 74089666.146606445 55802291.11724472 0 0 0 0 34543638.562946796 42749275.714179993 0 42749275.714179993 460534221.8933239 0 0 0 0 209429272.08495599 -64798750.380809784 0 -64798750.380809784 -104701689.12861776 0 0 0 0 23354713.897918224 -188162975.87038612 0 -188162975.87038612 5064032.2300834656 0 0 0 0 472839485.39245594 -73681353.301210403 0 -73681353.301210403 -84157533.966766357 0 0 0 0 -3530792.1564408429 3913252.0934387259 0 3913252.0934387259 -3906972.4831028385 0 0 0 0 84928799.439077377 194299504.78900146 0 194299504.78900146 390307261.85927582 0 0 0 0 -22948440.724552155 9946440.9827060699 0 9946440.9827060699 66299819.910880089 0 0 0 0 196725039.13979006 231062842.97079086 0 231062842.97079086 330586163.9348259 0 0 0 0 -20660.884668136016 137814.23273006454 0 137814.23273006454 -344852.9871687144 0 0 0 0 -13478138.016140938 -28432516.978744984 0 -28432516.978744984 3764532.4579391479 0 0 0 0 -600888.91352972295 78812.612980846316 0 78812.612980846316 -2745753.9181538518 0 0 0 0 8575994.6077442169 -16086453.79189682 0 -16086453.79189682 -20471181.354073048 0 0 0 0 -193240.42798519135 1217407.5282745361 0 1217407.5282745361 -6352699.7898263931 0 0 0 0 -76931656.429579258 18090323.996199608 0 18090323.996199608 199889890.68810654 0 0 0 0 -26297271.637031078 194205288.25390625 0 194205288.25390625 262356887.8200264 0 0 0 0 -287748.05926090712 3585759.2390029803 0 3585759.2390029803 -3960612.2143915435 0 0 0 0 -262314710.14272308 -212399312.45554733 0 -212399312.45554733 456309820.22314453 0 0 0 0 -1182749.1621915614 -83265.936664102599 0 -83265.936664102599 -136511.63000078127 0 0 0 0 -466389877.33823586 -116302084.25775051 0 -116302084.25775051 -883881227.36934662 0 0 0 0 13871923.693008423 -56751769.57651329 0 -56751769.57651329 -1526894413.6725922 0 0 0 0 -134518344.7751317 -288542195.41615868 0 -288542195.41615868 -1819867699.78438 0 0 0 0 -193324809.26193142 222026546.39543152 0 222026546.39543152 -268218350.68049711 0 0 0 0 -135722585.05579281 -528167844.08008194 0 -528167844.08008194 -1803780241.8452911 0 0 0 0 -1105508.3056235318 -143889.33662788011 0 -143889.33662788011 260155.25224917755 0 0 0 0 94000341.427204132 -253816290.51197052 0 -253816290.51197052 -1251373668.1329689 0 0 0 0 -341653243.01709366 -481498060.81205368 0 -481498060.81205368 -1136701156.9842529 0 0 0 0 32466007.995573342 141054158.60665131 0 141054158.60665131 -939655788.52336884 0 0 0 0 -67005467.704798698 360219194.45856476 0 360219194.45856476 -1047737084.6181227 0 0 0 0 -169908119.3817997 254012690.44901657 0 254012690.44901657 -944011308.89533615 0 0 0 0 -156371565.04141188 504856338.65793228 0 504856338.65793228 -837861718.08237076 0 0 0 0 -203323058.69540977 311079926.77150345 0 311079926.77150345 -578581984.61895752 0 0 0 0 -180593570.52806854 7600605.4736175537 0 7600605.4736175537 -646815855.99224806 0 0 0 0 -121886616.13955832 24298356.932266235 0 24298356.932266235 732748998.44885445 0 0 0 0 -5896629.4847905049 3570324.6443829704 0 3570324.6443829704 -1964908.9464307763 0 0 0 0 -176613945.416794 428996381.53842044 0 428996381.53842044 -278561780.55845642 0 0 0 0 202210042.80070877 -286216944.48334122 0 -286216944.48334122 -363073436.57278442 0 0 0 0 -153729075.76128387 -154062901.82247162 0 -154062901.82247162 66837981.53850174 0 0 0 0 -147210872.7033143 -564845079.08976936 0 -564845079.08976936 -755501053.95275545 0 0 0 0 -313801717.68643427 69913814.288938522 0 69913814.288938522 -661635980.62455368 0 0 0 0 -93182379.073171139 -347070090.26365662 0 -347070090.26365662 -330593557.95192146 0 0 0 0 -105465161.18172598 -371245120.97030449 0 -371245120.97030449 -319642218.67546654 0 0 0 0 -88260703.557582617 -369250547.02994156 0 -369250547.02994156 -235485385.524683 0 0 0 0 -45878114.900606036 -358016633.83135605 0 -358016633.83135605 -340997765.10653305 0 0 0 0 -4975561.5807247162 -174387638.74613762 0 -174387638.74613762 -453872287.15255356 0 0 0 0 -240562498.89715695 -241016154.0989542 0 -241016154.0989542 -105505375.73816299 0 0 0 0 -17348721.953183174 -104548717.88923073 0 -104548717.88923073 -176762288.00231743 0 0 0 0 -56790366.819480896 -89861579.510406494 0 -89861579.510406494 -93904735.779304504 0 0 0 0 -451597411.57002544 -497139730.57313251 0 -497139730.57313251 29155892.117427826 0 0 0 0 -101232681.66959572 -153118596.9586525 0 -153118596.9586525 -54383907.680229187 0 0 0 0 -112323243.10924292 -132920532.23531342 0 -132920532.23531342 64572684.056911469 0 0 0 0 115367663.27145672 -154650438.10168028 0 -154650438.10168028 49486589.817440033 0 0 0 0 51174835.735774994 -10482228.26395607 0 -10482228.26395607 144043763.71203232 0 0 0 0 -1856673.2809987068 -140605223.04702258 0 -140605223.04702258 54354853.896018982 0 0 0 0 12431935.459413528 -57684467.669359207 0 -57684467.669359207 -56899190.06656456 0 0 0 0 -21592631.028604507 -42309752.433504105 0 -42309752.433504105 -46936948.848833084 0 0 0 0 -14613169.466016769 -39482570.076255798 0 -39482570.076255798 -62908701.693857193 0 0 0 0 1967323.2543344498 -2002291.1862764359 0 -2002291.1862764359 -3028008.0780696869 0 0 0 0 -4974099.511557579 -2108040.5993423462 0 -2108040.5993423462 -40425260.211540222 0 0 0 0 1565294.0325548081 -726102.96829631552 0 -726102.96829631552 -854672.19084758777 0 0 0 0 1385584.9010458845 -1904727.9391418286 0 -1904727.9391418286 -2428566.5906869248 0 0 0 0 27396765.961216927 -23919117.210426331 0 -23919117.210426331 -99755936.33011508 0 0 0 0 411445.05418491364 -399203.02384662628 0 -399203.02384662628 -1382217.5913047791 0 0 0 0 -21721454.951668262 6448812.2446112633 0 6448812.2446112633 18291256.292392731 0 0 0 0 1259862.3907766342 -723427.99313545227 0 -723427.99313545227 -1787483.0412101746 0 0 0 0 1006800.5427646637 -278091.12014770508 0 -278091.12014770508 -2198626.0794477463 0 0 0 0 1139280.9092865346 -2266757.5078456141 0 -2266757.5078456141 -1181756.1808656715 0 0 0 0 21062410.764474094 26520409.593383074 0 26520409.593383074 -190140560.2886734 0 0 0 0 -36371885.227935314 -75118279.503828049 0 -75118279.503828049 -121749656.12029076 0 0 0 0 -8011075.6899758577 -77816614.729339123 0 -77816614.729339123 -125977538.26124954 0 0 0 0 1048259.5164748912 -332012.49479524046 0 -332012.49479524046 -1869631.0970971817 0 0 0 0 572657.78014373779 422621.08564758301 0 422621.08564758301 -3633596.1188812256 0 0 0 0 -32017979.611035824 25178810.529623032 0 25178810.529623032 -27744651.967435837 0 0 0 0 311301.42677974701 14384.377348899841 0 14384.377348899841 -3055402.1023273468 0 0 0 0 1672469.6384433541 1127113.9417094262 0 1127113.9417094262 -175382.35398294218 0 0 0 0 74316044.974934101 31234865.754431725 0 31234865.754431725 14025460.7821455 0 0 0 0 -1695938.79697299 -62687090.664731026 0 -62687090.664731026 -119571635.80413723 0 0 0 0 -2661008.3917695843 -2394245.6161437659 0 -2394245.6161437659 94991.811620723456 0 0 0 0 -6660117.4808168411 -1525065.5387020111 0 -1525065.5387020111 46528855.926271439 0 0 0 0 1145938.370927335 279574.51157012722 0 279574.51157012722 -1141133.5350388368 0 0 0 0 11243983.471465111 5307380.6409130096 0 5307380.6409130096 505212.59993743896 0 0 0 0 10739808.35335207 -17350685.769723892 0 -17350685.769723892 2992810.1116499901 0 0 0 0 4480226.1761827469 879464.23163604736 0 879464.23163604736 8577818.9324798584 0 0 0 0 1925709.3815584183 -1888187.202498436 0 -1888187.202498436 4482483.6335659027 0 0 0 0 386758.50188189768 -23609.682405557483 0 -23609.682405557483 -141926.11841745977 0 0 0 0 6410907.4072892666 2253954.756093502 0 2253954.756093502 -11516507.64630127 0 0 0 0 -439204.80811405182 -1887887.7805652618 0 -1887887.7805652618 -3340830.3360271454 0 0 0 0 3429392.2000092268 -22727.683303117752 0 -22727.683303117752 -2460506.828453064 0 0 0 0 8694793.1340048313 -10664350.195873737 0 -10664350.195873737 1919986.392791748 0 0 0 0 433333.31215180922 134874.21679801028 0 134874.21679801028 2040286.8070617272 0 0 0 0 -724911.78928102832 -340244.92093730532 0 -340244.92093730532 1724325.2481427519 0 0 0 0 -1114399.96089077 16907098.656020164 0 16907098.656020164 -22910467.439300537 0 0 0 0 3499838.8301062584 15002749.389600754 0 15002749.389600754 -26556185.292755127 0 0 0 0 13397505.1035676 19937020.108484268 0 19937020.108484268 -59902486.121023178 0 0 0 0 30714502.36210537 12797634.637878418 0 12797634.637878418 -72046304.880661964 0 0 0 0 19249671.624617577 10224983.153474808 0 10224983.153474808 -48889210.323524475 0 0 0 0 77617834.490588903 -16812795.647443771 0 -16812795.647443771 -198601640.3368082 0 0 0 0 11310052.552298546 -17300439.375133514 0 -17300439.375133514 -27006978.303850174 0 0 0 0 38658811.326050758 568875.29181671143 0 568875.29181671143 -77004147.331414461 0 0 0 0 38483451.226889133 5373195.3650836945 0 5373195.3650836945 -65997746.567335129 0 0 0 0 11106504.165426493 -44529185.977042198 0 -44529185.977042198 -65396441.497959137 0 0 0 0 665624.40306568146 -845412.82576084137 0 -845412.82576084137 -951090.54739570618 0 0 0 0 222679.72264003754 -1789057.8204460144 0 -1789057.8204460144 1902726.3627729416 0 0 0 0 49168.435165731702 39102.803289199248 0 39102.803289199248 -302304.10127316671 0 0 0 0 26029.95717382431 -1048590.8266201019 0 -1048590.8266201019 5707378.1588287354 0 0 0 0 -185295.37958908081 -3415791.8964776993 0 -3415791.8964776993 3198720.1055698395 0 0 0 0 -7908413.0082044601 216013.79342079163 0 216013.79342079163 -14522985.412403107 0 0 0 0 -362070.59006690979 -3471354.0030479431 0 -3471354.0030479431 4949956.4448833466 0 0 0 0 -359064.35555175948 -90071.952796288533 0 -90071.952796288533 660967.77775487397 0 0 0 0 -15054689.115577698 39514267.468788147 0 39514267.468788147 -58257207.724189758 0 0 0 0 -42959238.576131821 19678224.723835945 0 19678224.723835945 -11708946.140389442 0 0 0 0 -20045845.336246967 -9909572.4090185165 0 -9909572.4090185165 10222927.605487823 0 0 0 0 -36374336.082763433 -46102576.978590727 0 -46102576.978590727 -11171748.496652603 0 0 0 0 10943580.897843361 -5620185.3664321899 0 -5620185.3664321899 -11351846.184938431 0 0 0 0 880731.17506188946 -1361929.823810942 0 -1361929.823810942 -2013399.6349636391 0 0 0 0 -59980162.357567787 -25270971.804484844 0 -25270971.804484844 -16409368.788200378 0 0 0 0 -143069591.0262022 -97466133.198216915 0 -97466133.198216915 -65345930.040373802 0 0 0 0 352259.95265314449 -602405.99090895848 0 -602405.99090895848 -763251.6928017363 0 0 0 0 -39984001.131963372 93196493.763537407 0 93196493.763537407 -109059907.86217499 0 0 0 0 -88900779.196202755 46529794.263141155 0 46529794.263141155 -28471729.131262779 0 0 0 0 -12066385.399928093 -64432258.972430706 0 -64432258.972430706 -114792258.95100021 0 0 0 0 -14973434.786355972 -41062125.493201256 0 -41062125.493201256 -196996134.54916477 0 0 0 0 -37660758.038331985 71658868.101042747 0 71658868.101042747 -135669628.18089342 0 0 0 0 -40362454.259693146 -10709895.112869263 0 -10709895.112869263 -15588965.669608116 0 0 0 0 -11082842.985803127 38631712.546261311 0 38631712.546261311 -60487248.384925842 0 0 0 0 5315676.1779122353 12949493.492133141 0 12949493.492133141 -68230636.780340195 0 0 0 0 -126987249.14398646 38084265.116392851 0 38084265.116392851 -40606245.868249893 0 0 0 0 -109701190.01398617 -50525410.129075468 0 -50525410.129075468 1745295.8118896484 0 0 0 0 -6984052.455329895 -56117854.919394732 0 -56117854.919394732 -32796476.516800642 0 0 0 0 -22658853.134063125 -40007334.482877016 0 -40007334.482877016 -48871844.927622795 0 0 0 0 -7774573.1809597015 -11814764.088780403 0 -11814764.088780403 -19885246.049701214 0 0 0 0 -11898621.13096799 24416017.390814841 0 24416017.390814841 -33573098.09026432 0 0 0 0 6821839.7132539749 75543797.289910793 0 75543797.289910793 -95137244.036607742 0 0 0 0 -57122719.106363893 159372685.01083636 0 159372685.01083636 -202914798.96587563 0 0 0 0 495271.00777895795 -1375343.6986543997 0 -1375343.6986543997 -840124.53884197632 0 0 0 0 -11876005.947125673 -10573230.584000587 0 -10573230.584000587 760845.46270179749 0 0 0 0 28106444.409813404 104103071.10975456 0 104103071.10975456 -75308124.656160355 0 0 0 0 -463617.28746885457 -519346.31904113991 0 -519346.31904113991 148329.14927024161 0 0 0 0 -628545.40944933891 104530287.85187721 0 104530287.85187721 -103412244.20624828 0 0 0 0 -792718.42369198799 -83556824.407096624 0 -83556824.407096624 44512481.304151535 0 0 0 0 24940652.650846958 12754890.617595673 0 12754890.617595673 -13618721.636516094 0 0 0 0 -783418.35531706316 -917341.93706151389 0 -917341.93706151389 202812.73702701367 0 0 0 0 76318342.75628233 -46286497.068383694 0 -46286497.068383694 -20234122.459449768 0 0 0 0 10899417.080776572 62763999.583677769 0 62763999.583677769 -106454080.16816711 0 0 0 0 -123948428.90132999 -12910895.053564548 0 -12910895.053564548 70612268.130265236 0 0 0 0 110978867.3135221 -54665579.563056469 0 -54665579.563056469 -57899636.781964302 0 0 0 0 24454333.779074192 32448547.315670967 0 32448547.315670967 -170820313.72246122 0 0 0 0 26713104.509598732 5950664.6763954163 0 5950664.6763954163 -22271564.777574539 0 0 0 0 16313300.711406887 41289929.179997206 0 41289929.179997206 -87376554.158319473 0 0 0 0 16278958.005144119 39871109.712563515 0 39871109.712563515 -66305481.779040337 0 0 0 0 32652303.255235195 60779382.017491341 0 60779382.017491341 -68148982.577775002 0 0 0 0 31196939.528069615 77105102.214063168 0 77105102.214063168 -134636491.20870209 0 0 0 0 112501296.95782815 -72334697.579483986 0 -72334697.579483986 -52381960.956329346 0 0 0 0 -464914.85481245245 -523377.67767771427 0 -523377.67767771427 192923.62479484081 0 0 0 0 85734049.321211278 -13539701.549520016 0 -13539701.549520016 -147115876.35148048 0 0 0 0 11108060.446837366 26842241.753072083 0 26842241.753072083 -76383343.603429794 0 0 0 0 -51005723.769034863 28526775.488550186 0 28526775.488550186 -47302756.192749023 0 0 0 0 15174480.833723783 -2350839.2919054031 0 -2350839.2919054031 -45518457.52372551 0 0 0 0 -11281489.650890555 17769288.579858422 0 17769288.579858422 -15355071.799854279 0 0 0 0 -16142515.451864302 37626749.954105973 0 37626749.954105973 -63239905.543514252 0 0 0 0 -72894369.187188148 39836442.417347908 0 39836442.417347908 -24011485.489038467 0 0 0 0 509014.67891085148 54823439.648921967 0 54823439.648921967 -28303117.479328632 0 0 0 0 39856933.782235317 49692169.311430931 0 49692169.311430931 4699178.85871315 0 0 0 0 21371204.35604012 -22104844.587830544 0 -22104844.587830544 45425411.334623337 0 0 0 0 22533397.636837706 11710857.060970306 0 11710857.060970306 -55126533.563158989 0 0 0 0 -104354245.28152084 48689489.51260376 0 48689489.51260376 13837441.445287704 0 0 0 0 -107327316.41811049 21101270.226341486 0 21101270.226341486 -53053032.370073318 0 0 0 0 -50909100.763559818 28077415.546104431 0 28077415.546104431 -91218803.011774063 0 0 0 0 -38407301.378556132 -1698934.4464483261 0 -1698934.4464483261 9942574.7980442047 0 0 0 0 -91967637.441100597 71013019.475771904 0 71013019.475771904 -58016606.871362686 0 0 0 0 -793740.26140616485 -948751.66985801444 0 -948751.66985801444 796386.00625228416 0 0 0 0 22178110.794694662 91457402.264174789 0 91457402.264174789 202094824.73188019 0 0 0 0 36910997.42805481 -7655795.5731964111 0 -7655795.5731964111 -29484118.080878258 0 0 0 0 -1591680.2062450242 -3738324.8409669986 0 -3738324.8409669986 -8617131.7651170604 0 0 0 0 1128241.4895582199 -52002020.895954132 0 -52002020.895954132 -76544613.745028496 0 0 0 0 -2410077.351659053 -5721363.532523172 0 -5721363.532523172 -5162066.9551203959 0 0 0 0 -59588.263861298561 -3195655.0912027359 0 -3195655.0912027359 -1923404.887819767 0 0 0 0 -14133663.266859055 -25257093.867353916 0 -25257093.867353916 18982460.482241631 0 0 0 0 -2270988.1341760242 -1957708.6082558862 0 -1957708.6082558862 -6870667.6611935338 0 0 0 0 -6507769.8914421797 -4684281.644110918 0 -4684281.644110918 15660122.682665348 0 0 0 0 -2455714.1027433313 -3000862.9193044016 0 -3000862.9193044016 2516382.7388913399 0 0 0 0 -20629.871520757675 -3150503.832742691 0 -3150503.832742691 -498747.07060432434 0 0 0 0 -2197917.1085301656 -1412708.5977796931 0 -1412708.5977796931 -5480110.7413087934 0 0 0 0 -1740733.1261649504 -1989619.0630502701 0 -1989619.0630502701 -4388583.4749779701 0 0 0 0 -904237.93392017484 -3453376.6987882257 0 -3453376.6987882257 -2827170.2812767029 0 0 0 0 -967285.92805464566 -12380965.403730869 0 -12380965.403730869 -4972943.7923965454 0 0 0 0 -475108.40469649434 -2051326.0421085358 0 -2051326.0421085358 -4008469.0086202621 0 0 0 0 1756031.2133443356 40169868.10910511 0 40169868.10910511 -64176708.323982239 0 0 0 0 -11396468.422944009 43154060.075027943 0 43154060.075027943 -28247831.211927414 0 0 0 0 14853076.755387008 20569394.510386467 0 20569394.510386467 -29103772.699883461 0 0 0 0 -28267201.790903807 37960787.8268466 0 37960787.8268466 -32631431.511793137 0 0 0 0 -36874383.010801077 37369591.204236507 0 37369591.204236507 -29333292.587955952 0 0 0 0 -28284871.833364487 37830207.320791245 0 37830207.320791245 -30351352.459257126 0 0 0 0 -28561322.039782047 28508668.633093357 0 28508668.633093357 -38862968.562495232 0 0 0 0 -7208728.8776135445 42906057.870193481 0 42906057.870193481 -33194373.318368793 0 0 0 0 -9875544.2827352285 9783402.3402175903 0 9783402.3402175903 -29073087.105592251 0 0 0 0 -2233711.0206063245 -818281.8862170605 0 -818281.8862170605 -979631.23532651959 0 0 0 0 -1275854.8725017309 -683511.39950795472 0 -683511.39950795472 869202.93397033215 0 0 0 0 -2126550.3579803375 -2310140.5935636903 0 -2310140.5935636903 -608262.20152663649 0 0 0 0 9700.0521441013552 -1277358.3561907853 0 -1277358.3561907853 -4703930.4715301804 0 0 0 0 1980.8855543136597 -12218409.680747032 0 -12218409.680747032 -10487924.142664909 0 0 0 0 12385988.389896452 -1288869.85968256 0 -1288869.85968256 -133260085.73529673 0 0 0 0 -958990.10289832368 -1200954.3989205712 0 -1200954.3989205712 -1573785.8433106937 0 0 0 0 376059.37394360354 185353.28730253968 0 185353.28730253968 -1918502.2723205546 0 0 0 0 -6108446.3971851468 7351905.4944119453 0 7351905.4944119453 -66015245.821778357 0 0 0 0 -1358043.914349556 -2782988.0310020447 0 -2782988.0310020447 -4231233.676776886 0 0 0 0 66882.453426327789 6264.7910140461754 0 6264.7910140461754 -222902.89019840001 0 0 0 0 305937.51405511779 -220934.14040210552 0 -220934.14040210552 -3628532.1402241495 0 0 0 0 692295.51879358292 199830.78107988834 0 199830.78107988834 -1996896.6681336164 0 0 0 0 2260381.2143573761 -5435696.9327974319 0 -5435696.9327974319 -3741554.3149757385 0 0 0 0 409025.78149962425 465623.1538271904 0 465623.1538271904 -2248536.7985910177 0 0 0 0 -815746.3644957731 -612421.78118359915 0 -612421.78118359915 -4040922.669400169 0 0 0 0 924480.68333148956 450049.87361979485 0 450049.87361979485 -2168224.7505204678 0 0 0 0 930766.2079040854 729733.98725511495 0 729733.98725511495 -6327036.0002593519 0 0 0 0 716910.90096282959 194737.95234322548 0 194737.95234322548 -2165986.9729099274 0 0 0 0 -429027.06518913433 -1885478.0868868828 0 -1885478.0868868828 -7582279.6769943237 0 0 0 0 -1015254.4442021739 -853127.09471079288 0 -853127.09471079288 -2258002.5362060759 0 0 0 0 -2293597.8285856247 3679510.7300606668 0 3679510.7300606668 7095619.1621181965 0 0 0 0 348742.49885332584 2313645.8637918234 0 2313645.8637918234 -397938.279047966 0 0 0 0 442622.46420544386 714013.8833053112 0 714013.8833053112 -1866700.3695173264 0 0 0 0 698167.43230640888 291738.97119617462 0 291738.97119617462 -1257956.4818341434 0 0 0 0 34725.35555155309 -439955.85324640793 0 -439955.85324640793 -3313032.9120186809 0 0 0 0 -997855.70552002476 986190.77145471249 0 986190.77145471249 -739089.10565578588 0 0 0 0 573162.37428927422 -3401622.9382545948 0 -3401622.9382545948 -7304721.9027867317 0 0 0 0 -654260.81779864978 -3667656.9579473026 0 -3667656.9579473026 -7309295.6672040056 0 0 0 0 12917733.686777115 -9099090.423535347 0 -9099090.423535347 -34845900.027328491 0 0 0 0 -1381551.7727034092 -2337484.0906281471 0 -2337484.0906281471 -3964209.8635517955 0 0 0 0 19007.222172442882 -1751239.3448122996 0 -1751239.3448122996 -6072823.8940382097 0 0 0 0 729554.29616813234 1565805.9554711103 0 1565805.9554711103 -22024.000721663237 0 0 0 0 -1485941.1428443193 -3569078.3714718819 0 -3569078.3714718819 -5659236.4511761665 0 0 0 0 -661836.61724418402 -2848186.4066810608 0 -2848186.4066810608 -7370029.9056050777 0 0 0 0 -348816.88678925048 -1281959.2450242066 0 -1281959.2450242066 -5869427.9604534227 0 0 0 0 186801.68291273713 -676719.18696904182 0 -676719.18696904182 -8114846.0391788483 0 0 0 0 -4292614.7491760254 -1888433.5171453953 0 -1888433.5171453953 2161881.0614469051 0 0 0 0 -3806548.7054275274 24182378.568255186 0 24182378.568255186 -11741252.678524017 0 0 0 0 1263302.6056407068 183040.51992198266 0 183040.51992198266 -7604284.3985644625 0 0 0 0 41527.274816989899 -1704595.7664709091 0 -1704595.7664709091 -7950207.3346176147 0 0 0 0 4004411.6979084015 13096252.066759109 0 13096252.066759109 3593027.3664650917 0 0 0 0 1192495.0618420839 803953.23568153381 0 803953.23568153381 -1086659.8996753693 0 0 0 0 181397.48454119838 591178.77116544964 0 591178.77116544964 -2525570.3507293258 0 0 0 0 1159638.1830871818 -756022.37855069363 0 -756022.37855069363 -5616884.226334217 0 0 0 0 1374599.4421671499 -1601449.2161749608 0 -1601449.2161749608 -13369398.557631411 0 0 0 0 15236889.608764656 1444185.8411044758 0 1444185.8411044758 9455507.7544555664 0 0 0 0 1119580.3738916516 772146.31651878357 0 772146.31651878357 -973286.16767883301 0 0 0 0 971294.4959203878 -2482466.0574838733 0 -2482466.0574838733 -10898747.066264573 0 0 0 0 62726840.300104141 13633632.366032124 0 13633632.366032124 -36559844.708837509 0 0 0 0 798816.31529647554 -3993349.5721564372 0 -3993349.5721564372 -12766924.187967233 0 0 0 0 539950.96129572974 2150141.4001062755 0 2150141.4001062755 44515.960443821503 0 0 0 0 28875634.439581156 6444875.1169397458 0 6444875.1169397458 -20704253.852128983 0 0 0 0 45184231.771903992 -7639437.9766049385 0 -7639437.9766049385 15971251.738684654 0 0 0 0 17610050.169707298 16618177.714361191 0 16618177.714361191 -29477241.670925617 0 0 0 0 17826933.973646164 12257931.882490158 0 12257931.882490158 -19230002.573520184 0 0 0 0 25997879.354594231 14585370.1226964 0 14585370.1226964 -72622638.215900421 0 0 0 0 -19972569.363167912 5086392.7471365631 0 5086392.7471365631 -26621629.841585159 0 0 0 0 -17354009.52416718 27519939.078321636 0 27519939.078321636 -9719492.2920017242 0 0 0 0 26247602.586516857 925689.32185983658 0 925689.32185983658 16777086.158456802 0 0 0 0 52280023.003697395 34166350.185266495 0 34166350.185266495 -25946355.041279793 0 0 0 0 15159706.291647196 3304617.2747206688 0 3304617.2747206688 -13386556.365155697 0 0 0 0 42090072.685238361 -15332894.982460037 0 -15332894.982460037 -24000899.827306986 0 0 0 0 482998.88269881147 -1574322.66262647 0 -1574322.66262647 -1811000.8329030736 0 0 0 0 -1653048.930610782 -1415075.1287116478 0 -1415075.1287116478 -304905.68490325264 0 0 0 0 14978538.2628479 7826965.5717302784 0 7826965.5717302784 14451600.188011765 0 0 0 0 372607.40817358339 -1571987.5046005687 0 -1571987.5046005687 -2813070.4071880719 0 0 0 0 469621.07705402374 -915767.09029650688 0 -915767.09029650688 -450498.17465209961 0 0 0 0 -1639774.2656798959 -1069853.4407292972 0 -1069853.4407292972 -268890.55583996186 0 0 0 0 9670155.8674752712 -7947507.5072308779 0 -7947507.5072308779 1077386.9833431244 0 0 0 0 355592.80580405949 867798.88519770419 0 867798.88519770419 -3357375.7840625504 0 0 0 0 -32877162.697570622 7415099.9176130295 0 7415099.9176130295 -329653.90628957748 0 0 0 0 -9776630.9072601795 5412354.7841386795 0 5412354.7841386795 -3631077.8298008442 0 0 0 0 294233.72982764244 -1582906.8317689896 0 -1582906.8317689896 -4133010.9249203205 0 0 0 0 211277.81102536488 648936.43265694764 0 648936.43265694764 -703937.32710385555 0 0 0 0 -65260464.644050121 37017346.990365028 0 37017346.990365028 -7833122.8128332496 0 0 0 0 -1770481.5646181107 -13956320.516710043 0 -13956320.516710043 -15919664.430559158 0 0 0 0 -24611.763358354568 5635184.9618905783 0 5635184.9618905783 28926153.654086113 0 0 0 0 -43245165.184772968 1248592.217110157 0 1248592.217110157 32132798.861292839 0 0 0 0 -259706489.38102245 -174099781.60807085 0 -174099781.60807085 -91489852.166540623 0 0 0 0 -849231.36940458277 -774776.37276145024 0 -774776.37276145024 116902.46949509438 0 0 0 0 -190959808.4437151 -125092563.93056607 0 -125092563.93056607 -41487813.300424099 0 0 0 0 33144479.251121521 26876544.872858495 0 26876544.872858495 -21946380.744081587 0 0 0 0 -75222424.716005325 11830380.924206972 0 11830380.924206972 22230927.347215414 0 0 0 0 -55020171.950507164 -4269967.2255424261 0 -4269967.2255424261 -1627062.0083534718 0 0 0 0 -28489067.291443825 -4395827.7469391823 0 -4395827.7469391823 -2681768.2486331463 0 0 0 0 -40347563.966786861 -45899697.735540181 0 -45899697.735540181 -25689460.912084103 0 0 0 0 12513493.593112946 -1971767.2419566214 0 -1971767.2419566214 -9788697.3362182379 0 0 0 0 -81334935.153295517 -75965803.12403965 0 -75965803.12403965 -46202582.792824358 0 0 0 0 54977133.653202057 -24602338.1328578 0 -24602338.1328578 -45341436.088822402 0 0 0 0 18943880.979307175 -81368910.763097525 0 -81368910.763097525 -132277366.40819693 0 0 0 0 20795536.12020874 -151492833.68233526 0 -151492833.68233526 -68304282.080345631 0 0 0 0 -100689479.29579353 -119415075.11934519 0 -119415075.11934519 -75921719.851236105 0 0 0 0 -75016239.508523941 -85175285.219382286 0 -85175285.219382286 -182987010.03419876 0 0 0 0 -87506304.933607101 -103657914.10468054 0 -103657914.10468054 -61411191.795413017 0 0 0 0 -119918772.32447815 100141657.24640608 0 100141657.24640608 -251139508.23342466 0 0 0 0 -124668758.49546051 113520884.91343212 0 113520884.91343212 274082622.07658386 0 0 0 0 -292461827.27157211 -116314143.67752934 0 -116314143.67752934 56685585.029625416 0 0 0 0 -204772289.33879471 -451467297.90992785 0 -451467297.90992785 938401745.02516866 0 0 0 0 109584190.24155045 -497949561.31249619 0 -497949561.31249619 169468711.25493312 0 0 0 0 81423755.471702576 -332186880.22571474 0 -332186880.22571474 -216993015.58487594 0 0 0 0 82013345.943267822 -296806106.06973338 0 -296806106.06973338 -71367825.441411197 0 0 0 0 -93388513.658031464 -228379802.04254675 0 -228379802.04254675 118274768.01321149 0 0 0 0 115915182.12823057 -404346299.38136154 0 -404346299.38136154 -236901672.54795551 0 0 0 0 -117055811.37672997 104281070.33131766 0 104281070.33131766 42408286.245160103 0 0 0 0 158205.77264242759 346594.1504756948 0 346594.1504756948 -2317664.2501842631 0 0 0 0 12785046.119262695 35470921.025579453 0 35470921.025579453 -70125374.43398428 0 0 0 0 13254036.161743164 4554856.7913384438 0 4554856.7913384438 -39901078.84465456 0 0 0 0 9831536.7165145874 35268730.684577942 0 35268730.684577942 -69758651.730401039 0 0 0 0 14015834.175239563 49460071.626084328 0 49460071.626084328 -50344725.578440189 0 0 0 0 14540322.235954285 11061991.759190083 0 11061991.759190083 -4005637.9119596723 0 0 0 0 8516332.6318473816 76195062.892975986 0 76195062.892975986 -122245892.05691528 0 0 0 0 26174064.323009491 65969602.485261202 0 65969602.485261202 -168863852.47825003 0 0 0 0 2444303.3293161392 485414515.85800928 0 485414515.85800928 647337403.76604366 0 0 0 0 46354112.184059143 85865105.488381386 0 85865105.488381386 -172937219.06487179 0 0 0 0 100495124.6691246 135957242.46582794 0 135957242.46582794 -299922425.71413374 0 0 0 0 167424995.52727127 -271589948.42746317 0 -271589948.42746317 -621786835.60944152 0 0 0 0 207668158.6305542 -16477308.870875597 0 -16477308.870875597 -829494398.17066979 0 0 0 0 12160058.467576981 -189070887.37775064 0 -189070887.37775064 -182850410.66945255 0 0 0 0 159257867.9940567 -104073907.81948352 0 -104073907.81948352 -141080563.67438161 0 0 0 0 162812628.89862823 -152349747.47563505 0 -152349747.47563505 -463185053.70890927 0 0 0 0 171876500.3476181 -313982228.72114289 0 -313982228.72114289 -227181341.3724916 0 0 0 0 203975704.20925903 -82962513.484075189 0 -82962513.484075189 -370418837.07121372 0 0 0 0 -60273181.55380106 38951284.938835621 0 38951284.938835621 43115821.233693361 0 0 0 0 -3408950.5820191721 2130909.7627341114 0 2130909.7627341114 -1458455.8795464598 0 0 0 0 42346584.582654953 154726369.12859428 0 154726369.12859428 33281226.794892311 0 0 0 0 149719385.48824692 263747772.00683117 0 263747772.00683117 -424519306.96206552 0 0 0 0 -2925201.615383625 21792901.731318474 0 21792901.731318474 25826424.852970123 0 0 0 0 -279077017.18417311 -78192953.468329549 0 -78192953.468329549 210135906.60102725 0 0 0 0 153932766.95576477 258833047.11739206 0 258833047.11739206 -630332751.7580409 0 0 0 0 438444.89807891846 -7581427.2838745117 0 -7581427.2838745117 -35451025.244877338 0 0 0 0 16886500.552299261 24402709.302666843 0 24402709.302666843 -11596667.354759216 0 0 0 0 12285861.594044209 -2834339.070482105 0 -2834339.070482105 -57749220.143981934 0 0 0 0 -32380121.773540497 -69130918.679352045 0 -69130918.679352045 -30090960.896823168 0 0 0 0 31735664.341103077 -9756262.3154301643 0 -9756262.3154301643 -167059817.26175928 0 0 0 0 97573878.689800262 -25059578.577616692 0 -25059578.577616692 -7420274.8695197105 0 0 0 0 -60725.701260254864 656647.91143694648 0 656647.91143694648 -3621818.1620002552 0 0 0 0 22040635.950700283 -40787663.120681286 0 -40787663.120681286 -35942013.122484922 0 0 0 0 33077437.971859694 5341841.5287652016 0 5341841.5287652016 -11277598.361755848 0 0 0 0 38746475.984091282 -15010600.32256031 0 -15010600.32256031 3810678.0949821472 0 0 0 0 -3530162.7959041595 -20362628.551747799 0 -20362628.551747799 42574211.583039761 0 0 0 0 -19311841.626936674 -38966833.400965095 0 -38966833.400965095 29468068.02366972 0 0 0 0 -1409700.2108118271 1681881.3716097043 0 1681881.3716097043 -2594645.7019336652 0 0 0 0 -93744798.109664917 -183558417.24302244 0 -183558417.24302244 -235443876.48865128 0 0 0 0 -158331632.16029358 -132642625.37150383 0 -132642625.37150383 -79789819.630193532 0 0 0 0 -357641805.46143723 -122188084.51717186 0 -122188084.51717186 -351362.78996276855 0 0 0 0 -198246851.60350132 -196871775.84068441 0 -196871775.84068441 -180327785.21405029 0 0 0 0 -178402587.95062828 -205273908.62502766 0 -205273908.62502766 -180691172.22968659 0 0 0 0 -424490277.64811325 -501569795.51966405 0 -501569795.51966405 -536690512.37485886 0 0 0 0 8440573.0602531433 -91702166.251893044 0 -91702166.251893044 -224010376.09607667 0 0 0 0 -81127315.459781647 -249516766.30836105 0 -249516766.30836105 -499796864.49565506 0 0 0 0 52060690.88105011 101050845.50564575 0 101050845.50564575 -466366341.29211903 0 0 0 0 31738549.544692039 63524849.36675477 0 63524849.36675477 -215736972.87682581 0 0 0 0 -120962130.43860435 -75920421.649597168 0 -75920421.649597168 -322264590.57233775 0 0 0 0 289350892.81014919 112484291.47784293 0 112484291.47784293 -392843745.71394444 0 0 0 0 -294071354.60498905 229384358.35822082 0 229384358.35822082 -860156487.00413322 0 0 0 0 -50152806.836164474 -300661834.29384673 0 -300661834.29384673 -1164340187.5594459 0 0 0 0 -1871398.8452319363 334384.99876896525 0 334384.99876896525 320585.83158916002 0 0 0 0 -607022712.38140368 -478095718.80286634 0 -478095718.80286634 -238926904.69090033 0 0 0 0 -32775301.177481174 -174945042.44978124 0 -174945042.44978124 -395812012.68477345 0 0 0 0 15968830.90888381 -57262571.698421001 0 -57262571.698421001 -57206366.475378036 0 0 0 0 -236604681.34701443 137526441.53682804 0 137526441.53682804 38549577.284154892 0 0 0 0 -622030043.16312099 -142027440.1897521 0 -142027440.1897521 -4886536.4786024094 0 0 0 0 -207459122.93148232 27769436.160290718 0 27769436.160290718 10527203.093920588 0 0 0 0 -45902070.556926727 40235539.64637804 0 40235539.64637804 -55284982.443924904 0 0 0 0 -171723988.74680042 -12290446.220875263 0 -12290446.220875263 -3656454.6620292664 0 0 0 0 4557665.1993842125 -10229909.411801338 0 -10229909.411801338 -5823007.0828371048 0 0 0 0 5367029.1566343307 -14592135.736069679 0 -14592135.736069679 -28087594.921714306 0 0 0 0 -8480774.3896665573 20103977.912677765 0 20103977.912677765 -36959201.953836918 0 0 0 0 18770599.12734735 -10145836.441614151 0 -10145836.441614151 -14034177.566104889 0 0 0 0 1891362.3317146301 -787477.81957435608 0 -787477.81957435608 3786442.8780536652 0 0 0 0 -14230439.635756969 -577501.40816116333 0 -577501.40816116333 6267803.6652984619 0 0 0 0 846712.66515441425 -1454947.2277081688 0 -1454947.2277081688 -1150901.7137709567 0 0 0 0 18590411.314577192 -8343442.3887473345 0 -8343442.3887473345 -2075861.3401947021 0 0 0 0 -7755053.4446496172 72140.73639939772 0 72140.73639939772 2317767.7267197389 0 0 0 0 15817039.194208264 -17293160.352849007 0 -17293160.352849007 85669.520559310913 0 0 0 0 -5603538.0471744537 -9748095.9909629822 0 -9748095.9909629822 20124683.055763721 0 0 0 0 -20897147.546171665 -43872544.778743744 0 -43872544.778743744 80438858.348547697 0 0 0 0 18120724.54974699 -14024319.026718378 0 -14024319.026718378 -7513330.4770145416 0 0 0 0 -5042601.9618638698 225017.21280175867 0 225017.21280175867 1045799.7014711968 0 0 0 0 -16237171.262643814 -142390056.65321493 0 -142390056.65321493 -461328631.98647773 0 0 0 0 -12497619.687619686 -236952696.05821714 0 -236952696.05821714 -354474079.09049988 0 0 0 0 -14156588.544033051 -224286945.75009465 0 -224286945.75009465 -451172563.71197486 0 0 0 0 -49138984.65278244 -261009536.17522359 0 -261009536.17522359 -309258276.89747286 0 0 0 0 -82190196.983346939 -414057632.01589274 0 -414057632.01589274 -314155046.63003349 0 0 0 0 -34814841.221817017 -217611591.85945129 0 -217611591.85945129 -178238696.17977977 0 0 0 0 -26832628.001264572 -39001161.047219276 0 -39001161.047219276 -66332443.114823341 0 0 0 0 7786096.888800621 -59904173.563580275 0 -59904173.563580275 -240526189.4466548 0 0 0 0 -134227360.7020607 -215368629.41616488 0 -215368629.41616488 8656951.2668085098 0 0 0 0 -82997009.803342819 -64115633.084244728 0 -64115633.084244728 -44707614.926364422 0 0 0 0 11513461.129137039 11103393.855027676 0 11103393.855027676 -30243420.091630459 0 0 0 0 -4576739.0772855878 468530.21555757523 0 468530.21555757523 1307401.5169448853 0 0 0 0 -2851832.2766685667 -1827177.4956105708 0 -1827177.4956105708 683898.96910923161 0 0 0 0 44929827.929361343 78481586.169684172 0 78481586.169684172 114527532.53837633 0 0 0 0 -1158633.2449533297 831988.13065094862 0 831988.13065094862 1046815.8454853385 0 0 0 0 -60806147.232089996 -27450173.680764198 0 -27450173.680764198 25842834.382042885 0 0 0 0 -40375309.149284363 -52993720.413949013 0 -52993720.413949013 -49593399.731931686 0 0 0 0 -694009512.08390045 -865670254.36132741 0 -865670254.36132741 -3930309.8810710907 0 0 0 0 -184195355.24504662 -307913860.70556974 0 -307913860.70556974 -126063678.75479174 0 0 0 0 -965849.26323282206 -479577.51257867506 0 -479577.51257867506 634094.77419585898 0 0 0 0 -309520999.89132023 -39812025.244302928 0 -39812025.244302928 460446286.83167601 0 0 0 0 -88064047.651922226 -406906557.8498466 0 -406906557.8498466 -41463605.921289444 0 0 0 0 -249114417.58717728 95608337.329376936 0 95608337.329376936 321010195.43650532 0 0 0 0 -221763644.38471985 -85053803.707752228 0 -85053803.707752228 505427065.31493616 0 0 0 0 -928949647.85975552 484585062.72157753 0 484585062.72157753 47366477.172170639 0 0 0 0 41226494.673046112 46792583.684034824 0 46792583.684034824 -4171906.3036599159 0 0 0 0 -7943858.94967556 -8319859.3276443481 0 -8319859.3276443481 -3754938.1617279053 0 0 0 0 -6542477.3120284174 -1802685.4543778836 0 -1802685.4543778836 -2561489.3167556943 0 0 0 0 2042657.4004001617 -176969410.91442394 0 -176969410.91442394 142011631.63514423 0 0 0 0 -5951708.1512334347 -6982406.579627037 0 -6982406.579627037 -4370538.3269538879 0 0 0 0 -8596403.3691539764 -7816316.2987728119 0 -7816316.2987728119 -3853013.4107971191 0 0 0 0 -4649028.6402521133 -8568646.7153282166 0 -8568646.7153282166 -5199445.8102931976 0 0 0 0 -8607682.7177667618 -8823759.4617805481 0 -8823759.4617805481 -4565823.1729354858 0 0 0 0 -14826126.151186943 -9502532.2483062744 0 -9502532.2483062744 -1491638.4281826019 0 0 0 0 -13219870.590185165 -5579324.971244812 0 -5579324.971244812 -4641364.9207115173 0 0 0 0 -213651.53159162146 622929.76500224136 0 622929.76500224136 302506.52883522236 0 0 0 0 -8592085.1650657654 -9658129.8079872131 0 -9658129.8079872131 -12632159.799432755 0 0 0 0 -4897651.2442827225 -5466636.0277481079 0 -5466636.0277481079 -8133831.9770126343 0 0 0 0 -6018994.5806291401 -2247962.8554401398 0 -2247962.8554401398 174426.09881591797 0 0 0 0 -1911182.3302777165 -4873380.4578629574 0 -4873380.4578629574 -658748.80506129283 0 0 0 0 -13608441.006166458 -8116285.961271286 0 -8116285.961271286 -522226.42741394043 0 0 0 0 106554.91883612305 39073.941022157203 0 39073.941022157203 -18665.063402665779 0 0 0 0 -19075800.081028938 -8619632.1416797638 0 -8619632.1416797638 -1014141.484588623 0 0 0 0 -17295097.703726292 -12113323.279399872 0 -12113323.279399872 -5315588.4362297058 0 0 0 0 -13288697.875042915 -7419489.3937225342 0 -7419489.3937225342 -99682.713275909424 0 0 0 0 -15866582.835382938 -9189695.0674743652 0 -9189695.0674743652 -885370.20583724976 0 0 0 0 -15060306.950516224 -9629582.1284036636 0 -9629582.1284036636 -663944.41877365112 0 0 0 0 -15098406.292864084 -8799794.7310733795 0 -8799794.7310733795 -1492522.032333374 0 0 0 0 -15801744.321697235 -9300869.2821483612 0 -9300869.2821483612 -1805660.0229454041 0 0 0 0 -15050417.526168823 -9950901.2700157166 0 -9950901.2700157166 -4959108.6487312317 0 0 0 0 -14214010.293516606 -6380962.2303622961 0 -6380962.2303622961 -5097341.4148788452 0 0 0 0 647188.90643038647 -3249624.6718286369 0 -3249624.6718286369 -1412549.1873668656 0 0 0 0 -14942979.15111351 -8705793.7059841156 0 -8705793.7059841156 -2904645.7703590393 0 0 0 0 -14786794.586856365 -9519411.8478279114 0 -9519411.8478279114 -2695407.8319396973 0 0 0 0 -15922431.525295734 -9160602.3098144531 0 -9160602.3098144531 -2798672.451341629 0 0 0 0 -14019662.971107543 -9167753.200920105 0 -9167753.200920105 -3412897.3348808289 0 0 0 0 -15006332.871459246 -9268569.9539642334 0 -9268569.9539642334 -1052455.8054428101 0 0 0 0 -14577434.059570312 -8132335.3273830414 0 -8132335.3273830414 -5266579.2210388184 0 0 0 0 -16744373.285260558 -5464728.3225588799 0 -5464728.3225588799 -3435251.1732559204 0 0 0 0 -17529546.212589502 -8125302.8573951721 0 -8125302.8573951721 -5231343.1294403076 0 0 0 0 -15920979.70067513 -7470630.2706813812 0 -7470630.2706813812 -7707055.8752593994 0 0 0 0 -12463216.546219826 -9065745.1534385681 0 -9065745.1534385681 -12548845.825626075 0 0 0 0 -16512161.566542387 -9307296.2239599228 0 -9307296.2239599228 -5094706.7807006836 0 0 0 0 -15721690.924659729 -8413811.7045345306 0 -8413811.7045345306 -8757678.1242599487 0 0 0 0 -12497504.249585152 -6046065.2149600983 0 -6046065.2149600983 -4890725.3440923691 0 0 0 0 -12474424.165582806 -9340403.1272179484 0 -9340403.1272179484 -12606071.726493835 0 0 0 0 -11124115.434505463 -10204113.381267548 0 -10204113.381267548 4937876.9452705383 0 0 0 0 -14963198.47650528 -8710421.9509792328 0 -8710421.9509792328 -1956435.7644166946 0 0 0 0 -12423647.988870144 -11695481.551762581 0 -11695481.551762581 -1195809.4421920776 0 0 0 0 -8233420.6610150337 -13904381.717388153 0 -13904381.717388153 -30754713.889305115 0 0 0 0 -3874685.6321344376 -15513193.621604919 0 -15513193.621604919 -30161832.838220596 0 0 0 0 -5314351.7734494209 -14399745.463884354 0 -14399745.463884354 -26153997.387023926 0 0 0 0 -15126266.171403479 -17039970.314786911 0 -17039970.314786911 -22007867.427268982 0 0 0 0 -8348016.0584812164 -19084075.0924263 0 -19084075.0924263 -33228864.547588348 0 0 0 0 -2751581.0982952118 -7865016.6809406281 0 -7865016.6809406281 -40221822.793859482 0 0 0 0 -512084.34990382195 6789074.6202373505 0 6789074.6202373505 -11737900.126228333 0 0 0 0 -4164385.5758461952 -6582562.9373264313 0 -6582562.9373264313 -21904153.346763611 0 0 0 0 -12736731.658016205 -9394953.6789855957 0 -9394953.6789855957 -12610791.857721329 0 0 0 0 -12793763.681241035 -9117563.5393066406 0 -9117563.5393066406 -12548824.616075667 0 0 0 0 -15068582.76536727 -13605365.946668625 0 -13605365.946668625 -19590253.316307068 0 0 0 0 -15122868.084768057 -9904429.0823001862 0 -9904429.0823001862 -19148594.053958893 0 0 0 0 -20403272.384166121 -8565319.230679512 0 -8565319.230679512 363806.50953674316 0 0 0 0 -18557640.283628345 -14207344.44115448 0 -14207344.44115448 -12318611.708309174 0 0 0 0 -21583324.872109056 -11310392.280128479 0 -11310392.280128479 -3914409.9151992798 0 0 0 0 -18754469.39877069 -18607201.120677948 0 -18607201.120677948 -25750455.26474762 0 0 0 0 -22721757.748637438 -12035143.405237198 0 -12035143.405237198 -19371791.835813522 0 0 0 0 -9297137.7402257919 -12122830.829238892 0 -12122830.829238892 -21879859.618339539 0 0 0 0 -11431696.349964142 -23631293.993406296 0 -23631293.993406296 -36644732.835033417 0 0 0 0 -9885601.4757785797 -19645514.554553986 0 -19645514.554553986 -29418069.391376495 0 0 0 0 -31026604.995888233 -23453903.062705994 0 -23453903.062705994 -21070177.873382568 0 0 0 0 1106098.5239715576 -11983984.036165237 0 -11983984.036165237 -29301843.662605286 0 0 0 0 3507311.0062981844 -5173443.7211036682 0 -5173443.7211036682 -28879494.221496582 0 0 0 0 -2642341.4700145721 -5240904.5662651062 0 -5240904.5662651062 -17531261.88494873 0 0 0 0 -6750174.5565581322 -12851381.813251495 0 -12851381.813251495 -27041376.853721619 0 0 0 0 -12164740.752588272 -11471496.242918015 0 -11471496.242918015 -12575453.468315125 0 0 0 0 567284.09808432078 -675211.26395070367 0 -675211.26395070367 -4368479.9416904803 0 0 0 0 -2391820.9525751951 -7446118.9446146488 0 -7446118.9446146488 -23435201.50541687 0 0 0 0 -8681584.0708141327 -4097005.1917648315 0 -4097005.1917648315 -11333109.99804306 0 0 0 0 2108859.8547806153 -1136092.3177611092 0 -1136092.3177611092 -6255781.218505349 0 0 0 0 10569327.669733167 -17298728.915683746 0 -17298728.915683746 -11064708.706928253 0 0 0 0 -7460553.6694617271 -11706876.979366302 0 -11706876.979366302 -23852725.050025702 0 0 0 0 8105941.1966927499 -18270198.990316302 0 -18270198.990316302 -1285208.1070709229 0 0 0 0 412647.88522088528 -3008409.4595298767 0 -3008409.4595298767 -7122309.4265136719 0 0 0 0 3035119.0814615786 -16350235.972358704 0 -16350235.972358704 17764749.449134827 0 0 0 0 -1219071.2039853334 -27297156.673217773 0 -27297156.673217773 12632093.468571663 0 0 0 0 4541625.9677348137 -56680031.134922028 0 -56680031.134922028 58457962.515865326 0 0 0 0 10559045.426653624 -50751970.378948212 0 -50751970.378948212 58390413.785861969 0 0 0 0 -9496848.309414506 -1391464.1355113983 0 -1391464.1355113983 34938230.997329712 0 0 0 0 9270922.7186436653 -17116842.620609283 0 -17116842.620609283 -27253675.779445648 0 0 0 0 480092.315569964 5531.7282084720209 0 5531.7282084720209 -1661071.3652982432 0 0 0 0 8922724.5614637733 -21852033.930744171 0 -21852033.930744171 -33267056.80316925 0 0 0 0 -9292386.0090423822 -45202291.529635429 0 -45202291.529635429 -50179422.646659851 0 0 0 0 -109721881.77471352 -94187523.125469208 0 -94187523.125469208 -41263174.067768097 0 0 0 0 -6071120.8353042603 -11973951.668983459 0 -11973951.668983459 -27594296.802846909 0 0 0 0 10722318.793513298 27833223.336490631 0 27833223.336490631 -29225500.040464878 0 0 0 0 781784.44998617133 -963045.59229986183 0 -963045.59229986183 -1248135.7796262018 0 0 0 0 -27683546.226617098 -93164089.975128174 0 -93164089.975128174 -109596708.30391312 0 0 0 0 132619502.08523893 -19711713.913475037 0 -19711713.913475037 -155891876.80778885 0 0 0 0 1017115.7123461477 -87521.199803970754 0 -87521.199803970754 -2109474.0582846124 0 0 0 0 -7834837.5616297722 -20067558.641094208 0 -20067558.641094208 103282595.62155533 0 0 0 0 -6077581.4007382393 -61859263.908973694 0 -61859263.908973694 90025202.794070244 0 0 0 0 -56576269.016265988 -56229352.042685032 0 -56229352.042685032 34257956.237667084 0 0 0 0 -9523260.0825762749 42677402.012992859 0 42677402.012992859 92405114.269338608 0 0 0 0 -62947032.422302246 -95896359.294332981 0 -95896359.294332981 -100520781.02249908 0 0 0 0 -158822345.23878765 -53754943.60345459 0 -53754943.60345459 190722601.17505646 0 0 0 0 2515961.6882287851 -1604029.2002270613 0 -1604029.2002270613 -1157376.8252870049 0 0 0 0 8149850.6484186649 -2762075.6478500366 0 -2762075.6478500366 -15074833.592539787 0 0 0 0 -15607322.833139293 -24826376.295383453 0 -24826376.295383453 -8191444.370967865 0 0 0 0 -27369754.395064235 -32527586.821313858 0 -32527586.821313858 -36304992.768386841 0 0 0 0 -59908982.466451168 -23722001.627748489 0 -23722001.627748489 -28832147.321445465 0 0 0 0 863982.32002670027 -118810.70757640898 0 -118810.70757640898 -813672.10627958365 0 0 0 0 -4503629.0620889664 -1161172.1858119965 0 -1161172.1858119965 3389049.3090934753 0 0 0 0 -12715336.815145895 -17041344.865345716 0 -17041344.865345716 -4549327.601688385 0 0 0 0 1491844.8276475042 -3275213.7559384541 0 -3275213.7559384541 -1221308.7109901942 0 0 0 0 10634673.258219719 32853930.308392525 0 32853930.308392525 -8654258.4876441956 0 0 0 0 2142437.773485681 -873564.2204068033 0 -873564.2204068033 -2228773.0407329667 0 0 0 0 -10215708.478860736 7754027.7788152695 0 7754027.7788152695 12335592.007032394 0 0 0 0 16124463.982453346 -1506604.0887436867 0 -1506604.0887436867 -22046444.438602448 0 0 0 0 -63302892.975471705 -8252747.0197794884 0 -8252747.0197794884 -15694331.318069458 0 0 0 0 -33796719.886532784 -21360787.391246796 0 -21360787.391246796 1775786.1605262756 0 0 0 0 -123241993.1485672 2467778.2212142944 0 2467778.2212142944 622706.67397499084 0 0 0 0 -64105426.87741375 10963475.735765457 0 10963475.735765457 -9431379.4037818909 0 0 0 0 -181992355.48735809 -36448835.099645615 0 -36448835.099645615 20833866.726419449 0 0 0 0 -137941155.95646667 -61409350.313396454 0 -61409350.313396454 -7734992.0843791962 0 0 0 0 -88167055.190946579 -34646658.70488739 0 -34646658.70488739 3177687.1437158585 0 0 0 0 -8903808.3911321163 25473349.272660375 0 25473349.272660375 16843143.714412689 0 0 0 0 -78250349.763731956 3784211.7032117844 0 3784211.7032117844 13745366.724915028 0 0 0 0 2198076.764878307 -474700.96067724936 0 -474700.96067724936 -2279514.7739046309 0 0 0 0 18326520.259901047 -24058919.459768295 0 -24058919.459768295 -26557669.695571899 0 0 0 0 2375754.3740826352 -1154572.2538599493 0 -1154572.2538599493 -1335312.7991173081 0 0 0 0 -50113292.15440464 -59467946.009233475 0 -59467946.009233475 4087773.0091133118 0 0 0 0 -30819366.035470963 -77504095.167387009 0 -77504095.167387009 -30348751.606121063 0 0 0 0 -37587619.669757009 13027632.212308407 0 13027632.212308407 54924785.461509705 0 0 0 0 -129568910.2227478 -90602117.517724037 0 -90602117.517724037 -2276865.3546085358 0 0 0 0 1215647.3609006978 -176061.08517604787 0 -176061.08517604787 -1259863.2793892343 0 0 0 0 29179524.803033948 50071415.143799782 0 50071415.143799782 28704092.299747467 0 0 0 0 -131556138.75035191 -97058818.542472839 0 -97058818.542472839 32150829.933551788 0 0 0 0 -22374833.115762711 -100140879.74194717 0 -100140879.74194717 29775353.642523766 0 0 0 0 -137995704.33375072 -89999282.488781929 0 -89999282.488781929 30926640.26934433 0 0 0 0 -145803161.85289383 -95145531.652572632 0 -95145531.652572632 59356430.816752434 0 0 0 0 -149347395.67933846 -78660331.44434166 0 -78660331.44434166 25523189.492000103 0 0 0 0 -146060076.49632072 -87698646.654817581 0 -87698646.654817581 18602194.49641943 0 0 0 0 -130203290.9964447 -96151495.185388565 0 -96151495.185388565 19117449.85556221 0 0 0 0 -190094566.44285393 -66478291.407203674 0 -66478291.407203674 22944740.353584766 0 0 0 0 -134534162.62903404 -71590091.399401665 0 -71590091.399401665 22685330.985439301 0 0 0 0 -207497949.63491821 -58761130.224164963 0 -58761130.224164963 21211297.954636574 0 0 0 0 -162596325.87735844 -59916720.686091423 0 -59916720.686091423 9956263.8524932861 0 0 0 0 -138620727.46440887 -132910345.6717844 0 -132910345.6717844 -79846327.001502872 0 0 0 0 -228061018.74700451 -122689219.32173586 0 -122689219.32173586 -218539.86103630066 0 0 0 0 -137236603.51846886 -124155866.59545803 0 -124155866.59545803 -38890756.409788132 0 0 0 0 -150834073.1295433 -97267272.674001694 0 -97267272.674001694 -38745.272235870361 0 0 0 0 -371330787.20831108 182940120.33952141 0 182940120.33952141 84725321.509559631 0 0 0 0 -289911581.77207184 202060067.43706131 0 202060067.43706131 7400769.7527313232 0 0 0 0 -125136931.30715466 -12390740.712791443 0 -12390740.712791443 165238060.69565201 0 0 0 0 -355384496.17917252 -89382159.299278259 0 -89382159.299278259 147273624.74386978 0 0 0 0 -196087825.8218956 -88322348.072325706 0 -88322348.072325706 13308967.588691711 0 0 0 0 -4281708.4041960128 849847.1911859205 0 849847.1911859205 1166372.5764307622 0 0 0 0 -59909926.614886001 -203369546.4735254 0 -203369546.4735254 314909388.26654816 0 0 0 0 -476381552.52853632 110840965.27351856 0 110840965.27351856 231696681.24812317 0 0 0 0 -20477708.903860092 147571666.7826252 0 147571666.7826252 -10483278.170618057 0 0 0 0 -89275429.977169991 -82219514.830539703 0 -82219514.830539703 -319095999.49023628 0 0 0 0 -2002576.625514525 777427.0743593229 0 777427.0743593229 807413.35242286511 0 0 0 0 -183189843.3137989 -98712974.113235474 0 -98712974.113235474 67013821.132959366 0 0 0 0 -363217680.42210948 -212908929.77035052 0 -212908929.77035052 -5377765.3672637939 0 0 0 0 -160391009.21967649 -162555039.80903482 0 -162555039.80903482 30862254.947566986 0 0 0 0 -34818438.036640167 -171668312.45273399 0 -171668312.45273399 -4023286.0823898315 0 0 0 0 -67776503.657967091 9909112.5696430206 0 9909112.5696430206 73305570.127403259 0 0 0 0 27352919.81639576 -93462318.051404953 0 -93462318.051404953 21772183.617843628 0 0 0 0 97809047.595030785 60251788.298986435 0 60251788.298986435 -139331255.89277458 0 0 0 0 1260307.9004913899 -486262.16051781923 0 -486262.16051781923 -846603.92109047621 0 0 0 0 86927660.577810287 -83020566.228818893 0 -83020566.228818893 -33854872.73601532 0 0 0 0 -39907438.68543911 646098.93902778625 0 646098.93902778625 19451616.626030445 0 0 0 0 -16090737.991979599 48255669.100438118 0 48255669.100438118 111227057.97829819 0 0 0 0 -40212731.609812498 -11377292.104556084 0 -11377292.104556084 3791934.8608055115 0 0 0 0 -43535054.372895241 -33987390.687623978 0 -33987390.687623978 136841886.87478447 0 0 0 0 -5205618.4476033794 48455.972259661183 0 48455.972259661183 649746.68980538845 0 0 0 0 8234449.3577580452 -20384132.690137863 0 -20384132.690137863 -81665106.060745239 0 0 0 0 115350592.13162279 -185428602.60699081 0 -185428602.60699081 55808302.337997437 0 0 0 0 -227948749.87153053 -186167362.40816498 0 -186167362.40816498 65337451.434444427 0 0 0 0 249433.57181296076 -2101004.7088132184 0 -2101004.7088132184 -4594862.4564299136 0 0 0 0 124924222.09715301 -156166440.36682463 0 -156166440.36682463 94130706.820579529 0 0 0 0 364334062.05856884 -116064107.64735794 0 -116064107.64735794 -6206290.3270339966 0 0 0 0 173480134.70950502 506939339.61731911 0 506939339.61731911 -1030618396.5741043 0 0 0 0 -3110461.9489433821 -58742.574958236888 0 -58742.574958236888 -338838.82416193001 0 0 0 0 -452023291.74451208 -430023253.49625206 0 -430023253.49625206 393751034.27336311 0 0 0 0 200412627.35770965 -255999803.8182354 0 -255999803.8182354 -425340061.54553032 0 0 0 0 -1299072.8887842305 -21054.888954166323 0 -21054.888954166323 -69216.195021301508 0 0 0 0 -58408175.206599861 28170639.252475262 0 28170639.252475262 -1219183.4165534973 0 0 0 0 -55589240.42105484 19448097.373722076 0 19448097.373722076 -7385179.6703510284 0 0 0 0 -26140203.224815607 -35984776.745404243 0 -35984776.745404243 4890993.7667121887 0 0 0 0 -64210.805842960952 -1878260.4811384687 0 -1878260.4811384687 -1682684.6395569742 0 0 0 0 -44724617.837732792 5440693.2834415436 0 5440693.2834415436 3009559.1753940582 0 0 0 0 -45576854.650827646 4131630.0324964523 0 4131630.0324964523 68474932.936618805 0 0 0 0 186752.38356340316 -792168.83131633606 0 -792168.83131633606 -704016.15180693567 0 0 0 0 -52416165.418879747 2599023.0546741486 0 2599023.0546741486 69213898.312767029 0 0 0 0 17896146.359027207 -58504202.918645382 0 -58504202.918645382 55481510.680488586 0 0 0 0 -9247173.4633653164 -34576693.397104263 0 -34576693.397104263 35640194.519851685 0 0 0 0 -92290003.308690429 -45365615.447369576 0 -45365615.447369576 52085830.062084198 0 0 0 0 -55106363.263633326 -63255265.152802467 0 -63255265.152802467 93950315.047031403 0 0 0 0 -85833663.086784124 -4286078.5694828033 0 -4286078.5694828033 7991837.9538917542 0 0 0 0 -12083900.281320363 -67740538.770290375 0 -67740538.770290375 40889727.878433466 0 0 0 0 -357959.12201142311 -76435280.477931976 0 -76435280.477931976 41546729.966104746 0 0 0 0 -20402433.33144322 -65709260.361315727 0 -65709260.361315727 57363656.376815796 0 0 0 0 30805456.627450466 -53732359.792480469 0 -53732359.792480469 27657100.61214447 0 0 0 0 90146536.457795143 -91905526.943592072 0 -91905526.943592072 17395470.293739319 0 0 0 0 1607184.0230903625 -90174139.9691782 0 -90174139.9691782 22383425.586872101 0 0 0 0 350222839.04858053 -152907645.74566269 0 -152907645.74566269 -10614729.975061417 0 0 0 0 -19573343.626835048 -239627956.07026243 0 -239627956.07026243 76779673.514469147 0 0 0 0 -214117972.41758192 30303149.935375214 0 30303149.935375214 50561771.34536171 0 0 0 0 -337241176.70134568 -191857124.56493104 0 -191857124.56493104 79042643.795024872 0 0 0 0 -263864391.13531026 159620536.32021713 0 159620536.32021713 -78529128.815887451 0 0 0 0 682899622.59836185 -89033683.209732056 0 -89033683.209732056 -402002980.66708183 0 0 0 0 -212215086.74198842 144827180.71972466 0 144827180.71972466 56580152.096672058 0 0 0 0 -341610558.5713737 -172842268.94182587 0 -172842268.94182587 -243255781.89825439 0 0 0 0 -100387583.28819817 133555100.25536156 0 133555100.25536156 6720804.8295669556 0 0 0 0 -342014531.01962239 336489210.08169842 0 336489210.08169842 -118479118.5028038 0 0 0 0 629703931.75319874 190986650.26134872 0 190986650.26134872 -142581658.75624275 0 0 0 0 -521748894.46405315 883703932.60157394 0 883703932.60157394 -364743326.25259781 0 0 0 0 -212478047.64712429 -78568605.43125391 0 -78568605.43125391 77761593.266429901 0 0 0 0 428963385.31363964 881747227.64505482 0 881747227.64505482 -3461060234.5080872 0 0 0 0 -411855571.42969829 1237480536.7652683 0 1237480536.7652683 -1571556145.9075661 0 0 0 0 511378116.54383039 106443489.59109545 0 106443489.59109545 -3454308209.4291267 0 0 0 0 489113050.47483987 257346672.24365807 0 257346672.24365807 -1746143271.5108223 0 0 0 0 31485109.685582638 391192286.72488976 0 391192286.72488976 -586980423.40998125 0 0 0 0 160041986.18691495 -511540435.43112659 0 -511540435.43112659 474697650.6756134 0 0 0 0 32830.591396064607 135618.90814339556 0 135618.90814339556 -5098045.4819926396 0 0 0 0 242133781.99299294 -559074864.71106911 0 -559074864.71106911 -769665099.91191626 0 0 0 0 182171061.06535813 1148166192.1168785 0 1148166192.1168785 -3464427216.1727161 0 0 0 0 209114660.0712851 600143605.93012047 0 600143605.93012047 -1376218141.7533188 0 0 0 0 356529275.19755322 -174703514.90692902 0 -174703514.90692902 -297201882.08639526 0 0 0 0 160788196.26438832 81422976.629768372 0 81422976.629768372 -151750756.92166328 0 0 0 0 282446459.53667521 -42240654.013584137 0 -42240654.013584137 -74544979.090713501 0 0 0 0 208088595.26505491 128087549.42920113 0 128087549.42920113 -244439092.50221252 0 0 0 0 -82901286.246478319 187401354.24056244 0 187401354.24056244 -184387397.8915844 0 0 0 0 303164087.24378932 -118842354.60665417 0 -118842354.60665417 -813111506.83181381 0 0 0 0 218064293.18769825 242653383.31030655 0 242653383.31030655 -612011770.19655228 0 0 0 0 242610409.92167059 370609818.13750076 0 370609818.13750076 -99540622.338653564 0 0 0 0 388474.70983587939 -53632.250735545531 0 -53632.250735545531 -2817953.0461196043 0 0 0 0 -1150224535.2921884 -1332643974.1889954 0 -1332643974.1889954 -58157237.585407257 0 0 0 0 137325420.52183199 -227418515.57318878 0 -227418515.57318878 102498185.73977661 0 0 0 0 132390613.54868639 -192364706.20222712 0 -192364706.20222712 -127414756.23043823 0 0 0 0 -94916559.143208504 -118194847.22770691 0 -118194847.22770691 -26907118.254669189 0 0 0 0 -121234194.01179981 -68498196.740730286 0 -68498196.740730286 -485500409.49118805 0 0 0 0 -175059746.64629698 -323805232.16226578 0 -323805232.16226578 -518554695.2147522 0 0 0 0 274145832.12885475 221280896.1312561 0 221280896.1312561 212855427.09470749 0 0 0 0 244960194.19158077 -10179324.449768066 0 -10179324.449768066 -581110263.97737122 0 0 0 0 663690786.59346819 307687652.96521378 0 307687652.96521378 -893731140.91077423 0 0 0 0 403461121.33677769 270422150.63514709 0 270422150.63514709 -356407343.97037506 0 0 0 0 250095033.48487949 -125742849.1694355 0 -125742849.1694355 -1196673975.127182 0 0 0 0 374759370.85872364 546467797.08400726 0 546467797.08400726 -872389462.30764389 0 0 0 0 431329695.26818752 352602698.65564346 0 352602698.65564346 -235809628.83551025 0 0 0 0 -617294902.56296873 -735817312.5262394 0 -735817312.5262394 -508516014.97357178 0 0 0 0 699315815.16620016 504266512.11987305 0 504266512.11987305 -460868672.70487595 0 0 0 0 704654.92583024874 299293.46851028688 0 299293.46851028688 -7671238.2160878591 0 0 0 0 647067.42740554921 -1029713.2892868072 0 -1029713.2892868072 -2790407.434552528 0 0 0 0 324528651.94092512 -282648526.30968857 0 -282648526.30968857 -1367490726.9356384 0 0 0 0 317429679.74072522 5313392.5346231461 0 5313392.5346231461 -37702741.912902832 0 0 0 0 314261803.2355262 -215928546.89663887 0 -215928546.89663887 64661526.759017944 0 0 0 0 -255472.53185763315 -410343.22004835494 0 -410343.22004835494 -6609149.4125236608 0 0 0 0 -271099474.69984585 -886075214.34932709 0 -886075214.34932709 -2342337384.9771805 0 0 0 0 -409484670.0012337 -792702443.11398315 0 -792702443.11398315 -1126680873.3191376 0 0 0 0 253310572.88243937 -137189149.02063751 0 -137189149.02063751 -3458360339.2769814 0 0 0 0 -1089037632.6869929 2522763878.9816642 0 2522763878.9816642 -1789784369.3393784 0 0 0 0 -901557.69649727736 -1130583.0427221144 0 -1130583.0427221144 -5376570.4003025666 0 0 0 0 -1303610870.9290974 1051433763.2731972 0 1051433763.2731972 -557303134.21563721 0 0 0 0 418214851.58657408 -1417360833.2233047 0 -1417360833.2233047 872770318.61149597 0 0 0 0 -1810984.7932262318 -156999.8188402839 0 -156999.8188402839 -3933115.7591506895 0 0 0 0 -769839925.15379763 -803087977.63951874 0 -803087977.63951874 -255353888.28915727 0 0 0 0 1057689110.2170707 358238663.92218971 0 358238663.92218971 -3081275030.3028717 0 0 0 0 -2372475191.9033141 -790171551.0423317 0 -790171551.0423317 1762629829.1344986 0 0 0 0 -807155927.41772437 1269528300.2645493 0 1269528300.2645493 -2131857837.3353996 0 0 0 0 -2019361387.4368885 1460619697.9249096 0 1460619697.9249096 -2847987254.60215 0 0 0 0 -669240441.59946287 1260826234.5683594 0 1260826234.5683594 -3457383860.5990067 0 0 0 0 -503079831.48839104 707204109.30332947 0 707204109.30332947 -2827736363.3996658 0 0 0 0 2096182.5567654669 820785229.32607269 0 820785229.32607269 -2424247517.367424 0 0 0 0 -318223614.35302544 1092986191.9682007 0 1092986191.9682007 -2622969903.6603851 0 0 0 0 -474052027.28658056 718173415.10501099 0 718173415.10501099 -2530801684.2764206 0 0 0 0 -744862083.48230731 978873881.08052444 0 978873881.08052444 -813184043.69248199 0 0 0 0 -381301495.97457802 183566968.47252655 0 183566968.47252655 -112338712.23657227 0 0 0 0 -2329300971.0760283 -199958690.35620117 0 -199958690.35620117 834851800.09960938 0 0 0 0 -2117058.1968709379 -2221344.0527736172 0 -2221344.0527736172 -4007304.1799489483 0 0 0 0 -1912286.7144395639 -432574.63846727274 0 -432574.63846727274 -1102659.5721134078 0 0 0 0 231430301.49294472 195232778.01838875 0 195232778.01838875 -1719775367.2875061 0 0 0 0 -1965425715.0798035 -1278671539.4569321 0 -1278671539.4569321 1594828972.2423782 0 0 0 0 -641409042.20756149 -785324603.05828857 0 -785324603.05828857 -1450714555.8731785 0 0 0 0 -806777550.75848389 -699789368.89900208 0 -699789368.89900208 -1122606382.2518005 0 0 0 0 -891454072.83893585 1251696345.8885727 0 1251696345.8885727 -233461632.65468025 0 0 0 0 -1931293117.5774584 -234516836.66402245 0 -234516836.66402245 -169634679.36599731 0 0 0 0 -446593804.65019035 114164516.1980896 0 114164516.1980896 -106730152.47279739 0 0 0 0 -728996393.64494038 -103081558.45026398 0 -103081558.45026398 12962902.599311829 0 0 0 0 -551426590.95796394 194614232.69988632 0 194614232.69988632 12248773.767715454 0 0 0 0 56038095.115523696 -53989657.422641754 0 -53989657.422641754 -455197638.51226807 0 0 0 0 -63280567.405022621 178402059.66581345 0 178402059.66581345 -350464524.13095093 0 0 0 0 -4816448.2333761053 -5500439.5846693031 0 -5500439.5846693031 -10595153.678749837 0 0 0 0 449909910.07320619 419102623.59067881 0 419102623.59067881 129116205.63234615 0 0 0 0 357512273.59111404 343312370.54283047 0 343312370.54283047 244006521.95084953 0 0 0 0 517282.53040947486 1850096.3290004758 0 1850096.3290004758 -5723133.6485217391 0 0 0 0 213601534.86906531 161998797.8961404 0 161998797.8961404 17001629.70201683 0 0 0 0 212303195.60097027 29240893.681966782 0 29240893.681966782 -53788.506206512451 0 0 0 0 312847988.44689178 294813359.13875604 0 294813359.13875604 453908431.58653259 0 0 0 0 98198890.856969833 57202345.924576759 0 57202345.924576759 -30895676.85660553 0 0 0 0 139634596.55532455 76898794.301021576 0 76898794.301021576 -697768.73240661621 0 0 0 0 36386530.689401627 34368212.04227066 0 34368212.04227066 8853928.6407909393 0 0 0 0 73231113.886689663 -14599755.540626526 0 -14599755.540626526 -71373219.761333466 0 0 0 0 36549160.003664017 9413386.0306529999 0 9413386.0306529999 -5666235.0290145874 0 0 0 0 21552733.482118428 -104474414.66148841 0 -104474414.66148841 -64386515.963764191 0 0 0 0 30650643.966050148 -35405822.959574699 0 -35405822.959574699 13444473.29419899 0 0 0 0 88631340.695875168 -24411573.584000111 0 -24411573.584000111 2214244.05128479 0 0 0 0 151426817.26244354 25755842.764354706 0 25755842.764354706 -8980303.7554855347 0 0 0 0 127065206.15513229 66347694.038397789 0 66347694.038397789 104570909.46517944 0 0 0 0 142757465.68545055 62979683.64332962 0 62979683.64332962 58375059.914167404 0 0 0 0 266132487.47294807 105483456.40882397 0 105483456.40882397 11908043.016803741 0 0 0 0 124026674.3036961 -44872160.540453315 0 -44872160.540453315 -18547750.004384995 0 0 0 0 164242672.62917137 10559000.237045288 0 10559000.237045288 10448410.482469559 0 0 0 0 100141113.84598017 89271627.557543516 0 89271627.557543516 -113067424.219495 0 0 0 0 369716552.5454874 -1606223.1661396325 0 -1606223.1661396325 -403496534.75648105 0 0 0 0 747253.45757751353 3079528.4783422304 0 3079528.4783422304 -8913915.2210717797 0 0 0 0 140787927.22535133 19242393.267008781 0 19242393.267008781 86142010.571140289 0 0 0 0 487168400.21549225 92062713.809122086 0 92062713.809122086 254550800.49190378 0 0 0 0 -182671022.52692413 -15363501.705320358 0 -15363501.705320358 501847527.94525576 0 0 0 0 -29320.071847277693 141727.54587174137 0 141727.54587174137 -131299.53268001502 0 0 0 0 55243299.209171295 -372732165.24752033 0 -372732165.24752033 -233751505.00797319 0 0 0 0 -265164680.35865784 -288108406.44761002 0 -288108406.44761002 -523317762.85733485 0 0 0 0 35476252.969341278 -51508997.789238393 0 -51508997.789238393 -400876371.58325994 0 0 0 0 -71802276.855354309 48249002.665584058 0 48249002.665584058 -192655499.3394382 0 0 0 0 45620452.592927933 -140339101.0908511 0 -140339101.0908511 -387238977.78002292 0 0 0 0 1997782.653845625 -965843.65666085109 0 -965843.65666085109 -274001.42117469129 0 0 0 0 -61192185.60559845 -22827916.890293658 0 -22827916.890293658 -116437218.43351364 0 0 0 0 15666219.837459564 -17026608.181286991 0 -17026608.181286991 -338502795.35070473 0 0 0 0 -6476528.0187301636 -8006155.9992273748 0 -8006155.9992273748 -188783974.24104488 0 0 0 0 -13998256.935195923 -52178821.536519289 0 -52178821.536519289 -222768582.1393303 0 0 0 0 -3649079.784072876 -6238772.9520958662 0 -6238772.9520958662 -239688494.41905516 0 0 0 0 -1307915.8963546753 -15751041.107981026 0 -15751041.107981026 -93446835.488143027 0 0 0 0 -20883487.757396698 -59536168.500742078 0 -59536168.500742078 -92191560.571743906 0 0 0 0 -14111013.073982239 -47537298.283950686 0 -47537298.283950686 -174633478.40272117 0 0 0 0 2678704.6990222931 -183881343.81912711 0 -183881343.81912711 -299668208.30091822 0 0 0 0 -20372754.259712219 -13052451.259753853 0 -13052451.259753853 -338715385.06474859 0 0 0 0 93213131.83652401 -16936933.163484938 0 -16936933.163484938 -156148810.5387328 0 0 0 0 30523334.084552765 -97089368.23050563 0 -97089368.23050563 -192749887.73815829 0 0 0 0 -38020033.124866486 -24463123.703991115 0 -24463123.703991115 22218014.678866446 0 0 0 0 -5714468.8428459167 -126173563.81966349 0 -126173563.81966349 -44993295.665746957 0 0 0 0 -85188630.597969055 -162861598.20340857 0 -162861598.20340857 -156670963.83544227 0 0 0 0 -76876146.972529173 3858422.1949903159 0 3858422.1949903159 -153853880.78584582 0 0 0 0 7023093.2597980499 2490868.0887053013 0 2490868.0887053013 -2241218.139831543 0 0 0 0 1737034.4617347717 -12507343.962564111 0 -12507343.962564111 11269700.387814999 0 0 0 0 9742818.0186386108 -97939.595945119858 0 -97939.595945119858 -9295413.0764122009 0 0 0 0 7567153.806312561 -1200275.8462769985 0 -1200275.8462769985 -4331542.4899969101 0 0 0 0 -371416.32201710716 1829804.9241652358 0 1829804.9241652358 -2774278.6405034936 0 0 0 0 176923905.6495285 753764205.71242571 0 753764205.71242571 -206940594.94060898 0 0 0 0 908086276.6009922 -250273582.31019831 0 -250273582.31019831 376367680.67458868 0 0 0 0 461504.94541418925 362843.75284722913 0 362843.75284722913 -2064910.4095944469 0 0 0 0 5801390.5005664825 1157533.6681871414 0 1157533.6681871414 6661191.7598948479 0 0 0 0 33755518.293849945 7352149.0536231995 0 7352149.0536231995 6066646.3253581822 0 0 0 0 8450777.2254524231 -20297229.204367638 0 -20297229.204367638 6798008.5258448124 0 0 0 0 24454812.404563904 -15514290.872912884 0 -15514290.872912884 -2409603.9875278473 0 0 0 0 29884044.335853577 -18380792.998617172 0 -18380792.998617172 -11290072.346185684 0 0 0 0 13921040.642390728 -24188867.697820574 0 -24188867.697820574 -9086269.8325557709 0 0 0 0 28842425.139854431 -22382125.572793007 0 -22382125.572793007 -24362176.121435523 0 0 0 0 46163399.781044006 -12238611.32079792 0 -12238611.32079792 -23364009.957597733 0 0 0 0 30031688.69045639 -16713699.741131902 0 -16713699.741131902 -9935767.5592679977 0 0 0 0 32949889.736534119 -23195004.716433525 0 -23195004.716433525 -3961707.7748804847 0 0 0 0 57304314.490570068 -25420143.917462826 0 -25420143.917462826 -24090206.765277863 0 0 0 0 15465531.012168884 -6468060.2677249908 0 -6468060.2677249908 -18984659.283720016 0 0 0 0 35688472.133712769 -23995813.814833879 0 -23995813.814833879 -22650540.698739052 0 0 0 0 19048116.131256104 -12802822.425766945 0 -12802822.425766945 -20947080.681875467 0 0 0 0 20703472.776979446 1405976.0487576723 0 1405976.0487576723 -44766512.577562332 0 0 0 0 17306332.483100891 -17462157.112556934 0 -17462157.112556934 -30585488.894821167 0 0 0 0 64863166.685123444 -406936.33446717262 0 -406936.33446717262 -21430685.112658501 0 0 0 0 36602611.506282926 -145703403.13856128 0 -145703403.13856128 -491696199.06263733 0 0 0 0 544789646.48833466 617531877.57091999 0 617531877.57091999 -944505759.23706055 0 0 0 0 -195182.26219866006 1593394.8989813714 0 1593394.8989813714 -3963906.6942493943 0 0 0 0 -613427537.71651077 830272983.9904604 0 830272983.9904604 1173595426.1160693 0 0 0 0 -201675601.84619331 678007565.94542789 0 678007565.94542789 -654324986.90694237 0 0 0 0 115332296.71644974 58899453.083003044 0 58899453.083003044 -868094591.02075577 0 0 0 0 60645232.821662903 -4344589.3149490356 0 -4344589.3149490356 -376023583.31473446 0 0 0 0 36175699.208631516 -59812256.423348904 0 -59812256.423348904 -423845337.09384632 0 0 0 0 -51859959.389411926 -143919382.99050808 0 -143919382.99050808 -221276469.0209775 0 0 0 0 46144475.765099764 -44644045.955760896 0 -44644045.955760896 -412267468.47777557 0 0 0 0 98714005.395973206 -100914537.8494339 0 -100914537.8494339 -365265587.23259163 0 0 0 0 115345440.148489 -79207211.799635887 0 -79207211.799635887 -542680322.46154308 0 0 0 0 119736731.79667902 15114433.046151161 0 15114433.046151161 -433075647.49202728 0 0 0 0 36726405.535242796 -154333475.66852665 0 -154333475.66852665 -189449742.86024857 0 0 0 0 41821282.373394012 -167392096.46973228 0 -167392096.46973228 -152581451.42368507 0 0 0 0 54593473.478416443 -23889044.092329025 0 -23889044.092329025 -284894567.79249763 0 0 0 0 -18865288.028593063 -15826747.864063263 0 -15826747.864063263 20259948.813217163 0 0 0 0 38839214.638444901 12473982.690324783 0 12473982.690324783 -51556795.973720551 0 0 0 0 5316931.6315250397 -131439923.72115612 0 -131439923.72115612 67768965.212493896 0 0 0 0 39315669.756912231 145976564.82422066 0 145976564.82422066 164608487.05431366 0 0 0 0 -46254599.594589233 -37952648.419586182 0 -37952648.419586182 195523803.43752146 0 0 0 0 -50760812.369562626 -69827543.695384026 0 -69827543.695384026 -76090966.588487625 0 0 0 0 -38355930.895601869 -129752205.06382549 0 -129752205.06382549 -225046480.94766998 0 0 0 0 -69389684.917668343 -40375740.385904312 0 -40375740.385904312 -63689537.787467241 0 0 0 0 20799671.476397514 -10046091.837962151 0 -10046091.837962151 -173953799.90890121 0 0 0 0 -11230422.53324461 -105961256.10887194 0 -105961256.10887194 -226199647.72180367 0 0 0 0 -237396252.01526189 -149848856.2245903 0 -149848856.2245903 -220992636.944067 0 0 0 0 9926916.8532631397 4096987.9791779518 0 4096987.9791779518 -397887118.81463242 0 0 0 0 -135101163.91890907 33465544.429634094 0 33465544.429634094 -362134816.72460747 0 0 0 0 45516392.198637784 -62991923.323232204 0 -62991923.323232204 -552897914.43654251 0 0 0 0 -91991156.400204182 -247678621.33772802 0 -247678621.33772802 -467215285.08102608 0 0 0 0 -38815438.82917273 -121289171.67687106 0 -121289171.67687106 -349133058.41207981 0 0 0 0 3865115.3816046715 -140926873.52809477 0 -140926873.52809477 -340458398.82635117 0 0 0 0 -28446062.73553133 -228081533.0997715 0 -228081533.0997715 -491147603.91992259 0 0 0 0 -34992628.806524515 63384125.589566231 0 63384125.589566231 -83153795.471434593 0 0 0 0 307946.96976470656 -729214.34157442488 0 -729214.34157442488 -800596.47757661622 0 0 0 0 -58553597.787207752 -178545295.11237907 0 -178545295.11237907 -133635582.75606632 0 0 0 0 -117110818.97201884 -161718760.120821 0 -161718760.120821 -112872922.43784904 0 0 0 0 -88793744.005325496 -187513291.30038834 0 -187513291.30038834 -135983796.95750618 0 0 0 0 -61760094.730914593 -95734003.351630211 0 -95734003.351630211 -277735058.97301769 0 0 0 0 -55695740.057009637 -170740015.63129815 0 -170740015.63129815 -104226227.25281906 0 0 0 0 78827968.092849731 -23986764.383824348 0 -23986764.383824348 -59324187.801304817 0 0 0 0 444264.50835482613 -3954705.6363157532 0 -3954705.6363157532 -12762482.168177817 0 0 0 0 40850234.283672094 -372329.16919136047 0 -372329.16919136047 -55439441.097396851 0 0 0 0 -655901.70317542553 -52316470.63164854 0 -52316470.63164854 -254687077.4578023 0 0 0 0 -1583054.1429220438 -21184045.423870564 0 -21184045.423870564 -37775633.486730099 0 0 0 0 -77115475.875901461 -111451517.82294941 0 -111451517.82294941 -50398353.261287689 0 0 0 0 -128448495.09279621 -88981153.528530121 0 -88981153.528530121 -16390709.928462029 0 0 0 0 251361.67705509573 -3714892.0296226637 0 -3714892.0296226637 -12527174.712340873 0 0 0 0 -45125572.367787674 -92373915.212232351 0 -92373915.212232351 -45448070.507419586 0 0 0 0 -48150512.089791596 -143389930.01754618 0 -143389930.01754618 -36035869.499866486 0 0 0 0 -159664327.53771034 -168948238.17323172 0 -168948238.17323172 -40356183.027936935 0 0 0 0 -290706586.56997347 -89137479.804153442 0 -89137479.804153442 36271866.534294128 0 0 0 0 29733.294128494774 -2975532.3888563681 0 -2975532.3888563681 -11616950.32563531 0 0 0 0 70263992.775051117 -146512072.11081791 0 -146512072.11081791 -58360524.194311142 0 0 0 0 -61729844.879457474 -115333557.57815266 0 -115333557.57815266 -48826534.149805069 0 0 0 0 -37859581.978331342 -195424520.92781186 0 -195424520.92781186 -77802006.78386879 0 0 0 0 -80480717.940086424 -146129061.54583454 0 -146129061.54583454 -107581335.65621281 0 0 0 0 -30065941.334569216 -160494718.37618065 0 -160494718.37618065 -47198065.646586418 0 0 0 0 -90933461.243587971 -226577718.61599779 0 -226577718.61599779 -11135765.894355774 0 0 0 0 -98840425.429568768 -189217881.53124523 0 -189217881.53124523 -18884465.262442827 0 0 0 0 156235444.58715343 -146258074.08997917 0 -146258074.08997917 -40695769.130731583 0 0 0 0 -34671963.889455318 -164107189.6786108 0 -164107189.6786108 -28709273.845726013 0 0 0 0 112393284.17650092 -112384305.28878021 0 -112384305.28878021 -52771788.646240234 0 0 0 0 322371678.6787591 -39658912.892011642 0 -39658912.892011642 -51269244.291152954 0 0 0 0 -60577362.563856125 -243235457.61159134 0 -243235457.61159134 -9646775.6823806763 0 0 0 0 192840762.23154771 -263682255.01675367 0 -263682255.01675367 -79283079.049001694 0 0 0 0 206910230.87374949 -183659022.03172874 0 -183659022.03172874 -61834335.608773232 0 0 0 0 -180958878.21049082 -475068483.01033211 0 -475068483.01033211 -21887436.090848923 0 0 0 0 1110203632.493331 -227933469.92177963 0 -227933469.92177963 -163562161.60297394 0 0 0 0 542772275.53331637 102576795.65735126 0 102576795.65735126 -37197762.074342728 0 0 0 0 1072646900.3001294 564606159.46466935 0 564606159.46466935 241513265.70544434 0 0 0 0 359637152.70372963 -296546889.28341675 0 -296546889.28341675 -111706122.70781708 0 0 0 0 -384684360.22473907 -30132997.166758537 0 -30132997.166758537 531965.69938468933 0 0 0 0 -322209220.91093695 -271280063.24515057 0 -271280063.24515057 72901107.13776207 0 0 0 0 -313080845.20395088 -163384477.83018494 0 -163384477.83018494 -68468024.598018646 0 0 0 0 -382154.14704423666 -1964856.2550692647 0 -1964856.2550692647 -9461586.9492885768 0 0 0 0 -447416509.29972792 -88937525.053453445 0 -88937525.053453445 -52984952.403503418 0 0 0 0 -772011546.95374691 -2195003.4895277023 0 -2195003.4895277023 27551557.254814148 0 0 0 0 -746194700.47805882 -578864976.94832563 0 -578864976.94832563 -461558321.40094376 0 0 0 0 -73418037.112688363 -138137679.04964447 0 -138137679.04964447 -1507721782.2294312 0 0 0 0 301792931.17374766 -53031667.868479729 0 -53031667.868479729 -1489049491.5003357 0 0 0 0 -1781786519.8654914 -1239553843.0828552 0 -1239553843.0828552 -1132773368.2139874 0 0 0 0 -115983787.33823881 -969808298.26336765 0 -969808298.26336765 -3458859079.5475197 0 0 0 0 -917590.64881738368 -1166272.7509667049 0 -1166272.7509667049 -4014342.6049780548 0 0 0 0 1313187422.5015907 59742842.359167099 0 59742842.359167099 -261191013.35343742 0 0 0 0 511738327.03977931 436587871.75155544 0 436587871.75155544 170899207.9029808 0 0 0 0 3593094.0239555128 -1275932.2130786018 0 -1275932.2130786018 -6924713.5188786304 0 0 0 0 403298766.67742991 -79385462.091223717 0 -79385462.091223717 -912897064.97753096 0 0 0 0 1302680617.126334 -54933769.625750303 0 -54933769.625750303 -16119571.368919373 0 0 0 0 923313.78032581089 197249.27223466896 0 197249.27223466896 -1245915.4747894378 0 0 0 0 329240532.50498319 -208533837.90603256 0 -208533837.90603256 264182323.6656723 0 0 0 0 321324779.56858063 -118469095.33735466 0 -118469095.33735466 -604923104.94424248 0 0 0 0 -100241258.40841806 -50217022.219799042 0 -50217022.219799042 -486002639.06520844 0 0 0 0 875886520.46622479 263141099.86375332 0 263141099.86375332 -3460362664.6907501 0 0 0 0 846412044.88762295 1475276722.133461 0 1475276722.133461 -1673935964.463042 0 0 0 0 539251762.89558709 243101396.91125011 0 243101396.91125011 -1624680316.0491982 0 0 0 0 2492399.2903284403 -936762.02637940506 0 -936762.02637940506 -3830132.5558593515 0 0 0 0 2954895.1551357545 -1355582889.6622937 0 -1355582889.6622937 -3461417407.6244411 0 0 0 0 786688427.72163725 1564782263.1594148 0 1564782263.1594148 -571840768.5291748 0 0 0 0 241425213.28252828 -75880272.15413475 0 -75880272.15413475 -908113568.59045219 0 0 0 0 214047113.46483064 -183133964.76114321 0 -183133964.76114321 -891892986.67757034 0 0 0 0 248157008.08613044 519369713.94351912 0 519369713.94351912 -3457322871.9041767 0 0 0 0 -514896505.11245662 702047470.64340591 0 702047470.64340591 -476705403.05080986 0 0 0 0 10001987.715591013 -95572598.72862339 0 -95572598.72862339 -467398336.09669685 0 0 0 0 -323467730.51230705 261662661.30975103 0 261662661.30975103 78958197.308717728 0 0 0 0 338449039.07677603 -172207052.67282581 0 -172207052.67282581 -893563270.71873438 0 0 0 0 51123827.682092667 -32676622.649161935 0 -32676622.649161935 -2286157.2184379697 0 0 0 0 7204345.6752509614 -4939436.4985206798 0 -4939436.4985206798 -1752243.2937268622 0 0 0 0 420956333.05305719 138941933.03981495 0 138941933.03981495 -6328695.3574810028 0 0 0 0 2045926.5763689019 3585520.6754851486 0 3585520.6754851486 -11574153.277891783 0 0 0 0 -14195204.916400909 28421638.07850324 0 28421638.07850324 17005792.788589656 0 0 0 0 -5024217.7780617476 -23775021.892422885 0 -23775021.892422885 37168331.60728997 0 0 0 0 -12460543.560001135 15704408.406958945 0 15704408.406958945 -14334186.045628905 0 0 0 0 -10767417.38677597 34386174.06032604 0 34386174.06032604 -105982047.11833432 0 0 0 0 213388882.65081596 12927357.407977104 0 12927357.407977104 7858981.2213783264 0 0 0 0 247346276.20377922 398952.43558216095 0 398952.43558216095 -19117971.268432617 0 0 0 0 8589115.5343310833 -657522.27919929847 0 -657522.27919929847 4490835.1613855958 0 0 0 0 116231781.25120068 15947457.075781822 0 15947457.075781822 -25078848.037323117 0 0 0 0 742955.22691597883 -467509.33497301163 0 -467509.33497301163 -87010.801473865664 0 0 0 0 -48237812.919734955 30195896.149700284 0 30195896.149700284 -47249023.012546092 0 0 0 0 -45035830.520015717 22799769.53055048 0 22799769.53055048 24741737.315399289 0 0 0 0 8034923.7627599081 -5537475.8418471143 0 -5537475.8418471143 -1350617.7695924016 0 0 0 0 -12871531.397935867 -26567239.654393256 0 -26567239.654393256 2848535.8846562505 0 0 0 0 -67437920.349258423 1968444.645036459 0 1968444.645036459 -12991007.673024774 0 0 0 0 68030261.165774345 -71256127.638859749 0 -71256127.638859749 69762751.112616062 0 0 0 0 3632909.1407308672 2457020.6280351076 0 2457020.6280351076 -10083274.349251704 0 0 0 0 9754289.7866612673 4209830.5803933442 0 4209830.5803933442 -8930365.6638741493 0 0 0 0 5672426.9558787346 3327045.0352687836 0 3327045.0352687836 -6506532.3253159523 0 0 0 0 10574548.749081612 135931.26758265495 0 135931.26758265495 -11885861.23539573 0 0 0 0 2221717.8816308812 2978659.7528814189 0 2978659.7528814189 -7480420.1807157937 0 0 0 0 256792478.23523426 167966453.79138374 0 167966453.79138374 -402652108.92371464 0 0 0 0 -28749054.253957272 -97957857.498174191 0 -97957857.498174191 75566600.673693657 0 0 0 0 -255992522.96428466 62534977.680722952 0 62534977.680722952 358003859.39649391 0 0 0 0 3647526.5192385474 927613.36242566328 0 927613.36242566328 64160.927672045771 0 0 0 0 -550505.76587403624 457708.10882828035 0 457708.10882828035 -6348241.4689045204 0 0 0 0 671055.32969510299 1251396.8626289368 0 1251396.8626289368 -3460228140.8651781 0 0 0 0 7134829.8184022903 1929279.9596040249 0 1929279.9596040249 -11899323.218499184 0 0 0 0 4149256.4703642507 75233.895280797733 0 75233.895280797733 -5974945.0591820357 0 0 0 0 -385141328.81546921 -1090623921.0544624 0 -1090623921.0544624 -3079176475.831337 0 0 0 0 -9912677.1309442017 -621395651.64484549 0 -621395651.64484549 -3459837713.8233824 0 0 0 0 4114657.1517316513 144896.74648834509 0 144896.74648834509 -5212509.4596152902 0 0 0 0 1382724.0040217638 -284588016.14050961 0 -284588016.14050961 -2424739917.9224353 0 0 0 0 -244546355.87429431 -1226479254.5634184 0 -1226479254.5634184 -3464463514.9601612 0 0 0 0 399001.74632338987 205234.98094391031 0 205234.98094391031 -3427082.6211039005 0 0 0 0 -374247980.08954483 -477818164.29968929 0 -477818164.29968929 -1913426049.669775 0 0 0 0 1551777.1962976456 -2523997.733959198 0 -2523997.733959198 -15760976.272764206 0 0 0 0 4482880.8520355225 -1436318.1718854904 0 -1436318.1718854904 -17136959.092177391 0 0 0 0 3051276.287838459 -2390558.4403147101 0 -2390558.4403147101 -11208169.895511866 0 0 0 0 6875553.9631633759 2859996.6240930557 0 2859996.6240930557 -14413371.787557006 0 0 0 0 656544436.15394878 -275080864.57500839 0 -275080864.57500839 -3463453660.9885654 0 0 0 0 637740359.16862381 129328428.15168524 0 129328428.15168524 -3131700076.6280594 0 0 0 0 512983214.62928057 -1096994906.919281 0 -1096994906.919281 -3628478999.9708061 0 0 0 0 -197115595.87955767 -1030876779.2022643 0 -1030876779.2022643 -3484350850.1264873 0 0 0 0 197045.62323034334 247051.58642278053 0 247051.58642278053 -1750729.5755665777 0 0 0 0 188646065.19303977 25924439.719701767 0 25924439.719701767 -2324600975.3281574 0 0 0 0 34613048.1093494 -687547808.2702589 0 -687547808.2702589 -2433285438.1439619 0 0 0 0 6181612.8153448105 2446081.5279932022 0 2446081.5279932022 -22551843.779087067 0 0 0 0 4326508.140354502 1188158.2562971704 0 1188158.2562971704 -5841242.2297243923 0 0 0 0 -281581.45097446442 1803858.4134776592 0 1803858.4134776592 -20163821.973979592 0 0 0 0 5845813.4725363255 -1876180.7308586538 0 -1876180.7308586538 -18697137.914808273 0 0 0 0 -593810753.62607098 314080930.40967083 0 314080930.40967083 -1541534341.6326838 0 0 0 0 5044736.8488053801 2248278.2160017071 0 2248278.2160017071 -7362361.3499944629 0 0 0 0 3987216.0076026917 1427185.2049722672 0 1427185.2049722672 -12795896.956673622 0 0 0 0 1134874.1152849197 -5834383.236194849 0 -5834383.236194849 -3818836.9372916222 0 0 0 0 4740882.0850658417 -7865472.9617805481 0 -7865472.9617805481 -15138617.765290976 0 0 0 0 522219.91074442654 -190837.48831725214 0 -190837.48831725214 -132518.10318176099 0 0 0 0 5873853.3635797501 -1307107.5026996136 0 -1307107.5026996136 -2216030.4726138115 0 0 0 0 1600369.1131138136 -466312.4005311993 0 -466312.4005311993 -340247.37809558678 0 0 0 0 5186121.7627592087 2181057.1937801838 0 2181057.1937801838 -1404122.8737363815 0 0 0 0 15509877.329978943 -5657705.232077837 0 -5657705.232077837 -4993626.478430748 0 0 0 0 3438117.0353662143 1746907.6585294385 0 1746907.6585294385 -3841092.8581318371 0 0 0 0 16096403.142545775 29048942.380231015 0 29048942.380231015 -52539141.648779869 0 0 0 0 4212597.5464944839 4333411.7629349232 0 4333411.7629349232 -7556733.7411189079 0 0 0 0 4887354.9625806808 4851802.85349226 0 4851802.85349226 -21687271.200226545 0 0 0 0 -1717393.3207890987 8764455.1760764122 0 8764455.1760764122 -4515769.9767680168 0 0 0 0 1634773.8572368622 3188372.7675170898 0 3188372.7675170898 -640069.18557453156 0 0 0 0 3813827.9681224823 1226276.8679051399 0 1226276.8679051399 -1598627.2236887217 0 0 0 0 5336638.677312851 4426285.1523141861 0 4426285.1523141861 -7693677.5643860102 0 0 0 0 5309184.470284462 4107111.474842906 0 4107111.474842906 -4683491.0288257599 0 0 0 0 4828081.2671263833 1125684.1084402166 0 1125684.1084402166 -4938679.2711625211 0 0 0 0 -36023097.941673279 -8070791.7439602315 0 -8070791.7439602315 3573140.1076466069 0 0 0 0 27474276.610940933 -34507324.270099558 0 -34507324.270099558 -152928756.67586717 0 0 0 0 1469425.8859216329 -663534.76926718885 0 -663534.76926718885 -117332.07782128616 0 0 0 0 2969833.6669139862 -16489400.716859221 0 -16489400.716859221 20254592.724443913 0 0 0 0 -69833160.089197159 -86478936.256828785 0 -86478936.256828785 -124830251.07726198 0 0 0 0 25939322.715978622 -80504922.217787385 0 -80504922.217787385 -319570590.96544385 0 0 0 0 50041867.319955826 -68151699.406120062 0 -68151699.406120062 -262983040.47696042 0 0 0 0 36199980.330095291 -97147612.053782701 0 -97147612.053782701 -180917166.47142202 0 0 0 0 -3668971.2478981018 -61887605.591247112 0 -61887605.591247112 -84354195.730250388 0 0 0 0 -60005387.147429466 1808242.2604949102 0 1808242.2604949102 -150890777.68338919 0 0 0 0 36251790.793365479 -42608408.81496644 0 -42608408.81496644 -187039190.80750513 0 0 0 0 40797423.977947235 -9393943.1312118173 0 -9393943.1312118173 -143857860.043607 0 0 0 0 12055492.067623138 10980480.196793854 0 10980480.196793854 -61163177.40165782 0 0 0 0 12170851.642745972 -15809453.116516948 0 -15809453.116516948 -31627109.199316025 0 0 0 0 4296963.5495700836 2867936.6245207787 0 2867936.6245207787 -1133160.8901131153 0 0 0 0 -8855665.0098028183 30364732.872216918 0 30364732.872216918 -55763614.487199545 0 0 0 0 4434401.0622060578 724233.53264513775 0 724233.53264513775 -3964840.5780326854 0 0 0 0 2612784.9982757568 -3898123.2881203294 0 -3898123.2881203294 -11138214.413013786 0 0 0 0 480210.61451105587 53187.212988120504 0 53187.212988120504 -448841.34218637476 0 0 0 0 4999073.8219652176 1075753.5896201134 0 1075753.5896201134 -356952.74098062515 0 0 0 0 1851429.2733325958 726927.46347618103 0 726927.46347618103 -1318001.4212384224 0 0 0 0 14444629.945037842 12726298.38682282 0 12726298.38682282 -17637882.785792351 0 0 0 0 1966324.1737800911 1781152.2701217274 0 1781152.2701217274 -1267758.4199712542 0 0 0 0 2108807.6811469048 2070875.1470929268 0 2070875.1470929268 -1936856.7075930934 0 0 0 0 -10936863.366523743 14052874.64165175 0 14052874.64165175 -40554577.361261129 0 0 0 0 2883926.0206960179 1177444.5589481308 0 1177444.5589481308 -2730575.2786780251 0 0 0 0 -45182633.131614685 21673221.598911762 0 21673221.598911762 15170483.723203659 0 0 0 0 -38668910.76679039 68128012.017505616 0 68128012.017505616 -10798603.843869209 0 0 0 0 -50012452.338193893 34551910.391727686 0 34551910.391727686 -22930661.853544235 0 0 0 0 -74180657.301063538 47137809.60459137 0 47137809.60459137 -10041739.327169418 0 0 0 0 695768.30873631779 654420.65799947316 0 654420.65799947316 -769345.95031467942 0 0 0 0 -64907034.656449318 28428344.625333905 0 28428344.625333905 4570911.0523576736 0 0 0 0 1328019.4922308999 868908.89462025091 0 868908.89462025091 -2204954.0159088075 0 0 0 0 -116678620.75079346 -153488574.78378791 0 -153488574.78378791 -61300278.308196068 0 0 0 0 -24851821.566596985 -11834363.889861226 0 -11834363.889861226 -51058752.913807869 0 0 0 0 -90133158.737438202 -74984182.232448101 0 -74984182.232448101 -110337387.05724859 0 0 0 0 -17814953.698310852 -45150248.11061132 0 -45150248.11061132 -124540649.4365747 0 0 0 0 44013014.338787079 -124104173.49836802 0 -124104173.49836802 -107846553.51831579 0 0 0 0 -322612705.07768822 -179766654.1231941 0 -179766654.1231941 -107293760.88216162 0 0 0 0 -12734888.005592346 -208853702.1065197 0 -208853702.1065197 -63738874.648979187 0 0 0 0 -111921825.12363815 110478061.81442428 0 110478061.81442428 105519251.00421607 0 0 0 0 70101584.966590881 -182899045.70779705 0 -182899045.70779705 -162900056.38682938 0 0 0 0 336744.44296175335 283103.94623674359 0 283103.94623674359 -645488.33298702212 0 0 0 0 -300756224.84557152 37014632.50249958 0 37014632.50249958 21831510.173848152 0 0 0 0 -124021781.71902014 84935071.772021696 0 84935071.772021696 7888684.9115619659 0 0 0 0 -123582905.86526871 10569385.290898323 0 10569385.290898323 49149.962864875793 0 0 0 0 -91349049.688316345 -142065880.59607363 0 -142065880.59607363 -361293098.27069354 0 0 0 0 -176863850.62028599 159801498.11002493 0 159801498.11002493 -78704021.515794754 0 0 0 0 41688522.547203064 9348245.6446373463 0 9348245.6446373463 -227467050.96084595 0 0 0 0 -63545572.788354874 76001339.828808546 0 76001339.828808546 -431074292.5823791 0 0 0 0 -38413523.375968933 -8450654.0365552902 0 -8450654.0365552902 -185036460.18832016 0 0 0 0 44790874.985240936 5309729.9322817326 0 5309729.9322817326 -191057154.93074274 0 0 0 0 49269202.363892794 -60436901.752019376 0 -60436901.752019376 -122076805.56188583 0 0 0 0 35760821.146755219 -42487106.319862604 0 -42487106.319862604 -91795183.071408272 0 0 0 0 42683242.911308289 -72462715.636910915 0 -72462715.636910915 -61110115.112221718 0 0 0 0 30066127.500205994 -10819576.074934721 0 -10819576.074934721 -97531873.174843311 0 0 0 0 42597215.984107971 -20448332.559308529 0 -20448332.559308529 -118984796.68696499 0 0 0 0 34397964.052967072 -33096025.221762657 0 -33096025.221762657 -69258310.695596933 0 0 0 0 16090623.008895874 11583810.700744152 0 11583810.700744152 -103527497.94260454 0 0 0 0 21827433.133300781 -12337044.83215189 0 -12337044.83215189 -58213958.459522724 0 0 0 0 12940574.032013893 -4901652.0240765214 0 -4901652.0240765214 -47042935.99789238 0 0 0 0 10838112.988330841 -28538873.893783569 0 -28538873.893783569 -28899907.033806562 0 0 0 0 14447678.488277674 -21389936.494670093 0 -21389936.494670093 -23430456.387106895 0 0 0 0 11645488.769851685 -35286420.201797009 0 -35286420.201797009 -32141117.702931523 0 0 0 0 11213967.155727267 -16688732.830852352 0 -16688732.830852352 -40375513.068519592 0 0 0 0 4845032.7238464355 -45876962.054931998 0 -45876962.054931998 33871106.871402264 0 0 0 0 5465132.4506072998 -36276939.080969095 0 -36276939.080969095 2851037.6523923874 0 0 0 0 8360460.2104671001 -20636586.99801138 0 -20636586.99801138 9075055.2447142601 0 0 0 0 8750785.8692588806 -23754373.724465609 0 -23754373.724465609 13432541.614036083 0 0 0 0 16905088.235847473 -8692993.3636677861 0 -8692993.3636677861 23929461.82467556 0 0 0 0 -40639201.697711945 -18192005.40232873 0 -18192005.40232873 210051791.18586636 0 0 0 0 599816.90227692109 -163866.72100331169 0 -163866.72100331169 -94790.669573686784 0 0 0 0 7991111.0791168213 -182059778.85576749 0 -182059778.85576749 79132070.243702888 0 0 0 0 27805235.45704937 22576304.77499485 0 22576304.77499485 -7673865.3637213707 0 0 0 0 55657385.346212387 8953535.6842751503 0 8953535.6842751503 -34609270.200106621 0 0 0 0 40418452.732572556 29013845.507847786 0 29013845.507847786 -36078958.781156152 0 0 0 0 78712749.685916901 42626080.197511911 0 42626080.197511911 -35305483.542817101 0 0 0 0 23514132.732280135 78246004.382858723 0 78246004.382858723 -50106709.839678288 0 0 0 0 288862.86169136968 553884.68967775255 0 553884.68967775255 -1085204.976910999 0 0 0 0 57254733.001441956 13302228.470882893 0 13302228.470882893 -10901483.733276367 0 0 0 0 8790073.0606231689 19406344.397005081 0 19406344.397005081 -1286415.2721092701 0 0 0 0 -54527647.970495224 -16619024.589948535 0 -16619024.589948535 65396778.082612991 0 0 0 0 230710879.28393745 18647334.698908329 0 18647334.698908329 -156050591.00217557 0 0 0 0 -16788031.740049541 21605132.00514856 0 21605132.00514856 21487660.824739456 0 0 0 0 -13412526.906850815 64787717.265810013 0 64787717.265810013 -55828431.358463287 0 0 0 0 301886.78128077672 665075.04250950739 0 665075.04250950739 -907616.83692626469 0 0 0 0 83793927.470367193 -446042.49933892488 0 -446042.49933892488 -21838757.834883213 0 0 0 0 -36062997.414768219 84420984.840361595 0 84420984.840361595 17667154.507329583 0 0 0 0 37961295.710486412 61023336.739882469 0 61023336.739882469 -22470061.242953777 0 0 0 0 -38071374.792806625 68407853.717857838 0 68407853.717857838 -4481294.9633607864 0 0 0 0 -43186485.277252197 49818194.472247124 0 49818194.472247124 -20047508.660561085 0 0 0 0 -33658655.827953339 68567537.91745019 0 68567537.91745019 -19495059.155769348 0 0 0 0 149740.95395682869 376145.52784441132 0 376145.52784441132 -370936.21622654749 0 0 0 0 -126807552.58714581 106208226.26397133 0 106208226.26397133 -45498933.518768311 0 0 0 0 81794900.190540314 -37494371.580950737 0 -37494371.580950737 -23264246.516414881 0 0 0 0 58979460.731115341 -6218765.7384266853 0 -6218765.7384266853 -6016235.1855275631 0 0 0 0 3780907.638966308 3518764.6388196857 0 3518764.6388196857 -5831448.2519737948 0 0 0 0 59909289.798593998 -5765524.0792703629 0 -5765524.0792703629 -22055328.042942047 0 0 0 0 77787494.154399872 239961.46228218079 0 239961.46228218079 -20487696.46962738 0 0 0 0 2915907.1335554123 -25523403.141823769 0 -25523403.141823769 -51360890.61644125 0 0 0 0 2120747.2481178269 -1857555.1414151993 0 -1857555.1414151993 -4946706.4045177456 0 0 0 0 80091683.906061172 -5831206.2870428562 0 -5831206.2870428562 -88313303.812541962 0 0 0 0 13458610.613882065 57993245.12872982 0 57993245.12872982 -72447545.778813243 0 0 0 0 6328789.5210684035 3659379.8213015478 0 3659379.8213015478 -9659464.7545022666 0 0 0 0 40919925.216377258 24552959.766169548 0 24552959.766169548 -34260101.884235382 0 0 0 0 10652011.058109283 -6943891.8398227692 0 -6943891.8398227692 -40825960.988190174 0 0 0 0 -5300037.6756839752 24582910.20113945 0 24582910.20113945 -12424921.40086937 0 0 0 0 -57972.73166847229 58335022.271173477 0 58335022.271173477 -130624318.34631252 0 0 0 0 -38636386.052203178 -20450774.622172832 0 -20450774.622172832 -23611143.822878838 0 0 0 0 -479983.59895518422 22738947.458612509 0 22738947.458612509 17772493.354569435 0 0 0 0 5972236.0811444446 1083946.2939667173 0 1083946.2939667173 -7784676.7761631552 0 0 0 0 2083573.5925254822 -39835744.707879066 0 -39835744.707879066 -531633.88457989693 0 0 0 0 -316067266.94767606 947118380.18252373 0 947118380.18252373 -2041187687.5823441 0 0 0 0 -653396569.69472051 350076374.6893158 0 350076374.6893158 356773607.9892807 0 0 0 0 9490793.65384317 3374787.0794093246 0 3374787.0794093246 -9584774.4714485817 0 0 0 0 2210691.8088076389 -1759662.0770471226 0 -1759662.0770471226 -6635745.6496455856 0 0 0 0 -1140604796.9533048 -449046400.3367877 0 -449046400.3367877 -4307142160.7521095 0 0 0 0 -901450000.02263999 -520684912.11688423 0 -520684912.11688423 -209827005.43856621 0 0 0 0 -293919164.98046666 1041685639.0521822 0 1041685639.0521822 -3422909053.9963722 0 0 0 0 -18903848.88484814 621485228.73428154 0 621485228.73428154 -3465996802.6062069 0 0 0 0 439474953.81864363 38381102.537324905 0 38381102.537324905 -2843618031.3393803 0 0 0 0 472058250.29749829 -323573071.97850037 0 -323573071.97850037 -2273391688.395153 0 0 0 0 -155629659.2601718 -512375090.36805725 0 -512375090.36805725 -462323383.04832745 0 0 0 0 261983604.92565513 -432941506.6639328 0 -432941506.6639328 -1319416050.2982979 0 0 0 0 -1596031401.6219392 -439347668.47361565 0 -439347668.47361565 -3465622658.7588768 0 0 0 0 619152805.03531504 -1245677339.8651161 0 -1245677339.8651161 -3679922888.7394829 0 0 0 0 -914993170.2804637 -1755101531.7378438 0 -1755101531.7378438 -1909767063.01371 0 0 0 0 560155300.29505146 -694850812.84282875 0 -694850812.84282875 -2202561797.1592941 0 0 0 0 639623560.73772919 -518255552.3694663 0 -518255552.3694663 -3464191436.6102924 0 0 0 0 351245712.54579604 -39669044.740446091 0 -39669044.740446091 -2562458131.4888668 0 0 0 0 393266209.46390921 -538749105.99521303 0 -538749105.99521303 -2293259116.7908936 0 0 0 0 -190421754.4126654 337504270.38875771 0 337504270.38875771 -539040054.18843269 0 0 0 0 -359798087.64876765 -431957152.91501331 0 -431957152.91501331 -405778253.49248505 0 0 0 0 231721.3058468645 -659384.35757664125 0 -659384.35757664125 -3184960.0152833946 0 0 0 0 -199788092.20775259 627289474.11510658 0 627289474.11510658 -2618004991.7662764 0 0 0 0 256570634.9267678 -273503081.46292782 0 -273503081.46292782 -3015773169.8908958 0 0 0 0 125708690.99725339 672315611.58432007 0 672315611.58432007 -2953783279.7358322 0 0 0 0 -273413096.62080866 219178958.61787415 0 219178958.61787415 -3464025280.2872734 0 0 0 0 457014867.36712819 678900020.58411407 0 678900020.58411407 -2970414724.6872215 0 0 0 0 563331485.79818189 652260471.70160103 0 652260471.70160103 -3465196900.106636 0 0 0 0 455034250.27339798 202067343.39979807 0 202067343.39979807 -2506193596.9725494 0 0 0 0 377744.19744960556 123288.53988775983 0 123288.53988775983 -2770148.9805759545 0 0 0 0 52124400.044525057 31263018.942268372 0 31263018.942268372 -767522.13925170898 0 0 0 0 145888007.99429882 439206779.13716125 0 439206779.13716125 -929704649.79959106 0 0 0 0 22246820.072986484 399025957.08924675 0 399025957.08924675 -482789831.30725098 0 0 0 0 152851268.80966163 -27720310.733703613 0 -27720310.733703613 -55841555.413528442 0 0 0 0 413474026.71752816 -436622660.65478134 0 -436622660.65478134 -2340620585.1058617 0 0 0 0 358752.03768752178 -6555561.576978866 0 -6555561.576978866 -13927380.050671641 0 0 0 0 53545479.132834435 198526792.35866928 0 198526792.35866928 8951531.1953735352 0 0 0 0 -173325341.41504145 130869101.3235321 0 130869101.3235321 349149284.53727341 0 0 0 0 23514911.687752724 -170565132.40940857 0 -170565132.40940857 -831714056.25343132 0 0 0 0 -512478641.53046465 -192623220.42576981 0 -192623220.42576981 139368899.83054352 0 0 0 0 264780319.93096161 -156046193.4131012 0 -156046193.4131012 63697822.359509945 0 0 0 0 172405.03861551394 -204545.24929189309 0 -204545.24929189309 -1056786.4340236809 0 0 0 0 -72967382.322608471 -88918225.601417542 0 -88918225.601417542 122443357.03352356 0 0 0 0 96411805.937905073 -331386381.15623856 0 -331386381.15623856 -29984251.003650665 0 0 0 0 1135366.2077119683 -5898983.261863742 0 -5898983.261863742 -11917447.402688883 0 0 0 0 -53127618.685885072 7999231.1283550262 0 7999231.1283550262 51510344.34651947 0 0 0 0 34286847.964759767 -32538636.52155304 0 -32538636.52155304 -38557789.162834167 0 0 0 0 -8256660.5997240543 -40227976.110417366 0 -40227976.110417366 -37974416.650314331 0 0 0 0 -23068387.990635276 -3440699.5711288452 0 -3440699.5711288452 7769333.6986351013 0 0 0 0 -865986.30255106057 -221801.9942747876 0 -221801.9942747876 1354146.1495145857 0 0 0 0 15859711.967191219 -20916401.358070374 0 -20916401.358070374 -55067339.025295258 0 0 0 0 16553988.48545754 -23872492.869789124 0 -23872492.869789124 -46612549.768516541 0 0 0 0 12744000.475491047 -22474276.580310822 0 -22474276.580310822 -35681221.948729515 0 0 0 0 26890376.694296837 -13227105.951293945 0 -13227105.951293945 -36476278.457668781 0 0 0 0 1951206.2278137207 -19924942.161497116 0 -19924942.161497116 -21711072.24338007 0 0 0 0 13651872.782028437 -4211608.4750022888 0 -4211608.4750022888 -39064220.193435669 0 0 0 0 4625547.4479363672 -7522370.5459516607 0 -7522370.5459516607 -29527505.652927618 0 0 0 0 14744366.831636429 -5686716.9848871231 0 -5686716.9848871231 -43306912.483548641 0 0 0 0 4800973.7460926147 2225531.1637326041 0 2225531.1637326041 -12649712.157512527 0 0 0 0 10178642.643278599 -5923939.8453037739 0 -5923939.8453037739 -42688603.395890236 0 0 0 0 4267386.1548349243 -8822128.3622580804 0 -8822128.3622580804 -28127953.255843721 0 0 0 0 2100567.0143226106 -6979898.6346881371 0 -6979898.6346881371 -16155136.358119603 0 0 0 0 6764537.0516371727 -20612691.19896698 0 -20612691.19896698 -12542825.213439941 0 0 0 0 1043938.9751029769 575031.61124335229 0 575031.61124335229 -865712.78516092803 0 0 0 0 -630245251.40733576 -220115782.78982544 0 -220115782.78982544 91956224.275413513 0 0 0 0 152328923.64497185 145930086.56744766 0 145930086.56744766 -193558469.95563507 0 0 0 0 -967739539.00555158 -473145901.85894275 0 -473145901.85894275 -49567256.026397705 0 0 0 0 -2187363.0535861226 -1338897.229505945 0 -1338897.229505945 -1109002.8327772245 0 0 0 0 -95606114.626304507 -25227896.198666573 0 -25227896.198666573 3937105.0012817383 0 0 0 0 75574169.751752585 9868464.6347160339 0 9868464.6347160339 -3449931125.4345741 0 0 0 0 182264495.83934689 63139306.327522278 0 63139306.327522278 14186324.230407715 0 0 0 0 165185795.63968277 53347519.077804565 0 53347519.077804565 11558312.669586182 0 0 0 0 179604238.29599166 66058457.670099258 0 66058457.670099258 13058798.935913086 0 0 0 0 -2783947.2728296742 -4035739.05027394 0 -4035739.05027394 -4086074.5729188025 0 0 0 0 864702.96582424641 -3643130.3168983459 0 -3643130.3168983459 -68043.64111328125 0 0 0 0 862236.21949207783 -3763884.1537475586 0 -3763884.1537475586 -4292297.1252708435 0 0 0 0 -730563741.5171454 1934652592.1301785 0 1934652592.1301785 -3461921305.0712357 0 0 0 0 497199.61985621811 -766810.3206964992 0 -766810.3206964992 -2323405.6805340871 0 0 0 0 -82902690.968322635 928339059.45360947 0 928339059.45360947 -2029635584.8677444 0 0 0 0 88574316.070999056 978895802.15626907 0 978895802.15626907 -2941749663.2278404 0 0 0 0 -127641014.59892158 500681184.54287338 0 500681184.54287338 -2044176724.3059793 0 0 0 0 -126384078.80389908 488342434.03165054 0 488342434.03165054 -1962345777.7107658 0 0 0 0 -1453263.0115142469 -2638895.219199216 0 -2638895.219199216 -1937783.3888678998 0 0 0 0 163558.91473091958 -2811445.8400198929 0 -2811445.8400198929 -8361558.4568425044 0 0 0 0 162490.50472937507 -4600480.2770531178 0 -4600480.2770531178 -5314339.0636553392 0 0 0 0 -7015204.3881900311 -15459615.518447876 0 -15459615.518447876 -6275476.3394470215 0 0 0 0 2947836.8271299005 -1753583.0681800842 0 -1753583.0681800842 -23113575.688842773 0 0 0 0 -2603374.6933336258 1145294.3959503174 0 1145294.3959503174 -20957360.915203094 0 0 0 0 277426.86270833015 -413260.56554031372 0 -413260.56554031372 -5148518.0639953613 0 0 0 0 118072.18418836576 -2541233.1014034655 0 -2541233.1014034655 -6205794.9316763189 0 0 0 0 -655144.18709114485 956573.92311337218 0 956573.92311337218 -6093376.8724126182 0 0 0 0 -3829440.4842106104 -583763.95852279663 0 -583763.95852279663 -27733205.543357849 0 0 0 0 -1797153.4961576439 1865063.6432013698 0 1865063.6432013698 -3456684.8258774597 0 0 0 0 -27500285.796822786 10094703.621082306 0 10094703.621082306 18244258.575554848 0 0 0 0 1045553.5552975237 -7030563.0456237793 0 -7030563.0456237793 -41985995.012588501 0 0 0 0 -89471.232270240784 -5329903.3235244751 0 -5329903.3235244751 -38760065.953842163 0 0 0 0 -278577.40783774853 -5329254.6474456787 0 -5329254.6474456787 -40740346.627502441 0 0 0 0 -2685631.0404234799 -8909931.8733304143 0 -8909931.8733304143 -36483457.76348877 0 0 0 0 -833932.57706421614 -2480957.5880737305 0 -2480957.5880737305 -39769654.140506744 0 0 0 0 -638055.58404490724 -196758.70414213836 0 -196758.70414213836 1259885.9335120618 0 0 0 0 -5631497.9480513334 -1635072.2213287354 0 -1635072.2213287354 5270013.3062744141 0 0 0 0 5661586.8445018865 -771889.11568016186 0 -771889.11568016186 -10597160.958171543 0 0 0 0 -169323014.51062012 -57835637.932983398 0 -57835637.932983398 -24331406.713012695 0 0 0 0 -5498977.3857158422 -9946177.1488037109 0 -9946177.1488037109 -39062311.542793274 0 0 0 0 727889.71630995779 136416.90255020559 0 136416.90255020559 -3603192.1267059762 0 0 0 0 2457807.3471642435 3562768.4627761841 0 3562768.4627761841 -19855300.211368561 0 0 0 0 3089850.2388961315 -8585587.4450111389 0 -8585587.4450111389 -49657160.248931885 0 0 0 0 4969464.8300306201 -2115410.791053772 0 -2115410.791053772 -50878996.800430298 0 0 0 0 3759825.5945479581 -42050.912582937628 0 -42050.912582937628 -3345447.0140793994 0 0 0 0 2703509.2355434895 3874369.6684570312 0 3874369.6684570312 -39873679.794141769 0 0 0 0 4151294.0680938512 2396931.2735137939 0 2396931.2735137939 -48446161.620361328 0 0 0 0 -2742084.3904544623 2411549.745315535 0 2411549.745315535 -2365641.1284890668 0 0 0 0 -17212597.084109515 -5105025.0470542908 0 -5105025.0470542908 -25941064.803253174 0 0 0 0 4507342.1977743581 -4489249.5423464775 0 -4489249.5423464775 -23488864.215438843 0 0 0 0 22954114.416547775 -6007098.4781084061 0 -6007098.4781084061 -129400563.47050476 0 0 0 0 31074127.688450336 -22961886.739185333 0 -22961886.739185333 -123108651.74035645 0 0 0 0 38430609.409317493 -25164621.726034164 0 -25164621.726034164 -115768741.73872375 0 0 0 0 8704807.1929113865 -1280786.8440847397 0 -1280786.8440847397 -22409976.432106018 0 0 0 0 21157714.775952458 11492845.299411774 0 11492845.299411774 -135610877.65428925 0 0 0 0 4680913.9819920063 -36400713.299430847 0 -36400713.299430847 -116826809.30641174 0 0 0 0 -3761525.5839631557 -29484301.518306732 0 -29484301.518306732 -120551121.53896332 0 0 0 0 -35997438.471893311 -118707831.43452454 0 -118707831.43452454 -226747959.13056374 0 0 0 0 3616650.3232818842 49589877.093345642 0 49589877.093345642 -190107313.25299835 0 0 0 0 -79204621.658715367 -51886864.548103333 0 -51886864.548103333 3561383.8036708832 0 0 0 0 -540505.09615932952 368989.46515249275 0 368989.46515249275 810482.6300602518 0 0 0 0 -46846111.973712385 58168913.206100464 0 58168913.206100464 -21499458.005577087 0 0 0 0 -31277879.734355807 24405666.034816742 0 24405666.034816742 17010684.440704346 0 0 0 0 -3482462.985098958 7241728.1487598419 0 7241728.1487598419 -15719248.573524475 0 0 0 0 -14839189.955452204 3067790.1321716309 0 3067790.1321716309 8622844.0937347412 0 0 0 0 4102970.0789358374 4421878.1173909176 0 4421878.1173909176 -9430951.8319521565 0 0 0 0 2942264.1912579536 4109703.7116317749 0 4109703.7116317749 -5473850.7832975388 0 0 0 0 2234689.3645606041 2886404.9563522339 0 2886404.9563522339 -3131279.3623847961 0 0 0 0 -9557135.6428812742 3195617.1379890442 0 3195617.1379890442 23746563.218338013 0 0 0 0 11861096.274206638 523386.26991271973 0 523386.26991271973 8180153.971496582 0 0 0 0 4269603.0679647122 5154283.4021121785 0 5154283.4021121785 -7248982.9882579576 0 0 0 0 5344709.8359608054 6410223.1246371269 0 6410223.1246371269 -4842367.1141204834 0 0 0 0 6582721.1377129555 -2917360.1331424713 0 -2917360.1331424713 11733788.290260315 0 0 0 0 5961264.0514440536 4198327.9034042358 0 4198327.9034042358 -12263017.2939291 0 0 0 0 7615063.1734905243 2389582.7832489014 0 2389582.7832489014 6271780.7530288696 0 0 0 0 19437627.252367973 1961293.1053543091 0 1961293.1053543091 5988202.3182926178 0 0 0 0 12095864.117697716 -5989951.7432975769 0 -5989951.7432975769 2935729.6223678589 0 0 0 0 -9808425.8241343498 -24958921.761981964 0 -24958921.761981964 -117713046.10519409 0 0 0 0 10175648.92273283 11468186.900278091 0 11468186.900278091 9445837.193321228 0 0 0 0 -899704.34684896469 -40890191.579849243 0 -40890191.579849243 -124311924.99349213 0 0 0 0 -1238690.1609198018 1388509.9918644205 0 1388509.9918644205 2516463.1450416446 0 0 0 0 1460857.7113468391 711406.43354599178 0 711406.43354599178 -9281195.4988390654 0 0 0 0 4189697.4098111275 4103915.6003608042 0 4103915.6003608042 -8631100.8688562699 0 0 0 0 4802175.0907040834 5750145.7218589783 0 5750145.7218589783 10601992.567955017 0 0 0 0 4425607.2685723305 4276395.014087677 0 4276395.014087677 -23651574.75088501 0 0 0 0 -1876446.8544609547 574564.51713562012 0 574564.51713562012 4416790.0288009644 0 0 0 0 -6199.5470177848474 721969.44725556497 0 721969.44725556497 171388.49866759777 0 0 0 0 48720.3390003026 230472.50862739608 0 230472.50862739608 -109552.82284070831 0 0 0 0 798568.84397435188 1194504.8834724426 0 1194504.8834724426 -1617267.7085390091 0 0 0 0 322273.58312213421 -56590.63830947876 0 -56590.63830947876 -644586.61649703979 0 0 0 0 209294.46994453762 254082.92428173684 0 254082.92428173684 -716100.39682113752 0 0 0 0 15824059.985767841 -1119452.7653808594 0 -1119452.7653808594 -121081758.10571671 0 0 0 0 1232900.7437409442 1719312.5169292223 0 1719312.5169292223 -2925055.1440263689 0 0 0 0 5172659.7850966454 -8294574.7470912933 0 -8294574.7470912933 -102502342.70066071 0 0 0 0 26891065.639507771 -25659774.089889526 0 -25659774.089889526 13805523.811210632 0 0 0 0 13943538.515825272 3946079.6229934692 0 3946079.6229934692 -44829350.4115448 0 0 0 0 -2557331.6874485016 53473928.794464111 0 53473928.794464111 23139905.550774574 0 0 0 0 511618.28059196472 26906976.919500828 0 26906976.919500828 -18934555.601855755 0 0 0 0 56585171.334133625 -1990184.474521637 0 -1990184.474521637 -40418539.534408569 0 0 0 0 28614171.606936455 -579802.53746032715 0 -579802.53746032715 -38185349.027732849 0 0 0 0 2551937.6337226601 6421662.5750859166 0 6421662.5750859166 -23358964.612382669 0 0 0 0 10459526.860836744 -10203078.97593689 0 -10203078.97593689 -33368532.21660614 0 0 0 0 42251101.957034826 -19287962.07252121 0 -19287962.07252121 -52857745.536331177 0 0 0 0 12137455.033186913 -2719771.797996521 0 -2719771.797996521 -84075360.458101273 0 0 0 0 993025.45878128707 -41637653.679187775 0 -41637653.679187775 -73210033.381866455 0 0 0 0 10658915.625528239 -12569742.707522154 0 -12569742.707522154 -60485972.158416748 0 0 0 0 -20405574.058344901 -51701067.052398682 0 -51701067.052398682 -36103240.758016586 0 0 0 0 -22762595.769095182 -86515902.675086975 0 -86515902.675086975 -124539128.88611603 0 0 0 0 25983013.404566497 -2745975.328502655 0 -2745975.328502655 -223058198.3955574 0 0 0 0 -10722048.414620042 83186843.818656921 0 83186843.818656921 -127430908.85303497 0 0 0 0 25452778.275252882 4870285.701792717 0 4870285.701792717 -81523818.111633301 0 0 0 0 6549301.3652967215 6435661.1805992126 0 6435661.1805992126 -26654101.325340271 0 0 0 0 3474015.2205839157 18946441.804031372 0 18946441.804031372 -57892573.982786179 0 0 0 0 13264377.608098388 21610898.20483017 0 21610898.20483017 -103237031.60984802 0 0 0 0 20361130.115022659 57480122.768577576 0 57480122.768577576 -107099392.47817039 0 0 0 0 18047582.276197076 61850184.871707916 0 61850184.871707916 -115311880.4727478 0 0 0 0 -6148057.3082714081 70879983.778388977 0 70879983.778388977 -58647885.157211304 0 0 0 0 -620015.82937397179 1189670.4748092238 0 1189670.4748092238 3093913.6425168887 0 0 0 0 25858187.232425727 3979020.0719537735 0 3979020.0719537735 -47112606.899383545 0 0 0 0 22396770.352812111 23386161.322707176 0 23386161.322707176 -115526856.82763672 0 0 0 0 106016479.81003761 -63924776.316062927 0 -63924776.316062927 138840326.56437683 0 0 0 0 -91192.406298518181 27337784.016014099 0 27337784.016014099 -43218688.579437256 0 0 0 0 5414025.0146288276 31228586.139480591 0 31228586.139480591 -41693839.305267334 0 0 0 0 4248022.7667769194 56244692.905124664 0 56244692.905124664 -92053064.030014038 0 0 0 0 -2623638.6045187712 11367201.613479614 0 11367201.613479614 16034287.140167236 0 0 0 0 -22934163.076949358 14053067.485546112 0 14053067.485546112 5325081.4424743652 0 0 0 0 11305547.842072487 8993560.6694831848 0 8993560.6694831848 5449221.5239033699 0 0 0 0 -2480877.4808554542 3794678.0780390948 0 3794678.0780390948 10598033.303639233 0 0 0 0 2095173.0470490456 34904768.584514618 0 34904768.584514618 17465355.051254272 0 0 0 0 42446912.34493804 26249355.495277405 0 26249355.495277405 36451662.40524292 0 0 0 0 5713590.7338747475 5516139.2091476843 0 5516139.2091476843 -23945063.678568028 0 0 0 0 1923728.0519599915 2398296.7118186951 0 2398296.7118186951 -4927036.924038887 0 0 0 0 -491925.87734263949 2375528.5051784748 0 2375528.5051784748 -2401279.9212822253 0 0 0 0 -1996579.9574279785 662512.79293060303 0 662512.79293060303 3828210.0130367279 0 0 0 0 -877210.632065285 2951750.9265957288 0 2951750.9265957288 5727362.7343295552 0 0 0 0 -4567194.8815059662 8707940.0660848618 0 8707940.0660848618 -27782205.627435684 0 0 0 0 -3172077.1034793854 4429960.8091518879 0 4429960.8091518879 -52994140.63251996 0 0 0 0 2992345.883771061 8683471.7778976485 0 8683471.7778976485 -17376093.961591169 0 0 0 0 10014471.280943274 76456988.305500031 0 76456988.305500031 47763231.999542236 0 0 0 0 4263573.5317687988 -2492388.6320390701 0 -2492388.6320390701 -40491968.058111191 0 0 0 0 -3135319.0500717163 -15543325.00996685 0 -15543325.00996685 -15845457.783437252 0 0 0 0 542820.25555341505 31207.208710701205 0 31207.208710701205 -1719416.6359916143 0 0 0 0 -229509.84749138169 -3976285.0065017873 0 -3976285.0065017873 -16756903.876826949 0 0 0 0 -1076119.7122383118 9160922.0875072479 0 9160922.0875072479 -32420679.342315674 0 0 0 0 4723180.3343715668 10938624.642774105 0 10938624.642774105 -48864246.518553019 0 0 0 0 1325180.4245614856 -946973.90219307656 0 -946973.90219307656 -8140284.0576428706 0 0 0 0 -3357349.6809301376 -303345.02570462227 0 -303345.02570462227 -20113770.674825668 0 0 0 0 11254821.068159103 7286655.5146634579 0 7286655.5146634579 -18253233.456964493 0 0 0 0 24760387.892186165 161986623.85493469 0 161986623.85493469 -147603554.92800903 0 0 0 0 2402576.8145844061 7675356.519066751 0 7675356.519066751 -20131725.710117456 0 0 0 0 14476739.304379463 12646403.932651043 0 12646403.932651043 -25255046.932431459 0 0 0 0 73036649.060539246 -5543942.570510149 0 -5543942.570510149 -54350860.535761595 0 0 0 0 7984309.1508350372 -2867496.1051692963 0 -2867496.1051692963 -36763251.750014544 0 0 0 0 10199290.676926136 21049634.95962441 0 21049634.95962441 -7209834.8840475082 0 0 0 0 377783.48673214763 -150152.11163935869 0 -150152.11163935869 -2230327.9869867195 0 0 0 0 27330046.340939045 -16985817.425909519 0 -16985817.425909519 -116260135.98268032 0 0 0 0 38214705.249056816 14019565.336365819 0 14019565.336365819 -82852679.187213898 0 0 0 0 -2769404.0981521606 1670983.2622566223 0 1670983.2622566223 -49287042.86295414 0 0 0 0 2687746.603094101 11312381.756791115 0 11312381.756791115 -76653479.482639194 0 0 0 0 1482584.7845301628 11553820.480158329 0 11553820.480158329 -57663871.31979847 0 0 0 0 7102467.1774864197 8100892.3705348969 0 8100892.3705348969 -47046135.03478682 0 0 0 0 -6598639.0487585068 5167101.6566975117 0 5167101.6566975117 -18310887.931276798 0 0 0 0 3365998.4694881439 916710.14426136017 0 916710.14426136017 -37760785.415628433 0 0 0 0 5975922.6257576942 12501628.692802906 0 12501628.692802906 -23030734.134878159 0 0 0 0 -6952857.4297485352 3480285.5485830307 0 3480285.5485830307 -37340981.602999449 0 0 0 0 -899326.18245816231 266028.84912490845 0 266028.84912490845 941041.45998382568 0 0 0 0 1514573.554444097 2780161.4422330102 0 2780161.4422330102 -5722266.9696805794 0 0 0 0 -1244452.687975232 1242687.3841981096 0 1242687.3841981096 3141126.7905667764 0 0 0 0 -1572052.1360092163 12735197.320320606 0 12735197.320320606 1337529.2841453552 0 0 0 0 3435481.7934913635 -5212388.5777077675 0 -5212388.5777077675 -22116605.327003479 0 0 0 0 13127952.972978592 3417217.8432645798 0 3417217.8432645798 -48684522.259191513 0 0 0 0 2660843.0839538574 3450783.4754209518 0 3450783.4754209518 -48562528.467466116 0 0 0 0 5671380.3738975525 9809549.3795323372 0 9809549.3795323372 -54056430.595269203 0 0 0 0 -3435659.346660614 16288601.440859795 0 16288601.440859795 -55725614.108222961 0 0 0 0 3138108.1801229119 1995374.4548433721 0 1995374.4548433721 -51189014.317477226 0 0 0 0 -6760791.7053108215 5837546.5948629379 0 5837546.5948629379 -55307438.586502552 0 0 0 0 -3560683.7025966644 -2766557.8569957018 0 -2766557.8569957018 -37978573.435698509 0 0 0 0 147431.17947101593 3129405.492783308 0 3129405.492783308 -57626380.471928596 0 0 0 0 2218403.844171524 5454991.2685167789 0 5454991.2685167789 -58710435.917215347 0 0 0 0 6489158.2296552658 -6133905.6028609276 0 -6133905.6028609276 -75134278.033863068 0 0 0 0 4959508.6561393738 -3996486.4942574501 0 -3996486.4942574501 -62988721.756981373 0 0 0 0 -3079808.6277122498 9151700.7776446342 0 9151700.7776446342 -57634019.264400005 0 0 0 0 2817257.6501235962 8910855.6262125969 0 8910855.6262125969 -55520362.570116043 0 0 0 0 5105803.697675705 1198483.2932538986 0 1198483.2932538986 -55547869.193649292 0 0 0 0 2088910.6198863983 111141.90870809555 0 111141.90870809555 -72301434.289697945 0 0 0 0 4989900.9466552734 7220012.7068006992 0 7220012.7068006992 -71299179.806997299 0 0 0 0 947972.52963829041 -133166.35159397125 0 -133166.35159397125 -73554986.309843063 0 0 0 0 -16354.430782318115 10291051.909868717 0 10291051.909868717 -89707219.791549206 0 0 0 0 -1648334.3109277487 -7890676.0667831153 0 -7890676.0667831153 -104063908.37412119 0 0 0 0 14116505.60874939 -6276089.0513553619 0 -6276089.0513553619 -118764445.87321043 0 0 0 0 12727054.005470276 -10061116.179141402 0 -10061116.179141402 -73567247.066839218 0 0 0 0 5223034.5653972626 4623397.875741601 0 4623397.875741601 -77987164.917479515 0 0 0 0 12380137.995262146 -7568237.4802899361 0 -7568237.4802899361 -89989742.536523819 0 0 0 0 14042198.833353043 -6356105.7308015823 0 -6356105.7308015823 -91717021.130961418 0 0 0 0 14432420.790912628 -15758002.8463974 0 -15758002.8463974 -103818626.22800493 0 0 0 0 20803090.742668152 -17929370.860096216 0 -17929370.860096216 -104128523.49949884 0 0 0 0 8135570.3333616257 -13054972.616386652 0 -13054972.616386652 -179318731.05406904 0 0 0 0 8389121.4092140198 -20512737.40432477 0 -20512737.40432477 -106699183.81443071 0 0 0 0 -1518865.4706938267 20653930.510880172 0 20653930.510880172 -125542280.95543361 0 0 0 0 -35545729.572875977 -93569225.959349394 0 -93569225.959349394 -135129863.63225865 0 0 0 0 1634458.3363351796 -3965744.3669493743 0 -3965744.3669493743 -1901361.3336202684 0 0 0 0 14639069.541901588 -35685398.992524028 0 -35685398.992524028 -148712129.09037447 0 0 0 0 20308578.520859718 -36183399.090758085 0 -36183399.090758085 -166127351.41421986 0 0 0 0 26210726.169181943 -41744464.901691511 0 -41744464.901691511 -146884051.78304863 0 0 0 0 21276563.795859098 -11307435.215968132 0 -11307435.215968132 -114695619.71431065 0 0 0 0 -25582005.770896912 -46183537.061577082 0 -46183537.061577082 -138499438.25108981 0 0 0 0 -32676078.900272369 7783195.7858865261 0 7783195.7858865261 -111797218.81847668 0 0 0 0 -8452652.5586795807 -20000027.300823212 0 -20000027.300823212 -96576943.618812799 0 0 0 0 8654353.2706136703 12029809.614532471 0 12029809.614532471 -18404542.873199463 0 0 0 0 10609759.643867016 8376568.6983852386 0 8376568.6983852386 -29788928.230117798 0 0 0 0 5414701.1899709702 -6706574.9905548096 0 -6706574.9905548096 -31349863.956581116 0 0 0 0 -4001071.0427334309 -388542.22924423218 0 -388542.22924423218 -26719509.192008972 0 0 0 0 5069391.2218115926 -2344029.5072722435 0 -2344029.5072722435 -30425373.241363525 0 0 0 0 3887217.2664446831 3962175.9740481377 0 3962175.9740481377 -18048130.698974609 0 0 0 0 1183190.6931085587 5125671.3289737701 0 5125671.3289737701 -6375840.981918335 0 0 0 0 3769083.5559515953 2000423.8186264038 0 2000423.8186264038 -22713464.030715942 0 0 0 0 1752438.0513763428 -10842366.457199097 0 -10842366.457199097 -23792341.724258423 0 0 0 0 -2384724.5380005836 -8429799.6519432068 0 -8429799.6519432068 -12974811.017318726 0 0 0 0 5417573.0637862682 9184030.5958666801 0 9184030.5958666801 2712967.3806838989 0 0 0 0 11780581.025644302 9710919.3904266357 0 9710919.3904266357 -18527872.822517395 0 0 0 0 4257856.0975758769 7702114.6105519272 0 7702114.6105519272 -8713746.4617348239 0 0 0 0 8441558.4953041077 5153734.9255256653 0 5153734.9255256653 -23601048.323703766 0 0 0 0 -37207743.466270447 -11049450.566658974 0 -11049450.566658974 21497343.094657302 0 0 0 0 -17134278.444255829 4654031.5687365532 0 4654031.5687365532 -52012528.28942132 0 0 0 0 2987015.6787509918 -4109426.3649344444 0 -4109426.3649344444 -56390229.603643179 0 0 0 0 2148776.5614395142 78991717.804077148 0 78991717.804077148 38322390.141948938 0 0 0 0 -1680171.2197761536 -7633788.9310994148 0 -7633788.9310994148 -30189149.60812664 0 0 0 0 -861027.78760235198 867870.96235969756 0 867870.96235969756 2961519.9169819332 0 0 0 0 3213050.2786073769 3685404.4043939034 0 3685404.4043939034 -14472710.263049986 0 0 0 0 4440436.4278252125 5885147.2302093506 0 5885147.2302093506 -4158966.396522522 0 0 0 0 3735212.5276614428 8433781.5883669853 0 8433781.5883669853 1684308.8067703247 0 0 0 0 1427021.0622387822 2129841.8502321518 0 2129841.8502321518 -8975779.4250883069 0 0 0 0 838442.4461549609 3813977.3931859881 0 3813977.3931859881 1376779.8842791058 0 0 0 0 -6218615.3148422241 45694928.380633354 0 45694928.380633354 19184641.782808304 0 0 0 0 3617338.1077651978 6859622.5150718689 0 6859622.5150718689 -2941506.4490203857 0 0 0 0 -3318828.8378582001 795987.32104873657 0 795987.32104873657 7545766.6877212524 0 0 0 0 916778.38667627517 4144231.2453936655 0 4144231.2453936655 718374.05294043384 0 0 0 0 4767196.4370765686 -24030865.453528404 0 -24030865.453528404 -8593989.5407879353 0 0 0 0 -24979504.306545258 10360940.391846657 0 10360940.391846657 -42185908.523064613 0 0 0 0 10516748.858230591 -5779893.6686892509 0 -5779893.6686892509 -56070505.78847599 0 0 0 0 10122283.541248322 11338873.813988686 0 11338873.813988686 -25809081.704296112 0 0 0 0 4538522.867641449 -5605100.3449640274 0 -5605100.3449640274 -39591432.839090347 0 0 0 0 30200714.54041481 -1700899.5690660477 0 -1700899.5690660477 -44032626.216334343 0 0 0 0 12595230.783052444 -4025456.124443531 0 -4025456.124443531 -53555541.428044319 0 0 0 0 4960731.1212654114 -5707226.2864723206 0 -5707226.2864723206 -52620505.628272057 0 0 0 0 4617235.5823459625 -8404808.6055808067 0 -8404808.6055808067 -54517756.258327723 0 0 0 0 4649776.0472545624 -17959460.801043987 0 -17959460.801043987 -68523536.435626388 0 0 0 0 9804486.2463531494 -11212207.64677906 0 -11212207.64677906 -69428491.84767437 0 0 0 0 6141949.783823967 -15100170.711180925 0 -15100170.711180925 -63549080.937021255 0 0 0 0 12572859.168626785 -17691392.167407036 0 -17691392.167407036 -90151921.679338455 0 0 0 0 14973125.450382233 -30485857.336210608 0 -30485857.336210608 -101185189.77525234 0 0 0 0 21640658.484173536 -21664596.930580676 0 -21664596.930580676 -89528783.74197197 0 0 0 0 -80381108.733940125 -51189328.118285656 0 -51189328.118285656 -49379284.903131723 0 0 0 0 -14406945.999408722 -18659181.271542311 0 -18659181.271542311 -37343738.796071053 0 0 0 0 -15565814.474819183 -21957828.488825321 0 -21957828.488825321 -44768181.760640144 0 0 0 0 -7798857.1014575958 -14491746.743746758 0 -14491746.743746758 -58270210.112771511 0 0 0 0 -12098521.737564087 -36876040.174714565 0 -36876040.174714565 -74900285.017094612 0 0 0 0 -3478782.7433452606 -14407681.789048672 0 -14407681.789048672 -60814598.667874336 0 0 0 0 -2590722.6545586586 -4147919.6195801795 0 -4147919.6195801795 -46967544.532409668 0 0 0 0 -3281841.9373016357 -16190298.585532188 0 -16190298.585532188 -40027298.258145332 0 0 0 0 2032699.1516389085 9572422.5683301724 0 9572422.5683301724 -4412500.7474057218 0 0 0 0 5028947.6008012295 21927090.207069874 0 21927090.207069874 -2003029.0464344025 0 0 0 0 4509886.3324840916 3416734.1816147389 0 3416734.1816147389 -18129136.464303773 0 0 0 0 -7306764.4995064735 -11646395.398332059 0 -11646395.398332059 -44528047.663004875 0 0 0 0 593496.36942026182 2603702.5403708038 0 2603702.5403708038 -1621469.8205251694 0 0 0 0 -30020642.18484211 26439161.413543224 0 26439161.413543224 -12018887.474675531 0 0 0 0 22314571.553712845 70072179.985901117 0 70072179.985901117 -56048918.500961304 0 0 0 0 12592928.186778069 19772067.874956131 0 19772067.874956131 -11991501.941585414 0 0 0 0 13978400.098470189 14457775.876935124 0 14457775.876935124 -33341059.814668655 0 0 0 0 -682124.31075620651 -2521848.8247852325 0 -2521848.8247852325 -9339340.7876663208 0 0 0 0 20951297.251743317 -22070767.472003937 0 -22070767.472003937 48485255.006866455 0 0 0 0 761058.17468286026 -14772877.945590369 0 -14772877.945590369 -21339019.34956203 0 0 0 0 9060427.775247097 -10012252.803600311 0 -10012252.803600311 53160944.229156494 0 0 0 0 -3824361.69687047 -3437159.2858712897 0 -3437159.2858712897 12430857.728535742 0 0 0 0 -9618843.8113090321 -8187829.4790422544 0 -8187829.4790422544 11046864.920628946 0 0 0 0 227603783.6051231 98925626.252383307 0 98925626.252383307 -632685270.55236435 0 0 0 0 229767453.57264996 -160715164.43621588 0 -160715164.43621588 -70114099.201854706 0 0 0 0 659701.44970521517 -16409952.235222772 0 -16409952.235222772 -14369471.372702379 0 0 0 0 3719457.0744423866 -9894163.0307884216 0 -9894163.0307884216 -3688626.3663978577 0 0 0 0 -175754059.80939507 -172736682.5469963 0 -172736682.5469963 -108396825.02693653 0 0 0 0 -135187490.95770454 84530542.273124218 0 84530542.273124218 10621739.415202141 0 0 0 0 122473467.12126541 330605586.78151274 0 330605586.78151274 -945366302.83567238 0 0 0 0 5185537.2954854965 -13994737.662569046 0 -13994737.662569046 -15034108.858675957 0 0 0 0 9460356.4365253448 -7461646.0869293213 0 -7461646.0869293213 -31123859.175075531 0 0 0 0 102737.17686598748 -1713658.5590269677 0 -1713658.5590269677 -3349645.7975546904 0 0 0 0 410154.6228615162 -14560537.86469678 0 -14560537.86469678 -21346564.7404503 0 0 0 0 -522597238.61833954 -802862151.22768831 0 -802862151.22768831 1246845838.6408248 0 0 0 0 -858818.88307380676 -1451284.7433624268 0 -1451284.7433624268 2899964.1222076416 0 0 0 0 -1435400.0680004116 -15408167.064888682 0 -15408167.064888682 -11735496.260425743 0 0 0 0 1308968.2342573446 -1856382.0015558861 0 -1856382.0015558861 -19463416.532164633 0 0 0 0 -34119584.26802063 -15911845.14666748 0 -15911845.14666748 -18210410.968315125 0 0 0 0 9097328.4814605713 -4914768.7065582275 0 -4914768.7065582275 -39955645.145517826 0 0 0 0 129296.36932997406 -14232032.739326516 0 -14232032.739326516 -13981455.396951338 0 0 0 0 32793.155956475064 -523676.26467698626 0 -523676.26467698626 -1045165.4828867255 0 0 0 0 7759510.3185634613 -6505269.2143497467 0 -6505269.2143497467 -63969533.968933105 0 0 0 0 4098365.7193546295 -9842841.8330993652 0 -9842841.8330993652 -31499141.970283508 0 0 0 0 -1119781.7264499664 138920.28718185425 0 138920.28718185425 -35302491.197688103 0 0 0 0 18459463.010717392 -76682794.472215414 0 -76682794.472215414 -148653278.8352592 0 0 0 0 -48200262.439252853 120943068.60847616 0 120943068.60847616 84891594.140305996 0 0 0 0 20057834.246091843 -20173544.877403259 0 -20173544.877403259 -54028054.254196167 0 0 0 0 17558274.840764999 -16535273.015405893 0 -16535273.015405893 -76790100.722046375 0 0 0 0 48514526.767810822 -21808206.754221201 0 -21808206.754221201 -99204017.309536934 0 0 0 0 259906.53922011703 -13815162.27038634 0 -13815162.27038634 -5990182.8694968913 0 0 0 0 986406.61734390259 -16153441.305229187 0 -16153441.305229187 -38183995.703025818 0 0 0 0 2978385.0592942238 -10461735.46250248 0 -10461735.46250248 -35172231.475082397 0 0 0 0 2312542.7651557922 -6575997.8299934864 0 -6575997.8299934864 -21513577.992256165 0 0 0 0 -466699.55127716064 -5340960.861415863 0 -5340960.861415863 -30145108.648860931 0 0 0 0 1139172.3129974604 -14089539.348958731 0 -14089539.348958731 -21022770.841529846 0 0 0 0 5114986.6233446598 -4987236.2883338574 0 -4987236.2883338574 -19091349.845955465 0 0 0 0 3726663.3298358917 -11700905.917221069 0 -11700905.917221069 -13814631.536540985 0 0 0 0 3690355.9178562164 -9648525.8457984924 0 -9648525.8457984924 -16596308.024265289 0 0 0 0 4050544.1102775857 -10886860.621143958 0 -10886860.621143958 -28172498.903609164 0 0 0 0 329323389.86583138 -162678040.54203796 0 -162678040.54203796 -20134850.925811768 0 0 0 0 345185053.57883453 -89489532.271789551 0 -89489532.271789551 63331918.2240448 0 0 0 0 166371748.98269844 -182395986.63515472 0 -182395986.63515472 169111001.01649475 0 0 0 0 540161.32368120365 -743827.48799283803 0 -743827.48799283803 -2910304.952973403 0 0 0 0 7110101.9838011265 -20082784.917273521 0 -20082784.917273521 -14536920.580360413 0 0 0 0 99508.89045715332 -7741518.5850849152 0 -7741518.5850849152 -15446313.410110474 0 0 0 0 2204917.8311519623 -13853989.835418701 0 -13853989.835418701 -31676837.189766884 0 0 0 0 -160210387.13388824 -244571416.67527771 0 -244571416.67527771 203948465.73666382 0 0 0 0 -214364132.18067694 -193135687.14634514 0 -193135687.14634514 -25806751.877593994 0 0 0 0 -263590228.68668175 41825346.201934814 0 41825346.201934814 24870154.050842285 0 0 0 0 365286769.77951622 35887417.008636475 0 35887417.008636475 -258297653.69720459 0 0 0 0 365915522.10922813 -123918498.88368225 0 -123918498.88368225 -154198889.80340576 0 0 0 0 155600851.69603729 308940099.87045288 0 308940099.87045288 -342339804.29501343 0 0 0 0 17683125.233207703 -25247275.542221069 0 -25247275.542221069 14683821.668395996 0 0 0 0 21687745.545682907 -112771819.84054565 0 -112771819.84054565 83206460.260223389 0 0 0 0 109239512.19351387 -78527566.831695557 0 -78527566.831695557 15236035.455932617 0 0 0 0 106409254.90739059 -115134208.50756836 0 -115134208.50756836 79178468.160400391 0 0 0 0 207176618.76577759 -174366660.7240448 0 -174366660.7240448 111725456.565979 0 0 0 0 79678233.347261429 -90876449.225608826 0 -90876449.225608826 48753093.951599121 0 0 0 0 100078308.74777412 -37997721.900924683 0 -37997721.900924683 161271102.05300903 0 0 0 0 -31992312.283771515 -96626707.630882263 0 -96626707.630882263 52968742.297515869 0 0 0 0 -5176564.907207489 -45729415.518508911 0 -45729415.518508911 95169850.802158356 0 0 0 0 -63160901.279396057 -120195796.60641861 0 -120195796.60641861 28279309.016052246 0 0 0 0 -73917932.728788376 -72135241.154800415 0 -72135241.154800415 77438781.751281738 0 0 0 0 15794008.166449308 -53127591.084599495 0 -53127591.084599495 16940469.797241211 0 0 0 0 -78520029.560344696 -111323808.02233887 0 -111323808.02233887 23401438.701126099 0 0 0 0 -85943313.963205338 -149429206.96377563 0 -149429206.96377563 -23007131.037765503 0 0 0 0 -91971638.551776886 -117512898.16947937 0 -117512898.16947937 60038216.616455078 0 0 0 0 -66528725.722916603 -108809222.10668182 0 -108809222.10668182 12439968.13331604 0 0 0 0 -78577574.07439518 -99044673.83883667 0 -99044673.83883667 43742156.628814697 0 0 0 0 -57527566.183546066 -80650138.949455261 0 -80650138.949455261 56693715.194152832 0 0 0 0 -92169600.91800499 -74609986.672729492 0 -74609986.672729492 25272607.097308397 0 0 0 0 -48711501.372038364 -85072468.078063965 0 -85072468.078063965 25358291.039474487 0 0 0 0 -39710421.728809357 -66088592.234344482 0 -66088592.234344482 -17958499.756385803 0 0 0 0 13595327.123651743 -24539339.166200638 0 -24539339.166200638 13905128.738006592 0 0 0 0 -9754748.2668552399 -36846165.940132141 0 -36846165.940132141 47760095.071533203 0 0 0 0 21927260.190098763 -75146882.146514893 0 -75146882.146514893 -69179030.677589417 0 0 0 0 -18711596.03933239 -128055015.09893036 0 -128055015.09893036 -126359678.86342621 0 0 0 0 -767459.45588704757 -1277600.3570968397 0 -1277600.3570968397 3377566.0628322437 0 0 0 0 24646912.03710556 2895902.6576099396 0 2895902.6576099396 -10108320.403206825 0 0 0 0 21351131.360481262 879948.97961568832 0 879948.97961568832 -8485785.3158349991 0 0 0 0 9455052.2855507974 -5425429.118995674 0 -5425429.118995674 -8002025.5321087539 0 0 0 0 21171963.364639282 -3501726.882799387 0 -3501726.882799387 -15761250.191587448 0 0 0 0 8695084.6813292932 -7337057.7184790839 0 -7337057.7184790839 -21251829.535798192 0 0 0 0 411030.75999240763 -13983298.071091905 0 -13983298.071091905 -3953591.2002003128 0 0 0 0 -15664355.424161911 -42277419.515625477 0 -42277419.515625477 -65921140.247433186 0 0 0 0 8162991.7124538422 -12777113.393100739 0 -12777113.393100739 -39552877.082834244 0 0 0 0 5518181.2222366333 -34345083.991937637 0 -34345083.991937637 -103065128.52168596 0 0 0 0 -5028865.3175792694 -17246676.451873779 0 -17246676.451873779 -30809374.737670898 0 0 0 0 1543074.1909332275 -22665473.665390015 0 -22665473.665390015 -46927638.098632812 0 0 0 0 5565001.7196521759 -5541498.1692581177 0 -5541498.1692581177 -24663037.271913528 0 0 0 0 1542303.5456752777 -5997082.8224067688 0 -5997082.8224067688 -24590044.665977478 0 0 0 0 19019197.256761551 -2774013.7834968567 0 -2774013.7834968567 -26337257.32190609 0 0 0 0 9039804.893951416 -9794613.4438266754 0 -9794613.4438266754 -19533084.862483978 0 0 0 0 5962082.3351996187 -5958108.1701499093 0 -5958108.1701499093 -18274208.404895585 0 0 0 0 7677244.8572039604 -3493013.8188300133 0 -3493013.8188300133 -12776537.399772644 0 0 0 0 4598680.8763713837 -10865595.594387054 0 -10865595.594387054 -16701947.24370575 0 0 0 0 4496.0458354949951 -15024881.540618896 0 -15024881.540618896 -28527124.274250031 0 0 0 0 7576386.5259189606 -5175238.6643028259 0 -5175238.6643028259 -13395618.854919434 0 0 0 0 9808970.743727684 -7469179.5416736603 0 -7469179.5416736603 -11039542.716903687 0 0 0 0 5875493.0634888131 -8290845.6896711718 0 -8290845.6896711718 -16965574.512803487 0 0 0 0 57166021.960548401 -7302275.0539779663 0 -7302275.0539779663 -53091829.336994171 0 0 0 0 17841683.16277504 -2551460.1546401978 0 -2551460.1546401978 -14333042.757854462 0 0 0 0 42777836.97032547 4562075.9604711533 0 4562075.9604711533 -12479256.017507553 0 0 0 0 37682279.539478302 24872402.521473885 0 24872402.521473885 -88504087.121101379 0 0 0 0 45117538.202389717 12619078.006242037 0 12619078.006242037 -18520520.854202271 0 0 0 0 18901829.063970566 6657587.2231631279 0 6657587.2231631279 3492433.2879657745 0 0 0 0 25723455.564097404 26426715.85940361 0 26426715.85940361 -4573366.6943397522 0 0 0 0 1220038.8613575008 -163390.79809344932 0 -163390.79809344932 -1272789.9091775184 0 0 0 0 29540750.258476257 -133363975.54177999 0 -133363975.54177999 -138576741.89522934 0 0 0 0 57872815.487300873 2117710.0470609665 0 2117710.0470609665 -69532331.547742844 0 0 0 0 8414872.85389328 33888989.127544403 0 33888989.127544403 -57540069.12047863 0 0 0 0 -7028262.3028640747 66989523.263389587 0 66989523.263389587 -48302187.739990234 0 0 0 0 80919039.058046818 59284996.16682601 0 59284996.16682601 -80427354.952571869 0 0 0 0 -3094951.3889465332 44272641.597605705 0 44272641.597605705 -48935575.593515635 0 0 0 0 22247068.657108307 32878932.299120903 0 32878932.299120903 -46475126.935127258 0 0 0 0 71840808.935003281 11718981.958282888 0 11718981.958282888 -64071740.367589951 0 0 0 0 2657845.9922758117 57972.982556914911 0 57972.982556914911 -2646020.1508309105 0 0 0 0 23656843.094200134 8496538.4026715755 0 8496538.4026715755 -2799266.8208999634 0 0 0 0 42498873.924198151 5497805.5825147629 0 5497805.5825147629 -63406650.827145398 0 0 0 0 42108787.186104774 9179442.2880995274 0 9179442.2880995274 -18338851.91583252 0 0 0 0 5058051.3532066345 20851428.924503326 0 20851428.924503326 11487569.215285301 0 0 0 0 25156653.14985466 28864120.128219843 0 28864120.128219843 8743162.3216643333 0 0 0 0 4367793.4253154574 573215.21431400534 0 573215.21431400534 -3681828.5351191438 0 0 0 0 14231986.661798477 3138522.6183731556 0 3138522.6183731556 -9281778.0363378525 0 0 0 0 8280020.4029884338 3175408.8703575134 0 3175408.8703575134 -1371752.0189450979 0 0 0 0 11303725.85521698 9339947.4016580582 0 9339947.4016580582 10382338.666063547 0 0 0 0 -16996114.106461525 -7791222.8809289932 0 -7791222.8809289932 3352927.1006813049 0 0 0 0 -191066.69465065002 15375319.535357475 0 15375319.535357475 8651942.2475767136 0 0 0 0 8213519.0257911682 5227913.7610177994 0 5227913.7610177994 17636686.973544359 0 0 0 0 -18999009.270708084 1628168.3772644997 0 1628168.3772644997 1136266.3714580536 0 0 0 0 7254471.7938327789 25037017.355400562 0 25037017.355400562 -8102538.952009201 0 0 0 0 -9448448.4379348755 15627668.977245331 0 15627668.977245331 -10614385.123301506 0 0 0 0 -28271775.743530273 7961261.8132381439 0 7961261.8132381439 -3155323.611289978 0 0 0 0 -14980032.652153015 -4412801.8727397919 0 -4412801.8727397919 -3219565.5460870266 0 0 0 0 -19871202.362602234 -12018971.486577988 0 -12018971.486577988 -5705658.8005433083 0 0 0 0 -23045650.706428528 -16386090.215603828 0 -16386090.215603828 -11645797.126909256 0 0 0 0 -14468864.828804016 -20788845.863269806 0 -20788845.863269806 -25537360.392475128 0 0 0 0 5632702.7857818604 -202625.9957909584 0 -202625.9957909584 -9036058.4398899078 0 0 0 0 -33337673.174510956 -17036491.112314224 0 -17036491.112314224 -10882953.803710938 0 0 0 0 -31746275.727603912 -34534583.958095551 0 -34534583.958095551 -28013927.185783386 0 0 0 0 -55596920.501899719 -28619391.179960251 0 -28619391.179960251 -13010872.591941833 0 0 0 0 -58957395.156331778 7199347.2402021885 0 7199347.2402021885 -9873696.0109138489 0 0 0 0 -106213445.02882385 -40537129.790038109 0 -40537129.790038109 -28035305.88870525 0 0 0 0 -36111833.780220032 36952959.876184464 0 36952959.876184464 -27152538.589502335 0 0 0 0 -45350166.826217651 -465105.47040367126 0 -465105.47040367126 -7293289.1388292313 0 0 0 0 -137287939.14949417 -224139.67702960968 0 -224139.67702960968 -10437166.259666681 0 0 0 0 -2699066.7278251648 36415255.321629524 0 36415255.321629524 -37259569.712575912 0 0 0 0 -7006119.6074752808 60082526.494787216 0 60082526.494787216 -113507547.88048744 0 0 0 0 -107012019.77457809 86965703.723649979 0 86965703.723649979 -48659974.596525192 0 0 0 0 -145930834.96798706 57370448.668325424 0 57370448.668325424 3667557.0377311707 0 0 0 0 -113450313.95248413 7657862.0983943939 0 7657862.0983943939 -68754078.665597916 0 0 0 0 -84958387.093399048 67936128.342435837 0 67936128.342435837 -60112792.175605774 0 0 0 0 -55151995.383939743 -42601888.066222191 0 -42601888.066222191 -42461226.826511383 0 0 0 0 936912.39730157517 -627062.90711154975 0 -627062.90711154975 -1075105.7405569479 0 0 0 0 951276.48522082716 -61539.20971121639 0 -61539.20971121639 -1199294.6296558343 0 0 0 0 -117640937.5248642 -21610424.636569977 0 -21610424.636569977 -48087380.979911804 0 0 0 0 -125650880.56598163 -53279194.962344646 0 -53279194.962344646 -29392861.83316803 0 0 0 0 -122911578.81663132 -79777107.374477386 0 -79777107.374477386 -20114281.140830994 0 0 0 0 -90298185.431293488 -63244960.381832123 0 -63244960.381832123 -12434607.923469543 0 0 0 0 -67286827.442020893 -92065840.253499985 0 -92065840.253499985 -31409714.445598602 0 0 0 0 -107445129.42787743 -66902869.464225769 0 -66902869.464225769 -19711455.930017471 0 0 0 0 -189262553.9461174 -23023963.195837975 0 -23023963.195837975 -26413252.977213144 0 0 0 0 -453659.96109032328 -1428211.6944499295 0 -1428211.6944499295 -352534.65780479927 0 0 0 0 285539831.28098917 -36802528.425815582 0 -36802528.425815582 -155116453.11507797 0 0 0 0 -542292052.10783291 -101955886.80435324 0 -101955886.80435324 106446194.47042656 0 0 0 0 -5502524.3426094055 -1587110.9258117676 0 -1587110.9258117676 3931784.6136484146 0 0 0 0 1544959.9312015506 -1147259.1272336915 0 -1147259.1272336915 -1883386.7602773523 0 0 0 0 78936589.190345764 -22236472.89676857 0 -22236472.89676857 -79829856.982174397 0 0 0 0 1695948.002770693 -58101.14577972237 0 -58101.14577972237 -2410588.4844455849 0 0 0 0 -15659514.053557873 -18344981.104894161 0 -18344981.104894161 -18985913.888298035 0 0 0 0 -140220567.54646111 -94509565.449578285 0 -94509565.449578285 -5760424.328253746 0 0 0 0 38208950.145114899 8599666.7189311981 0 8599666.7189311981 28267540.056230545 0 0 0 0 -4450910.6719932556 -64355537.375792503 0 -64355537.375792503 -63440620.541524887 0 0 0 0 3820415.7217841148 19735338.38180089 0 19735338.38180089 -42206505.441144943 0 0 0 0 181358889.02145576 -72047490.411273956 0 -72047490.411273956 10103854.512687281 0 0 0 0 110432382.90210915 36645828.216283798 0 36645828.216283798 8256409.3083765358 0 0 0 0 231169906.0308075 47741170.778112411 0 47741170.778112411 -88799565.124178886 0 0 0 0 91347865.368261337 -8905462.042163372 0 -8905462.042163372 -97266345.800076485 0 0 0 0 45222747.606990814 42200497.977178574 0 42200497.977178574 -82337363.988755703 0 0 0 0 43430696.119077682 8313724.4744796753 0 8313724.4744796753 -89422789.788742542 0 0 0 0 104832289.46630478 -11646579.091149092 0 -11646579.091149092 -116605098.46838951 0 0 0 0 113877801.78751278 6308329.0318536758 0 6308329.0318536758 -93048556.77177906 0 0 0 0 161832785.10709572 -45978925.533433437 0 -45978925.533433437 -108305668.27365017 0 0 0 0 72443695.391510487 -67272565.509760946 0 -67272565.509760946 -112613786.43192863 0 0 0 0 -2876986.8691768646 -104946428.34084892 0 -104946428.34084892 -8754768.4953460693 0 0 0 0 68484639.064835787 -26544985.422509372 0 -26544985.422509372 -49335433.016254425 0 0 0 0 3533399.8042906523 13775061.147723496 0 13775061.147723496 -18677715.820569992 0 0 0 0 20944592.573543549 -7001731.1376886368 0 -7001731.1376886368 -8310657.6043109894 0 0 0 0 17131821.556505203 5358682.2035531998 0 5358682.2035531998 -38273690.54096508 0 0 0 0 32163706.131656647 495232.9843454361 0 495232.9843454361 -36974775.907876968 0 0 0 0 1502485.0645935675 -856195.07187990006 0 -856195.07187990006 -1664214.6893001767 0 0 0 0 -12161240.928886414 -10846429.855584145 0 -10846429.855584145 -12071996.276825428 0 0 0 0 -16748095.662970066 -18724518.770803213 0 -18724518.770803213 -18578216.167497635 0 0 0 0 -134716542.02457714 -390204800.64461303 0 -390204800.64461303 -17622306.276403427 0 0 0 0 -28315310.349124908 78919876.640954018 0 78919876.640954018 -87175952.078193188 0 0 0 0 -457205134.15492249 191528181.39402103 0 191528181.39402103 -95944492.940761924 0 0 0 0 110394759.58276939 -139197047.49880219 0 -139197047.49880219 -211974895.71941185 0 0 0 0 1372013.4240350435 -534108.08189205313 0 -534108.08189205313 -2371981.4728996675 0 0 0 0 2905509.4642906189 1162467.1837658882 0 1162467.1837658882 -1345128.296169281 0 0 0 0 4750953.119512558 443664.44863200188 0 443664.44863200188 -1076890.5905973911 0 0 0 0 -33329896.937555313 -5200380.865755558 0 -5200380.865755558 12084021.202104568 0 0 0 0 -22233404.474135399 -20751315.988399744 0 -20751315.988399744 -7399213.0983057022 0 0 0 0 -8812643.035651207 -12559701.425127387 0 -12559701.425127387 19255479.511743546 0 0 0 0 -9104270.2734222412 -176517.52695035934 0 -176517.52695035934 -12751081.816609621 0 0 0 0 -17005815.143779755 11542750.204155684 0 11542750.204155684 42186075.352143764 0 0 0 0 242173.17020076513 684354.07885707472 0 684354.07885707472 -713728.51614224422 0 0 0 0 11328686.285406113 9345285.7915399075 0 9345285.7915399075 4533288.7257432938 0 0 0 0 -29688521.007294178 -36240209.42800954 0 -36240209.42800954 2819897.9030008316 0 0 0 0 822508.29267788865 -486694.45531369792 0 -486694.45531369792 -869178.110216795 0 0 0 0 23293299.812171936 -33015506.366298199 0 -33015506.366298199 -24403246.509615421 0 0 0 0 11052611.057815552 30553558.315883756 0 30553558.315883756 -135888570.57740784 0 0 0 0 -44224630.005838394 18521714.726311445 0 18521714.726311445 5797265.5237567425 0 0 0 0 -13876638.572208405 -30466543.146792054 0 -30466543.146792054 -68936921.219308615 0 0 0 0 7180767.5429973602 3237643.6891784668 0 3237643.6891784668 -3208705.090236187 0 0 0 0 7324553.3087596893 2158993.0467329025 0 2158993.0467329025 -13752351.117392063 0 0 0 0 19168.437678953633 -1190619.8021989726 0 -1190619.8021989726 -986263.36572215357 0 0 0 0 7599402.5559034348 -5300102.3674685955 0 -5300102.3674685955 34376026.722916484 0 0 0 0 -23562438.470995903 -8831801.9779561758 0 -8831801.9779561758 19896175.624860764 0 0 0 0 4751278.2421786785 399221.25354263559 0 399221.25354263559 4998281.4269752502 0 0 0 0 -2754272.4172434537 935404.35362486029 0 935404.35362486029 -5398.8681557827804 0 0 0 0 -992125.39001655579 -22030774.237315059 0 -22030774.237315059 -113493305.55616236 0 0 0 0 -20087900.613946915 25779707.951708794 0 25779707.951708794 -28104552.024157107 0 0 0 0 -4677390.7229777053 1740978.2479733601 0 1740978.2479733601 -736012.02581338526 0 0 0 0 -633572.17130939476 -867565.4379190146 0 -867565.4379190146 565525.20486733899 0 0 0 0 517818246.87316704 216176400.11176157 0 216176400.11176157 -789261550.33658934 0 0 0 0 29811995.30431366 -76067437.352983475 0 -76067437.352983475 -335467252.89122391 0 0 0 0 -4435439.1700000763 -45142169.241158247 0 -45142169.241158247 -261625652.77144527 0 0 0 0 22754280.479833603 28083834.785476446 0 28083834.785476446 -211275522.86327934 0 0 0 0 48159982.819540024 36694635.666566014 0 36694635.666566014 -335973803.14834452 0 0 0 0 107481336.18954849 57934955.687069178 0 57934955.687069178 -402806475.37553144 0 0 0 0 31070096.279794693 44204579.638363779 0 44204579.638363779 -198060875.22071218 0 0 0 0 5025104.6053314209 39461930.019246817 0 39461930.019246817 -214499207.51962018 0 0 0 0 20846429.067456245 24480858.752971888 0 24480858.752971888 -164814881.14991951 0 0 0 0 38413689.54809761 18001006.362897038 0 18001006.362897038 -188831419.52743149 0 0 0 0 29695587.467258453 29417953.05314827 0 29417953.05314827 -156285395.16272998 0 0 0 0 28859901.929908752 59751681.537209034 0 59751681.537209034 -200048240.08620596 0 0 0 0 26482111.547761917 49347705.661695957 0 49347705.661695957 -155988040.51900625 0 0 0 0 36534906.901725769 44149303.3147223 0 44149303.3147223 -199430689.30470896 0 0 0 0 25531626.349369049 38605104.563314915 0 38605104.563314915 -158689454.70333862 0 0 0 0 31447260.546388149 7273987.4484151602 0 7273987.4484151602 -109311684.08431339 0 0 0 0 10812457.402121305 24088270.907069445 0 24088270.907069445 -84986476.79683876 0 0 0 0 17349058.946647644 22230785.507258415 0 22230785.507258415 -87984521.753659964 0 0 0 0 15450114.275511265 51868558.195716172 0 51868558.195716172 -138770683.32057381 0 0 0 0 17833697.190906525 63976111.397050858 0 63976111.397050858 -134739508.50551224 0 0 0 0 32494627.403717041 62594664.774238586 0 62594664.774238586 -217293573.17949378 0 0 0 0 -61039161.306577682 -79512998.173693419 0 -79512998.173693419 -203029027.84530449 0 0 0 0 -2028423.4843330383 27159449.568878889 0 27159449.568878889 -186280515.2916832 0 0 0 0 13116567.661087751 4952195.217784971 0 4952195.217784971 -162811716.49251986 0 0 0 0 -97176636.33482933 63736386.583799124 0 63736386.583799124 -187668009.1990304 0 0 0 0 26855546.207467079 28841743.747781396 0 28841743.747781396 -249435547.69341707 0 0 0 0 -62173088.558162689 -58256214.949475855 0 -58256214.949475855 -148217996.92744923 0 0 0 0 -381288913.84456253 -405741.46417486668 0 -405741.46417486668 -158265774.96889782 0 0 0 0 127528.20073199179 241592.11151975021 0 241592.11151975021 -540429.08890753891 0 0 0 0 44748970.276266098 -219113468.54560304 0 -219113468.54560304 -209248477.04590487 0 0 0 0 -44858237.309633255 -111437625.08154535 0 -111437625.08154535 -328713853.9643116 0 0 0 0 -159658368.37808228 -9281457.4934015274 0 -9281457.4934015274 -238562855.65153408 0 0 0 0 -134109557.27738523 -186731497.50972292 0 -186731497.50972292 -306678345.7143364 0 0 0 0 -31314848.439689159 -63913064.576633453 0 -63913064.576633453 -216317269.58209181 0 0 0 0 -97834425.546546936 -208953635.93656087 0 -208953635.93656087 -331379638.9347055 0 0 0 0 12335282.393199921 -38699984.851265907 0 -38699984.851265907 -392486144.42221212 0 0 0 0 11183188.706809193 22398341.133855663 0 22398341.133855663 -220080897.18949127 0 0 0 0 -5788018.9927377701 95644695.449942231 0 95644695.449942231 -216427981.30868435 0 0 0 0 -51849948.863874435 93173897.337516069 0 93173897.337516069 -50794752.252212524 0 0 0 0 26080752.996850967 15978919.38665247 0 15978919.38665247 -38111260.372198999 0 0 0 0 26502326.857023239 -12920149.433084726 0 -12920149.433084726 -179771610.5701561 0 0 0 0 111153237.43604088 50363971.926815987 0 50363971.926815987 -78914551.77338624 0 0 0 0 103908152.24731642 -40091552.855241306 0 -40091552.855241306 -152644460.62585068 0 0 0 0 19799218.996282578 -55610456.532388449 0 -55610456.532388449 -141206317.48035121 0 0 0 0 26101244.981729507 -112075242.85378599 0 -112075242.85378599 -260837247.55278337 0 0 0 0 -20387631.572473526 -70641801.570855141 0 -70641801.570855141 -138878929.22552764 0 0 0 0 55789384.285905838 -15106773.312157869 0 -15106773.312157869 -123389150.13006544 0 0 0 0 56415743.004272461 -61670897.033602953 0 -61670897.033602953 -163269957.71916342 0 0 0 0 7429912.1796747688 -2477575.2753994772 0 -2477575.2753994772 -4461524.1187152257 0 0 0 0 17798440.118555069 -44922819.282054543 0 -44922819.282054543 -121707442.83047724 0 0 0 0 -3473127.2597408295 15479551.426118612 0 15479551.426118612 32951349.170408726 0 0 0 0 15900716.769464493 -9889654.9582400322 0 -9889654.9582400322 2455397.2548808455 0 0 0 0 3501824.3039418459 269686.29177201819 0 269686.29177201819 -1728975.8874350954 0 0 0 0 2957987.879365541 -658270.13514152402 0 -658270.13514152402 -2322960.883875608 0 0 0 0 11882540.00627327 -22379221.041499376 0 -22379221.041499376 -61440163.438729763 0 0 0 0 11943975.882503986 -14641297.956023455 0 -14641297.956023455 -2259265.3934431076 0 0 0 0 32066365.910384655 45969397.027480811 0 45969397.027480811 -29555750.236656666 0 0 0 0 32050921.498607635 41670354.245219707 0 41670354.245219707 -89284878.604442596 0 0 0 0 -93194681.366857529 -111235130.35749912 0 -111235130.35749912 -146533918.08247137 0 0 0 0 614220.88186798431 -94795.725845027715 0 -94795.725845027715 -450529.15470954147 0 0 0 0 -23495713.417770863 -81788469.197189718 0 -81788469.197189718 -134919574.4625721 0 0 0 0 -85559640.057536945 -120472835.86756134 0 -120472835.86756134 -298769954.02072144 0 0 0 0 62216734.405858152 22800952.812240601 0 22800952.812240601 -97742005.469390869 0 0 0 0 27316.500623301414 -9668.5115880258381 0 -9668.5115880258381 -283625.41998516768 0 0 0 0 -85438372.811667517 33540632.832298279 0 33540632.832298279 53545765.955230713 0 0 0 0 -112498521.6503589 -127065454.62107086 0 -127065454.62107086 -42804923.133735657 0 0 0 0 -85101.509752426893 -39478852.592357635 0 -39478852.592357635 -91716981.376358032 0 0 0 0 -18446947.144775771 -153300262.30217743 0 -153300262.30217743 -323208263.08699036 0 0 0 0 -42416405.542165451 27746525.557876587 0 27746525.557876587 374526.14326858521 0 0 0 0 34686.725739408721 -32924.048832863569 0 -32924.048832863569 -454464.41279317439 0 0 0 0 -49376100.079595312 -12711720.755836487 0 -12711720.755836487 695202.44836425781 0 0 0 0 -3748374.0260275817 19393984.816040039 0 19393984.816040039 -12597036.548675537 0 0 0 0 -6228825.7786483578 -21282299.662345886 0 -21282299.662345886 -11106859.68598938 0 0 0 0 -36133523.667160794 -53463130.687891006 0 -53463130.687891006 -26206088.31060791 0 0 0 0 -34861418.420471571 -43308757.945163727 0 -43308757.945163727 -33064365.788818359 0 0 0 0 -45572476.140023604 -50655526.676811218 0 -50655526.676811218 -23724911.846984863 0 0 0 0 -40972641.492417365 -55631075.245857239 0 -55631075.245857239 -18851644.246490479 0 0 0 0 -38834158.837671265 -49468545.110137939 0 -49468545.110137939 -32086024.519317627 0 0 0 0 -25074426.99342829 -40522544.536308289 0 -40522544.536308289 -39066179.857910156 0 0 0 0 -50137855.711045042 -26731589.890090942 0 -26731589.890090942 -44457950.832565308 0 0 0 0 3916624.5762860775 -17989607.467536926 0 -17989607.467536926 -34319242.989517212 0 0 0 0 3079748.5660191178 -7463266.267288208 0 -7463266.267288208 -58856806.551441193 0 0 0 0 -15924650.035606265 -17881430.119979858 0 -17881430.119979858 -61503401.172199249 0 0 0 0 -10729397.998029888 -36484856.696159363 0 -36484856.696159363 -95234795.614242554 0 0 0 0 10418529.00919956 -8259047.9424819946 0 -8259047.9424819946 -95685975.589492798 0 0 0 0 -41296376.221272796 -63841395.184364319 0 -63841395.184364319 -115207961.35530216 0 0 0 0 -23777394.102749616 -71285863.792320251 0 -71285863.792320251 -193967115.38298035 0 0 0 0 -43653378.279684663 -15887740.798812866 0 -15887740.798812866 -39536645.507354736 0 0 0 0 -49554267.377306208 24287295.044006348 0 24287295.044006348 -148075351.9543457 0 0 0 0 -21298450.889662445 139345.02137756348 0 139345.02137756348 -115533326.57125854 0 0 0 0 -5366390.9902043641 175842694.20375061 0 175842694.20375061 -157658685.92555237 0 0 0 0 14247.329560205668 -159645.32534120604 0 -159645.32534120604 -590360.08400902897 0 0 0 0 -144512843.30846313 -195890625.95861816 0 -195890625.95861816 -78137771.132537842 0 0 0 0 -39769599.686189353 -47617968.58908844 0 -47617968.58908844 -69396019.287322998 0 0 0 0 -34338052.986491844 -32327562.860832214 0 -32327562.860832214 -70736419.297729492 0 0 0 0 4468417.9664511681 -23983641.376106262 0 -23983641.376106262 -85567808.386764526 0 0 0 0 -22533093.41268611 -23012681.768318176 0 -23012681.768318176 -64042032.444320679 0 0 0 0 -38856418.258648843 -128078331.35630798 0 -128078331.35630798 -499723052.00419617 0 0 0 0 130454.2272840378 -806136.44780542329 0 -806136.44780542329 -1594757.9576978683 0 0 0 0 -117474182.76905715 -300996202.82306671 0 -300996202.82306671 -487264233.57554626 0 0 0 0 -87284557.289535329 -150187388.17021179 0 -150187388.17021179 -609051927.40528107 0 0 0 0 -55150256.092627361 -291221506.26410675 0 -291221506.26410675 -627154713.76914597 0 0 0 0 18077296.826958038 -292892036.14343262 0 -292892036.14343262 -495185469.47570801 0 0 0 0 -108210186.26610729 -93215843.683647156 0 -93215843.683647156 -543293738.33992004 0 0 0 0 -120575640.24457288 -46183371.695476532 0 -46183371.695476532 -357269693.34013367 0 0 0 0 20592.373549592914 -51989120.573875427 0 -51989120.573875427 -375166449.71862984 0 0 0 0 -29361509.839599278 -175744275.34475327 0 -175744275.34475327 -683472379.81428528 0 0 0 0 -175708311.77793151 -330812893.96762085 0 -330812893.96762085 -716912009.47198105 0 0 0 0 -902026.62261847104 -160525972.03083038 0 -160525972.03083038 -1152031348.8570175 0 0 0 0 -144854587.76427111 -106431494.99010277 0 -106431494.99010277 -846380727.87057495 0 0 0 0 -412761413.26592964 -353989151.33949089 0 -353989151.33949089 -960684748.90646362 0 0 0 0 168132.92976416351 -340083.4031630978 0 -340083.4031630978 -2341037.3781949207 0 0 0 0 -163045000.64365 -712021173.4377594 0 -712021173.4377594 -1671636201.8174591 0 0 0 0 301043495.48903638 -931359981.89866257 0 -931359981.89866257 -3456162755.8354836 0 0 0 0 -1666084.2318008284 -156878921.88472992 0 -156878921.88472992 -1536123840.3454742 0 0 0 0 -693951660.61246991 -1386520846.6745825 0 -1386520846.6745825 -157178638.57740784 0 0 0 0 -1231913.7306089522 -1935593.9587101527 0 -1935593.9587101527 -1294454.5475892797 0 0 0 0 -627755623.13570154 -1702913599.9588089 0 -1702913599.9588089 -1038422738.5434189 0 0 0 0 331424.67736656201 37017.640133384615 0 37017.640133384615 -1490389.1385200396 0 0 0 0 -237552595.19196963 -853449166.08210754 0 -853449166.08210754 -1258560227.1068878 0 0 0 0 748449236.34626746 339515109.99384308 0 339515109.99384308 -684636329.75500488 0 0 0 0 -355252215.05827963 -519010841.86958885 0 -519010841.86958885 659751387.97155762 0 0 0 0 152337427.72974169 -200436329.76977921 0 -200436329.76977921 -1049152642.0664215 0 0 0 0 90818565.028934985 -287321646.59663391 0 -287321646.59663391 -1028664662.0449677 0 0 0 0 577481348.57030988 -290110822.08869934 0 -290110822.08869934 -1106694514.0615234 0 0 0 0 -125032257.14658104 -184653650.2358551 0 -184653650.2358551 -1048062983.5761642 0 0 0 0 -6184890.0646488201 -155148149.10592651 0 -155148149.10592651 -1002453449.7564392 0 0 0 0 -46816773.6187656 -352106701.35891724 0 -352106701.35891724 -1050345301.9355927 0 0 0 0 14536760.636108518 -234477731.9190979 0 -234477731.9190979 -894189530.43199158 0 0 0 0 110856934.24807453 -268701462.86125183 0 -268701462.86125183 -893338520.14964294 0 0 0 0 -274096347.59525883 -522857298.54946899 0 -522857298.54946899 -792637621.15115356 0 0 0 0 83221085.119931698 -394447930.21625328 0 -394447930.21625328 -1085341272.0501404 0 0 0 0 321230.07162287808 -1927929.5640571639 0 -1927929.5640571639 -2854442.8137830943 0 0 0 0 -259793097.4677664 -582765816.27620697 0 -582765816.27620697 -559548284.35840321 0 0 0 0 -1222062828.9074192 -1365304702.239151 0 -1365304702.239151 -636559357.15456009 0 0 0 0 -23951014.626723558 -47843980.838201523 0 -47843980.838201523 -39062869.377281189 0 0 0 0 18990689.534343719 -297261.27788543701 0 -297261.27788543701 -38029243.659844398 0 0 0 0 -381908512.68215489 -430030995.26993752 0 -430030995.26993752 -554339863.82359314 0 0 0 0 2054055.2126788134 -4097217.12965592 0 -4097217.12965592 -5686627.3220078126 0 0 0 0 10282332.639672041 -22371451.691825867 0 -22371451.691825867 -37417696.623790979 0 0 0 0 -267409332.05487704 -447252218.19717407 0 -447252218.19717407 -2395939457.340271 0 0 0 0 -337426419.17682052 -1499153595.668808 0 -1499153595.668808 -625568269.3193512 0 0 0 0 -1056976428.0731909 -851666370.15026569 0 -851666370.15026569 -434722601.41317749 0 0 0 0 -328129438.3860985 -1823115180.6636887 0 -1823115180.6636887 -68761944.410491943 0 0 0 0 953259960.56327844 -327541525.56989288 0 -327541525.56989288 -1457195319.2070351 0 0 0 0 -1226476.0054204464 -1781967.3771808781 0 -1781967.3771808781 -1476215.4704525247 0 0 0 0 309551859.10797191 -933791237.72776031 0 -933791237.72776031 -1793232793.9859085 0 0 0 0 -765073897.62415886 -342086070.80024719 0 -342086070.80024719 656816589.86102676 0 0 0 0 -712961307.68424273 -1698036748.9667969 0 -1698036748.9667969 325815870.67684937 0 0 0 0 -1010367864.8373806 -1421409850.6008987 0 -1421409850.6008987 72694219.054336548 0 0 0 0 -1610289369.8893075 -679025420.72348022 0 -679025420.72348022 -296787091.57875061 0 0 0 0 -1175791752.3352511 -1479813672.4319878 0 -1479813672.4319878 -1262840994.6756439 0 0 0 0 -821678003.14386439 -1698330261.1803665 0 -1698330261.1803665 -3461525251.5076065 0 0 0 0 643652263.73052824 -75506812.834579468 0 -75506812.834579468 -1690492566.8668823 0 0 0 0 1417462359.6354964 529247251.39393234 0 529247251.39393234 -2314652307.9472198 0 0 0 0 879956813.27971756 -649536345.26140594 0 -649536345.26140594 -3459099411.3128161 0 0 0 0 713579198.10455632 -189625995.1275177 0 -189625995.1275177 -3452543381.192543 0 0 0 0 -409069927.42109203 488579447.38989639 0 488579447.38989639 -627417579.87791443 0 0 0 0 -915201.48371177295 -3520558.2497764705 0 -3520558.2497764705 -3570173.2872964144 0 0 0 0 -3853397385.9723301 -2019615695.5493774 0 -2019615695.5493774 -1077338876.4589996 0 0 0 0 -392371667.52179104 999444198.12625122 0 999444198.12625122 -1349938244.0593414 0 0 0 0 -152020.55106891252 -4342996.225910658 0 -4342996.225910658 -8836965.3088406995 0 0 0 0 -1272389766.5154061 -809464421.11271667 0 -809464421.11271667 -246436878.55615997 0 0 0 0 19079621.695220888 -32477345.084991455 0 -32477345.084991455 12084752.845291138 0 0 0 0 2075365.3522384833 -2148214.5801469237 0 -2148214.5801469237 -4757975.80914554 0 0 0 0 -17323042.900763512 -264996126.93296814 0 -264996126.93296814 -229022830.15172577 0 0 0 0 -77261768.632752478 -172250762.96940613 0 -172250762.96940613 -80663970.5025177 0 0 0 0 495165.21157548099 -659288.49481346086 0 -659288.49481346086 -1390101.0561955422 0 0 0 0 -28605154.936408103 5451757.816986084 0 5451757.816986084 13665148.155731201 0 0 0 0 -45820690.728685558 22523024.639587402 0 22523024.639587402 -1912612.5819091797 0 0 0 0 -55243370.074847877 8497968.2286834717 0 8497968.2286834717 33545510.987121582 0 0 0 0 -66243721.413944602 20869627.690986633 0 20869627.690986633 22519325.040390015 0 0 0 0 -76919338.798449725 -28469832.877056122 0 -28469832.877056122 -8428098.174331665 0 0 0 0 -24838588.23704195 15063978.384719849 0 15063978.384719849 -8041071.0226135254 0 0 0 0 -25044562.283670299 18261467.652933121 0 18261467.652933121 -22121731.219406128 0 0 0 0 11050117.609942988 54333998.028701782 0 54333998.028701782 10932905.599609375 0 0 0 0 2963985.3616847992 -17816844.359428406 0 -17816844.359428406 -27806607.026977539 0 0 0 0 -16702763.507096529 10304095.7654953 0 10304095.7654953 -10834908.824279785 0 0 0 0 1987145.6646294547 -1642605.9142760024 0 -1642605.9142760024 -13384687.99415502 0 0 0 0 -27444791.924768925 8370308.9996795654 0 8370308.9996795654 7745835.6817779541 0 0 0 0 -25552437.063175678 16981021.854385376 0 16981021.854385376 -15678076.920272827 0 0 0 0 1280656.5254878998 -6281227.6311950684 0 -6281227.6311950684 -20844633.791757584 0 0 0 0 12259413.794919729 3792396.0720596313 0 3792396.0720596313 -11706836.936141968 0 0 0 0 -4899324.8031262234 20424572.535133362 0 20424572.535133362 -22516798.379852295 0 0 0 0 -34487324.825945854 1253107.3909454346 0 1253107.3909454346 -17924800.291015625 0 0 0 0 -18015699.368130684 -1722473.2129821777 0 -1722473.2129821777 -40439844.709503174 0 0 0 0 -24704961.283502579 24824267.603813171 0 24824267.603813171 8460130.8079528809 0 0 0 0 -508225.47080446727 117302.83795347298 0 117302.83795347298 -70119.279971338809 0 0 0 0 -3737008.6517341137 29610403.601150513 0 29610403.601150513 -36880065.300048828 0 0 0 0 10039944.12083149 23087344.695846558 0 23087344.695846558 -27035729.0730896 0 0 0 0 -8005137.1542024016 23138985.401733398 0 23138985.401733398 3020620.0453186035 0 0 0 0 415025.51692510734 389528.45300133526 0 389528.45300133526 -1345261.908621259 0 0 0 0 -15492292.815611601 1001409.1011657715 0 1001409.1011657715 -13456492.397689819 0 0 0 0 -960278.82446920872 12478473.287857056 0 12478473.287857056 3669922.5197105408 0 0 0 0 -3273942.7749792533 3496779.0165100098 0 3496779.0165100098 -4178978.071105957 0 0 0 0 -512099.18812568591 -206840.35533496737 0 -206840.35533496737 -21625874.795451172 0 0 0 0 -7867714.681575954 -3809877.4344062805 0 -3809877.4344062805 -8110147.1703796387 0 0 0 0 27415593.397057176 -28773778.285327911 0 -28773778.285327911 -14659950.510681152 0 0 0 0 1196790.8418709235 -3015754.9661009228 0 -3015754.9661009228 -16998893.9783599 0 0 0 0 9420769.410297513 991908.14345550537 0 991908.14345550537 -7965694.6820373535 0 0 0 0 7605518.5735594928 -1026631.8725280762 0 -1026631.8725280762 -10208001.423706055 0 0 0 0 3146984.405382812 3204183.975692749 0 3204183.975692749 -5780862.8567504883 0 0 0 0 -1315894.9031947651 1996436.391432425 0 1996436.391432425 -3250642.5683109164 0 0 0 0 10743946.395918401 3621608.3121080399 0 3621608.3121080399 -7321997.8444976807 0 0 0 0 10252172.477022357 99401.014137268066 0 99401.014137268066 -7675254.3506164551 0 0 0 0 11882413.990367651 -31675373.028564453 0 -31675373.028564453 -9224032.4783477783 0 0 0 0 25131176.525286198 3823837.1052627563 0 3823837.1052627563 -4604104.930480957 0 0 0 0 91261468.951998472 -23104882.404937744 0 -23104882.404937744 -69467490.234771729 0 0 0 0 2039847.2822994157 2858593.5250379527 0 2858593.5250379527 -18305278.285221078 0 0 0 0 22456308.64247489 14630709.126346588 0 14630709.126346588 -9485582.6152496338 0 0 0 0 62845.318957730517 111661.33079211786 0 111661.33079211786 -230213.93181235343 0 0 0 0 34380831.901484638 13800661.556472778 0 13800661.556472778 -6798050.1520385742 0 0 0 0 -8271738.7346543074 -86434687.312866211 0 -86434687.312866211 -61920732.114151001 0 0 0 0 -35518543.390446186 -27812473.945297241 0 -27812473.945297241 1181372.4124450684 0 0 0 0 15102392.099868536 -45370202.290390015 0 -45370202.290390015 3506272.2009887695 0 0 0 0 -77575.795369444648 -3606241.291534455 0 -3606241.291534455 -406443.40567354858 0 0 0 0 2007441.0665410226 245337.5087002709 0 245337.5087002709 -12865464.481547549 0 0 0 0 5348484.8496795893 -694042.0902261734 0 -694042.0902261734 -13352084.546325684 0 0 0 0 19875160.619690806 7468633.5989875793 0 7468633.5989875793 -23148370.013793945 0 0 0 0 8173561.5356484652 -16673145.61391449 0 -16673145.61391449 -9042127.0781555176 0 0 0 0 -304815.51355985715 -4027056.2951182574 0 -4027056.2951182574 -15016676.699909173 0 0 0 0 -3071233.4399914742 1413017.1347961426 0 1413017.1347961426 -2457469.4608879089 0 0 0 0 59293112.739957631 -29389987.321525574 0 -29389987.321525574 -45620718.770858765 0 0 0 0 -952229.98477375507 9087262.6935577393 0 9087262.6935577393 -6398178.6985473633 0 0 0 0 11693722.35056252 -33214350.602313995 0 -33214350.602313995 25237947.753311157 0 0 0 0 16263.572126459563 -611465.6967125088 0 -611465.6967125088 -2856970.0626250915 0 0 0 0 -43347987.854352891 -10269817.812736511 0 -10269817.812736511 -1519007.692741394 0 0 0 0 36537532.250179291 26007643.650253296 0 26007643.650253296 -60652036.503318787 0 0 0 0 4882982.709274292 -2549866.5124511719 0 -2549866.5124511719 -81967636.390220642 0 0 0 0 52006463.743022501 -8258441.4747924805 0 -8258441.4747924805 -65953433.184204102 0 0 0 0 -14533314.96650672 -53990002.980361938 0 -53990002.980361938 10892798.668243408 0 0 0 0 -83388804.479603291 -3871780.4894561768 0 -3871780.4894561768 -13757101.042251587 0 0 0 0 -14842619.174863338 45459975.202156067 0 45459975.202156067 -102418945.68951416 0 0 0 0 39998245.025555611 3094356.5966949463 0 3094356.5966949463 -143545992.28675079 0 0 0 0 38443049.835418716 -5919011.8835258484 0 -5919011.8835258484 -90865437.299118042 0 0 0 0 29727128.115910053 -7114156.715385437 0 -7114156.715385437 -90576647.54460144 0 0 0 0 21484884.105073333 15408999.092460632 0 15408999.092460632 1400241.0772323608 0 0 0 0 27208906.297339678 -8152496.3136444092 0 -8152496.3136444092 -56622410.906820297 0 0 0 0 13363529.461028576 -20654620.152656555 0 -20654620.152656555 -58442746.659667969 0 0 0 0 28136350.061051726 -36365404.26033783 0 -36365404.26033783 -91259867.228126526 0 0 0 0 17164629.59793663 -29765271.260665894 0 -29765271.260665894 -32666703.40473175 0 0 0 0 264035.90175495704 331521.75274041202 0 331521.75274041202 -232049.352939412 0 0 0 0 -5703606.0039014816 -2199703.5457839966 0 -2199703.5457839966 6078994.5158233643 0 0 0 0 -67017497.996404171 37915916.88942337 0 37915916.88942337 -13789028.157867432 0 0 0 0 734341.74336192536 473139.58114267141 0 473139.58114267141 -16358923.975812532 0 0 0 0 2045084.9025960092 -4569815.3331792019 0 -4569815.3331792019 -18167611.430775844 0 0 0 0 15482879.801527023 -2975072.9059143066 0 -2975072.9059143066 -8158137.0868339539 0 0 0 0 77198889.786753535 44481542.199947357 0 44481542.199947357 -72876617.317016602 0 0 0 0 87137059.236654758 30976528.467261791 0 30976528.467261791 -35430624.411689758 0 0 0 0 27749989.720082641 -8082663.2065429688 0 -8082663.2065429688 -11152573.100696564 0 0 0 0 3459145.540361363 -9881331.1561100185 0 -9881331.1561100185 -20270056.759215817 0 0 0 0 37643803.546775103 28799816.01486969 0 28799816.01486969 -173276890.08185577 0 0 0 0 41661083.86180985 2568433.3570404053 0 2568433.3570404053 -12641643.314888 0 0 0 0 2165295.1386194229 -25692919.833236694 0 -25692919.833236694 -121117559.66360474 0 0 0 0 1392983.7266830802 -8346943.1599197388 0 -8346943.1599197388 -83332954.191818237 0 0 0 0 5327075.3894035816 16410572.996334076 0 16410572.996334076 -84988120.393319607 0 0 0 0 -8532129.4463062286 23530298.660030365 0 23530298.660030365 -25426358.667709351 0 0 0 0 1952539.1242409544 5082679.9833291126 0 5082679.9833291126 -3428886.7682697847 0 0 0 0 13931067.871011496 -4000745.6044845581 0 -4000745.6044845581 -38065236.317459106 0 0 0 0 -8363348.586987257 28950604.223861694 0 28950604.223861694 -11033593.673297882 0 0 0 0 373279.68109941483 -9308419.4287109375 0 -9308419.4287109375 -45995190.004653931 0 0 0 0 16928682.967207432 -2842245.0955200195 0 -2842245.0955200195 -65039364.432449341 0 0 0 0 -67501537.986595392 -38478642.91519165 0 -38478642.91519165 -53049850.832778931 0 0 0 0 -273876236.21082115 -151774868.84693527 0 -151774868.84693527 29233528.272857666 0 0 0 0 430285.20851381018 912829.78922224347 0 912829.78922224347 -952546.45073578507 0 0 0 0 -108397077.11641264 65648714.912696838 0 65648714.912696838 22085319.103755951 0 0 0 0 210185055.10977745 -45006131.335914612 0 -45006131.335914612 -120784794.66739082 0 0 0 0 62699896.798536539 21435904.234302521 0 21435904.234302521 86353672.991226196 0 0 0 0 -9901541.9527455568 -106077703.06246185 0 -106077703.06246185 -89135013.872833252 0 0 0 0 74565860.302231789 -64651808.739311218 0 -64651808.739311218 -101681078.65843964 0 0 0 0 60706887.247741476 1610985.0413274765 0 1610985.0413274765 -170146274.62063599 0 0 0 0 68898182.315111995 -106690592.55082703 0 -106690592.55082703 -46225131.69733429 0 0 0 0 166171228.98321468 -7697482.3322143555 0 -7697482.3322143555 -307085147.41690063 0 0 0 0 926476.06889747176 285809.46401908249 0 285809.46401908249 -2371386.0737101026 0 0 0 0 -31514122.67026186 -124621411.99579239 0 -124621411.99579239 31176695.755859375 0 0 0 0 -354627999.43515682 53263818.491661072 0 53263818.491661072 250512796.94327545 0 0 0 0 123810738.3937366 119514164.02748132 0 119514164.02748132 -89069172.044311523 0 0 0 0 107363752.17801857 -202962440.05630493 0 -202962440.05630493 -82780265.674934387 0 0 0 0 -31515666.194873571 -186131445.37137604 0 -186131445.37137604 -53856763.708595276 0 0 0 0 -244515142.05627441 -261680550.62248993 0 -261680550.62248993 -77137769.982749939 0 0 0 0 10332553.654925644 -220421018.91695404 0 -220421018.91695404 -353361865.93533325 0 0 0 0 -8435293.0911186934 181090382.25989532 0 181090382.25989532 -283656488.9758749 0 0 0 0 -35636634.739744127 24803160.127326965 0 24803160.127326965 -111088426.21360016 0 0 0 0 -50670923.349024013 -297159512.54253626 0 -297159512.54253626 -20103844.22530365 0 0 0 0 -565523.62029468105 305657.73181007802 0 305657.73181007802 -1112336.2388789132 0 0 0 0 107921973.37486994 -3588798.7337646484 0 -3588798.7337646484 31217148.978725433 0 0 0 0 103582351.4745729 104937970.04746437 0 104937970.04746437 23096065.263595581 0 0 0 0 1853493.6361266111 2662820.2221202143 0 2662820.2221202143 -7302677.6573309191 0 0 0 0 129741165.80769277 126537243.66986847 0 126537243.66986847 -257165466.27487946 0 0 0 0 -309839854.29789901 13679048.547960281 0 13679048.547960281 185418626.21851349 0 0 0 0 -1307901.0673537864 2909817.5166022722 0 2909817.5166022722 -4008979.0416968511 0 0 0 0 -5753169.0947148204 -17181453.963937759 0 -17181453.963937759 -5269866.1099853516 0 0 0 0 18097008.426175475 4323975.1063537598 0 4323975.1063537598 -22129849.73358345 0 0 0 0 4164394.0907319491 -15298915.287636757 0 -15298915.287636757 -30298147.165122986 0 0 0 0 4963856.4942339659 8571656.1716346741 0 8571656.1716346741 -10032960.865211487 0 0 0 0 -1794174.4101939201 3084530.460105896 0 3084530.460105896 -14437821.067993164 0 0 0 0 2829757.587221819 3900140.9595632479 0 3900140.9595632479 -8675727.7248845547 0 0 0 0 226287.0769403798 276482.76420130581 0 276482.76420130581 -2755759.1538278237 0 0 0 0 132138089.28807521 8425226.1780643463 0 8425226.1780643463 -29741206.979785919 0 0 0 0 8930534.2773859501 -199475.67552185059 0 -199475.67552185059 -23861852.221492767 0 0 0 0 400956.50530539296 2713752.227403298 0 2713752.227403298 -379953.24807690829 0 0 0 0 790032.85734386172 868062.1736570932 0 868062.1736570932 -6105304.5443204492 0 0 0 0 2653885.6665825844 3305046.7112236023 0 3305046.7112236023 -7132742.7112674713 0 0 0 0 1178283.46328338 4297712.44497946 0 4297712.44497946 -3646850.1536302119 0 0 0 0 2725545.6995635033 3266005.9998474121 0 3266005.9998474121 -1974836.8259067535 0 0 0 0 2214599.0854859566 222040.33400784433 0 222040.33400784433 -16315207.458426001 0 0 0 0 -8666421.2136597633 11510233.3009758 0 11510233.3009758 15526870.775009155 0 0 0 0 1038323.0139724009 1955154.8479269408 0 1955154.8479269408 -9991901.2339381073 0 0 0 0 1669729.6208439397 4466897.5895851478 0 4466897.5895851478 -9546209.4768371321 0 0 0 0 3598567.1900988817 3740046.3386688232 0 3740046.3386688232 -7197330.1429748535 0 0 0 0 -424504.14487619884 793650.49435424805 0 793650.49435424805 -5895200.2793731689 0 0 0 0 2254253.2605739939 3721570.9152263924 0 3721570.9152263924 -11884936.740831606 0 0 0 0 4106132.1045742035 2118281.8928222656 0 2118281.8928222656 -5065523.8997192383 0 0 0 0 -67484.980272710018 3689736.3383916011 0 3689736.3383916011 -5215249.273459658 0 0 0 0 3657967.631816864 3507433.4684448242 0 3507433.4684448242 -8252579.0784301758 0 0 0 0 1603690.6905446027 -835096.47941756994 0 -835096.47941756994 -13526138.543698914 0 0 0 0 1951628.1142427344 3340308.2153778076 0 3340308.2153778076 -4084330.1604003906 0 0 0 0 -862605.84772881656 -536920.53638397902 0 -536920.53638397902 -13377991.048649242 0 0 0 0 2421555.1560745239 574706.08209228516 0 574706.08209228516 -5996096.2703857422 0 0 0 0 -46549.395399660069 3886372.1562741054 0 3886372.1562741054 -3982703.1451742277 0 0 0 0 1644725.0926515134 1618633.9630737305 0 1618633.9630737305 -5738444.3442687988 0 0 0 0 17519140.126438692 11809808.733413696 0 11809808.733413696 -13102893.54649353 0 0 0 0 274519.44313638151 2743476.7060208227 0 2743476.7060208227 -642437.96852627397 0 0 0 0 19249061.790027663 30322888.40585804 0 30322888.40585804 -23845599.425018311 0 0 0 0 488867.4684006545 80220.824072385207 0 80220.824072385207 -7928867.0298215523 0 0 0 0 2480227.7963421345 -349466.75037384033 0 -349466.75037384033 -3372419.0697307587 0 0 0 0 -24097.352001223597 -360509.71439179406 0 -360509.71439179406 -9084177.2627626806 0 0 0 0 3127274.8080298901 -3252982.5041465759 0 -3252982.5041465759 -18419268.456268311 0 0 0 0 5211852.5991486907 -2751235.558757782 0 -2751235.558757782 -19720359.955101013 0 0 0 0 4692610.0277037621 -3766980.2861785889 0 -3766980.2861785889 -20554846.307868958 0 0 0 0 3771716.9891980886 -2116621.1230201721 0 -2116621.1230201721 -16904771.480560303 0 0 0 0 -2579590.5774748325 11829649.332328796 0 11829649.332328796 -20003931.916900635 0 0 0 0 7077035.0359969139 6650462.0879631042 0 6650462.0879631042 -42020816.428131104 0 0 0 0 -435484.62019187084 479099.38977858657 0 479099.38977858657 -14176000.02544903 0 0 0 0 19736599.581353784 -8681353.0791511536 0 -8681353.0791511536 -47381724.418762207 0 0 0 0 141914658.16698283 50656303.965873718 0 50656303.965873718 -9501075.1196899414 0 0 0 0 19700146.967301246 -112234.3011932373 0 -112234.3011932373 8888474.2105102539 0 0 0 0 1400813.3037243083 -2334403.2923094835 0 -2334403.2923094835 -1938778.4798145741 0 0 0 0 14632799.835916609 104688547.88245773 0 104688547.88245773 122020416.8400116 0 0 0 0 4955793.1798837185 9171711.119430542 0 9171711.119430542 -14104749.8032341 0 0 0 0 -108105431.64839423 -112948855.46112061 0 -112948855.46112061 141863015.57281303 0 0 0 0 -12201863.570787787 -2747869.015750885 0 -2747869.015750885 313496.80182647705 0 0 0 0 -4145830.0355944633 -3153622.848274231 0 -3153622.848274231 -37385628.008813858 0 0 0 0 -3338195.9487496614 3710674.5984649658 0 3710674.5984649658 -14580854.522254944 0 0 0 0 -3202475.985316962 5843572.2698202133 0 5843572.2698202133 -14762297.163742065 0 0 0 0 -29429642.370440949 -307221062.03162956 0 -307221062.03162956 -3053844262.1266556 0 0 0 0 -3481868.1634965539 6172016.6391458511 0 6172016.6391458511 -12879859.454437256 0 0 0 0 -1355917.0443574165 2647713.2321057878 0 2647713.2321057878 -6674746.9244887866 0 0 0 0 48142721.290861934 452671951.55569458 0 452671951.55569458 -3461203311.3610072 0 0 0 0 94666572.157131165 -171817846.37812996 0 -171817846.37812996 -704243310.84527588 0 0 0 0 -456132.96635904233 1544736.4558607517 0 1544736.4558607517 -12820542.706657492 0 0 0 0 -1026592605.3788701 -1570056210.5155334 0 -1570056210.5155334 -292390421.98937988 0 0 0 0 -2488149.4230445563 11282660.856292441 0 11282660.856292441 -3518523.4935716465 0 0 0 0 564840654.44103312 -389042877.00956726 0 -389042877.00956726 -1302553980.7549438 0 0 0 0 -2164142.5743079148 4100155.2919954881 0 4100155.2919954881 -1170901.3304345459 0 0 0 0 -9141500.2857428566 9585101.7694358826 0 9585101.7694358826 -15451125.118293762 0 0 0 0 -852263058.51544118 1764087447.2598839 0 1764087447.2598839 -2013974522.4139709 0 0 0 0 -1558411123.4490471 346362007.04480362 0 346362007.04480362 -80295917.596610069 0 0 0 0 2421089.3982936041 -8755180.1317668483 0 -8755180.1317668483 2605728.8459949959 0 0 0 0 -1180041.0007146965 -134696.10430886224 0 -134696.10430886224 -4504517.6476938631 0 0 0 0 -7655981.7905732393 5593500.3252868652 0 5593500.3252868652 -5693217.7247076035 0 0 0 0 -33162536.39601817 -356616320.54411411 0 -356616320.54411411 -3490327271.0967484 0 0 0 0 -3540811.6365509033 10303615.978549957 0 10303615.978549957 -32169071.028327942 0 0 0 0 -4074554.2823725939 9799093.3129806519 0 9799093.3129806519 -15466641.897425652 0 0 0 0 -19923922.765073895 34130430.095136642 0 34130430.095136642 -40403245.404449463 0 0 0 0 -15842742.764074534 21227551.132437706 0 21227551.132437706 -26547742.041191101 0 0 0 0 5670115.8170700818 10965575.947710991 0 10965575.947710991 -34706705.908279419 0 0 0 0 15667321.946160197 3652427.3551559448 0 3652427.3551559448 -29943338.695030212 0 0 0 0 12635985.509106517 13915166.402851105 0 13915166.402851105 -38326877.094589233 0 0 0 0 -2418420.854641702 20174311.608283997 0 20174311.608283997 -35423639.100082397 0 0 0 0 -4147425.3541677147 16800508.208856583 0 16800508.208856583 -35701630.869369507 0 0 0 0 -230090.15131529834 480510.42820170708 0 480510.42820170708 -642942.89175371081 0 0 0 0 -59678047.638700008 83017252.016899109 0 83017252.016899109 -98184034.438455582 0 0 0 0 34923718.797380924 -67639170.11138916 0 -67639170.11138916 -11845104.606365204 0 0 0 0 -144998884.3077364 -19748414.667007446 0 -19748414.667007446 -21903284.903778076 0 0 0 0 89525053.351077229 -192896909.56796265 0 -192896909.56796265 -120478976.57386017 0 0 0 0 -133347794.02938902 214564495.74241257 0 214564495.74241257 -72506950.648934841 0 0 0 0 -931544.60296273988 1739453.0815828778 0 1739453.0815828778 -1539793.6843967065 0 0 0 0 -609638650.12228322 933908015.51249695 0 933908015.51249695 -359146501.75476933 0 0 0 0 130523104.4718228 -62594999.046518326 0 -62594999.046518326 -472290693.09428406 0 0 0 0 38996128.713269353 -103896760.16311455 0 -103896760.16311455 -1296508156.4656601 0 0 0 0 775356819.37990463 -151168410.96224213 0 -151168410.96224213 -3465805983.2753339 0 0 0 0 451889707.5261721 523482192.45915842 0 523482192.45915842 -1516206671.0615768 0 0 0 0 424159399.55429429 704129220.54764938 0 704129220.54764938 -2293922723.4674835 0 0 0 0 340665593.69274092 1381902501.7985687 0 1381902501.7985687 -3459023792.1431956 0 0 0 0 -960260319.8320893 -1538962210.9096394 0 -1538962210.9096394 -1475669325.6533432 0 0 0 0 543593860.82684195 -1157583976.2228737 0 -1157583976.2228737 -3458449782.9417725 0 0 0 0 690158024.49331665 -417802607.70800781 0 -417802607.70800781 -1782683555.248497 0 0 0 0 219657767.80626696 -808699997.15942383 0 -808699997.15942383 -1508722946.7019997 0 0 0 0 -42330520.019664735 55747610.992254257 0 55747610.992254257 -370484123.47131348 0 0 0 0 203640184.42367744 -94018229.060775757 0 -94018229.060775757 -652080648.85667038 0 0 0 0 4676263.7144037485 8035741.4206581116 0 8035741.4206581116 -10173997.285175323 0 0 0 0 28410282.254260898 -73126347.6443367 0 -73126347.6443367 -247419724.25696945 0 0 0 0 -35803576.435211957 83067205.646614075 0 83067205.646614075 -68128963.788764954 0 0 0 0 8502496.7971531153 80040544.624435425 0 80040544.624435425 -68366522.645595551 0 0 0 0 162054.57981932914 -26721.316775213927 0 -26721.316775213927 -925488.37864676304 0 0 0 0 -27980199.181285918 43741464.641372681 0 43741464.641372681 52463763.223754883 0 0 0 0 40259984.092852592 -10427209.242893219 0 -10427209.242893219 -107826184.53186798 0 0 0 0 36543719.661830366 -12765477.62227726 0 -12765477.62227726 -162434856.57253265 0 0 0 0 68697856.438503742 18290237.042016983 0 18290237.042016983 -138747752.2434082 0 0 0 0 33658414.018271446 118735532.85703659 0 118735532.85703659 -401227406.62574768 0 0 0 0 53603236.535917282 -260386536.6420517 0 -260386536.6420517 -304298684.99661255 0 0 0 0 -3490499.6732686819 2778070.7059671003 0 2778070.7059671003 -2096099.3324248558 0 0 0 0 -16704973.40021801 -117314619.34093475 0 -117314619.34093475 141186813.40539551 0 0 0 0 -113960371.59311116 12612307.473754883 0 12612307.473754883 90833364.453475952 0 0 0 0 -249426306.92946243 289191014.32293701 0 289191014.32293701 133631221.76984406 0 0 0 0 -3212894.8834882346 3017438.9519881867 0 3017438.9519881867 -2566874.4506225623 0 0 0 0 61721737.324837983 -16986788.272033691 0 -16986788.272033691 -116399705.20131111 0 0 0 0 172759116.47481346 -26647313.080463409 0 -26647313.080463409 -457438958.73625183 0 0 0 0 54291.145595934708 536119.56927594543 0 536119.56927594543 -589882.0917202048 0 0 0 0 -45484465.719791412 -263556134.67870331 0 -263556134.67870331 -294935125.78308487 0 0 0 0 -91864165.210229874 41705674.151371002 0 41705674.151371002 -18167927.192779541 0 0 0 0 4795173.8012769818 4910895.724978447 0 4910895.724978447 -4177713.6886520386 0 0 0 0 2711958.8177115582 1988491.6633764897 0 1988491.6633764897 -3035472.2982203383 0 0 0 0 -82489442.754191399 -5653178.4882535934 0 -5653178.4882535934 3734671.2773666382 0 0 0 0 3310775.4068598542 1089668.1948628109 0 1089668.1948628109 -6348982.2858864889 0 0 0 0 -950488.28599697677 -209620.80027791858 0 -209620.80027791858 -710713.07598136086 0 0 0 0 -4409273.1147556305 30983551.733032227 0 30983551.733032227 -35035006.397708893 0 0 0 0 6055158.8284339905 6955268.3124046326 0 6955268.3124046326 1240050.5323300362 0 0 0 0 4517100.1458570957 4565495.9235916138 0 4565495.9235916138 1383456.2304229736 0 0 0 0 1170411.7574856281 2818794.688129425 0 2818794.688129425 1227069.6295578331 0 0 0 0 1654284.6265985966 1905455.4882202148 0 1905455.4882202148 1230670.8479781449 0 0 0 0 1566214.9289155006 2299923.4739494324 0 2299923.4739494324 496931.17142009735 0 0 0 0 107240.30536150932 2404109.3583717346 0 2404109.3583717346 2036882.7408943176 0 0 0 0 944674.35126566887 3278083.7457733154 0 3278083.7457733154 522448.68388044834 0 0 0 0 781162.70638990402 865066.35968399048 0 865066.35968399048 -16250.411682128906 0 0 0 0 1873508.1815028666 1999612.6239451487 0 1999612.6239451487 -2372413.9333392363 0 0 0 0 21548449.14478898 33029771.403515339 0 33029771.403515339 -135022140.25824738 0 0 0 0 1577786.4592890739 3149067.4833946228 0 3149067.4833946228 -3493582.7504119873 0 0 0 0 -11490632.067553878 -18838993.961080551 0 -18838993.961080551 -41477311.245422363 0 0 0 0 -26522271.569962382 2406652.5275020599 0 2406652.5275020599 -27397569.521911621 0 0 0 0 3714191.1342954636 4063414.3149909973 0 4063414.3149909973 -35475134.274841309 0 0 0 0 -134029.17407941818 8842731.4958000183 0 8842731.4958000183 -11508428.217506409 0 0 0 0 5837047.9015567303 14387340.353601456 0 14387340.353601456 -49877151.452140808 0 0 0 0 101712.88979692082 87136.741880469024 0 87136.741880469024 -222931.47973821312 0 0 0 0 -245309.21640062332 -18461049.827186584 0 -18461049.827186584 -61897338.821182251 0 0 0 0 51742.01534630754 330544.66583122872 0 330544.66583122872 -240714.57581209391 0 0 0 0 -8833704.9740068913 4804027.9852714539 0 4804027.9852714539 -2585656.0115013123 0 0 0 0 23608.973776337923 158842.51423611306 0 158842.51423611306 -91036.491988889873 0 0 0 0 1862944.2035794854 5606566.4022464752 0 5606566.4022464752 9616952.8211593628 0 0 0 0 7891211.8232773542 9378045.6484718323 0 9378045.6484718323 -59159181.420875549 0 0 0 0 6257591.1464238167 5685423.3775634766 0 5685423.3775634766 -49388950.622610092 0 0 0 0 5316291.0420701504 9277693.1268768311 0 9277693.1268768311 -46411852.063919067 0 0 0 0 -3974020.588753581 9066097.4524078369 0 9066097.4524078369 -26023013.32649231 0 0 0 0 5862740.1551234722 -2935603.2484054565 0 -2935603.2484054565 -28642598.525421143 0 0 0 0 1530732.5856387019 956645.9815158844 0 956645.9815158844 -35507333.814025879 0 0 0 0 3219045.2774138451 -8292704.956703186 0 -8292704.956703186 -29132262.707733154 0 0 0 0 2599005.575861454 -5467234.0230178833 0 -5467234.0230178833 -28129219.565467834 0 0 0 0 3935992.4972920418 -8815574.5407714844 0 -8815574.5407714844 -23799500.118171692 0 0 0 0 2901745.5271695852 -4259444.5840072632 0 -4259444.5840072632 -25346723.492004395 0 0 0 0 5354494.9563393593 -6458884.8057861328 0 -6458884.8057861328 -26907971.612640381 0 0 0 0 4688738.1555593014 -5957791.3442001343 0 -5957791.3442001343 -23388947.332275391 0 0 0 0 4139378.1221032143 -8991877.6897583008 0 -8991877.6897583008 -61229253.43751812 0 0 0 0 5419205.0586948395 -2630229.4843978882 0 -2630229.4843978882 -40199890.777244568 0 0 0 0 5106795.3959794044 -2774025.9597244263 0 -2774025.9597244263 -38766420.984313965 0 0 0 0 2855484.22555691 -4833863.2067108154 0 -4833863.2067108154 -39829454.49382019 0 0 0 0 -1950655.3825984001 -11136186.493469238 0 -11136186.493469238 -30560031.381889343 0 0 0 0 -3377683.6778604984 -5451583.1946640015 0 -5451583.1946640015 -26372776.728736877 0 0 0 0 -5191105.6653568745 -10147914.017879486 0 -10147914.017879486 -21728637.052650452 0 0 0 0 2910506.7398612499 -9505338.5286102295 0 -9505338.5286102295 -22356564.132461548 0 0 0 0 -212205.26448178291 -6345681.9898834229 0 -6345681.9898834229 -23320398.075485229 0 0 0 0 5546357.4641728401 -4989544.9446144104 0 -4989544.9446144104 -14394256.116363525 0 0 0 0 -3986857.1921370029 -5339566.9782371521 0 -5339566.9782371521 -14371103.1042099 0 0 0 0 5351102.4307454824 -8264282.6281051636 0 -8264282.6281051636 -17271526.898574829 0 0 0 0 6178147.5690438747 -8671885.5993347168 0 -8671885.5993347168 -20869040.412277222 0 0 0 0 3297885.6997981071 -8432808.6926956177 0 -8432808.6926956177 -20309118.719993591 0 0 0 0 5853478.1295142174 -10569404.495117188 0 -10569404.495117188 -18128546.399993896 0 0 0 0 5060734.3205413818 -7396365.0470581055 0 -7396365.0470581055 -21539448.66916275 0 0 0 0 2567240.6997927427 -6215619.0024871826 0 -6215619.0024871826 -21315945.092849731 0 0 0 0 7917187.4254961014 -7078931.8310394287 0 -7078931.8310394287 -16131270.731882095 0 0 0 0 276591.7496304512 -9587988.2164878845 0 -9587988.2164878845 -16656132.197921753 0 0 0 0 4547760.8383712769 -10040422.003959656 0 -10040422.003959656 -15823906.724151611 0 0 0 0 5834288.5276441276 -11900386.411712646 0 -11900386.411712646 -14769966.242698669 0 0 0 0 -768159.61402440071 -20094506.275047302 0 -20094506.275047302 -9595109.5060501099 0 0 0 0 19123908.39365685 -1603661.4005012512 0 -1603661.4005012512 -24805386.140861511 0 0 0 0 25087104.174268901 -30743650.152691841 0 -30743650.152691841 -6132515.7478485107 0 0 0 0 2401053.0032608183 -5811924.4734523576 0 -5811924.4734523576 -12731166.873784978 0 0 0 0 -887319.74527907372 -6495355.8093948364 0 -6495355.8093948364 -9641827.9247741699 0 0 0 0 7480507.5000844002 -9187698.5542984009 0 -9187698.5542984009 -9254921.7414808273 0 0 0 0 2862763.2483194359 -6262244.4789876007 0 -6262244.4789876007 -12762239.53941825 0 0 0 0 3247420.2396152792 -5623333.2235286105 0 -5623333.2235286105 -15452326.046589687 0 0 0 0 3431715.7237281799 -3038336.3027515411 0 -3038336.3027515411 -9901079.3957443237 0 0 0 0 5419200.4339284897 -7685313.4238967896 0 -7685313.4238967896 -14352777.145313263 0 0 0 0 6023547.2622265816 679598.94977760315 0 679598.94977760315 -15252646.458427429 0 0 0 0 468827.98114061356 -4473092.5150299072 0 -4473092.5150299072 -11380518.819957733 0 0 0 0 3569882.8207326424 -6320397.6561581511 0 -6320397.6561581511 -15874703.816080779 0 0 0 0 2452595.5583004951 -4532771.3651046753 0 -4532771.3651046753 -10745878.667011261 0 0 0 0 12173160.657474041 366680.92204666138 0 366680.92204666138 -15727493.22927475 0 0 0 0 9922438.9869303703 -4364469.4595489502 0 -4364469.4595489502 -26139621.816507339 0 0 0 0 -3461997.6316996515 3354811.9943749905 0 3354811.9943749905 -14241373.306480408 0 0 0 0 2230557.3441228867 15844154.549621582 0 15844154.549621582 -8934066.9043674469 0 0 0 0 1787041.5151421246 5590492.5653987909 0 5590492.5653987909 -19658818.178332776 0 0 0 0 3185118.3674525619 19353479.204637527 0 19353479.204637527 -13115375.577926636 0 0 0 0 5055599.9778761864 7124996.8613243103 0 7124996.8613243103 -5782821.862739563 0 0 0 0 1952169.8497204571 1091720.1842693165 0 1091720.1842693165 -2386781.8553777263 0 0 0 0 7302083.4805705929 -9874084.688684253 0 -9874084.688684253 -21817932.126437113 0 0 0 0 7242908.0107297897 -12186723.1994133 0 -12186723.1994133 -6705397.9452972412 0 0 0 0 66202228.454771757 11694368.220917225 0 11694368.220917225 -37486476.209827423 0 0 0 0 1489767.2498469353 -7412861.2247657776 0 -7412861.2247657776 -6449350.8071053028 0 0 0 0 10262129.094324946 -7919982.3830337524 0 -7919982.3830337524 -41275993.831321716 0 0 0 0 1679753.2382369041 -6270136.8214683533 0 -6270136.8214683533 -6687564.2689704895 0 0 0 0 629118.46145963669 -5575545.9726371765 0 -5575545.9726371765 -7145689.8487548828 0 0 0 0 -261575.51735712402 -8078143.2017089389 0 -8078143.2017089389 -4271192.1174566038 0 0 0 0 -13116414.641529918 -6973653.4673233032 0 -6973653.4673233032 32058879.472663879 0 0 0 0 39059.013172910083 -1119544.5519929156 0 -1119544.5519929156 -2629953.1171025755 0 0 0 0 -12487480.007688999 -24541159.370529175 0 -24541159.370529175 2268690.9740772247 0 0 0 0 4603078.7301236987 -7722501.7118453979 0 -7722501.7118453979 -20287406.690544128 0 0 0 0 1429482.2321526064 -8383357.5185461231 0 -8383357.5185461231 -8861035.9549086802 0 0 0 0 220693.51584481122 -3610221.1149774324 0 -3610221.1149774324 -15082910.242977249 0 0 0 0 -1159282.491745472 -3014982.1292266846 0 -3014982.1292266846 -9043368.1571502686 0 0 0 0 -982912.73938740278 -9229094.1086219288 0 -9229094.1086219288 8015346.0736835785 0 0 0 0 -302681.70436871052 -13794631.151904106 0 -13794631.151904106 18602886.598892212 0 0 0 0 -44359667.068259239 -8456176.863609314 0 -8456176.863609314 18585029.438964844 0 0 0 0 4289772.8832368851 -5867978.4176177979 0 -5867978.4176177979 9986258.1713180542 0 0 0 0 810020.03878108901 -1341019.6959207729 0 -1341019.6959207729 6298.6693478375673 0 0 0 0 -16115405.967609167 -1589775.6746635437 0 -1589775.6746635437 9146622.2781581879 0 0 0 0 -13871784.175050974 -7757000.3894996643 0 -7757000.3894996643 1519764.7108383179 0 0 0 0 -39843470.243426323 12262063.599143982 0 12262063.599143982 24012739.028945923 0 0 0 0 -1156336.4211088419 -323602.62970733643 0 -323602.62970733643 20325017.820655823 0 0 0 0 -1631879.7093447342 -2522145.3617465869 0 -2522145.3617465869 4451325.8513781726 0 0 0 0 -3367163.6333856583 -17652646.725288391 0 -17652646.725288391 33987603.571380615 0 0 0 0 21078684.283243656 -33141918.958797455 0 -33141918.958797455 -31265460.046714783 0 0 0 0 11930396.53208375 -11264425.090995789 0 -11264425.090995789 -56853929.49332428 0 0 0 0 -338170.69437256258 -7758552.8789434992 0 -7758552.8789434992 -4376106.0803586617 0 0 0 0 -6149949.6573610604 -4754333.7556114197 0 -4754333.7556114197 -164268.24565887451 0 0 0 0 -11260297.836654186 -24186113.465995789 0 -24186113.465995789 -2654106.9322738647 0 0 0 0 -1011151.3528241344 -7391431.8741710931 0 -7391431.8741710931 -2672012.6128855869 0 0 0 0 982974.3677874495 -257133.06541827694 0 -257133.06541827694 -3836308.6217883751 0 0 0 0 -3909775.022397995 -62047459.366508484 0 -62047459.366508484 -39325252.51027298 0 0 0 0 -60710177.730686247 -47929351.785223007 0 -47929351.785223007 30658073.799957275 0 0 0 0 -10619234.103164839 -12037482.221805096 0 -12037482.221805096 -12622406.933181763 0 0 0 0 -140406.64572927752 -3099856.490994459 0 -3099856.490994459 -8433941.4154912531 0 0 0 0 19661550.477054119 70472737.688346863 0 70472737.688346863 -67983135.353498459 0 0 0 0 -9756213.9041132927 -43652906.79415226 0 -43652906.79415226 -24719701.578109741 0 0 0 0 14951116.718827724 -23671508.072616577 0 -23671508.072616577 -18145836.002227783 0 0 0 0 1166490.0931847394 37111719.154378414 0 37111719.154378414 -81380433.917694092 0 0 0 0 -2104871.033641648 -1014116.0749458726 0 -1014116.0749458726 3649747.0188877806 0 0 0 0 -30249988.726884842 -7051602.6001625061 0 -7051602.6001625061 17060484.891708374 0 0 0 0 -14070643.116819382 -977598.93999099731 0 -977598.93999099731 17576093.737804413 0 0 0 0 -3168763.9015344633 -7390682.3123226613 0 -7390682.3123226613 -2031088.1572563611 0 0 0 0 -2374918.6958417892 446195.73970794678 0 446195.73970794678 2294414.7491836548 0 0 0 0 5720897.4744987488 -44506065.250854492 0 -44506065.250854492 59307969.647369385 0 0 0 0 -38667295.53669548 -17474484.161460876 0 -17474484.161460876 43099517.046760559 0 0 0 0 -4544260.7346908627 -1854408.7323836721 0 -1854408.7323836721 -1412695.2317371294 0 0 0 0 -33418156.110389709 -107792341.42983246 0 -107792341.42983246 7703581.0520935059 0 0 0 0 22108368.091575623 -63145505.961975098 0 -63145505.961975098 36140519.979927063 0 0 0 0 -5122886.2089134846 -6194890.6683299281 0 -6194890.6683299281 -3971536.9738591574 0 0 0 0 8592650.5741958618 -20151508.430114746 0 -20151508.430114746 -15148593.985710144 0 0 0 0 -7218638.5366792679 4118467.7652168274 0 4118467.7652168274 7462405.2563018799 0 0 0 0 -16291744.668857098 -2250855.1296539307 0 -2250855.1296539307 -24849277.526123047 0 0 0 0 -5955427.189657269 -5924084.6214363091 0 -5924084.6214363091 -4926315.6610012874 0 0 0 0 5021981.8931671381 -1171148.7947235107 0 -1171148.7947235107 -2778189.431060791 0 0 0 0 -680893.47326865187 -1560073.3789221672 0 -1560073.3789221672 -10564344.430983707 0 0 0 0 35352011.328073859 8197547.3594856262 0 8197547.3594856262 -23737254.649597168 0 0 0 0 154417.01351213455 -1145726.5215835571 0 -1145726.5215835571 -2408906.7196044922 0 0 0 0 -1974218.0113715897 -6244997.2326722443 0 -6244997.2326722443 -7198218.9535762742 0 0 0 0 -23950173.834226608 -13030091.422065735 0 -13030091.422065735 69437484.449829102 0 0 0 0 -25062421.123455048 1500329.7185440063 0 1500329.7185440063 143303616.77142334 0 0 0 0 -5781318.4658908676 -1352230.4447640628 0 -1352230.4447640628 -5865373.8459661715 0 0 0 0 -770562.81928890105 -366259.02239249647 0 -366259.02239249647 -55712.936995051801 0 0 0 0 21115675.674890041 8735850.5995483398 0 8735850.5995483398 -7600486.4993591309 0 0 0 0 26946034.125367165 20322212.219848633 0 20322212.219848633 -41083610.460174561 0 0 0 0 -2758166.9178916169 -933583.2619718723 0 -933583.2619718723 -8081882.2279073521 0 0 0 0 131237875.39480042 -26299681.390953064 0 -26299681.390953064 -21168381.863647461 0 0 0 0 1773002.2166086996 1193746.4628408998 0 1193746.4628408998 -2421735.7056911439 0 0 0 0 -1350231.8058454052 -3223398.8766354844 0 -3223398.8766354844 -12438835.904049456 0 0 0 0 12467641.401882648 -16294309.73249054 0 -16294309.73249054 -18555201.644500732 0 0 0 0 -3492575.4628391266 -8083088.9551849365 0 -8083088.9551849365 -13116844.41324234 0 0 0 0 -6254044.308049202 -9158636.8593330383 0 -9158636.8593330383 -12288654.62815094 0 0 0 0 -10237526.319808006 -9224339.9295196533 0 -9224339.9295196533 -12555022.696044922 0 0 0 0 -2665563.2354751569 -5571427.1523590777 0 -5571427.1523590777 -17985565.952763401 0 0 0 0 339379.3845872879 -10419383.210113525 0 -10419383.210113525 -15592383.08568573 0 0 0 0 133202424.92952251 -86280.624061584473 0 -86280.624061584473 -32739976.156845093 0 0 0 0 -4718605.5427474976 -12330053.264099121 0 -12330053.264099121 -14558826.70262146 0 0 0 0 12400197.618927002 -15646192.238586426 0 -15646192.238586426 -19292439.365085602 0 0 0 0 -1137955.8031686915 -6971035.4763855916 0 -6971035.4763855916 -20912190.288460523 0 0 0 0 -3999533.3493642807 -21253973.011473656 0 -21253973.011473656 -17539086.377578735 0 0 0 0 9482523.0515918732 -5989890.3504180908 0 -5989890.3504180908 -19045005.641525269 0 0 0 0 -16850824.485608816 -11232537.701835632 0 -11232537.701835632 -10322474.709701538 0 0 0 0 -18410488.881341934 -14537686.305740356 0 -14537686.305740356 -14616237.773910522 0 0 0 0 -20243794.93965435 -31424470.795715332 0 -31424470.795715332 -40716560.234588623 0 0 0 0 -35572510.289604187 -12516902.075271606 0 -12516902.075271606 -11373860.638870239 0 0 0 0 -13750200.644981384 -20194195.629867554 0 -20194195.629867554 -21440229.700653076 0 0 0 0 -3680547.9547405243 -20926489.113632202 0 -20926489.113632202 -21785996.29993248 0 0 0 0 -9979633.1322190762 -11794186.903316498 0 -11794186.903316498 -10671975.151245117 0 0 0 0 -5154762.7172241211 -10592429.452480316 0 -10592429.452480316 -13666823.390319824 0 0 0 0 -7303077.6266601086 -5198729.9224662781 0 -5198729.9224662781 -10377703.567863464 0 0 0 0 -11436848.660612106 -9530648.3260192871 0 -9530648.3260192871 -12768827.081843138 0 0 0 0 2577200.5569703248 -5259147.9367992189 0 -5259147.9367992189 -8748596.1322609037 0 0 0 0 1028143.2355649471 -2192984.0177612305 0 -2192984.0177612305 27290143.898896217 0 0 0 0 91702.505785942078 -13936540.639720917 0 -13936540.639720917 -9689377.5790481567 0 0 0 0 4107826.4027420282 -5760624.2416534424 0 -5760624.2416534424 -14265254.95891571 0 0 0 0 11171459.573915482 -9146462.9549865723 0 -9146462.9549865723 -15720946.928161621 0 0 0 0 793379.39234920067 -432461.97286614217 0 -432461.97286614217 -1190216.0668629147 0 0 0 0 6330107.7695209384 -8960824.9197845459 0 -8960824.9197845459 -20108319.779136658 0 0 0 0 -1532291.6045144293 -6699120.4502362683 0 -6699120.4502362683 -2980570.3698475249 0 0 0 0 -8137546.3674120903 -8265220.6962890625 0 -8265220.6962890625 -9848829.6679286957 0 0 0 0 -10943114.331011295 6533336.3599319458 0 6533336.3599319458 -4338395.9540100098 0 0 0 0 9546675.1235790253 297883.02408981323 0 297883.02408981323 -14733542.331118107 0 0 0 0 -73079177.134699702 2195805.2449483871 0 2195805.2449483871 -14547871.359527588 0 0 0 0 -37888223.966942519 -49860878.39734745 0 -49860878.39734745 -68384019.812988281 0 0 0 0 2371872.6835584445 3659695.5691862907 0 3659695.5691862907 -11530244.247015491 0 0 0 0 967122.82117061364 -488922.75379355811 0 -488922.75379355811 -1446633.8028448448 0 0 0 0 360217.06767946272 11737.498049404472 0 11737.498049404472 -888495.1601027064 0 0 0 0 -64807088.998815536 -27930651.551422119 0 -27930651.551422119 -49009552.068466187 0 0 0 0 -38210606.513805866 -43840483.264038086 0 -43840483.264038086 -87063217.302520752 0 0 0 0 8067118.5999433398 -3846032.1145076752 0 -3846032.1145076752 -20317026.300483704 0 0 0 0 5258389.9368936718 -7838299.8985538483 0 -7838299.8985538483 -18376626.8568573 0 0 0 0 5410529.48052001 -1769042.5016021729 0 -1769042.5016021729 -20945621.834003448 0 0 0 0 8678106.9238146693 18308027.618386269 0 18308027.618386269 -13409720.667778015 0 0 0 0 1950152.3867673874 -137892.70361328125 0 -137892.70361328125 -11944560.13368988 0 0 0 0 -70976808.857725143 -58823947.894424438 0 -58823947.894424438 -76786346.530097961 0 0 0 0 2908549.3809537399 2258457.8052862398 0 2258457.8052862398 -9004819.9143823199 0 0 0 0 -37702687.263332367 -27298193.685874939 0 -27298193.685874939 -48956005.998123169 0 0 0 0 -22250020.117006302 -19866818.970207214 0 -19866818.970207214 -52773339.848724365 0 0 0 0 -11397060.233234406 -44616568.90536499 0 -44616568.90536499 -79211268.202835083 0 0 0 0 -2783558.6885271072 -28531488.758666992 0 -28531488.758666992 -76247810.829376221 0 0 0 0 4223968.6163115501 -5136101.904417038 0 -5136101.904417038 -56210663.012802124 0 0 0 0 -19143128.046216488 -758218.34452438354 0 -758218.34452438354 -25081616.965301514 0 0 0 0 2268254.5678679394 -669028.27725588903 0 -669028.27725588903 -7045998.409602467 0 0 0 0 -31380638.471447945 -10700960.603561401 0 -10700960.603561401 -35988658.041717529 0 0 0 0 -986272.65906906128 -14061447.407447815 0 -14061447.407447815 -37240829.078460693 0 0 0 0 660316.67897224426 -9902718.4043426514 0 -9902718.4043426514 -43766930.675478935 0 0 0 0 19239740.848712921 1832986.8918762207 0 1832986.8918762207 -42626553.120019913 0 0 0 0 3757270.7549856808 -3385831.7793351337 0 -3385831.7793351337 -13640086.68057476 0 0 0 0 -508446677.44804192 40114729.247993469 0 40114729.247993469 101286932.04666519 0 0 0 0 11394333.098379135 5974994.4295463562 0 5974994.4295463562 -21507453.233985901 0 0 0 0 226785014.68677568 25345835.656295776 0 25345835.656295776 -165832684.4278717 0 0 0 0 72974741.629995584 -386906116.86681938 0 -386906116.86681938 -157839636.16017151 0 0 0 0 7494424.6986923218 2108840.9798583984 0 2108840.9798583984 -33542232.298648834 0 0 0 0 16692721.472603798 10471565.775392532 0 10471565.775392532 -36699773.687164307 0 0 0 0 15594255.348572522 -7233273.7985640764 0 -7233273.7985640764 -46873202.953186035 0 0 0 0 25051298.406588554 -6954739.4488830566 0 -6954739.4488830566 -36858948.141990662 0 0 0 0 15595101.100047499 -7089836.4132369161 0 -7089836.4132369161 -26402443.804244995 0 0 0 0 2088280.3519339561 -19792342.248168945 0 -19792342.248168945 -43200395.19758606 0 0 0 0 418201.1833190918 -10357989.460693359 0 -10357989.460693359 -36230102.056175232 0 0 0 0 -1002499.7684221268 -18339023.933639526 0 -18339023.933639526 -63519609.447570801 0 0 0 0 -21664721.799419403 -21585870.698928833 0 -21585870.698928833 -39155741.454534531 0 0 0 0 -75202534.349239588 -43516168.161820412 0 -43516168.161820412 -33971575.45489502 0 0 0 0 -26203122.386960983 -36320052.630279541 0 -36320052.630279541 -84093456.755767822 0 0 0 0 -21945098.245768547 -16023778.84331131 0 -16023778.84331131 -48315221.176345825 0 0 0 0 -28516659.117240906 -2777876.2287445068 0 -2777876.2287445068 -73520362.901702881 0 0 0 0 -1089451.9252471924 -6122857.7069015503 0 -6122857.7069015503 -51841436.143585205 0 0 0 0 -56526.145282045603 -4187692.1695607733 0 -4187692.1695607733 -4794866.5920572132 0 0 0 0 11251393.676831007 -19181045.146175385 0 -19181045.146175385 -18618144.99590683 0 0 0 0 617793.24658805481 -7863363.7788589969 0 -7863363.7788589969 -23802639.246246681 0 0 0 0 8385516.7098903656 222452.9049987793 0 222452.9049987793 -9433467.4915122986 0 0 0 0 6370550.5600446463 -1408491.0321445465 0 -1408491.0321445465 -10392817.952774048 0 0 0 0 270827.51594886865 -6553805.2912733033 0 -6553805.2912733033 -17626651.340779699 0 0 0 0 -509081.06550793996 -5938161.8871262567 0 -5938161.8871262567 -16485543.239651874 0 0 0 0 14615173.620260596 19061482.774841309 0 19061482.774841309 2498424.9331378937 0 0 0 0 955366.84980191733 -1043674.601848796 0 -1043674.601848796 -13004502.217442028 0 0 0 0 38829081.480554819 22712531.348403931 0 22712531.348403931 -8483395.22813797 0 0 0 0 -2295243.2800064087 7095048.2550201416 0 7095048.2550201416 1498289.24269104 0 0 0 0 690880.72619294235 1767788.1338449037 0 1767788.1338449037 -307382.37151797116 0 0 0 0 34217864.727287486 41447426.662620544 0 41447426.662620544 36521114.141075134 0 0 0 0 240071.79139476828 -336894.59044312686 0 -336894.59044312686 -1270395.7434338294 0 0 0 0 5282076.687580809 -10199205.944282532 0 -10199205.944282532 -14696699.647830963 0 0 0 0 226908.62310183147 -2889115.3397333473 0 -2889115.3397333473 -10646969.078378256 0 0 0 0 -22187502.448714256 -23030214.784015656 0 -23030214.784015656 -2423240.4134216309 0 0 0 0 64170.907410527812 -1924167.4101295732 0 -1924167.4101295732 -1215003.2460497916 0 0 0 0 32994415.879920825 9675877.962890625 0 9675877.962890625 -35984519.835174561 0 0 0 0 5022561.1936021298 -12623885.422530174 0 -12623885.422530174 9792380.8786239624 0 0 0 0 28799901.565220386 -21801374.451339722 0 -21801374.451339722 -7038953.2007827759 0 0 0 0 -9368202.9283823147 42652095.209663391 0 42652095.209663391 -59528896.992630005 0 0 0 0 -62861.132869576395 -388530.99823986646 0 -388530.99823986646 -284032.96136790514 0 0 0 0 16850448.302687466 27542310.13873291 0 27542310.13873291 -119730021.53293228 0 0 0 0 -48100223.692856491 -32883494.025886536 0 -32883494.025886536 -19081882.5991745 0 0 0 0 -81297959.890169442 -62231516.871044159 0 -62231516.871044159 61347725.920928955 0 0 0 0 -538167.54563508928 -1336905.298549328 0 -1336905.298549328 -2135950.1150887534 0 0 0 0 -44359819.451599002 -20210121.593322754 0 -20210121.593322754 -30212571.269577026 0 0 0 0 -40258651.846987844 -40393436.666107178 0 -40393436.666107178 -36300654.687820435 0 0 0 0 -2393492.2452528477 -24405449.366127014 0 -24405449.366127014 -31086677.979797363 0 0 0 0 -12691625.144941121 -24262670.056587219 0 -24262670.056587219 -9140325.2070922852 0 0 0 0 -41533972.103390336 -20203357.240066528 0 -20203357.240066528 -1660029.7545166016 0 0 0 0 -12616329.821344137 -24436153.021688461 0 -24436153.021688461 -11359200.157241821 0 0 0 0 67134545.927129984 -27159311.803367615 0 -27159311.803367615 -26789685.853820801 0 0 0 0 -1683584.8568086624 -50041410.794769287 0 -50041410.794769287 -11087652.021869659 0 0 0 0 133829831.76329118 -3710507.8744153976 0 -3710507.8744153976 -86187019.594360352 0 0 0 0 13425521.910019398 724777.0825958252 0 724777.0825958252 -1593125.573348999 0 0 0 0 -11937216.585452557 -31829748.725311279 0 -31829748.725311279 -42384050.592712402 0 0 0 0 -54878064.147997499 15751164.146781921 0 15751164.146781921 -39061173.78805542 0 0 0 0 47657553.720674038 -58496343.370239258 0 -58496343.370239258 -93755545.397613525 0 0 0 0 -15413332.305561304 -11621006.955078125 0 -11621006.955078125 -89729106.344055176 0 0 0 0 20675218.986051798 -5347830.2748718262 0 -5347830.2748718262 -88716392.588378906 0 0 0 0 -4578572.0712535977 25337671.667007446 0 25337671.667007446 -125993129.88085938 0 0 0 0 7657574.9618953466 -58273282.512235641 0 -58273282.512235641 -199189047.63000488 0 0 0 0 18987716.313692212 12226575.877830505 0 12226575.877830505 -93899511.386657715 0 0 0 0 -1246400.9863986373 43185091.672088623 0 43185091.672088623 -139700106.00057983 0 0 0 0 23423246.805540085 38273276.132980347 0 38273276.132980347 -53467122.072357178 0 0 0 0 109398196.74718714 45236654.255279541 0 45236654.255279541 -131180144.73421478 0 0 0 0 80282206.831745028 -26820979.176498413 0 -26820979.176498413 20923633.531860352 0 0 0 0 -12395275.660955429 64989941.030593872 0 64989941.030593872 5112820.3375091553 0 0 0 0 133863010.42614293 15727869.955490112 0 15727869.955490112 -96740943.064117432 0 0 0 0 -132890684.16629446 20739217.694526672 0 20739217.694526672 21375677.103118896 0 0 0 0 -1075409.8020517826 948482.66838196479 0 948482.66838196479 440735.09601688385 0 0 0 0 -47383456.635213375 105614139.16172791 0 105614139.16172791 -43792566.013534546 0 0 0 0 77006599.640888214 51666854.219268799 0 51666854.219268799 -36729717.451721191 0 0 0 0 -48412120.48133707 1830828.2890014648 0 1830828.2890014648 1765530.2078800201 0 0 0 0 -58636147.380958974 69104142.298191071 0 69104142.298191071 -22390840.335510254 0 0 0 0 28706663.08095026 28876806.905639648 0 28876806.905639648 -13971328.648254395 0 0 0 0 -8493844.930286102 -534198.5053521879 0 -534198.5053521879 -8627945.9675550219 0 0 0 0 -3369091.2719564438 12085533.796142578 0 12085533.796142578 -698838.79684448242 0 0 0 0 -9739673.3529925346 11795533.235946655 0 11795533.235946655 -709713.73012733459 0 0 0 0 -16016283.575675964 -2382148.7661323547 0 -2382148.7661323547 99052451.652252197 0 0 0 0 -11882695.265566826 29103798.825958252 0 29103798.825958252 -13517325.604492188 0 0 0 0 -16893551.582565665 11729190.627815247 0 11729190.627815247 1659634.733795166 0 0 0 0 -18124252.843531132 5863364.682434082 0 5863364.682434082 1954005.6036624908 0 0 0 0 -13489278.451193333 14601796.621154785 0 14601796.621154785 2562178.0143737793 0 0 0 0 -36505558.992995262 16692133.569274902 0 16692133.569274902 2460761.9604797363 0 0 0 0 -11593946.083807111 9557235.819694519 0 9557235.819694519 -1280213.528213501 0 0 0 0 -513916.28530693054 112220112.89381409 0 112220112.89381409 -38577312.862487793 0 0 0 0 -16395913.965303183 76618122.294372559 0 76618122.294372559 81740686.881393433 0 0 0 0 -4029082.499945363 3929938.0310295261 0 3929938.0310295261 2155633.8094299436 0 0 0 0 1607263.7122192383 77061075.944015503 0 77061075.944015503 28762845.98928833 0 0 0 0 11637510.569777489 71684073.430152893 0 71684073.430152893 -15563778.012084961 0 0 0 0 23519150.83859545 100872719.888237 0 100872719.888237 8941019.4415893555 0 0 0 0 14927185.144437194 108307116.56243896 0 108307116.56243896 20843987.458347321 0 0 0 0 12213991.407861553 -15317712.839431763 0 -15317712.839431763 20771451.868988037 0 0 0 0 -2790760.4615560323 136513.88388186693 0 136513.88388186693 2827577.6724168807 0 0 0 0 78263160.653180122 119992494.40264511 0 119992494.40264511 33856387.388381958 0 0 0 0 -52687599.685791016 22580681.941207886 0 22580681.941207886 14132034.875961304 0 0 0 0 -5840993.779543763 1906719.1459415732 0 1906719.1459415732 4853968.0971163958 0 0 0 0 -9600940.9591014571 5912674.7704835758 0 5912674.7704835758 -6406704.2143408451 0 0 0 0 -448938.73396682739 -295322.67431640625 0 -295322.67431640625 3650861.6360778809 0 0 0 0 -41297358.567659378 8209363.5310211182 0 8209363.5310211182 62495128.822868347 0 0 0 0 -66766569.280631542 31811449.081495285 0 31811449.081495285 97110588.000724792 0 0 0 0 -2780294.8269930091 2454162.971305348 0 2454162.971305348 -2129866.4805428088 0 0 0 0 -33893986.799991846 -11237888.47668457 0 -11237888.47668457 80782986.212783813 0 0 0 0 -1386106.7660207748 2235892.6096725464 0 2235892.6096725464 -685391.68507575989 0 0 0 0 -1861249.9217802584 3203846.1704609394 0 3203846.1704609394 -4708990.8415263221 0 0 0 0 -2585368.9207183309 3730572.2743482366 0 3730572.2743482366 -3543531.8055022378 0 0 0 0 -1260493.3377752304 1816595.4329986572 0 1816595.4329986572 -419933.72634315491 0 0 0 0 -4983776.7122303965 4524029.8724055178 0 4524029.8724055178 -5390753.1240970194 0 0 0 0 -11612352.024566174 33785060.585760117 0 33785060.585760117 13586920.593093872 0 0 0 0 -49592548.311738253 39507852.105316162 0 39507852.105316162 111641025.37288666 0 0 0 0 19605298.415702015 18689327.895120859 0 18689327.895120859 35955670.833282471 0 0 0 0 -94827659.082338929 65638983.001754761 0 65638983.001754761 16804686.078918457 0 0 0 0 -83396581.69885391 -6328434.3811340332 0 -6328434.3811340332 37026020.486347198 0 0 0 0 12018053.969753474 -6008213.217590332 0 -6008213.217590332 34720249.311706543 0 0 0 0 -4237170.9923397601 -38812282.077682495 0 -38812282.077682495 -53368054.116333008 0 0 0 0 -26612089.547454044 -5381013.6615982056 0 -5381013.6615982056 -49823247.649871826 0 0 0 0 -70769916.153956115 -83658506.446784973 0 -83658506.446784973 -188524878.8684845 0 0 0 0 -6807563.714127779 55021646.422857285 0 55021646.422857285 -109852899.7093811 0 0 0 0 -43479743.70474866 -5561153.3485641479 0 -5561153.3485641479 -31835610.472366333 0 0 0 0 -209612656.23441663 28932537.361328125 0 28932537.361328125 -38707653.173614502 0 0 0 0 -52896727.922943413 85444374.701545715 0 85444374.701545715 -297831056.72865295 0 0 0 0 -31735218.998058677 13847020.146286011 0 13847020.146286011 -85065542.264808655 0 0 0 0 -110308516.18748751 -136985689.21007156 0 -136985689.21007156 -190490467.24630737 0 0 0 0 -26177265.247255929 106441783.4573288 0 106441783.4573288 -130105605.03894043 0 0 0 0 -210394.2915029022 -326609.27560834028 0 -326609.27560834028 -693289.1112646237 0 0 0 0 -82041879.935756922 -56234844.420433044 0 -56234844.420433044 -62901735.633865356 0 0 0 0 -10150852.248017967 41322662.14781189 0 41322662.14781189 -124810748.61993408 0 0 0 0 -34210512.346895382 83166383.350120544 0 83166383.350120544 -197506481.54754162 0 0 0 0 30578170.912358865 85985450.705856323 0 85985450.705856323 -80747441.232589722 0 0 0 0 -26607.626902366581 46501.750342465937 0 46501.750342465937 -48960.833943269216 0 0 0 0 6850050.6961483359 35589930.488479614 0 35589930.488479614 49252059.000022888 0 0 0 0 31705473.832231879 33004942.931037903 0 33004942.931037903 -234756370.59193611 0 0 0 0 9473099.981831938 3050248.7414779663 0 3050248.7414779663 -7501173.6425933838 0 0 0 0 28179400.577835128 -6435110.0629558563 0 -6435110.0629558563 -3707629.9854125977 0 0 0 0 28362011.203101397 -2356771.7896461487 0 -2356771.7896461487 -33359553.385101318 0 0 0 0 3911457.8668244481 -31768676.532775879 0 -31768676.532775879 -64512544.152168274 0 0 0 0 -11716253.76860977 -34873589.31867218 0 -34873589.31867218 16734266.997421265 0 0 0 0 16031154.327112794 -27128975.940956116 0 -27128975.940956116 17779859.588424683 0 0 0 0 -1115343.9459237154 1575854.6599168368 0 1575854.6599168368 -2472116.2784576267 0 0 0 0 -723011.68908966403 903562.43519895524 0 903562.43519895524 -1473933.0584885031 0 0 0 0 -1198121.9425814694 4795720.948928833 0 4795720.948928833 -6425280.8233337402 0 0 0 0 -1057622.4686116993 4947466.8029785156 0 4947466.8029785156 -8718691.0975646973 0 0 0 0 380045.42307763343 1046930.1337632239 0 1046930.1337632239 -1291996.7712088153 0 0 0 0 4407246.1548990905 2300345.7813110352 0 2300345.7813110352 -22496088.467025757 0 0 0 0 4584183.7413643869 -1421938.5973052979 0 -1421938.5973052979 -11929469.286804199 0 0 0 0 -33166.923957895706 -546414.09966278076 0 -546414.09966278076 -9465912.98462677 0 0 0 0 4476118.400480113 2345130.9593811035 0 2345130.9593811035 -17297032.943534851 0 0 0 0 227647.13892851444 1958321.8967895508 0 1958321.8967895508 -7532203.0448493958 0 0 0 0 638733.00830665231 1580331.624961853 0 1580331.624961853 -7690685.4703445435 0 0 0 0 11119.042041650187 -43784.404655456543 0 -43784.404655456543 -3741676.6837234497 0 0 0 0 -61.509504396701232 1558416.1964035034 0 1558416.1964035034 -3699382.9902648926 0 0 0 0 -150104.17291581645 -166927.55382537842 0 -166927.55382537842 -3634886.5768511295 0 0 0 0 -462514.06725216779 644148.14344579726 0 644148.14344579726 -1121035.6690392494 0 0 0 0 -118191.07909166122 130045.69931538403 0 130045.69931538403 -114241.18864716683 0 0 0 0 -7985749.5223657936 31869856.591918945 0 31869856.591918945 -110821550.69348049 0 0 0 0 6337007.5127053708 3601002.1649513245 0 3601002.1649513245 1351499.4303131104 0 0 0 0 33724.746764988173 306283.56055723131 0 306283.56055723131 -759081.55840214994 0 0 0 0 -142518.91825045325 860627.54388427734 0 860627.54388427734 -1004744.420501709 0 0 0 0 -10378468.537266478 33762414.882957458 0 33762414.882957458 -78225952.736877441 0 0 0 0 -821.39007242596722 314947.46542358398 0 314947.46542358398 -626680.09573459625 0 0 0 0 -309133.21358420391 357942.17711159959 0 357942.17711159959 -386262.92217285186 0 0 0 0 -9393683.0261357874 41961550.961151123 0 41961550.961151123 -86934057.810379028 0 0 0 0 36005.413114108196 49584345.34261322 0 49584345.34261322 -82048879.42171669 0 0 0 0 -27980224.819848329 25623372.940887451 0 25623372.940887451 -94959731.132492065 0 0 0 0 -350903.28667790809 33281876.430213928 0 33281876.430213928 -111922795.4853363 0 0 0 0 -18233434.841725245 45216534.418506622 0 45216534.418506622 -59085622.424301147 0 0 0 0 -19410473.305989504 17222193.800888062 0 17222193.800888062 -80408006.52191925 0 0 0 0 -9787868.1615683138 46053107.906158447 0 46053107.906158447 -95098434.957244873 0 0 0 0 -10750728.378096819 46860968.378749847 0 46860968.378749847 -89565474.088745117 0 0 0 0 -848384.84011131525 76901445.890556335 0 76901445.890556335 -95842723.716323853 0 0 0 0 78867077.672668338 38808992.410423279 0 38808992.410423279 -99173652.854990005 0 0 0 0 2329202.4716683626 80767654.601024628 0 80767654.601024628 -22919779.533370972 0 0 0 0 1241445.0864323974 49922729.509292603 0 49922729.509292603 -89049453.37138176 0 0 0 0 -16865147.320772409 -26885363.44833374 0 -26885363.44833374 -19899266.647247314 0 0 0 0 48037421.790468037 -39406660.069419861 0 -39406660.069419861 -21865186.293052673 0 0 0 0 -19511830.892828435 12235841.792854309 0 12235841.792854309 25412461.685882568 0 0 0 0 80450454.919924885 16252591.283405304 0 16252591.283405304 -38051943.304519653 0 0 0 0 30827001.215875983 7911678.86277771 0 7911678.86277771 -21421939.340705872 0 0 0 0 -15376499.635302067 -33465749.451095581 0 -33465749.451095581 -36660704.859016418 0 0 0 0 8358624.5067129731 -42753415.342897415 0 -42753415.342897415 -37068726.474395752 0 0 0 0 -81375852.901517212 -48718630.272819519 0 -48718630.272819519 -36178412.029640198 0 0 0 0 -37444113.372149713 -55727511.673370361 0 -55727511.673370361 -46532983.283477783 0 0 0 0 -51174863.35077484 -50681638.395736694 0 -50681638.395736694 -32204912.184848785 0 0 0 0 -13219354.974386092 -26705405.645347595 0 -26705405.645347595 -47109619.680847168 0 0 0 0 -46992535.020848826 -38514180.764623642 0 -38514180.764623642 -34728310.064605713 0 0 0 0 -110870072.68517295 -105773525.60345078 0 -105773525.60345078 -108517986.63696289 0 0 0 0 -3702.4835700417293 -4182493.6436042786 0 -4182493.6436042786 6325955.1789779663 0 0 0 0 34513.466649599715 -117541.75752231479 0 -117541.75752231479 -263935.49944702536 0 0 0 0 -32943161.951259121 -31847381.222213745 0 -31847381.222213745 -170249738.53959656 0 0 0 0 -26781586.067591459 4478220.6524047852 0 4478220.6524047852 -61085658.171905518 0 0 0 0 -34174292.696297273 -56266217.906028748 0 -56266217.906028748 -88763427.617462158 0 0 0 0 2075468.5187718123 7359787.8476257324 0 7359787.8476257324 -21195867.263626099 0 0 0 0 1274533.2059607953 7278787.8192138672 0 7278787.8192138672 -20584884.223602295 0 0 0 0 2619589.6585706566 8172589.9323616028 0 8172589.9323616028 -21965067.293823242 0 0 0 0 903815.88807591051 9111030.5924072266 0 9111030.5924072266 -21368472.479888916 0 0 0 0 1072881.6086947545 8470309.62059021 0 8470309.62059021 -19308955.945220947 0 0 0 0 1011670.7148231332 6833158.5029163361 0 6833158.5029163361 -21109900.62046814 0 0 0 0 296.80482430669599 6631851.7892074585 0 6631851.7892074585 -19431275.046943665 0 0 0 0 1485820.6490963995 7141519.193862915 0 7141519.193862915 -21273633.719848633 0 0 0 0 2220225.6064551752 5842471.1043243408 0 5842471.1043243408 -22427062.699531555 0 0 0 0 1457897.8280354105 7095627.4500961304 0 7095627.4500961304 -21308730.258972168 0 0 0 0 3030123.3931427337 6147685.3196487427 0 6147685.3196487427 -22899920.950805664 0 0 0 0 1318979.4030355401 7084473.3697128296 0 7084473.3697128296 -23137090.846363068 0 0 0 0 3722930.1128320992 6367873.3196258545 0 6367873.3196258545 -22873248.853294373 0 0 0 0 5699838.964950785 2351305.1371459961 0 2351305.1371459961 -20208393.964302063 0 0 0 0 5660663.1524590999 7400348.8189544678 0 7400348.8189544678 -22780363.452072144 0 0 0 0 3532627.890374314 6004933.3276977539 0 6004933.3276977539 -16812142.739612579 0 0 0 0 5056539.7171281204 1593230.4128494263 0 1593230.4128494263 -25140000.575576782 0 0 0 0 5838227.8693188205 -70534.583810724318 0 -70534.583810724318 -8679111.9491784051 0 0 0 0 5186267.8581345361 -2803159.1873874664 0 -2803159.1873874664 -13063721.171005249 0 0 0 0 1592158.4223766327 3165922.1093673706 0 3165922.1093673706 -7615043.4681930542 0 0 0 0 4368515.4135932922 4913572.6988067627 0 4913572.6988067627 -13029883.849311829 0 0 0 0 6942120.2555021197 5269085.7116212659 0 5269085.7116212659 -11651521.572825879 0 0 0 0 1866423.1420847259 338253.17394468933 0 338253.17394468933 -2006220.3523753509 0 0 0 0 9607226.9603153616 2737832.0923309326 0 2737832.0923309326 -22238215.547958374 0 0 0 0 1065597.9739479572 10756005.139297485 0 10756005.139297485 -16642912.937301636 0 0 0 0 -3784504.0011997223 2314769.0613861084 0 2314769.0613861084 16458676.381561279 0 0 0 0 3263611.6593912523 6218336.5165076368 0 6218336.5165076368 -5040039.9882252403 0 0 0 0 11471567.131044388 11400564.551315308 0 11400564.551315308 -1691868.9042358398 0 0 0 0 -169408747.78152752 -279285070.81968689 0 -279285070.81968689 -84646791.051361084 0 0 0 0 209574.84953273274 2240517.0967323817 0 2240517.0967323817 134069.77188362298 0 0 0 0 -4619148.1245994568 12434090.650634766 0 12434090.650634766 4664305.1334381104 0 0 0 0 4454849.2463722229 4024728.3720245361 0 4024728.3720245361 9812982.8883666992 0 0 0 0 14877432.464046478 24965360.546319962 0 24965360.546319962 16579169.692550659 0 0 0 0 56730706.153434753 23351407.801467896 0 23351407.801467896 -58062030.416885376 0 0 0 0 -36568737.221588135 8018894.5108947754 0 8018894.5108947754 15272789.854822159 0 0 0 0 8846323.5955677219 1729631.710523136 0 1729631.710523136 -11289077.525258467 0 0 0 0 -370980673.24244207 -23876992.733447909 0 -23876992.733447909 -10703384.39289856 0 0 0 0 -234699.46559710149 -1609428.7385401838 0 -1609428.7385401838 -4215360.765489541 0 0 0 0 -86610541.42619133 324329626.7869873 0 324329626.7869873 -1176532197.9064484 0 0 0 0 -380445279.30067253 -646198359.34106445 0 -646198359.34106445 -680254905.81532288 0 0 0 0 222899530.38337326 -275439918.82420349 0 -275439918.82420349 -956209501.36505008 0 0 0 0 118353565.61037064 -771997513.98655128 0 -771997513.98655128 -1311664006.720932 0 0 0 0 238748123.77564812 -521936435.05496216 0 -521936435.05496216 -961007059.6387713 0 0 0 0 67523562.962171555 -451077454.2714386 0 -451077454.2714386 -673317564.47077942 0 0 0 0 -47915597.976804733 -648785464.35299683 0 -648785464.35299683 -1011916847.7403984 0 0 0 0 224996017.03759003 -276774654.02845001 0 -276774654.02845001 -1258436936.6279602 0 0 0 0 969695.63215091731 3856261.0359598398 0 3856261.0359598398 376505.51754736109 0 0 0 0 5383976.0719213486 -5629080.9228134155 0 -5629080.9228134155 -5797893.3906707764 0 0 0 0 38365161.457463741 3060530.7344741821 0 3060530.7344741821 -605606962.7066803 0 0 0 0 38732.467278314754 7074777.8675384521 0 7074777.8675384521 -18091093.287750244 0 0 0 0 -671440.12304116599 3844814.7070402205 0 3844814.7070402205 -3600313.9190547913 0 0 0 0 -12290873.309123039 9707770.8192977905 0 9707770.8192977905 15505523.213409424 0 0 0 0 74894.674236427178 7139561.4534702301 0 7139561.4534702301 -18522168.867279053 0 0 0 0 -1784874.8705911431 2748942.2382284105 0 2748942.2382284105 -1215921.79121143 0 0 0 0 -20926.174434366218 4680833.1538085938 0 4680833.1538085938 -2215506.9724769592 0 0 0 0 -85513.210335252079 2796455.7930140123 0 2796455.7930140123 -1662882.0277757025 0 0 0 0 -1977850584.8941724 -584742017.07528687 0 -584742017.07528687 -419930814.1628418 0 0 0 0 1205217.3018107393 247454477.96202087 0 247454477.96202087 -1588809372.7866325 0 0 0 0 103854157.94332314 -1017615563.2446594 0 -1017615563.2446594 -2009596536.5135746 0 0 0 0 -81905.805290528442 1654920.7624525167 0 1654920.7624525167 -3376471.0260979906 0 0 0 0 606025196.15562606 326706999.5945816 0 326706999.5945816 -2300156649.9176331 0 0 0 0 -124157923.89817306 113973374.19679451 0 113973374.19679451 28925871.555053711 0 0 0 0 43586050.571352899 1422271.9876480103 0 1422271.9876480103 -59525590.742710114 0 0 0 0 -2021280.931082844 4867168.3004417308 0 4867168.3004417308 -7292562.0145176947 0 0 0 0 50237958.004194096 38443312.434038162 0 38443312.434038162 1727089.0308685303 0 0 0 0 -477221.2566000513 -13910956.676494598 0 -13910956.676494598 -15984838.701858521 0 0 0 0 5452640.0559823802 -6533355.7164382935 0 -6533355.7164382935 -11875204.277172089 0 0 0 0 18579190.848691836 -5369223.1560745239 0 -5369223.1560745239 -12770738.804718018 0 0 0 0 13825009.123085309 5328424.8944416046 0 5328424.8944416046 -8239532.4461975098 0 0 0 0 2465976.0812044451 -416448.63363647461 0 -416448.63363647461 -14381257.796295166 0 0 0 0 10567998.47400202 2989152.9640026093 0 2989152.9640026093 -12955390.412307739 0 0 0 0 137060.26696350126 -3105967.5660552979 0 -3105967.5660552979 -12452935.077438354 0 0 0 0 3050658.736970773 9637669.3989391327 0 9637669.3989391327 -8254459.7514343262 0 0 0 0 1737988.902372051 6113106.2671432495 0 6113106.2671432495 -9094114.4788894653 0 0 0 0 386282.29687343165 5879791.019536972 0 5879791.019536972 -8598347.1284484863 0 0 0 0 7558949.1733089387 9581070.4878768921 0 9581070.4878768921 -14277721.870178223 0 0 0 0 11327495.584609253 1038824.4258041382 0 1038824.4258041382 -11164059.138275146 0 0 0 0 8246218.5846557599 12852502.177082062 0 12852502.177082062 -2618971.9384765625 0 0 0 0 20357414.278886113 18111478.776306152 0 18111478.776306152 -4233914.3806629181 0 0 0 0 82797220.200750351 -200457128.02774954 0 -200457128.02774954 -180654120.16906738 0 0 0 0 41721565.027107567 685126371.53663397 0 685126371.53663397 509992784.34336853 0 0 0 0 -4775855.2308473159 6833403.2645465136 0 6833403.2645465136 -7884469.8841889724 0 0 0 0 19473995.415759064 5234724.0862960815 0 5234724.0862960815 -10201746.244277954 0 0 0 0 492490794.08991241 625373198.18626404 0 625373198.18626404 -457808079.71334839 0 0 0 0 633309894.06870604 313471732.02398682 0 313471732.02398682 -1762808480.8347473 0 0 0 0 -87062397.689003944 -641815178.41051483 0 -641815178.41051483 -1854348188.7216644 0 0 0 0 -866514725.57897949 -111818560.89468384 0 -111818560.89468384 451738264.48105145 0 0 0 0 131738576.82615089 -326381803.09576416 0 -326381803.09576416 -1120124482.0094147 0 0 0 0 4051702.4166069031 -244516430.2961731 0 -244516430.2961731 -614239396.80777359 0 0 0 0 125754865.62279892 -356365689.28512573 0 -356365689.28512573 -1254945816.556839 0 0 0 0 64681647.579425812 -643258003.84014893 0 -643258003.84014893 -1770601544.4302311 0 0 0 0 -820266.16953538638 1053597.9541099966 0 1053597.9541099966 -1390537.2340806574 0 0 0 0 36133484.984729767 -445789962.4129715 0 -445789962.4129715 -1099355271.2915344 0 0 0 0 55179003.45889926 67976185.606061935 0 67976185.606061935 -643082673.79838562 0 0 0 0 85732012.411303043 -51899713.850242615 0 -51899713.850242615 -1600560607.6329651 0 0 0 0 -245080400.03232384 120378505.09554291 0 120378505.09554291 140972432.00248718 0 0 0 0 -116813152.68198109 281978403.16389084 0 281978403.16389084 -777727454.34074402 0 0 0 0 100494506.76406097 23914765.481048584 0 23914765.481048584 -503877976.34722137 0 0 0 0 -20608515.412376404 20534795.842285156 0 20534795.842285156 -613974786.19713211 0 0 0 0 -64618572.305358887 57093266.715446472 0 57093266.715446472 -99586855.99937439 0 0 0 0 -6846977.9491706593 7450903.2435372472 0 7450903.2435372472 -6742268.1925616041 0 0 0 0 45083982.455619812 201707132.2348938 0 201707132.2348938 278830694.33972168 0 0 0 0 -95826193.51458168 -182031595.73405457 0 -182031595.73405457 146845805.46427917 0 0 0 0 -109434095.33288956 144457357.84252167 0 144457357.84252167 337258208.2885437 0 0 0 0 -207737034.6140728 -60161810.509784698 0 -60161810.509784698 241054426.17367554 0 0 0 0 -373860.60807037354 32806570.756866455 0 32806570.756866455 260420893.37423325 0 0 0 0 -96606909.868747711 -121469884.46186829 0 -121469884.46186829 190836217.18126297 0 0 0 0 -25250613.931316376 -99239823.722984314 0 -99239823.722984314 174629066.34915161 0 0 0 0 4036974.0966329575 7577874.4708366394 0 7577874.4708366394 34699646.507766724 0 0 0 0 27135948.354156494 84160523.670349121 0 84160523.670349121 50556255.540000916 0 0 0 0 -6641680.1347866058 -77742649.71796608 0 -77742649.71796608 48767392.42288208 0 0 0 0 -49638320.054719925 -57143861.083003998 0 -57143861.083003998 108532426.40640259 0 0 0 0 -10103334.379831314 34497013.401443481 0 34497013.401443481 -7913083.304107666 0 0 0 0 42174047.526224494 5820364.4424135685 0 5820364.4424135685 198036944.57116699 0 0 0 0 -381360.49346868694 460194.91077742726 0 460194.91077742726 -508280.35641696304 0 0 0 0 -134977262.01696205 45977194.581947327 0 45977194.581947327 50475841.821502686 0 0 0 0 -86862682.518569469 6935211.2101459503 0 6935211.2101459503 -48023952.286315918 0 0 0 0 -126393996.96794987 93113506.685903549 0 93113506.685903549 60468244.984146118 0 0 0 0 -1537778.0507350983 319483.17576721916 0 319483.17576721916 1354817.792407997 0 0 0 0 -37979724.634609222 139474147.9866333 0 139474147.9866333 -190576435.32884216 0 0 0 0 209237091.73416138 9233957.0745849609 0 9233957.0745849609 -135124916.67749023 0 0 0 0 -344527550.80561543 -94125121.260608673 0 -94125121.260608673 -35872882.269775391 0 0 0 0 205808121.2567234 -660718975.96914101 0 -660718975.96914101 -263198744.98168945 0 0 0 0 -86386778.949420929 -341157952.875 0 -341157952.875 -157728587.72035837 0 0 0 0 -450667472.72192192 -570291527.01665878 0 -570291527.01665878 -290774367.80886078 0 0 0 0 112732309.8100853 -178013445.48007584 0 -178013445.48007584 -1146735803.1114883 0 0 0 0 109523677.36874819 -38446523.209075928 0 -38446523.209075928 99509805.71987915 0 0 0 0 45473360.053329945 245971798.56860971 0 245971798.56860971 -231439305.8813324 0 0 0 0 47478701.757932901 230005165.56362104 0 230005165.56362104 -194879441.47543335 0 0 0 0 77450245.436943054 73509831.45665741 0 73509831.45665741 -131460693.00528288 0 0 0 0 -133388674.86600876 193858210.47918701 0 193858210.47918701 -120377919.88929367 0 0 0 0 -423887977.671278 289991941.32018661 0 289991941.32018661 -26373017.908416748 0 0 0 0 -223614038.30408096 555627446.76235962 0 555627446.76235962 -550299446.59334183 0 0 0 0 -29400265.485782623 74549868.5729599 0 74549868.5729599 -87100593.158187866 0 0 0 0 -300305752.34692001 71659462.183296204 0 71659462.183296204 99103629.604766846 0 0 0 0 107148495.99177928 -16068592.566151142 0 -16068592.566151142 -53537273.577178955 0 0 0 0 40086832.670608521 -413976683.85871124 0 -413976683.85871124 -1014546540.2530518 0 0 0 0 -98116660.16069603 265130906.03356934 0 265130906.03356934 -612089319.51887131 0 0 0 0 -586365.95613785274 3261931.6027345061 0 3261931.6027345061 -5183482.5718780831 0 0 0 0 108068902.19141069 84052060.560132116 0 84052060.560132116 -38369035.404769897 0 0 0 0 6422559.9019012451 3692442.9742660522 0 3692442.9742660522 -8219555.7849273682 0 0 0 0 6012203.4452781677 -177936.72106933594 0 -177936.72106933594 -8393541.3137817383 0 0 0 0 3956307.4371628836 3379169.9578304552 0 3379169.9578304552 -10238965.159221359 0 0 0 0 13387029.569101334 -20191522.169410706 0 -20191522.169410706 423101.99259376526 0 0 0 0 1380475.5284072468 -916247.50412605517 0 -916247.50412605517 128314.04946062714 0 0 0 0 113763199.43016815 1220954.020275116 0 1220954.020275116 -92374614.863162994 0 0 0 0 -81179652.726791382 321775.46639251709 0 321775.46639251709 -16934566.035217285 0 0 0 0 3016020.704914093 -163553.31435394287 0 -163553.31435394287 -7828108.8024749756 0 0 0 0 4344403.0783209037 1172479.4697932564 0 1172479.4697932564 -11175019.909220338 0 0 0 0 3696071.9913864136 2322305.9580841064 0 2322305.9580841064 -9811457.7893714905 0 0 0 0 8497882.1308280062 -3343241.8508834839 0 -3343241.8508834839 -17801104.349975586 0 0 0 0 -2684854.5952003002 16985548.802006721 0 16985548.802006721 36317407.075714111 0 0 0 0 495665.91087375209 1421380.664874997 0 1421380.664874997 -2433560.7268104181 0 0 0 0 6068439.7985709803 -766108.1722834399 0 -766108.1722834399 -8396559.2442949042 0 0 0 0 141266260.60512543 -84527963.347705841 0 -84527963.347705841 -20135493.790878296 0 0 0 0 100610898.93315125 -18201177.527587891 0 -18201177.527587891 -37983900.332975388 0 0 0 0 41807896.312831879 -29072717.926250458 0 -29072717.926250458 -36311959.801017761 0 0 0 0 129881950.89022827 -25118254.590263367 0 -25118254.590263367 -170946657.57281494 0 0 0 0 89362262.784062386 84030403.464281082 0 84030403.464281082 -348604616.76895142 0 0 0 0 56812081.345767021 87891224.256305695 0 87891224.256305695 -111269057.0806427 0 0 0 0 11741034.383142471 36703184.803138733 0 36703184.803138733 5551128.0956115723 0 0 0 0 -151909719.69775009 -160301799.85968781 0 -160301799.85968781 -216892030.07374001 0 0 0 0 58355399.129768372 -14602647.999839783 0 -14602647.999839783 -631522320.71257019 0 0 0 0 57897953.751030922 45675115.784461975 0 45675115.784461975 -183336005.4727993 0 0 0 0 42348191.723138809 -54893019.277687073 0 -54893019.277687073 -217973835.51569366 0 0 0 0 -43120968.860554695 -54082174.869621277 0 -54082174.869621277 -185483592.81135368 0 0 0 0 -85182686.442234039 49511042.016136169 0 49511042.016136169 -82145803.902389526 0 0 0 0 -44668946.989341736 -83721333.515991211 0 -83721333.515991211 -198081744.81388092 0 0 0 0 -79245927.422107816 -26390236.34976387 0 -26390236.34976387 -40612351.368637085 0 0 0 0 -146355951.19228745 64076595.901325226 0 64076595.901325226 -353638488.09241486 0 0 0 0 210492665.95968723 -404842635.00604057 0 -404842635.00604057 -185557179.29834747 0 0 0 0 55106797.916825175 -164204228.06424522 0 -164204228.06424522 -422933916.4370575 0 0 0 0 29761776.379981518 -194493470.75562668 0 -194493470.75562668 -430199716.69072723 0 0 0 0 -54726574.7614066 -111171314.65175533 0 -111171314.65175533 -452968524.58602905 0 0 0 0 -30197721.535928726 -4267443.6133499146 0 -4267443.6133499146 -17508822.68479538 0 0 0 0 -95627014.850850105 355350742.54374313 0 355350742.54374313 -511323080.03625488 0 0 0 0 1086549.0604059435 299874.37604198977 0 299874.37604198977 -1897762.4477201179 0 0 0 0 17934480.513299942 171781984.35981369 0 171781984.35981369 -217362340.1496582 0 0 0 0 94478277.249267578 252749829.45956421 0 252749829.45956421 -264580397.40736008 0 0 0 0 268848001.73159218 250286924.47670364 0 250286924.47670364 -402326080.6571579 0 0 0 0 353652404.95794392 -18113931.197147369 0 -18113931.197147369 -175160798.02824211 0 0 0 0 1867377.4676026003 357386.58385709859 0 357386.58385709859 -3577713.9222728163 0 0 0 0 234024629.42890263 102524912.64777756 0 102524912.64777756 -325826471.61508179 0 0 0 0 298134059.82476377 -91058174.915588379 0 -91058174.915588379 -163704350.82382202 0 0 0 0 79661103.276101112 114120690.69992828 0 114120690.69992828 -202179733.4484005 0 0 0 0 112133969.00647736 160725291.76184464 0 160725291.76184464 -303994027.67475891 0 0 0 0 1040744.9002735605 208264.57272317633 0 208264.57272317633 -1949930.1805412546 0 0 0 0 40759129.520713806 246854538.98297691 0 246854538.98297691 -592800488.72499847 0 0 0 0 -81676931.32847023 -256071430.26719666 0 -256071430.26719666 -503217782.28759956 0 0 0 0 16827766.30134201 -2784556.4220123291 0 -2784556.4220123291 -60687503.034072876 0 0 0 0 11281376.980429173 -40859896.686502457 0 -40859896.686502457 -252479545.64920044 0 0 0 0 -152813350.4000473 -92000298.390220642 0 -92000298.390220642 -3117250.8637695312 0 0 0 0 -5329860.987898767 16412000.142879486 0 16412000.142879486 -14115363.054962158 0 0 0 0 60973818.125284672 -45280356.350673676 0 -45280356.350673676 -144753045.88362122 0 0 0 0 -472484.21017055796 -624794.67974126339 0 -624794.67974126339 -3751551.3408230767 0 0 0 0 -1863143.018705368 9432276.7401046753 0 9432276.7401046753 -371126.49959754944 0 0 0 0 9113193.8741412163 189498734.89564133 0 189498734.89564133 -301102234.13763428 0 0 0 0 34484514.49951458 141839722.90228271 0 141839722.90228271 -296042651.33293152 0 0 0 0 14774186.333909988 6135984.3059558868 0 6135984.3059558868 -12950165.066223145 0 0 0 0 739337.78127574315 -89035.840360760689 0 -89035.840360760689 -3416601.8966220915 0 0 0 0 -4376253.918615818 125239439.11507797 0 125239439.11507797 -281935020.73587799 0 0 0 0 10328107.90790987 163306012.81435776 0 163306012.81435776 -206392695.7051239 0 0 0 0 -184595488.44582009 375978348.32505608 0 375978348.32505608 -611283176.74726105 0 0 0 0 -105506244.16361049 14627722.074485779 0 14627722.074485779 -519168778.1472702 0 0 0 0 -32957775.203868389 -171959942.70613289 0 -171959942.70613289 -431886829.85253143 0 0 0 0 -162150888.70895571 -156725227.4720459 0 -156725227.4720459 -53543693.546852112 0 0 0 0 587464.62698046234 100974.38470007293 0 100974.38470007293 -1556250.7098971382 0 0 0 0 -25192243.527518272 50457466.66444397 0 50457466.66444397 -62018457.707079649 0 0 0 0 -97333518.136475205 -86270190.444732666 0 -86270190.444732666 -111222035.74755096 0 0 0 0 9091584.1882117391 -55150690.068540573 0 -55150690.068540573 38271939.312728882 0 0 0 0 -2248384.4329547882 35409959.237861633 0 35409959.237861633 -12589513.673961639 0 0 0 0 -106182849.34659144 17560929.893066406 0 17560929.893066406 6875843.5786590576 0 0 0 0 -206820814.1861887 5744527.441368103 0 5744527.441368103 5621638.4863529205 0 0 0 0 643642.87912155665 -449955.09120566398 0 -449955.09120566398 -550815.89735072851 0 0 0 0 34756524.467994392 -139215721.33727312 0 -139215721.33727312 -144688225.61186218 0 0 0 0 -102467841.18994141 -137942064.10194397 0 -137942064.10194397 -141809545.96946335 0 0 0 0 15753304.030911922 -28767071.850997925 0 -28767071.850997925 -419252535.0332489 0 0 0 0 -643766.29630710324 -679032.95481307432 0 -679032.95481307432 376326.34400678053 0 0 0 0 -72813346.210102469 -122081381.22007 0 -122081381.22007 -133485818.47865295 0 0 0 0 -83381388.363632679 16386011.890464783 0 16386011.890464783 -184677373.92684937 0 0 0 0 -46002181.932625711 -65844067.897205353 0 -65844067.897205353 -441205666.99589539 0 0 0 0 37316869.813293576 9504291.9270906448 0 9504291.9270906448 -427333579.3961792 0 0 0 0 46286753.744069017 -94226.019760131836 0 -94226.019760131836 -486255237.68922424 0 0 0 0 -202134958.8403379 262678743.6174202 0 262678743.6174202 -403580955.92792392 0 0 0 0 -131936678.41996586 -62103518.001033783 0 -62103518.001033783 -429148621.80441284 0 0 0 0 -310113612.06339073 44483057.747997284 0 44483057.747997284 -424094286.56954575 0 0 0 0 -319329743.85398877 28457914.77022934 0 28457914.77022934 -361917460.63347626 0 0 0 0 865646.87572112493 339369.15948188119 0 339369.15948188119 -1458529.5874151886 0 0 0 0 -49642811.580725372 -226910380.41318321 0 -226910380.41318321 -184852073.55686569 0 0 0 0 -11585927.055992603 32912039.857048035 0 32912039.857048035 -42219268.058242798 0 0 0 0 17629903.483722687 13142397.603317261 0 13142397.603317261 -79661430.738883972 0 0 0 0 59159902.981599569 33405942.032058716 0 33405942.032058716 -58674500.843154907 0 0 0 0 70802373.875493228 9956356.4068336487 0 9956356.4068336487 -11946898.292617798 0 0 0 0 67622749.641523436 -8981437.3709373474 0 -8981437.3709373474 -3635323.7639465332 0 0 0 0 1429479.3401566881 139592.54882184789 0 139592.54882184789 -2665859.5404307023 0 0 0 0 -85429687.242519021 161779631.68858337 0 161779631.68858337 -278610684.50579071 0 0 0 0 -77662797.740969658 124447256.37592316 0 124447256.37592316 -154441161.96214724 0 0 0 0 -135514442.72208786 178200912.40445709 0 178200912.40445709 -89359067.072723389 0 0 0 0 -15352898.668782234 110335935.17787552 0 110335935.17787552 -274266835.80441284 0 0 0 0 -122714733.52868104 92530010.347946167 0 92530010.347946167 -51495043.752983093 0 0 0 0 -126307086.32598662 113088148.74834061 0 113088148.74834061 -154063712.76774597 0 0 0 0 18830149.534901619 12844697.649551392 0 12844697.649551392 4322088.3449172974 0 0 0 0 9533901.1703672409 23045614.81206131 0 23045614.81206131 -5516403.3146514893 0 0 0 0 -5086620.3053059578 17331452.086782455 0 17331452.086782455 3157640.2283630371 0 0 0 0 16232911.0153265 18814413.596607208 0 18814413.596607208 -13350954.638961792 0 0 0 0 6400486.5642986298 17832095.505477905 0 17832095.505477905 19281397.073944092 0 0 0 0 -152931.221318834 -370779.12664827704 0 -370779.12664827704 -736396.76701694541 0 0 0 0 6152372.1414642334 17712794.567962646 0 17712794.567962646 26437378.885467529 0 0 0 0 17602768.808462143 17269763.625919342 0 17269763.625919342 -11609501.96321106 0 0 0 0 5018500.9127073139 5215724.0450587971 0 5215724.0450587971 -1622228.4238967746 0 0 0 0 144663359.34671593 -7116339.5249595642 0 -7116339.5249595642 -57206169.858592987 0 0 0 0 -95635080.751298785 94865078.990840912 0 94865078.990840912 10151059.314422607 0 0 0 0 -75549463.679701805 279443819.20359039 0 279443819.20359039 -173667401.55137634 0 0 0 0 60595449.662602901 201791268.55874634 0 201791268.55874634 -132869782.04800415 0 0 0 0 -171008250.31820813 141897764.18873787 0 141897764.18873787 -11947940.655822754 0 0 0 0 24336.855514992843 -91862.553619351238 0 -91862.553619351238 -664343.42923311889 0 0 0 0 18699878.054641291 -3888788.7160453796 0 -3888788.7160453796 5534435.8444519043 0 0 0 0 8971674.999961853 -6138711.0552978516 0 -6138711.0552978516 -29719093.011779785 0 0 0 0 705642.85405593645 -3569449.3098640777 0 -3569449.3098640777 -11362140.383924432 0 0 0 0 26824151.718359709 45618028.842990875 0 45618028.842990875 35918539.426795959 0 0 0 0 46563619.834627986 18833591.008396149 0 18833591.008396149 -10916652.836303711 0 0 0 0 39379677.773372412 41397365.377529144 0 41397365.377529144 -3192289.9436950684 0 0 0 0 2111153.0558347702 32068507.840835571 0 32068507.840835571 2055174.0509796143 0 0 0 0 6800948.8949847221 -617645.0387134552 0 -617645.0387134552 67120027.294723511 0 0 0 0 18948192.981712341 29622595.495594025 0 29622595.495594025 -6455373.4769592285 0 0 0 0 9902231.8238589764 -8607955.6108169556 0 -8607955.6108169556 -48014201.680171967 0 0 0 0 -853306.11500409106 -7422050.33599177 0 -7422050.33599177 -851170.69884501398 0 0 0 0 3958506.7450533248 3466849.7361838333 0 3466849.7361838333 -16641689.583119664 0 0 0 0 13558860.148821831 16947500.213581085 0 16947500.213581085 -760857.70155334473 0 0 0 0 28336544.9350214 15459118.99797821 0 15459118.99797821 -24390298.592407227 0 0 0 0 27606179.050664902 11824367.50202179 0 11824367.50202179 -22578990.67175293 0 0 0 0 12017217.342617512 20879598.70072937 0 20879598.70072937 -25806857.468595505 0 0 0 0 3150094.0563751175 4404531.9102872517 0 4404531.9102872517 -19427182.918673895 0 0 0 0 -23104389.845667601 -20128143.870254517 0 -20128143.870254517 -21926499.474075317 0 0 0 0 20865108.896563053 25102845.245529175 0 25102845.245529175 -31606294.567001343 0 0 0 0 16279277.147024155 16227759.419128418 0 16227759.419128418 -7490599.3061523438 0 0 0 0 26665447.264342785 17960570.970762253 0 17960570.970762253 -21668542.358230591 0 0 0 0 24841617.202813625 13228999.002098083 0 13228999.002098083 -26935457.959381104 0 0 0 0 24761868.762444019 10587558.819660187 0 10587558.819660187 -16647245.385391235 0 0 0 0 83955.99436726651 517851.55150792096 0 517851.55150792096 -64775.725598052144 0 0 0 0 20410702.077859879 17343037.44859314 0 17343037.44859314 -30269541.980056763 0 0 0 0 22695054.574472427 12911892.914581299 0 12911892.914581299 -22817770.178001404 0 0 0 0 24655054.932847977 17586866.529212952 0 17586866.529212952 -25203534.570419312 0 0 0 0 23570225.681324005 11905709.407196045 0 11905709.407196045 -28460477.822265625 0 0 0 0 24198513.79041338 11551180.988420486 0 11551180.988420486 -28511589.485534668 0 0 0 0 22539248.274158478 7857367.9002914429 0 7857367.9002914429 -35554275.978481293 0 0 0 0 14935642.524392128 9439603.4822540283 0 9439603.4822540283 -29216472.110805511 0 0 0 0 2907099.2355976105 18128885.830562592 0 18128885.830562592 -35368520.394454956 0 0 0 0 13247267.037950516 24490003.488128662 0 24490003.488128662 -24902252.449565887 0 0 0 0 -2365180.7865338326 13084522.319551468 0 13084522.319551468 -13143958.007347107 0 0 0 0 2364197.2208453389 2409270.0671463497 0 2409270.0671463497 -405608.22814846039 0 0 0 0 -22665760.014864445 34053686.277095795 0 34053686.277095795 -31281991.882949829 0 0 0 0 2753172.8386487961 16827868.984324932 0 16827868.984324932 -46127227.193115234 0 0 0 0 -1613212.6508646011 17713231.024242401 0 17713231.024242401 -46075847.976196289 0 0 0 0 13886487.91054821 9323805.6939888 0 9323805.6939888 -77487254.599899292 0 0 0 0 15733871.186369896 1528647.7527809143 0 1528647.7527809143 -44918889.536491394 0 0 0 0 18816977.5513978 3615101.9052391052 0 3615101.9052391052 -46816550.860710144 0 0 0 0 18402623.050063491 7760101.1012458801 0 7760101.1012458801 -50090111.301177979 0 0 0 0 15233518.831463814 -22363732.754058838 0 -22363732.754058838 -75280653.253547668 0 0 0 0 15298715.139599346 -13069206.468433082 0 -13069206.468433082 -48342312.151397705 0 0 0 0 28514809.107984543 -10507961.99641037 0 -10507961.99641037 -64892823.733188629 0 0 0 0 33280832.408257246 -17384348.594783783 0 -17384348.594783783 -129196070.58439636 0 0 0 0 33511314.670938492 -47042220.436393738 0 -47042220.436393738 27373591.775039673 0 0 0 0 1905558.8542601755 88300.198661282659 0 88300.198661282659 -4112019.569603499 0 0 0 0 -18376959.00969696 -50823015.885169983 0 -50823015.885169983 -63307468.161054611 0 0 0 0 2454252.2114547929 -3667798.9414900113 0 -3667798.9414900113 -3243766.6925907433 0 0 0 0 13269673.910928726 -22197542.706695557 0 -22197542.706695557 -57162236.351768494 0 0 0 0 620410.65189981461 -27625736.629137039 0 -27625736.629137039 -34982083.341323853 0 0 0 0 93760596.241664886 -1943015.6058883667 0 -1943015.6058883667 -67222442.418869019 0 0 0 0 11699055.583451539 -12733962.652414661 0 -12733962.652414661 -6646092.2353220843 0 0 0 0 172870259.374439 332597885.28522348 0 332597885.28522348 -689650991.69963074 0 0 0 0 166121975.24637985 -60884228.686775208 0 -60884228.686775208 -20863167.915969849 0 0 0 0 5675222.1247640233 4550697.5823864825 0 4550697.5823864825 -26537718.219377302 0 0 0 0 -462314804.41143036 -122433876.40084839 0 -122433876.40084839 506019130.27576447 0 0 0 0 -1299296637.627964 -11301532.473617554 0 -11301532.473617554 -464692607.81018066 0 0 0 0 7386941.6273555756 -667456690.32619858 0 -667456690.32619858 -229171628.10321808 0 0 0 0 -11283125.534648895 -28644745.265609741 0 -28644745.265609741 -11061866.484699249 0 0 0 0 10000040.921243459 -15154544.691264138 0 -15154544.691264138 -7229608.7571028667 0 0 0 0 -18408679.367048144 -41844269.075451374 0 -41844269.075451374 41253453.037506104 0 0 0 0 -18610840.403209686 -36191571.161956787 0 -36191571.161956787 42163488.132202148 0 0 0 0 20440240.580304146 -12156880.077190399 0 -12156880.077190399 -42419823.05314064 0 0 0 0 11706470.854017019 -18637448.769940376 0 -18637448.769940376 -41511129.081604004 0 0 0 0 24844373.957514286 -15097452.328521729 0 -15097452.328521729 -42826145.014045715 0 0 0 0 6037647.4365345472 -6276808.1024814695 0 -6276808.1024814695 -25601060.514090426 0 0 0 0 19419215.885936737 -8110491.7448196411 0 -8110491.7448196411 -28283467.252410889 0 0 0 0 28875548.066380501 5645883.2888870239 0 5645883.2888870239 -36825657.245220184 0 0 0 0 21174712.692978859 -8072607.6191329956 0 -8072607.6191329956 -48930822.856948853 0 0 0 0 16956837.263263702 -12423992.632476807 0 -12423992.632476807 -51287098.332054138 0 0 0 0 21692386.349286079 514782.93265151978 0 514782.93265151978 -43475598.824707031 0 0 0 0 21864796.678429425 4312201.61617589 0 4312201.61617589 -33903365.658081055 0 0 0 0 26902207.863574028 6176266.4122848511 0 6176266.4122848511 -37144164.030693054 0 0 0 0 18602759.265537381 9485325.9393768311 0 9485325.9393768311 -35643152.682144165 0 0 0 0 4160901.2260041237 -871356.59551453008 0 -871356.59551453008 -24436278.664557323 0 0 0 0 30358001.598961353 3428550.055393219 0 3428550.055393219 -33677065.563140869 0 0 0 0 26874047.502637863 3975726.7791061401 0 3975726.7791061401 -26295595.442697525 0 0 0 0 27204636.095794678 5071174.8646087646 0 5071174.8646087646 -23218561.244285583 0 0 0 0 22038431.37573421 -11399427.413213253 0 -11399427.413213253 -39578359.272171021 0 0 0 0 4322397.5142927179 -4063319.4605684951 0 -4063319.4605684951 -8127877.6420916617 0 0 0 0 26427953.906682968 -77422337.581726074 0 -77422337.581726074 -7603049.2861251831 0 0 0 0 38317280.764668941 -25455659.397354126 0 -25455659.397354126 -10138019.870765686 0 0 0 0 107474499.22964859 -3760814.7492675781 0 -3760814.7492675781 -3506963.0489501953 0 0 0 0 305451389.5637207 55199912.283172607 0 55199912.283172607 -50058367.264976501 0 0 0 0 136512307.18136239 -119851504.25198555 0 -119851504.25198555 -28739215.089416504 0 0 0 0 196755528.95894623 -145011519.00264359 0 -145011519.00264359 -100860675.19372559 0 0 0 0 -5184180.928976059 -91192642.392608643 0 -91192642.392608643 -24020669.592956543 0 0 0 0 1129874.4364091875 -1220997.4216304272 0 -1220997.4216304272 -2226247.4773311466 0 0 0 0 183047114.85387516 -152533157.63321686 0 -152533157.63321686 -24770225.407515764 0 0 0 0 163203269.86854237 27595418.877052307 0 27595418.877052307 -19233852.187652588 0 0 0 0 -2785232.4027862549 -16668536.224311829 0 -16668536.224311829 -23258963.547363281 0 0 0 0 109501795.2931776 -28403870.370750427 0 -28403870.370750427 -24395499.287923813 0 0 0 0 36309242.270502508 8285297.1051530838 0 8285297.1051530838 -10837461.576278687 0 0 0 0 290043826.37445402 9158923.6837310791 0 9158923.6837310791 -104180467.80115891 0 0 0 0 102891879.88116169 -67187222.141484261 0 -67187222.141484261 -115606955.03553772 0 0 0 0 36263902.423269272 169180367.3092804 0 169180367.3092804 108723325.84706497 0 0 0 0 197587926.3231349 -345994547.01978493 0 -345994547.01978493 -64324390.209197998 0 0 0 0 154412187.20071983 -110567023.72944641 0 -110567023.72944641 28257303.867301941 0 0 0 0 321505.86957752425 -2916371.4668149874 0 -2916371.4668149874 -2798347.6054648571 0 0 0 0 131135964.5701251 79192283.595321655 0 79192283.595321655 35362780.213111877 0 0 0 0 -122073253.62411404 -82442495.806182861 0 -82442495.806182861 -46620309.713401794 0 0 0 0 -69826070.072243214 32868047.742530823 0 32868047.742530823 28067160.310150146 0 0 0 0 10854.624630865641 -351971.56435884535 0 -351971.56435884535 -659987.16847872734 0 0 0 0 -661770006.99334145 -217598432.68453979 0 -217598432.68453979 202928708.49549866 0 0 0 0 68241.712762670999 -245763.40433325619 0 -245763.40433325619 -714562.50483831763 0 0 0 0 108199551.56751442 -48104824.019683838 0 -48104824.019683838 -136695174.79180908 0 0 0 0 -132358574.30186176 -143889235.0160141 0 -143889235.0160141 -52055302.776542664 0 0 0 0 -165341123.2622571 14864964.247261047 0 14864964.247261047 -150388692.04722595 0 0 0 0 -3620272.4794256687 9770731.3803939819 0 9770731.3803939819 34554961.400604248 0 0 0 0 6883694.6109995842 -7932020.375617981 0 -7932020.375617981 -1814278.7445526123 0 0 0 0 1887514.5614976883 -13884091.839733124 0 -13884091.839733124 8125678.8074798584 0 0 0 0 -1521557.6638451591 -2505703.35136538 0 -2505703.35136538 786268.23658552021 0 0 0 0 -30788139.168056488 15651303.128204346 0 15651303.128204346 83027896.554077148 0 0 0 0 415362.26973713527 -1243138.4117697226 0 -1243138.4117697226 -2400625.0531489849 0 0 0 0 -282527503.00996923 -53638553.215438843 0 -53638553.215438843 85078164.050796509 0 0 0 0 -207027.92925948743 -98976.787599470466 0 -98976.787599470466 5143.3835000358522 0 0 0 0 -158882001.57608414 -30003499.716789246 0 -30003499.716789246 108252581.1268158 0 0 0 0 -184334185.466856 -112094945.94264221 0 -112094945.94264221 -135359666.73010254 0 0 0 0 -64886247.821886063 -37164997.054954529 0 -37164997.054954529 17326331.229598999 0 0 0 0 194689207.28399062 96440002.164634228 0 96440002.164634228 -96768288.952209473 0 0 0 0 -901540.92097522831 -1905782.117936084 0 -1905782.117936084 1098332.1900219843 0 0 0 0 -186615586.51970482 42675912.137313843 0 42675912.137313843 26348127.011444092 0 0 0 0 -79479268.537677765 -169323718.69483948 0 -169323718.69483948 -32669431.835922241 0 0 0 0 -166466487.16609001 348522231.29772949 0 348522231.29772949 -130686667.9631958 0 0 0 0 -21661266.569217682 -80936014.185501099 0 -80936014.185501099 -7754945.5470275879 0 0 0 0 -38096690.3098526 -30850208.648803711 0 -30850208.648803711 2041050.9342041016 0 0 0 0 -14664924.882462502 -44386400.116722107 0 -44386400.116722107 -44597421.329162598 0 0 0 0 -16455641.975641251 -42150282.557662964 0 -42150282.557662964 -16506397.813018799 0 0 0 0 -25368735.177873611 -26377882.226577759 0 -26377882.226577759 56781225.50440979 0 0 0 0 -57025305.276130676 -4327578.1787414551 0 -4327578.1787414551 41656327.285552979 0 0 0 0 -44063237.344268799 -78330828.922637939 0 -78330828.922637939 -75634333.855072021 0 0 0 0 -148005604.01887894 -74984562.034317017 0 -74984562.034317017 -3616416.060836792 0 0 0 0 4316918.9951791763 -10496053.393928528 0 -10496053.393928528 -81291670.124830246 0 0 0 0 -99185457.605326414 35349281.869437218 0 35349281.869437218 10839668.218780518 0 0 0 0 -56556314.296537876 -78689171.574922562 0 -78689171.574922562 -45595697.02381897 0 0 0 0 1559770.3702633465 -1620624.7650679611 0 -1620624.7650679611 -835564.08733478934 0 0 0 0 25013605.325679779 -32941710.222801208 0 -32941710.222801208 11947321.566886902 0 0 0 0 12019325.416147321 -9826872.0983230397 0 -9826872.0983230397 -3878869.1764886305 0 0 0 0 8779681.9632987976 -44853284.913772583 0 -44853284.913772583 7017313.807800293 0 0 0 0 116178995.60440612 113217620.63435364 0 113217620.63435364 -97877411.922546387 0 0 0 0 -29052993.843652725 11549896.100799561 0 11549896.100799561 119095588.25682068 0 0 0 0 27094792.424319267 -19201679.794212341 0 -19201679.794212341 41245231.348770142 0 0 0 0 140783993.77333355 -30841044.101478577 0 -30841044.101478577 2577150.0932312012 0 0 0 0 36477263.679045677 -72081531.999076843 0 -72081531.999076843 16530613.024002075 0 0 0 0 87903633.328121513 -58850337.927495003 0 -58850337.927495003 -8059617.2305908203 0 0 0 0 -262667.43644165643 -700043.74872669717 0 -700043.74872669717 229799.24165183306 0 0 0 0 -84893205.411166191 -83886240.731010437 0 -83886240.731010437 189664011.04168701 0 0 0 0 -161897514.70767593 -225512138.91413116 0 -225512138.91413116 111996795.36434555 0 0 0 0 11496146.889947891 -30477544.506530762 0 -30477544.506530762 2024840.1085190773 0 0 0 0 33529295.817724228 -23740777.628120422 0 -23740777.628120422 -40591663.156509399 0 0 0 0 -1557209.3170881271 -21333228.932647705 0 -21333228.932647705 -5617953.7833319902 0 0 0 0 75703944.157123566 -42571671.744380951 0 -42571671.744380951 -5376215.0741577148 0 0 0 0 28907994.576044887 19550351.153063774 0 19550351.153063774 -4053397.9745635986 0 0 0 0 49358736.015739918 15215424.159545898 0 15215424.159545898 -3954909.3875274658 0 0 0 0 28845564.586045742 2603551.1299133301 0 2603551.1299133301 -40371902.453430176 0 0 0 0 -2656171.9188637733 6692522.9769592285 0 6692522.9769592285 -557135.83734512329 0 0 0 0 16130606.283024311 9093554.4042663574 0 9093554.4042663574 -77461013.629997253 0 0 0 0 18949540.440399647 -27384252.448490143 0 -27384252.448490143 -97061221.846801758 0 0 0 0 -3712697.7395699024 -3404747.8895454407 0 -3404747.8895454407 -37056210.646270752 0 0 0 0 7318792.3732073475 -9494551.4430257976 0 -9494551.4430257976 410266.40992343426 0 0 0 0 -56512863.694372654 -31534112.17722702 0 -31534112.17722702 -41266190.495223999 0 0 0 0 67482646.383333206 -55395545.894226074 0 -55395545.894226074 -166321703.8757782 0 0 0 0 -63283247.336683273 -31970493.123195648 0 -31970493.123195648 107819323.81678772 0 0 0 0 57205731.027738094 6983735.759098053 0 6983735.759098053 48273860.550765991 0 0 0 0 3279387.4348969636 -8134409.9322051592 0 -8134409.9322051592 869161.94525825977 0 0 0 0 -38760755.517362595 60032281.991294861 0 60032281.991294861 133495639.33535767 0 0 0 0 -23161553.284549236 52760300.289375305 0 52760300.289375305 1375791.0097351074 0 0 0 0 -26467373.250650704 -17690981.295720935 0 -17690981.295720935 -20977763.635147095 0 0 0 0 -141537328.30137682 -46014472.382143021 0 -46014472.382143021 -16345314.331954956 0 0 0 0 -85369844.679338455 15935217.473678589 0 15935217.473678589 49202681.994155884 0 0 0 0 -14802934.097903252 -34507488.821273804 0 -34507488.821273804 -16786928.370422363 0 0 0 0 -7464726.6492061615 -77868962.690719604 0 -77868962.690719604 -29540927.027395248 0 0 0 0 -64755668.056740761 -50834677.359697342 0 -50834677.359697342 -21682550.375007629 0 0 0 0 447726.73641300201 -56605601.853496552 0 -56605601.853496552 17144528.458694458 0 0 0 0 34818021.009632111 -61411598.678077698 0 -61411598.678077698 15142800.593315125 0 0 0 0 1343898.8954219818 -68860278.677349091 0 -68860278.677349091 21714655.889343262 0 0 0 0 -1303607.2626590729 -33952842.88079071 0 -33952842.88079071 45882113.503969193 0 0 0 0 -32626208.1329422 -46618199.726444244 0 -46618199.726444244 48376129.855758667 0 0 0 0 -72692072.51581192 -48848488.711128235 0 -48848488.711128235 49235383.992721558 0 0 0 0 41552932.450374603 21878750.226016998 0 21878750.226016998 -36962235.260665894 0 0 0 0 104894891.7832222 -13173397.900165558 0 -13173397.900165558 -46478466.713981628 0 0 0 0 5717410.1638526917 -6978614.4516906738 0 -6978614.4516906738 -23922076.249267578 0 0 0 0 12300139.388999939 16122562.933311462 0 16122562.933311462 -35508530.309440613 0 0 0 0 10560377.235660553 -15851602.620300293 0 -15851602.620300293 -19670036.134208679 0 0 0 0 103695516.85472679 -78933281.986953735 0 -78933281.986953735 -12398419.386169434 0 0 0 0 29543775.819908142 -45748973.148376465 0 -45748973.148376465 -27060535.175315857 0 0 0 0 16167037.893517971 -98148859.188423157 0 -98148859.188423157 44557776.104049683 0 0 0 0 134969782.05601692 -5289000.004776001 0 -5289000.004776001 -37700542.814834595 0 0 0 0 151132415.03564072 -114916744.7115097 0 -114916744.7115097 -13988891.965219498 0 0 0 0 163121.82842972875 1347627.4834820665 0 1347627.4834820665 -4202270.7442724705 0 0 0 0 107200380.80065536 -122904103.46645355 0 -122904103.46645355 11555412.937627792 0 0 0 0 8909849.7571907043 21103129.093170166 0 21103129.093170166 -36681448.860565186 0 0 0 0 -12179227.913957596 10426293.994335175 0 10426293.994335175 -21766131.227767944 0 0 0 0 7482728.1235352512 7439824.6993789673 0 7439824.6993789673 -31708893.340919495 0 0 0 0 9312871.8236108627 523113.19716424402 0 523113.19716424402 -19427506.69062686 0 0 0 0 490552.80557099357 3834229.0160751343 0 3834229.0160751343 -19539678.42906189 0 0 0 0 9899026.2704162654 -4681618.0413894653 0 -4681618.0413894653 -22409914.702453613 0 0 0 0 8448010.3993362729 -836829.56420898438 0 -836829.56420898438 -32217461.512512207 0 0 0 0 347890.25353014725 928186.22337884083 0 928186.22337884083 -3054199.1067626849 0 0 0 0 8321331.3765281029 -4094105.5930747986 0 -4094105.5930747986 -13160321.634185791 0 0 0 0 1212430.7510273606 3519394.2025299072 0 3519394.2025299072 -14656339.090797424 0 0 0 0 59409.814559540282 -1721770.5918578519 0 -1721770.5918578519 304371.52483335137 0 0 0 0 8299212.3220949546 4808736.0056304932 0 4808736.0056304932 -15075754.56023407 0 0 0 0 -4749241.0938298199 -17583293.132516861 0 -17583293.132516861 2976895.5508880615 0 0 0 0 19439.725674267705 -8254.3634421266615 0 -8254.3634421266615 -19811.554609298706 0 0 0 0 -486412.08637797832 -20972600.00579834 0 -20972600.00579834 2797102.9478664398 0 0 0 0 5985884.5518476795 -13617223.049705505 0 -13617223.049705505 -19307968.879837036 0 0 0 0 8596155.1461291872 5328568.1131744385 0 5328568.1131744385 -21509707.632923126 0 0 0 0 2242852.9840503335 -6511718.251663208 0 -6511718.251663208 -19706196.597732544 0 0 0 0 7824536.1331050992 -6800903.1634521484 0 -6800903.1634521484 -21842890.925949097 0 0 0 0 12572297.185798436 -7426680.9975891113 0 -7426680.9975891113 -23824178.108612061 0 0 0 0 -8735987.7531784624 12467014.022033691 0 12467014.022033691 -26312409.873962402 0 0 0 0 -1656184.1143253371 22253914.780220032 0 22253914.780220032 -36768462.564544678 0 0 0 0 23962564.223117769 93765.743408203125 0 93765.743408203125 -26293853.757507324 0 0 0 0 10329432.177755654 686247.73651123047 0 686247.73651123047 -22520169.639312744 0 0 0 0 886434.47777858377 12488688.383247375 0 12488688.383247375 -24325799.327880859 0 0 0 0 1834730.7272916073 -2506150.8558249474 0 -2506150.8558249474 -18588945.671630859 0 0 0 0 13221350.558075011 11935054.376327515 0 11935054.376327515 -17140741.357177734 0 0 0 0 10687823.266193628 6019715.3594970703 0 6019715.3594970703 -29032169.485351562 0 0 0 0 1729881.9275188567 1461014.9501461983 0 1461014.9501461983 -7746202.2114257812 0 0 0 0 429692.96810910298 142377.40778641775 0 142377.40778641775 -556726.14732591063 0 0 0 0 61232270.76075238 -18896658.849914551 0 -18896658.849914551 -16295503.261188507 0 0 0 0 28804585.552967876 11117492.220016479 0 11117492.220016479 -3795091.2074584961 0 0 0 0 9727.365734869687 -77067.976857602596 0 -77067.976857602596 -347375.53239408508 0 0 0 0 18654327.242750376 -3598456.8789672852 0 -3598456.8789672852 -18632098.45715332 0 0 0 0 26389914.7938435 -19899505.182289124 0 -19899505.182289124 -13379250.053466797 0 0 0 0 26752659.877136946 -34006652.574768066 0 -34006652.574768066 19787365.654907227 0 0 0 0 10802353.50266397 -15016092.638015747 0 -15016092.638015747 -2542751.7593383789 0 0 0 0 1055884.4877112173 3490796.794631958 0 3490796.794631958 -35348990.235168457 0 0 0 0 -988435.15498735756 9767500.8100357056 0 9767500.8100357056 -35475089.107269287 0 0 0 0 5444257.9227275848 -4898998.8605194092 0 -4898998.8605194092 -4830432.9625015259 0 0 0 0 2873635.941905506 1218660.3208252564 0 1218660.3208252564 -3818479.8354871608 0 0 0 0 4922404.1123748645 18152756.909927368 0 18152756.909927368 -50859831.281677246 0 0 0 0 3553034.0239489079 -7713879.4408569336 0 -7713879.4408569336 -48009142.458068848 0 0 0 0 3612514.6668412685 9561601.4527587891 0 9561601.4527587891 -39246381.211456299 0 0 0 0 6389293.1381044388 634018.8600692749 0 634018.8600692749 -9328707.5523452759 0 0 0 0 2203587.8519426975 -7319690.1618595123 0 -7319690.1618595123 -19117576.118774414 0 0 0 0 4263362.3416094482 2506004.8292905614 0 2506004.8292905614 -6335865.7861625925 0 0 0 0 7046065.751832962 -1734222.96534729 0 -1734222.96534729 -11602914.008224487 0 0 0 0 5605371.9601516156 3138339.3493995667 0 3138339.3493995667 -20584051.209259033 0 0 0 0 17984597.150157131 -12826708.894569397 0 -12826708.894569397 -11209989.093505859 0 0 0 0 9194767.3455105759 -5770462.0152057558 0 -5770462.0152057558 -14562588.00248754 0 0 0 0 1745305.4449884351 -4481579.8470573425 0 -4481579.8470573425 -14129262.801727295 0 0 0 0 13064073.233730316 -11290241.315742493 0 -11290241.315742493 -25000928.273162842 0 0 0 0 53700890.625299454 -32961006.487731934 0 -32961006.487731934 -20380011.302902222 0 0 0 0 9853036.3237398136 -8543634.3162219487 0 -8543634.3162219487 -12852923.857513458 0 0 0 0 8280144.989481926 709367.32319641113 0 709367.32319641113 -13486823.738006592 0 0 0 0 8550780.3224077225 2714270.3635787964 0 2714270.3635787964 -50052577.293395996 0 0 0 0 8749108.3624191284 -956319.83381652832 0 -956319.83381652832 -17633069.404129028 0 0 0 0 4231667.1963939667 -16348055.43951416 0 -16348055.43951416 -22900616.896911621 0 0 0 0 4965690.0975658894 -10736297.73871994 0 -10736297.73871994 1810817.1519165039 0 0 0 0 4638242.3635625839 -3086738.6392288208 0 -3086738.6392288208 -8794645.7749023438 0 0 0 0 7219823.7608203888 -6737612.9111633301 0 -6737612.9111633301 -9989671.5867767334 0 0 0 0 -1742806.6216584938 -3945622.8757246658 0 -3945622.8757246658 -2939075.6881760508 0 0 0 0 -1617086.4795528799 -13878528.593211651 0 -13878528.593211651 1122077.1473236084 0 0 0 0 -3911638.7877411842 -20805484.650882721 0 -20805484.650882721 5717564.047668457 0 0 0 0 -1740052.3073148727 -8303660.3877487183 0 -8303660.3877487183 16770966.16053009 0 0 0 0 -2392933.1437770864 -2902694.5744397901 0 -2902694.5744397901 509004.17175158858 0 0 0 0 361895.12251615524 239197.96215057373 0 239197.96215057373 2154976.0670700073 0 0 0 0 -961172.02507124166 -934462.0104919076 0 -934462.0104919076 -331464.50100460649 0 0 0 0 -1099051.3381311719 -1127460.565491017 0 -1127460.565491017 -831851.81041613966 0 0 0 0 13644043.738198161 -2010666.8510818481 0 -2010666.8510818481 -3658892.2090950012 0 0 0 0 47977923.864834785 -24506179.438751221 0 -24506179.438751221 -78014576.392562866 0 0 0 0 -137015041.86281398 206505617.04202843 0 206505617.04202843 157155405.05525208 0 0 0 0 12274533.556566358 -298786709.28277206 0 -298786709.28277206 77733542.972137451 0 0 0 0 129429840.992414 184024142.9186554 0 184024142.9186554 -30558230.586896896 0 0 0 0 -391455.02574473084 -240598.30785533413 0 -240598.30785533413 -299288.36104572564 0 0 0 0 -37052715.190152004 3562783.4083328247 0 3562783.4083328247 19596736.407997131 0 0 0 0 52555684.195082784 196072904.95765686 0 196072904.95765686 -256174458.41954803 0 0 0 0 13727618.38891381 -392925.35536575317 0 -392925.35536575317 -28984148.291404724 0 0 0 0 -68322344.831556663 53579076.247909546 0 53579076.247909546 -31963376.336853027 0 0 0 0 -671116.79145739414 1155601.2148017883 0 1155601.2148017883 -32688612.003463745 0 0 0 0 -2937133.124679409 -1766426.1085586548 0 -1766426.1085586548 -18343206.805908203 0 0 0 0 -5036973.6542905271 -1523143.9477291107 0 -1523143.9477291107 -4485313.1607971191 0 0 0 0 11941068.712684512 -23560446.470870972 0 -23560446.470870972 3049928.6814460754 0 0 0 0 7171631.3688516617 -7687548.7718582153 0 -7687548.7718582153 -6710149.8152770996 0 0 0 0 16795194.279293776 -23507884.21812439 0 -23507884.21812439 2040468.6614074707 0 0 0 0 -1033230.7340395242 -3837250.298284594 0 -3837250.298284594 -3276446.1875740439 0 0 0 0 -4244869.1320470124 -2755958.2641906738 0 -2755958.2641906738 3364671.9848327637 0 0 0 0 8153957.4808733538 4309460.4928474426 0 4309460.4928474426 -15778165.809082031 0 0 0 0 1400187.3539113402 -12460892.840576172 0 -12460892.840576172 1053713.9342956543 0 0 0 0 34439851.636299491 -19071050.708755493 0 -19071050.708755493 -4411439.5169219971 0 0 0 0 16443382.193021066 -25423731.218099594 0 -25423731.218099594 32899167.137329102 0 0 0 0 18641019.317373231 4634438.0116882324 0 4634438.0116882324 24610045.152526855 0 0 0 0 14094528.071069635 -6529096.3795318604 0 -6529096.3795318604 -2579564.7917480469 0 0 0 0 -1939920.7051815093 -6223801.2850646973 0 -6223801.2850646973 11590819.804229736 0 0 0 0 -928087.70877586305 -4206630.9274749756 0 -4206630.9274749756 -8925405.2144470215 0 0 0 0 -9671781.5890673026 339487.94218444824 0 339487.94218444824 -1774701.2304534912 0 0 0 0 -504693.96175320446 2935184.9814910889 0 2935184.9814910889 -16160008.498962402 0 0 0 0 -10364125.840133799 3363492.5501708984 0 3363492.5501708984 -14117212.739151001 0 0 0 0 -7209770.8426733436 7528609.5380105972 0 7528609.5380105972 -25062873.963043213 0 0 0 0 -10628076.841707192 26518378.503843307 0 26518378.503843307 -46213802.564758301 0 0 0 0 -17564393.951210737 16940429.794242859 0 16940429.794242859 -25072381.690505669 0 0 0 0 -20287456.491185263 36756235.997131348 0 36756235.997131348 -46736180.019607544 0 0 0 0 -19277426.716808066 11995881.812683105 0 11995881.812683105 -11710389.751571655 0 0 0 0 -10487082.10881535 16686270.238677979 0 16686270.238677979 -38310981.020812988 0 0 0 0 -29585010.829163 13499729.331733704 0 13499729.331733704 -21183505.807926178 0 0 0 0 -13397846.546591491 27402323.047431946 0 27402323.047431946 -59036435.972740173 0 0 0 0 -31025861.13599981 86563639.417449951 0 86563639.417449951 -125858209.77886963 0 0 0 0 -6864477.7896145256 44415497.991324425 0 44415497.991324425 -95218388.675537109 0 0 0 0 13754269.003866127 32584471.939025879 0 32584471.939025879 -143074425.30044556 0 0 0 0 2644376.1719501354 22903043.795433044 0 22903043.795433044 -106565094.11329651 0 0 0 0 15147023.559352554 30853608.649612427 0 30853608.649612427 -204533932.17741394 0 0 0 0 9224863.0785737019 16003826.541057587 0 16003826.541057587 -137110643.23692322 0 0 0 0 9168877.0489289854 17409152.374904633 0 17409152.374904633 -98910342.28810358 0 0 0 0 35539.874745263616 -433451.21501159668 0 -433451.21501159668 -131114872.94128418 0 0 0 0 1339967.853825409 25512797.291931152 0 25512797.291931152 -99862281.97552681 0 0 0 0 -24211.15051433392 7037991.591796875 0 7037991.591796875 -55961518.640968323 0 0 0 0 610800.78897659667 16102551.287071228 0 16102551.287071228 -60051771.070098877 0 0 0 0 -8611173.4453431424 8142811.822473526 0 8142811.822473526 -24545592.915145874 0 0 0 0 -6235046.2056743456 11357742.378005981 0 11357742.378005981 -38488567.331459045 0 0 0 0 -3565152.7648074357 17758474.936729431 0 17758474.936729431 -50355142.019744873 0 0 0 0 3631.7305154223 4853829.3142249994 0 4853829.3142249994 -28780686.119064331 0 0 0 0 -4757226.8241563821 7270490.3996429443 0 7270490.3996429443 -21949835.059104919 0 0 0 0 521331.40283976402 1235203.3455581665 0 1235203.3455581665 -11741336.518562317 0 0 0 0 259.69020572187264 866.46254871040583 0 866.46254871040583 -13325.618817942217 0 0 0 0 1170365.9160872977 -2078645.2849769592 0 -2078645.2849769592 -17795200.409667969 0 0 0 0 -1332137.9115224471 5802608.0319671631 0 5802608.0319671631 -25746891.709854126 0 0 0 0 -1514344.6494212225 -3947454.1504592896 0 -3947454.1504592896 -13521026.292663574 0 0 0 0 -1667051.8158321455 -1695523.2970275879 0 -1695523.2970275879 -15653601.00157547 0 0 0 0 236577.89152051508 -3098840.9565429688 0 -3098840.9565429688 -13339925.79699707 0 0 0 0 -6842047.0017311545 377971.84170532227 0 377971.84170532227 -12818523.199005127 0 0 0 0 1513470.3602726012 -443419.38729858398 0 -443419.38729858398 -12861420.582974434 0 0 0 0 1954016.3574952781 -10920648.894607544 0 -10920648.894607544 -8065348.3509368896 0 0 0 0 9441189.3867711388 -18527776.959709167 0 -18527776.959709167 -897730.31488037109 0 0 0 0 352449.20914901793 -11853658.061340332 0 -11853658.061340332 -3174317.7702026367 0 0 0 0 -4608403.9251958653 -4372362.4281082153 0 -4372362.4281082153 -12101538.969421387 0 0 0 0 3773375.6196151003 -9189676.1933898926 0 -9189676.1933898926 -9830190.1510620117 0 0 0 0 6088805.5813701898 -8920577.14295578 0 -8920577.14295578 -16284197.039978027 0 0 0 0 11483014.983573023 -14917522.04455471 0 -14917522.04455471 -13419425.264953613 0 0 0 0 6387670.7997128367 -9216926.2991638184 0 -9216926.2991638184 -18416909.081787109 0 0 0 0 5361821.2731864136 2084937.6023788452 0 2084937.6023788452 -24292133.749465942 0 0 0 0 40130.874028255115 -24215.671223036945 0 -24215.671223036945 -44045.485346212983 0 0 0 0 7222341.3219752684 -1848034.3506469727 0 -1848034.3506469727 -21272042.197641373 0 0 0 0 5842856.8978210948 -7202098.0488204956 0 -7202098.0488204956 -15170145.501342773 0 0 0 0 6250558.5269447118 -7354356.1535644531 0 -7354356.1535644531 -17356645.642822266 0 0 0 0 6058723.4593254924 -5249380.7602844238 0 -5249380.7602844238 -17126718.10269165 0 0 0 0 5795691.4440559968 -5242602.8886871338 0 -5242602.8886871338 -9805270.6403808594 0 0 0 0 4201113.3119087219 1376440.012878418 0 1376440.012878418 -12504490.967208862 0 0 0 0 7811857.7353906259 -5627702.9208679199 0 -5627702.9208679199 -10307358.635742188 0 0 0 0 3791828.1923921257 2472173.0040893555 0 2472173.0040893555 -2431473.9954986572 0 0 0 0 -5115254.1297374284 -2331753.0263061523 0 -2331753.0263061523 -6123372.7904052734 0 0 0 0 -1562.1879368842219 -3133.3510429933667 0 -3133.3510429933667 -4348.994300916791 0 0 0 0 8585383.6291942447 -10855345.633056641 0 -10855345.633056641 -8567637.7651062012 0 0 0 0 -988847.98573889583 1504040.117477417 0 1504040.117477417 -4741976.8996505737 0 0 0 0 7912957.0063839834 -2353990.2729873657 0 -2353990.2729873657 -11455579.021240234 0 0 0 0 480710.61476069689 -4342787.7868499756 0 -4342787.7868499756 -11793688.434570312 0 0 0 0 -5927902.4379896075 7819358.0259094238 0 7819358.0259094238 5405360.4567108154 0 0 0 0 11150759.106473483 -2739967.2326049805 0 -2739967.2326049805 -11674330.184295654 0 0 0 0 1381178.5974171609 -13001095.689712524 0 -13001095.689712524 7581160.3404512405 0 0 0 0 17990.271978245888 -12913.678801812232 0 -12913.678801812232 -23101.233500506729 0 0 0 0 3408425.8536007563 14160487.591247559 0 14160487.591247559 -48778840.894577026 0 0 0 0 6905538.2815177143 1376054.6578674316 0 1376054.6578674316 -34965457.964134216 0 0 0 0 1279397.0888439007 -1188950.4786834717 0 -1188950.4786834717 -23094933.829948425 0 0 0 0 -5468302.8332165033 10670665.0051651 0 10670665.0051651 -33820496.518554688 0 0 0 0 -931868.53884452861 1675739.1717300415 0 1675739.1717300415 -26444340.577789307 0 0 0 0 8465460.8130417559 2768909.6621246338 0 2768909.6621246338 -35667322.205360413 0 0 0 0 4409180.6444711518 5317408.0452384949 0 5317408.0452384949 -26986149.775680542 0 0 0 0 4855708.2367399726 1910376.0746536255 0 1910376.0746536255 -42390367.935745239 0 0 0 0 126671.68445595913 7336347.1318740845 0 7336347.1318740845 -28898954.236831665 0 0 0 0 3752513.0402434133 2494717.6295776367 0 2494717.6295776367 -33410932.019001484 0 0 0 0 3602596.0092495196 4106479.7196578979 0 4106479.7196578979 -27731552.006027222 0 0 0 0 2793770.7143346639 6608827.5850067139 0 6608827.5850067139 -26852208.817245483 0 0 0 0 2849635.0981153548 215443.40063476562 0 215443.40063476562 -25606326.720453262 0 0 0 0 4380.9856430741811 4539714.5875381976 0 4539714.5875381976 -21470879.32774353 0 0 0 0 2413665.6511058398 1748347.2831420898 0 1748347.2831420898 -19554116.600318909 0 0 0 0 1017.4475778599303 3024240.4851074731 0 3024240.4851074731 -15781331.744689941 0 0 0 0 7216730.964264472 -14844087.625038147 0 -14844087.625038147 -2662211.824005127 0 0 0 0 3968740.2757887524 1108105.0027694702 0 1108105.0027694702 -17546139.310165405 0 0 0 0 2067676.041646746 2876759.1154689789 0 2876759.1154689789 -18674394.714294434 0 0 0 0 31179662.432405472 417846808.95055246 0 417846808.95055246 152854088.04285431 0 0 0 0 85214962.103580475 33258042.185115814 0 33258042.185115814 -75433897.42105484 0 0 0 0 1833028.960437811 -991380.62108083814 0 -991380.62108083814 -4946655.0740860905 0 0 0 0 -123447770.3379221 -75018676.602024078 0 -75018676.602024078 -184722257.11547089 0 0 0 0 -434224903.22916794 135756243.44866562 0 135756243.44866562 269501405.29015636 0 0 0 0 -497712050.89592028 -96679670.608263016 0 -96679670.608263016 219807186.95495605 0 0 0 0 -519002588.84906721 -31117456.782056332 0 -31117456.782056332 140750303.29987335 0 0 0 0 -646718978.81257629 18939784.201950073 0 18939784.201950073 171149410.16505337 0 0 0 0 -472969158.13502884 12075405.711490631 0 12075405.711490631 136262804.76784706 0 0 0 0 82072380.12761879 23841721.279281616 0 23841721.279281616 -103103793.14275742 0 0 0 0 30422666.392555237 35320442.806594849 0 35320442.806594849 -58456701.046600342 0 0 0 0 -10603703.424739838 140668700.65088463 0 140668700.65088463 -167927725.0804615 0 0 0 0 119325838.37248611 -5968034.4029502869 0 -5968034.4029502869 -47633560.333259583 0 0 0 0 -16284863.49011606 589931.11191049218 0 589931.11191049218 -43120616.777374268 0 0 0 0 158701557.74873352 -18813675.96673584 0 -18813675.96673584 3095322.5578575134 0 0 0 0 17236574.449718475 -10468577.728757858 0 -10468577.728757858 7079819.5869216919 0 0 0 0 52128713.240966797 56730715.533912659 0 56730715.533912659 -76603153.283096313 0 0 0 0 75434027.232601166 8917594.6880187988 0 8917594.6880187988 -9697091.8812217712 0 0 0 0 33936412.613793373 45652426.797506332 0 45652426.797506332 26356900.861595154 0 0 0 0 32074539.461969376 36558795.854667664 0 36558795.854667664 -13196755.152223587 0 0 0 0 2367166.4877763558 -1426437.6235942431 0 -1426437.6235942431 -5887714.916165594 0 0 0 0 168798381.41111064 -112952449.22922087 0 -112952449.22922087 72439205.201778412 0 0 0 0 189821969.88107657 63288262.652761936 0 63288262.652761936 -174667528.53621674 0 0 0 0 377981268.20035696 -48532037.175344467 0 -48532037.175344467 -541228540.29885864 0 0 0 0 414433367.32447672 171560774.17857766 0 171560774.17857766 -125413385.24791718 0 0 0 0 -473350543.86854935 33088122.667617798 0 33088122.667617798 104429807.44609833 0 0 0 0 -494890785.91274357 429303418.49384308 0 429303418.49384308 -2020467723.3195343 0 0 0 0 -385057865.75543499 -250483911.77022457 0 -250483911.77022457 439932190.90876007 0 0 0 0 629222035.04360962 575471273.40764809 0 575471273.40764809 -593991055.47420502 0 0 0 0 -400561150.17390823 -112907362.47733307 0 -112907362.47733307 -286686092.00727081 0 0 0 0 -437331764.93216515 -160708219.88286591 0 -160708219.88286591 -344950788.30751038 0 0 0 0 -621474116.1628952 -213092451.51194 0 -213092451.51194 197175328.62471771 0 0 0 0 -654661595.45015907 -15477798.45242691 0 -15477798.45242691 -309781586.8562355 0 0 0 0 -828857387.76965523 -462689098.42521095 0 -462689098.42521095 -367953170.66252136 0 0 0 0 -1768689841.7873306 -681545886.57178879 0 -681545886.57178879 -624266997.97785759 0 0 0 0 -323319961.01682281 -969792792.71079636 0 -969792792.71079636 -2715061869.3846512 0 0 0 0 -55865470.311962128 -304114480.836092 0 -304114480.836092 -1122824040.4354935 0 0 0 0 163577796.42737621 20998422.576420069 0 20998422.576420069 -945045974.16362 0 0 0 0 167523507.67157936 -79067403.055896759 0 -79067403.055896759 -1706339832.02211 0 0 0 0 -119421951.26428986 -441570730.85124969 0 -441570730.85124969 -1214080516.8328762 0 0 0 0 140229816.93080902 -189903351.16284943 0 -189903351.16284943 -1132751953.4114137 0 0 0 0 220613603.99997711 -22094628.759185791 0 -22094628.759185791 -1108340983.652257 0 0 0 0 34749724.611219883 18891518.00328064 0 18891518.00328064 -1010872472.3663025 0 0 0 0 205213378.73475838 -31284120.610717773 0 -31284120.610717773 -1086768477.768837 0 0 0 0 174560923.53452635 -95988228.511002541 0 -95988228.511002541 -926427901.81913757 0 0 0 0 139281110.69374752 -131296478.01566505 0 -131296478.01566505 -796434263.67357635 0 0 0 0 39300044.327691555 -166215880.40396023 0 -166215880.40396023 -429213572.65363884 0 0 0 0 163910565.30465889 -110555648.19594002 0 -110555648.19594002 -791585377.01739931 0 0 0 0 -348311341.57907581 21944191.025024414 0 21944191.025024414 25786624.988109589 0 0 0 0 125658615.71945858 27332008.537164688 0 27332008.537164688 -598812441.67549706 0 0 0 0 -72996937.844223499 -242050513.33436584 0 -242050513.33436584 -744482435.72640991 0 0 0 0 114717252.61546707 -316094322.86732101 0 -316094322.86732101 -1679616862.3420677 0 0 0 0 3335923.7875270844 -200409749.23184586 0 -200409749.23184586 -1573516848.2250443 0 0 0 0 -53643845.393256187 -290075064.78503799 0 -290075064.78503799 -1386950647.1463318 0 0 0 0 -121548157.60112673 -216960163.82226503 0 -216960163.82226503 -1454485303.8578033 0 0 0 0 109075975.01133919 -285987648.82517242 0 -285987648.82517242 -1542752896.8202362 0 0 0 0 -184558112.27993202 -211594326.94221115 0 -211594326.94221115 -971105417.72902298 0 0 0 0 -10702096.535526276 -271879176.17602158 0 -271879176.17602158 -1149953242.5080376 0 0 0 0 -53740622.31703949 -422495325.72304535 0 -422495325.72304535 -1464609153.5144081 0 0 0 0 59909535.412213326 66739431.478652954 0 66739431.478652954 -867479033.24673843 0 0 0 0 90381264.849100113 67826729.238456726 0 67826729.238456726 -637433923.60501671 0 0 0 0 186149617.70773315 -49985681.524246216 0 -49985681.524246216 -306439209.11642456 0 0 0 0 228042556.46781921 155693384.38018799 0 155693384.38018799 -654113628.29897881 0 0 0 0 232131055.45696831 -54308715.097633362 0 -54308715.097633362 -713491084.43930054 0 0 0 0 93643022.426263809 -75683764.73865509 0 -75683764.73865509 -1116542919.9946699 0 0 0 0 4455674.1810715199 -148671539.63101864 0 -148671539.63101864 -859310746.37949371 0 0 0 0 -98800490.737769127 40644553.777833939 0 40644553.777833939 -925835156.71374512 0 0 0 0 -2777765.2427342394 -325342.15328409895 0 -325342.15328409895 -217729.82181435078 0 0 0 0 -68270557.287134171 -74939444.664417267 0 -74939444.664417267 -727331715.64027309 0 0 0 0 -165388935.45075417 -101167505.89974976 0 -101167505.89974976 -719683575.87501907 0 0 0 0 -42631073.651404381 -176453038.93187714 0 -176453038.93187714 -965338554.43145752 0 0 0 0 9227550.2303247452 -68840946.350952148 0 -68840946.350952148 -951910895.67615509 0 0 0 0 5376482.6873683929 -152515341.57525158 0 -152515341.57525158 -768983468.37384033 0 0 0 0 109925541.03899765 87358342.447357178 0 87358342.447357178 -582886986.33985901 0 0 0 0 212970493.9503479 -19774887.607940674 0 -19774887.607940674 -766414349.84715271 0 0 0 0 45920644.106225967 -92852306.809322357 0 -92852306.809322357 -1367341446.0873828 0 0 0 0 124342334.9301815 -140083567.33076382 0 -140083567.33076382 72174278.305458069 0 0 0 0 39852784.671930313 -101097593.19034767 0 -101097593.19034767 70828694.853176117 0 0 0 0 59033098.765304565 39210459.522121429 0 39210459.522121429 24994805.309829712 0 0 0 0 32213866.653697014 40455759.519615173 0 40455759.519615173 55733894.05254364 0 0 0 0 -96112708.204287052 21457133.64081955 0 21457133.64081955 -145200345.31042862 0 0 0 0 -972655.65561806026 -3225625.0961162383 0 -3225625.0961162383 -2559593.6395998485 0 0 0 0 -71312288.278335571 173937535.2746582 0 173937535.2746582 211735658.92370605 0 0 0 0 -82475.684577959357 -115574.08170161641 0 -115574.08170161641 80272.444070149213 0 0 0 0 17863631.524997711 39737641.125020981 0 39737641.125020981 87041254.735702515 0 0 0 0 51584334.582148552 56563257.409362793 0 56563257.409362793 -12839721.629425049 0 0 0 0 242532119.91858673 178173561.20505524 0 178173561.20505524 -75826526.822418213 0 0 0 0 207877279.38022995 201868764.1969223 0 201868764.1969223 3815254.849395752 0 0 0 0 -69308163.033360481 -78238143.765377045 0 -78238143.765377045 -851131.21813583374 0 0 0 0 689015.62118106917 -1313978.4020629423 0 -1313978.4020629423 -569655.49247184023 0 0 0 0 249536742.73460436 -132954553.41605663 0 -132954553.41605663 65746160.553665161 0 0 0 0 388566861.30489731 -30996700.049930573 0 -30996700.049930573 -40836002.611488342 0 0 0 0 144472366.52110291 -98285150.363685608 0 -98285150.363685608 54159871.71415329 0 0 0 0 -246050606.33282089 -116690769.43290138 0 -116690769.43290138 102286163.46629906 0 0 0 0 -481337565.20279264 27415307.662924767 0 27415307.662924767 36247734.318214417 0 0 0 0 -991997.14320817217 922493.87878141366 0 922493.87878141366 -366.35379838198423 0 0 0 0 -1180148.5793130584 860554.86160405353 0 860554.86160405353 -1137864.6046123481 0 0 0 0 25640403.621520996 56813077.623071671 0 56813077.623071671 41386328.501209259 0 0 0 0 -51271131.301929474 -7607941.8671760559 0 -7607941.8671760559 -39584886.853860974 0 0 0 0 34076999.182609081 62960612.596083641 0 62960612.596083641 -38479430.028133392 0 0 0 0 88046998.860321045 -13479272.895097733 0 -13479272.895097733 10630401.199608803 0 0 0 0 -183773404.21125793 47609440.390741825 0 47609440.390741825 -408755131.00694656 0 0 0 0 -244936860.9798069 9999529.0307703018 0 9999529.0307703018 -31574437.579818726 0 0 0 0 -132376005.47242737 -79836039.794124603 0 -79836039.794124603 -145504267.09533596 0 0 0 0 -203851972.88497543 117634067.37516499 0 117634067.37516499 -112098188.98376846 0 0 0 0 61114309.838665009 65031840.732053757 0 65031840.732053757 -106046008.0357132 0 0 0 0 16413581.038114548 -53910902.59608078 0 -53910902.59608078 -95207716.850980997 0 0 0 0 -17477137.265548706 -71276609.661518097 0 -71276609.661518097 53773877.360175133 0 0 0 0 118768652.07494879 57726169.238889694 0 57726169.238889694 -20706636.973201752 0 0 0 0 -30737071.370265961 -121835820.11675453 0 -121835820.11675453 -112810213.57283306 0 0 0 0 -202126437.00499773 -46194122.974226475 0 -46194122.974226475 -10368380.011825562 0 0 0 0 -42316570.016165733 12944754.033988953 0 12944754.033988953 -67996732.968730927 0 0 0 0 3287526.9839601517 -10603743.746921539 0 -10603743.746921539 22075159.389614105 0 0 0 0 277302091.12615573 26415133.282111883 0 26415133.282111883 -26337416.059513092 0 0 0 0 779633.12365567172 84272.775973889977 0 84272.775973889977 -662357.85105964448 0 0 0 0 -972474.13539473014 -3612586.6332222573 0 -3612586.6332222573 -2350724.2726625428 0 0 0 0 315719278.57891846 -244319024.10400581 0 -244319024.10400581 41411059.27099371 0 0 0 0 206267419.14739132 -124083526.40377665 0 -124083526.40377665 -949113.05040550232 0 0 0 0 221335126.80205727 -16691382.598105431 0 -16691382.598105431 -107284109.56484985 0 0 0 0 148717864.58143044 -93948528.576640129 0 -93948528.576640129 69388347.828920364 0 0 0 0 83977403.651823044 1849219.0807285309 0 1849219.0807285309 -11144320.652328491 0 0 0 0 64527823.512359619 -1342521.4010744095 0 -1342521.4010744095 -12727752.86756134 0 0 0 0 -372719.12748750206 316447.27808819525 0 316447.27808819525 97859.67246525595 0 0 0 0 60609828.425133705 -8037193.171792984 0 -8037193.171792984 25486266.763734818 0 0 0 0 -943336.26382641739 -3617364.833525348 0 -3617364.833525348 -2183631.0977844205 0 0 0 0 314573638.60179424 -132848922.48399401 0 -132848922.48399401 -77010181.369132996 0 0 0 0 145204760.13205433 50528830.726492882 0 50528830.726492882 21034315.373601913 0 0 0 0 373958007.66314411 -40616665.215154648 0 -40616665.215154648 -68399320.28431797 0 0 0 0 14485604.211232662 -77708987.421789646 0 -77708987.421789646 2497199.62707901 0 0 0 0 -6556406.7312421799 -38615199.286491394 0 -38615199.286491394 -69362562.695014477 0 0 0 0 -221658033.4589715 -87772912.602012157 0 -87772912.602012157 33333143.38986969 0 0 0 0 -101648917.8170166 -95727821.838184357 0 -95727821.838184357 8639378.9664497375 0 0 0 0 -70589479.508895874 -15430872.280315399 0 -15430872.280315399 44869102.698135376 0 0 0 0 125748802.21001339 -100312226.99063587 0 -100312226.99063587 -44783108.714887619 0 0 0 0 -847764.99952300056 -3021750.5759589113 0 -3021750.5759589113 -1364041.790695997 0 0 0 0 -102491315.65077114 -80982685.831568956 0 -80982685.831568956 16452175.099040985 0 0 0 0 -133568043.27208328 -74639380.907365799 0 -74639380.907365799 36361661.199886322 0 0 0 0 -194773158.63995552 -57246278.283161163 0 -57246278.283161163 39278221.260684967 0 0 0 0 -160141329.58720398 -34824457.852542877 0 -34824457.852542877 -22510923.923286438 0 0 0 0 -187996264.90215397 -29739683.95392108 0 -29739683.95392108 53529140.22952652 0 0 0 0 -160358512.55477142 -15099429.583711624 0 -15099429.583711624 47796234.585109711 0 0 0 0 -186028487.72458363 9905881.6694493294 0 9905881.6694493294 30809192.073936462 0 0 0 0 -190164656.82785416 29937633.23431015 0 29937633.23431015 -13794669.196538925 0 0 0 0 -121330383.20203018 1362327.3791980743 0 1362327.3791980743 59237165.801231384 0 0 0 0 -3558008.3646264076 86419904.112872839 0 86419904.112872839 -12313555.35338974 0 0 0 0 -157295673.3800621 52805016.714889526 0 52805016.714889526 94285045.015033722 0 0 0 0 -276305231.59902191 -63726482.391202927 0 -63726482.391202927 48816966.986021042 0 0 0 0 -240807089.13698578 60061993.789896965 0 60061993.789896965 76178704.54291153 0 0 0 0 -438460025.00223732 -193494447.81259727 0 -193494447.81259727 -99814674.630718231 0 0 0 0 -384363660.22424316 214947990.05970001 0 214947990.05970001 -165768891.03190994 0 0 0 0 -59839791.107288361 15022783.329504013 0 15022783.329504013 -63690631.097726822 0 0 0 0 -57819699.01289618 -8626128.9598757625 0 -8626128.9598757625 -23352425.121406555 0 0 0 0 194692372.50113773 -56039429.551237583 0 -56039429.551237583 -378153987.08036041 0 0 0 0 111814112.41804886 -177055975.40722084 0 -177055975.40722084 -74393863.812984467 0 0 0 0 870828.83714641817 -604150.21661089733 0 -604150.21661089733 -2066668.3471657075 0 0 0 0 9933801.7447862625 -52055587.268590212 0 -52055587.268590212 101334405.0558815 0 0 0 0 -631009144.10307503 134979631.16262817 0 134979631.16262817 50849133.784393311 0 0 0 0 -419838286.42922211 227214509.98605251 0 227214509.98605251 -235695818.70282364 0 0 0 0 39495357.768595695 137956459.19685745 0 137956459.19685745 -168323817.38334846 0 0 0 0 77590752.218273163 14251951.473325729 0 14251951.473325729 -141344618.69438314 0 0 0 0 -1413339.7907964997 1183482.7220252547 0 1183482.7220252547 1731748.7251960747 0 0 0 0 160035564.3423233 -20088704.97143364 0 -20088704.97143364 -167462153.27810955 0 0 0 0 -2124618.9152946956 2038041.4034430608 0 2038041.4034430608 2842806.6273794882 0 0 0 0 39849125.852748871 79869334.33505249 0 79869334.33505249 -154410590.78839254 0 0 0 0 308941709.09079838 71323464.631629467 0 71323464.631629467 -161614240.91917419 0 0 0 0 -88334188.393556595 77384410.837826252 0 77384410.837826252 215134078.07702446 0 0 0 0 48022275.339885712 -134639532.40629387 0 -134639532.40629387 98728356.31939888 0 0 0 0 174856862.42424011 160045301.63392544 0 160045301.63392544 28101710.542984009 0 0 0 0 252097401.46798706 -38455497.584178448 0 -38455497.584178448 -66812214.366579056 0 0 0 0 67613041.207290649 -84969984.156747341 0 -84969984.156747341 148434724.18179131 0 0 0 0 537698.18575325049 1378156.4637930715 0 1378156.4637930715 -1779461.5196530116 0 0 0 0 -4749618.7666015625 57662610.617952347 0 57662610.617952347 -16563146.303328514 0 0 0 0 -107629419.95841217 3978237.5146036148 0 3978237.5146036148 159390417.05270529 0 0 0 0 -47837008.833335876 175336919.68280792 0 175336919.68280792 -95566483.430581093 0 0 0 0 -1390619.4192340598 1251334.7577975052 0 1251334.7577975052 1797734.32122848 0 0 0 0 1528684.1295433044 -60751648.066031456 0 -60751648.066031456 37987786.835168839 0 0 0 0 79133344.260360718 78079590.117702484 0 78079590.117702484 -36672592.416200638 0 0 0 0 -26220317.287494659 -126124578.1036129 0 -126124578.1036129 -79067744.691518545 0 0 0 0 4680533.3623374663 -1673319.4315559249 0 -1673319.4315559249 -9933389.1428637076 0 0 0 0 773784.22608566284 -10641624.857315063 0 -10641624.857315063 -15954530.267585754 0 0 0 0 10150934.692127228 -2296047.2865409851 0 -2296047.2865409851 -29813667.751768112 0 0 0 0 6870932.2844317844 -6046463.8768624663 0 -6046463.8768624663 -18801473.74536635 0 0 0 0 11367244.711025238 -4019699.5116329193 0 -4019699.5116329193 -13358365.630981445 0 0 0 0 -65178639.53537178 -74972871.611023903 0 -74972871.611023903 108128790.77643967 0 0 0 0 221380660.99802017 60586513.355669022 0 60586513.355669022 -105189440.19073486 0 0 0 0 4191668.2515610997 -7042355.5417133868 0 -7042355.5417133868 -21834107.985936791 0 0 0 0 51779156.155215263 3319568.4585189819 0 3319568.4585189819 -48566734.00800705 0 0 0 0 139104805.2642746 -38721503.425736427 0 -38721503.425736427 -29214030.931854248 0 0 0 0 2251267.9430617392 -13090219.511799227 0 -13090219.511799227 -19153692.458181571 0 0 0 0 18854239.168622971 -16296525.380828857 0 -16296525.380828857 -8071560.6025047302 0 0 0 0 7624129.4862438254 -4768564.1903613424 0 -4768564.1903613424 -29054256.846425034 0 0 0 0 170440239.75092793 -51225864.34135437 0 -51225864.34135437 -102228899.79429626 0 0 0 0 -933711.54193529347 -9024064.7370562088 0 -9024064.7370562088 -27166986.536741935 0 0 0 0 57281856.345222473 49686270.661380768 0 49686270.661380768 -4241613.1697387695 0 0 0 0 280619297.02599335 32994976.122314453 0 32994976.122314453 -79236879.176338196 0 0 0 0 4857733.7555187307 -2184186.7984159151 0 -2184186.7984159151 -14841051.28255713 0 0 0 0 138438651.18027878 -30665689.614858627 0 -30665689.614858627 -70146534.938127518 0 0 0 0 90636164.711952209 -50908019.230485916 0 -50908019.230485916 -63941073.778121471 0 0 0 0 1489168.8523597717 33744051.316146851 0 33744051.316146851 -80890797.150865078 0 0 0 0 175352343.50380325 -74036706.033849716 0 -74036706.033849716 -37336247.449525833 0 0 0 0 62042855.029457092 -49694869.989923 0 -49694869.989923 -42508600.426616669 0 0 0 0 -18924897.828753471 -8300905.0049781799 0 -8300905.0049781799 -135789033.71251678 0 0 0 0 -10328290.928686142 12747259.146110535 0 12747259.146110535 -250183483.26836395 0 0 0 0 -174060956.92790031 -133729245.03305912 0 -133729245.03305912 -96824691.409469604 0 0 0 0 -76229140.40472126 -53783582.763832092 0 -53783582.763832092 -33468154.068145752 0 0 0 0 -119220795.2057668 -90066909.551618576 0 -90066909.551618576 20084829.439331055 0 0 0 0 -49684900.333837509 -69628389.78527832 0 -69628389.78527832 5210875.3340911865 0 0 0 0 -80589760.505034447 -57236946.031230927 0 -57236946.031230927 16040450.793273926 0 0 0 0 -41667835.259264946 -89422040.95098877 0 -89422040.95098877 -18510517.930343628 0 0 0 0 18805393.14128685 -58447845.304092407 0 -58447845.304092407 -2646183.951461792 0 0 0 0 -49173220.883936882 -63595110.072109222 0 -63595110.072109222 65738780.718536377 0 0 0 0 26511552.92304039 -35749160.782226562 0 -35749160.782226562 61682418.409580231 0 0 0 0 111922642.01756191 -122840411.99356079 0 -122840411.99356079 7251887.3929443359 0 0 0 0 -15631120.424813628 -89632100.80195415 0 -89632100.80195415 -26571034.103149414 0 0 0 0 -12796624.564538002 5895486.0092391968 0 5895486.0092391968 -115463736.61508179 0 0 0 0 20420374.235790253 33492788.796905518 0 33492788.796905518 -20046256.479110718 0 0 0 0 111704455.75589752 -119414937.98002625 0 -119414937.98002625 -139854098.44770813 0 0 0 0 -595001.75446107984 -739400.62889180332 0 -739400.62889180332 447197.01800321043 0 0 0 0 177376863.75677872 -19846968.344299316 0 -19846968.344299316 -74953048.946327209 0 0 0 0 -873440.57338614762 -11806867.835187232 0 -11806867.835187232 -16241192.375659354 0 0 0 0 101622410.61685562 -57909883.198013306 0 -57909883.198013306 -30280607.379837036 0 0 0 0 169543986.0825882 -173814987.84526062 0 -173814987.84526062 45156890.820358276 0 0 0 0 239181762.88871574 -78032961.388282776 0 -78032961.388282776 8574082.8763427734 0 0 0 0 104478006.81342316 -111551373.21134949 0 -111551373.21134949 110622023.55651855 0 0 0 0 123123270.07243443 -152479182.25415039 0 -152479182.25415039 -19224719.248565674 0 0 0 0 15369558.080165863 -12034750.285942078 0 -12034750.285942078 -20568405.066240311 0 0 0 0 260580.02049160004 -8484681.8028736115 0 -8484681.8028736115 -7667997.1885223389 0 0 0 0 2370590.3593932875 -8451706.2442678921 0 -8451706.2442678921 -22193363.201498851 0 0 0 0 200195244.78227615 -180504160.56266785 0 -180504160.56266785 -32015594.847717285 0 0 0 0 23472660.95772171 -22193020.47906971 0 -22193020.47906971 -11528898.117774963 0 0 0 0 152347657.64829254 10327677.473480225 0 10327677.473480225 24172237.410995483 0 0 0 0 138355035.97875595 -128875194.39047241 0 -128875194.39047241 51248773.297821045 0 0 0 0 144318746.27146339 -127353736.02581978 0 -127353736.02581978 -20486967.129562378 0 0 0 0 166146737.62704659 -68568846.826370239 0 -68568846.826370239 -4441879.3636169434 0 0 0 0 171918988.25137234 -73144688.559783936 0 -73144688.559783936 -91111754.303863525 0 0 0 0 -97765667.187797546 -119937744.40163422 0 -119937744.40163422 -90132664.530563354 0 0 0 0 325473705.97565365 -150659386.74743557 0 -150659386.74743557 -263463223.06115723 0 0 0 0 -305252128.61553955 -369357320.19906616 0 -369357320.19906616 -121244841.14035034 0 0 0 0 -24260755.034934998 61357342.24634552 0 61357342.24634552 -207691407.39923185 0 0 0 0 -550322264.53251266 278867459.58686829 0 278867459.58686829 -209116716.60539973 0 0 0 0 138711849.1296519 309261877.71933413 0 309261877.71933413 -727242959.4443512 0 0 0 0 -41501538.506459713 -10870677.756982803 0 -10870677.756982803 -49338990.968612671 0 0 0 0 21336028.368387699 69487783.933101654 0 69487783.933101654 -312823352.21459961 0 0 0 0 168581374.52800655 70609309.798828125 0 70609309.798828125 -545654820.09365845 0 0 0 0 37996328.164792061 -16277202.071540833 0 -16277202.071540833 -365892758.29653931 0 0 0 0 40912349.313652039 30436662.48374939 0 30436662.48374939 -415772063.29556274 0 0 0 0 26480175.905553818 -60681995.024635315 0 -60681995.024635315 -328079591.33692932 0 0 0 0 -1049708.6089685736 -1136058.9925270528 0 -1136058.9925270528 658072.49125751853 0 0 0 0 -27086493.819761753 53402222.906204224 0 53402222.906204224 -157951195.41106415 0 0 0 0 211708362.49095821 -190688789.73789597 0 -190688789.73789597 -232703840.39138794 0 0 0 0 -5061563.6826758385 161679761.40587616 0 161679761.40587616 -115724616.45861816 0 0 0 0 236118.68667431921 1024568.5096354441 0 1024568.5096354441 -616908.99634868652 0 0 0 0 55044048.060761452 204383143.8500061 0 204383143.8500061 -468020832.99803162 0 0 0 0 172594592.20312595 3944225.3569374084 0 3944225.3569374084 -30129009.174114227 0 0 0 0 142038224.55738735 -7034781.8364448547 0 -7034781.8364448547 -18909440.240646362 0 0 0 0 173356883.84475327 15050457.032619476 0 15050457.032619476 82617197.100036621 0 0 0 0 496313191.81233835 -114430352.44569588 0 -114430352.44569588 -201263787.13824463 0 0 0 0 317808304.35017061 184645779.21142769 0 184645779.21142769 -670760736.90895081 0 0 0 0 -342093906.77950382 865377457.13969803 0 865377457.13969803 -399087347.45868683 0 0 0 0 190156207.91345215 870373711.1969986 0 870373711.1969986 -924733214.49958801 0 0 0 0 142370114.79187655 62805089.792362452 0 62805089.792362452 -189840446.85305786 0 0 0 0 -726045026.47020626 384548386.90820694 0 384548386.90820694 -231159388.1711731 0 0 0 0 869057.11167042656 1318038.4250015994 0 1318038.4250015994 -3112690.5847366005 0 0 0 0 -326401409.35639858 838534709.08649445 0 838534709.08649445 -415380040.2612915 0 0 0 0 -754204959.39034843 940055690.83312225 0 940055690.83312225 -225431065.75360107 0 0 0 0 266649054.81550646 -527258723.95764732 0 -527258723.95764732 -433412863.83526611 0 0 0 0 261520794.76670718 34939000.161524773 0 34939000.161524773 -4461328.8389434814 0 0 0 0 1332666.3865053351 1517587.8076035781 0 1517587.8076035781 -5999795.1521095261 0 0 0 0 187505804.62242222 -4643446.5687217712 0 -4643446.5687217712 -21015883.837715149 0 0 0 0 159408296.87183475 33352341.309307098 0 33352341.309307098 25258265.966461182 0 0 0 0 438258.88767001603 1859244.3307463117 0 1859244.3307463117 -1147195.0312440023 0 0 0 0 182114562.21426868 37760421.278175354 0 37760421.278175354 12144200.226547241 0 0 0 0 -30079596.13967514 123517181.64990616 0 123517181.64990616 23864769.878311157 0 0 0 0 327622741.62882853 41120657.598796844 0 41120657.598796844 -150889125.87966156 0 0 0 0 -6238994.0961236954 139182731.41423035 0 139182731.41423035 -4946082.8024024963 0 0 0 0 205942377.16005707 -110950876.23632622 0 -110950876.23632622 7657493.029840827 0 0 0 0 -1825312.0677354131 -2952532.9089370463 0 -2952532.9089370463 -3809420.5036169216 0 0 0 0 78491257.091178894 -33946031.225107193 0 -33946031.225107193 76473754.517040253 0 0 0 0 110996271.06998348 -7194820.2656040192 0 -7194820.2656040192 29768825.73525238 0 0 0 0 81064877.012306213 -35865975.622429848 0 -35865975.622429848 1569450.9954948425 0 0 0 0 29208368.925512314 14911740.843574524 0 14911740.843574524 -42422473.477706909 0 0 0 0 6072130.8253948931 1495526.9370751306 0 1495526.9370751306 -6782527.4628936797 0 0 0 0 -1271442465.4517651 585437085.3090744 0 585437085.3090744 -55291027.880386353 0 0 0 0 -540390.69153621956 -2489681.9829351436 0 -2489681.9829351436 -2987742.7467291653 0 0 0 0 -7710127.0094809532 -20457941.812448502 0 -20457941.812448502 -460792901.1445694 0 0 0 0 46617491.68195343 -60838548.456104279 0 -60838548.456104279 -25127864.821248055 0 0 0 0 -4330833.5042797532 -9079868.7310989443 0 -9079868.7310989443 -16497460.918481417 0 0 0 0 -200194427.93401146 366425235.3805809 0 366425235.3805809 -203872074.40887451 0 0 0 0 -140460267.04159546 429083189.95985413 0 429083189.95985413 -455773897.15497148 0 0 0 0 -287055248.35137367 475612438.8547554 0 475612438.8547554 -115850337.56424713 0 0 0 0 -262863894.37451172 310001608.0397377 0 310001608.0397377 93874915.915596008 0 0 0 0 -201668305.23685646 416063923.92601776 0 416063923.92601776 -173527706.65382385 0 0 0 0 -269625248.11974812 418519643.7426033 0 418519643.7426033 -78048006.579421997 0 0 0 0 -341301963.38781357 306363043.61893463 0 306363043.61893463 -146880128.50757265 0 0 0 0 -5583099.7674495233 -8410890.6309624165 0 -8410890.6309624165 -12505815.599273421 0 0 0 0 5962395.9615249634 -300066854.77941513 0 -300066854.77941513 -112336570.7485199 0 0 0 0 -211073397.48198867 312469523.8434186 0 312469523.8434186 -146642142.18874359 0 0 0 0 -1420333.0001375973 -1251752.3562316289 0 -1251752.3562316289 -287051.68826907501 0 0 0 0 335962908.06957626 -227968738.32450867 0 -227968738.32450867 -104932253.65470505 0 0 0 0 -5228757.8399448507 -6808718.2986839795 0 -6808718.2986839795 -9019730.5317207873 0 0 0 0 573024933.48182678 -795848023.66371536 0 -795848023.66371536 -668692877.9127388 0 0 0 0 9654737.1579284668 316696807.92772293 0 316696807.92772293 429487636.62201691 0 0 0 0 -295261887.72959709 27660159.555995941 0 27660159.555995941 -529446348.03892517 0 0 0 0 -470471379.11229515 -126848431.44580841 0 -126848431.44580841 -265990895.08110046 0 0 0 0 -402325858.19550371 103937729.07465458 0 103937729.07465458 -547837011.57611084 0 0 0 0 -453194671.26587486 -162998574.45554924 0 -162998574.45554924 -1695257742.5241089 0 0 0 0 86537599.017847061 -466987658.30847168 0 -466987658.30847168 -2089255766.9883499 0 0 0 0 -774070827.93342018 -548793662.38072968 0 -548793662.38072968 -1292776913.1040649 0 0 0 0 -232231002.43933821 -77843154.659540176 0 -77843154.659540176 -1136426357.7397766 0 0 0 0 -722718070.96288681 65879279.573360443 0 65879279.573360443 -504300751.93875313 0 0 0 0 -360923635.54047894 337415885.38577747 0 337415885.38577747 -188383496.95231628 0 0 0 0 -238123361.25712395 170709317.65950012 0 170709317.65950012 -635756325.77255249 0 0 0 0 14782497.899253845 304217681.74411392 0 304217681.74411392 -290283912.80531311 0 0 0 0 -255674198.07189751 126135438.96489716 0 126135438.96489716 -116509836.38550186 0 0 0 0 468256160.7577343 -128060727.62176514 0 -128060727.62176514 -47611764.331547737 0 0 0 0 -232199080.99466896 -168618627.153759 0 -168618627.153759 42781383.428035736 0 0 0 0 -99327688.068225861 -547437206.68585968 0 -547437206.68585968 -636265155.30731201 0 0 0 0 -5257898.9044418335 -693948735.17810822 0 -693948735.17810822 -423730217.71658897 0 0 0 0 399635.66893643513 375155.51937161898 0 375155.51937161898 -2320692.2248048782 0 0 0 0 -86988556.289335251 -195968334.08024979 0 -195968334.08024979 -787743715.95387077 0 0 0 0 -149197074.60853767 -204330237.20372391 0 -204330237.20372391 -135368913.20998383 0 0 0 0 -95529403.455528259 -286409177.07006073 0 -286409177.07006073 -351622708.15647888 0 0 0 0 -408551766.80422592 -542765316.30137634 0 -542765316.30137634 -348721271.74658275 0 0 0 0 -159391564.09802628 -295012771.67592621 0 -295012771.67592621 -160376297.9146347 0 0 0 0 -233333316.04658699 -163632169.63996124 0 -163632169.63996124 92489185.403182983 0 0 0 0 -74429004.986789703 53691504.192016602 0 53691504.192016602 58153336.633681297 0 0 0 0 -2371505.306453363 -688640.32914508507 0 -688640.32914508507 -172943.70508486778 0 0 0 0 -218676544.22222328 -26389071.010761261 0 -26389071.010761261 13385701.487838745 0 0 0 0 65358533.334442139 -52335547.268451691 0 -52335547.268451691 -87774174.398994446 0 0 0 0 -197391785.6515007 16679756.420295715 0 16679756.420295715 6896889.6111984253 0 0 0 0 2932192.7273750305 124214645.32038689 0 124214645.32038689 -218488931.88110352 0 0 0 0 -2220292.2334576081 347744.89976491779 0 347744.89976491779 -2465964.9209978217 0 0 0 0 -599317804.64120865 54044758.819923401 0 54044758.819923401 62002103.389030457 0 0 0 0 -341367359.03012085 -836933275.88562775 0 -836933275.88562775 -827221223.98227692 0 0 0 0 -113444633.51140881 -567664958.56643486 0 -567664958.56643486 -597363813.30522156 0 0 0 0 -207664286.81468201 -258390512.48562622 0 -258390512.48562622 -185400135.86660767 0 0 0 0 -896013780.92852116 -605004027.99979591 0 -605004027.99979591 -265429631.29740906 0 0 0 0 122267510.94148445 87657277.580486298 0 87657277.580486298 -212313232.77403593 0 0 0 0 55841685.145118952 118243083.35247612 0 118243083.35247612 -51676090.271568298 0 0 0 0 -50683037.825363159 254216632.85987091 0 254216632.85987091 -152145939.68018723 0 0 0 0 15487866.285848141 262999593.00006866 0 262999593.00006866 -191973016.8567276 0 0 0 0 254171.21751559665 1173062.1470722407 0 1173062.1470722407 -582778.44514791667 0 0 0 0 295422872.18702614 4891448.8624253273 0 4891448.8624253273 -84446343.006866455 0 0 0 0 18616748.715125084 219737746.5176506 0 219737746.5176506 -152074963.34551239 0 0 0 0 190569417.88021851 128577944.75168991 0 128577944.75168991 -228675518.22309875 0 0 0 0 120435283.36018467 23996490.473537445 0 23996490.473537445 -28898137.388305664 0 0 0 0 1018255.8638120145 927882.14693072252 0 927882.14693072252 -5382552.9499234036 0 0 0 0 102416731.70812178 68629537.53696537 0 68629537.53696537 -120023026.02291107 0 0 0 0 -129532317.29587054 322224502.33414173 0 322224502.33414173 -417682385.41055298 0 0 0 0 -115502937.61397743 -318426543.26469803 0 -318426543.26469803 -737419355.95094299 0 0 0 0 36881810.930058479 71315646.509449005 0 71315646.509449005 -117504109.31841278 0 0 0 0 85881053.686517715 -2833533.8981971741 0 -2833533.8981971741 -271604068.31671143 0 0 0 0 27893982.615590066 164762448.02271903 0 164762448.02271903 -104817936.71841431 0 0 0 0 159583624.41091824 146471370.77944183 0 146471370.77944183 -159998505.25021172 0 0 0 0 120715214.74601269 -95789276.537574768 0 -95789276.537574768 -35923414.418205261 0 0 0 0 361052527.20134878 -82379347.254655838 0 -82379347.254655838 -70406091.663963318 0 0 0 0 219748156.90669727 116298432.42708969 0 116298432.42708969 -208420041.1131897 0 0 0 0 184117205.50524998 96452258.179321289 0 96452258.179321289 -93664511.605545044 0 0 0 0 -64113865.561715603 106230500.49759674 0 106230500.49759674 -89189907.835624695 0 0 0 0 923298.24587080302 818293.97895563673 0 818293.97895563673 -307346.89169034362 0 0 0 0 594310305.14416504 -126251723.20736694 0 -126251723.20736694 -158372819.84234619 0 0 0 0 1215679.2657737732 -318799112.69629669 0 -318799112.69629669 -194022848.64363861 0 0 0 0 -31993362.773607254 -90763972.950065613 0 -90763972.950065613 29360291.042499542 0 0 0 0 -81160136.478157043 -290822213.91415501 0 -290822213.91415501 -225182818.51725769 0 0 0 0 -262322132.73922157 -285133261.23803711 0 -285133261.23803711 -172892609.14032745 0 0 0 0 -214339427.42989922 -357928285.19409943 0 -357928285.19409943 -249074944.45128918 0 0 0 0 -324338237.39674902 -319584985.83145142 0 -319584985.83145142 -146143782.91516113 0 0 0 0 -177207270.48014641 -259815367.85185623 0 -259815367.85185623 -254762762.36515045 0 0 0 0 -274010590.15395355 -301217606.31134796 0 -301217606.31134796 -139870081.70602798 0 0 0 0 -9606125.4844651669 3496643.7132837363 0 3496643.7132837363 410311.61285012588 0 0 0 0 -223210906.9572134 -353011645.4893074 0 -353011645.4893074 -313215515.01233673 0 0 0 0 -60476321.934686661 17990110.406738281 0 17990110.406738281 173975850.66363525 0 0 0 0 -46018726.591715813 -111489773.02781582 0 -111489773.02781582 28247424.736457825 0 0 0 0 -78396244.474396944 -33581316.582899094 0 -33581316.582899094 65422340.795654297 0 0 0 0 -125652860.15092659 -164950716.45128632 0 -164950716.45128632 -75804230.576057434 0 0 0 0 -36457575.702364922 -93850204.632225037 0 -93850204.632225037 127608615.13100433 0 0 0 0 -45161862.011963129 138634668.14747429 0 138634668.14747429 300962407.77711487 0 0 0 0 79771578.418039322 108991868.50498962 0 108991868.50498962 65762855.963724136 0 0 0 0 -204739940.8733139 58834660.243644714 0 58834660.243644714 94265060.980636597 0 0 0 0 -149790213.0015645 -154411320.52428246 0 -154411320.52428246 -358383193.71059418 0 0 0 0 -293709960.37220764 -327704493.54548264 0 -327704493.54548264 -194571888.97289276 0 0 0 0 -324944073.91262245 -702085975.25531769 0 -702085975.25531769 -787130577.5085907 0 0 0 0 -4404286.400663984 1959334.4716148525 0 1959334.4716148525 -531593.08541034348 0 0 0 0 84515918.668125004 -129913700.82931519 0 -129913700.82931519 221190017.87401772 0 0 0 0 -658635976.78009415 398700577.82679749 0 398700577.82679749 124410567.47392273 0 0 0 0 -474865.50623403303 1090235.1156311147 0 1090235.1156311147 -893511.19091127068 0 0 0 0 962778825.76280975 184249471.85420227 0 184249471.85420227 -1345691590.4430714 0 0 0 0 228509653.86613655 -1037085004.2567596 0 -1037085004.2567596 -1552945818.9537029 0 0 0 0 -640433175.34288931 -70146467.122385025 0 -70146467.122385025 247132961.86956787 0 0 0 0 302662534.69983292 -78700794.581161499 0 -78700794.581161499 -119984442.84643173 0 0 0 0 331636527.32053089 67637173.668319702 0 67637173.668319702 -287946443.81590271 0 0 0 0 3611508.7657170296 -52717074.979864359 0 -52717074.979864359 -65757383.569046021 0 0 0 0 807639.60179853439 23907034.83602643 0 23907034.83602643 -79768712.351074219 0 0 0 0 -69017370.988746643 -30098199.12046814 0 -30098199.12046814 -23665374.205963135 0 0 0 0 978850.25384950638 -6126562.0993537903 0 -6126562.0993537903 -20060260.346878052 0 0 0 0 -6644373.3625425715 -6367412.5812323391 0 -6367412.5812323391 -5062131.9068414569 0 0 0 0 -8423739.7829139214 -6735731.6678728182 0 -6735731.6678728182 -19980500.489590488 0 0 0 0 -20776417.615118742 421288.59540708922 0 421288.59540708922 2431499.2895257995 0 0 0 0 86635373.768615723 110653612.32540131 0 110653612.32540131 20636463.683837891 0 0 0 0 -76675340.528457642 -31415684.928649902 0 -31415684.928649902 -10942232.190490723 0 0 0 0 -57491797.4376297 -54330419.67855835 0 -54330419.67855835 -37053338.858482361 0 0 0 0 860280.23548094742 1124016.2830609344 0 1124016.2830609344 59099.279811032116 0 0 0 0 1344365.8354754448 -4578731.3145713806 0 -4578731.3145713806 -25363707.685512543 0 0 0 0 -1982989.7780326605 -5605386.0140533447 0 -5605386.0140533447 -31750401.290023804 0 0 0 0 -6244255.6114436388 1156495.2219743729 0 1156495.2219743729 -18032493.061546326 0 0 0 0 -6084910.8418340683 1597262.5287322998 0 1597262.5287322998 -18230250.234893799 0 0 0 0 -3790952.6841168404 -922487.59930419922 0 -922487.59930419922 -15572032.553050995 0 0 0 0 -81281666.205726624 583376.53121948242 0 583376.53121948242 52295009.451416016 0 0 0 0 -11873875.952136749 1183959.6611809116 0 1183959.6611809116 -11921766.138072982 0 0 0 0 -5822893.5403478146 1636205.737903595 0 1636205.737903595 -16564209.880821228 0 0 0 0 -5994858.7518010437 2149495.4133710861 0 2149495.4133710861 -17922113.899337769 0 0 0 0 -5767982.5953407288 34308824.426902771 0 34308824.426902771 41149745 0 0 0 0 -10145761.573435333 -1220418.8519278429 0 -1220418.8519278429 1346010.4678395614 0 0 0 0 -3261804.3642980661 -423805.52598974435 0 -423805.52598974435 1207850.7623391896 0 0 0 0 154243643.75761986 9530927.0702934265 0 9530927.0702934265 -33901796.402816772 0 0 0 0 61562951.210841179 -198704620.9880352 0 -198704620.9880352 -225117239.66355896 0 0 0 0 -196814031.4240036 -134366165.70238495 0 -134366165.70238495 -136935938.33802795 0 0 0 0 -52523031.108268738 126401305.46768951 0 126401305.46768951 -14783741.705757141 0 0 0 0 -244405580.52240372 -80429654.643341064 0 -80429654.643341064 5261191.5796356201 0 0 0 0 -571754036.05726051 -396486447.03659058 0 -396486447.03659058 -213254698.89269257 0 0 0 0 -554280890.55656242 -4499184.804813385 0 -4499184.804813385 -178779425.55516052 0 0 0 0 -281614522.09412766 -246196679.12228966 0 -246196679.12228966 -137225702.48706055 0 0 0 0 -377712417.80479431 -210782988.40461731 0 -210782988.40461731 -111133567.89051819 0 0 0 0 -256322142.77536201 -16292381.583690643 0 -16292381.583690643 -26321656.041763306 0 0 0 0 -52865121.723178864 -74832376.627189636 0 -74832376.627189636 -103154108.20771933 0 0 0 0 -210886629.12701607 10353757.334655762 0 10353757.334655762 43743609.054798126 0 0 0 0 -13131378.285672842 6677920.9852877501 0 6677920.9852877501 1214703.7546105403 0 0 0 0 -148895316.99419022 -78348140.893890381 0 -78348140.893890381 6935106.9385986328 0 0 0 0 68725149.206222534 5332298.3117980957 0 5332298.3117980957 -30019281.095724106 0 0 0 0 -67691150.572536469 -22753675.772697449 0 -22753675.772697449 -40790246.677108765 0 0 0 0 -1938541.6887514237 -2008403.8003277937 0 -2008403.8003277937 -1670382.9077369496 0 0 0 0 -7792625.7435104996 -6339609.2351341173 0 -6339609.2351341173 4927878.3494430333 0 0 0 0 -51222668.337806702 -36284725.769432068 0 -36284725.769432068 -32425035.894119263 0 0 0 0 88439070.83168602 41698929.026390076 0 41698929.026390076 -70286415.701538086 0 0 0 0 -68644303.259593964 -13960704.762649536 0 -13960704.762649536 67492602.281005859 0 0 0 0 -40560916.675937653 -82503676.580406189 0 -82503676.580406189 -123698657.2607193 0 0 0 0 -42172977.951370239 -70187520.969360352 0 -70187520.969360352 -88665772.849609375 0 0 0 0 -4083337.8906619232 -3440949.3296832815 0 -3440949.3296832815 3208665.5846432373 0 0 0 0 -106145557.03909016 -93334128.581638336 0 -93334128.581638336 -64720470.80027771 0 0 0 0 -24198095.813381195 -738175.29459381104 0 -738175.29459381104 -50774214.809020042 0 0 0 0 4161989.4161226749 19092542.377605438 0 19092542.377605438 20756543.189064026 0 0 0 0 6095349.2097816467 -24800902.954368591 0 -24800902.954368591 -150663538.12322617 0 0 0 0 9242338.5524910875 2649823.9827544857 0 2649823.9827544857 -20634625.177830972 0 0 0 0 -72363545.9231987 -73427988.008798599 0 -73427988.008798599 -8951168.075012207 0 0 0 0 -100749176.58830643 -119256607.96554565 0 -119256607.96554565 -76169461.094795227 0 0 0 0 -77903284.139255524 -55051747.956867218 0 -55051747.956867218 -10240978.056991577 0 0 0 0 21325941.026687622 -40113649.982223511 0 -40113649.982223511 -48858008.540863037 0 0 0 0 7259648.540536128 -772957.66293333098 0 -772957.66293333098 -8081685.5083688088 0 0 0 0 -95785946.463816643 -49814171.236174583 0 -49814171.236174583 -8099503.6444091797 0 0 0 0 -91364622.256645203 -73108557.0991745 0 -73108557.0991745 -720525.5634765625 0 0 0 0 -6374212.3539007902 -13661080.139293671 0 -13661080.139293671 -32924829.699005127 0 0 0 0 -301578.71625328064 -2149936.9754924774 0 -2149936.9754924774 -27533702.939933777 0 0 0 0 10236898.514591217 2345405.4936904907 0 2345405.4936904907 -9495186.4530029297 0 0 0 0 5176524.3700708328 -4272101.7581123207 0 -4272101.7581123207 -21376135.638014823 0 0 0 0 5019524.5088483319 420828.24175319821 0 420828.24175319821 -16821732.579693988 0 0 0 0 2399247.3794270251 -880770.67199622095 0 -880770.67199622095 -9337231.1981979944 0 0 0 0 -12796933.911991596 -12633128.375366211 0 -12633128.375366211 -3726857.475402832 0 0 0 0 10438164.312578917 2197475.8160305023 0 2197475.8160305023 -10790825.859596252 0 0 0 0 10588569.98866117 2210828.443107605 0 2210828.443107605 -10837199.332248688 0 0 0 0 4752272.329271418 6107250.0494567379 0 6107250.0494567379 -17213378.912256554 0 0 0 0 4984583.2541267863 7657210.8832452744 0 7657210.8832452744 -2653673.0621647537 0 0 0 0 37750240.639342785 24116517.248118401 0 24116517.248118401 -20027263.696189761 0 0 0 0 12285077.645345688 3175883.4152755737 0 3175883.4152755737 -9916751.1929397583 0 0 0 0 -22488536.028858185 -17052746.029855251 0 -17052746.029855251 6792498.1970996857 0 0 0 0 -3800403.8842937946 -52708598.100709915 0 -52708598.100709915 -32843609.15992713 0 0 0 0 34646852.820562005 2233916.9003276825 0 2233916.9003276825 -170842843.16545486 0 0 0 0 -48635760.918003559 56205491.17338109 0 56205491.17338109 35059135.262451172 0 0 0 0 14149159.114367247 18210443.504516602 0 18210443.504516602 -6382006.0107269287 0 0 0 0 -3755253.2892166376 -3342685.255897522 0 -3342685.255897522 -7808859.1908054352 0 0 0 0 -21194376.766752481 21459486.06539917 0 21459486.06539917 10150607.15309906 0 0 0 0 1880102.4689321355 1817865.0642887997 0 1817865.0642887997 -20735122.201540682 0 0 0 0 -644739.0616323424 -730579.51726399362 0 -730579.51726399362 -1008483.6762231551 0 0 0 0 152158918.64006853 68163438.237438202 0 68163438.237438202 -179590342.49003029 0 0 0 0 -25785926.478796482 79795500.702289581 0 79795500.702289581 -112924192.18121719 0 0 0 0 -7667812.3219294548 32450067.57359314 0 32450067.57359314 -154421996.88455486 0 0 0 0 -592777.19273470435 -846246.73729371838 0 -846246.73729371838 1396784.9196765386 0 0 0 0 150936.9472115821 -1523729.661762143 0 -1523729.661762143 28220.567755334079 0 0 0 0 1004222.3689489365 84365065.731207848 0 84365065.731207848 -11524652.209005356 0 0 0 0 -27867265.226329267 1455711.0100607872 0 1455711.0100607872 -169737003.38554382 0 0 0 0 144598950.35626233 -207290993.73946476 0 -207290993.73946476 248861428.5807991 0 0 0 0 258016790.12975681 44691374.941634417 0 44691374.941634417 27083071.925010681 0 0 0 0 -24636743.345055103 -82096619.373260498 0 -82096619.373260498 22446537.008853912 0 0 0 0 51944940.622604847 31698687.36597538 0 31698687.36597538 39531213.729377747 0 0 0 0 496065777.34052312 -365395979.51755977 0 -365395979.51755977 163332450.94049263 0 0 0 0 432959004.25617605 -111524916.77923226 0 -111524916.77923226 1721137.5486068726 0 0 0 0 -63134330.261484861 -20958077.060869217 0 -20958077.060869217 88606658.415398598 0 0 0 0 54797154.442482859 -18906404.729097784 0 -18906404.729097784 -41644000.980361938 0 0 0 0 -12203915.600877523 -36767251.718058586 0 -36767251.718058586 -20621529.87424469 0 0 0 0 65378359.797965527 -27332215.461977005 0 -27332215.461977005 -42864150.98752594 0 0 0 0 -9710999.5267775059 3011576.442035675 0 3011576.442035675 -16290302.58203125 0 0 0 0 -6910825.01135993 4257654.5459098816 0 4257654.5459098816 -22903839.47227478 0 0 0 0 -1413700.653331995 -3370455.3317756653 0 -3370455.3317756653 -39084635.161560059 0 0 0 0 -6770117.1623500586 5640014.600353241 0 5640014.600353241 -33002571.384578705 0 0 0 0 -49701432.263981342 13535503.67026329 0 13535503.67026329 36226258.046203256 0 0 0 0 692314.55136595422 3576168.9398468882 0 3576168.9398468882 -19587708.202443823 0 0 0 0 29952720.924500838 -3758605.292301178 0 -3758605.292301178 -49430447.458847046 0 0 0 0 241451.44647424505 4694246.719521286 0 4694246.719521286 -19080323.927272163 0 0 0 0 2077818.2045937181 1811592.5238800049 0 1811592.5238800049 -15609462.502662659 0 0 0 0 -8699532.746633172 1039679.1178855896 0 1039679.1178855896 -13978514.333573788 0 0 0 0 -4707460.7711650133 -1742368.3044147491 0 -1742368.3044147491 -14960580.425209045 0 0 0 0 -5099431.1503417492 -560719.84672927856 0 -560719.84672927856 -13961803.451739818 0 0 0 0 -8574810.1004092488 3132227.4132383801 0 3132227.4132383801 -11801373.927436322 0 0 0 0 -52104897.142821312 114330961.55445099 0 114330961.55445099 17437769.271347046 0 0 0 0 -168527990.37443256 134756632.85354805 0 134756632.85354805 -12686144.316131592 0 0 0 0 85433701.754516602 -7837268.9960021973 0 -7837268.9960021973 -79091620.30091095 0 0 0 0 -77812172.451368332 41589074.198959351 0 41589074.198959351 44797061.16633606 0 0 0 0 41185564.76014328 107592196.80027771 0 107592196.80027771 -175618108.38937378 0 0 0 0 -3808114.1165233254 4288773.0023078918 0 4288773.0023078918 -12753652.062673569 0 0 0 0 72725785.138433456 -11552406.697605133 0 -11552406.697605133 -26259217.889350891 0 0 0 0 -6334223.6793408431 3048047.9102267623 0 3048047.9102267623 -14223212.640728515 0 0 0 0 -4843222.4022825398 1934725.9229197502 0 1934725.9229197502 -13975414.896835327 0 0 0 0 30876326.08601594 5464840.1630377769 0 5464840.1630377769 -64011279.463888168 0 0 0 0 7563383.6574778557 24370262.339737892 0 24370262.339737892 -43903979.074710846 0 0 0 0 15337142.922680378 41231834.098193169 0 41231834.098193169 -39314158.175739288 0 0 0 0 -7943078.88458395 16800557.119010925 0 16800557.119010925 -7068599.5057792664 0 0 0 0 7309394.1112236977 18894054.415355682 0 18894054.415355682 -39839575.394543171 0 0 0 0 -3679111.9148265123 5018803.9667844772 0 5018803.9667844772 -8784567.9806289673 0 0 0 0 -1698090.1199094725 7613108.9470308069 0 7613108.9470308069 -16845583.244093917 0 0 0 0 -695642.12304383516 12633078.813735962 0 12633078.813735962 -12204413.103103638 0 0 0 0 2367194.1983342171 4637159.8128814697 0 4637159.8128814697 -2564049.4644584656 0 0 0 0 -1193634.0232758531 6771057.2743474375 0 6771057.2743474375 -19698660.079219285 0 0 0 0 964302699.71066666 -13400992.009231567 0 -13400992.009231567 -518320203.13890076 0 0 0 0 -3515142.5533485031 5097986.2529190518 0 5097986.2529190518 -10700543.059240259 0 0 0 0 -2703509.0800872236 6905433.4904760495 0 6905433.4904760495 -13854521.34484751 0 0 0 0 -6665976.5449801683 3434626.9831733704 0 3434626.9831733704 -1263604.0374140739 0 0 0 0 68109454.529128075 -48436992.403705597 0 -48436992.403705597 -159853203.87646484 0 0 0 0 11546740.628327727 2990764.863948822 0 2990764.863948822 -21730177.529762268 0 0 0 0 -6433275.5937565053 4026839.7882626448 0 4026839.7882626448 -4978282.9366127513 0 0 0 0 -338308.50586610974 39799.52663538605 0 39799.52663538605 84090.890057440847 0 0 0 0 17794787.612930298 339941537.53074646 0 339941537.53074646 44557123.901580811 0 0 0 0 -121121992.81620026 -11803676.285713196 0 -11803676.285713196 -53181087.442531586 0 0 0 0 -103750874.09396362 116704806.92127991 0 116704806.92127991 -160063520.33360291 0 0 0 0 -390661.49450541753 -227629.42320035957 0 -227629.42320035957 234509.27761817724 0 0 0 0 -2134817.527153139 -1285563.9371199463 0 -1285563.9371199463 -2080253.2536326051 0 0 0 0 -1559670436.3122406 -1310731361.526104 0 -1310731361.526104 -628359085.80445862 0 0 0 0 -941628014.5328598 658521812.94264984 0 658521812.94264984 -473051342.54232788 0 0 0 0 -67408917.485549927 679006259.69577789 0 679006259.69577789 -2143026523.2740784 0 0 0 0 -122735183.70291901 451929232.68181229 0 451929232.68181229 -455023898.24438477 0 0 0 0 176369854.29745483 -957769789.29138565 0 -957769789.29138565 -1230070379.8195572 0 0 0 0 -995161054.26570129 -798380147.99468994 0 -798380147.99468994 -245553905.50118065 0 0 0 0 74725898.979351044 -767335018.19155121 0 -767335018.19155121 -1180561919.6123657 0 0 0 0 -481469745.87999725 -1450584284.6737823 0 -1450584284.6737823 -2019395671.6401842 0 0 0 0 -397705538.73398972 -71295335.826072693 0 -71295335.826072693 353100783.39306259 0 0 0 0 12115365.262148857 -1114887218.1071978 0 -1114887218.1071978 -747840039.25209045 0 0 0 0 1591398.6713795876 -1278663.3197983261 0 -1278663.3197983261 -3239079.6511487402 0 0 0 0 -591128111.37189484 -1441159395.9355469 0 -1441159395.9355469 -743414209.62996459 0 0 0 0 -68042596.192909241 614841633.28869057 0 614841633.28869057 1534775029.5389709 0 0 0 0 1235634907.0934753 587897127.25133896 0 587897127.25133896 -242702166.35201645 0 0 0 0 -502918289.3381424 452864973.36344147 0 452864973.36344147 -517250810.86890411 0 0 0 0 786517274.34620667 1145247676.9069662 0 1145247676.9069662 -2763583941.3324432 0 0 0 0 -1024529498.8829803 -1491358545.0813293 0 -1491358545.0813293 -207363688.13134766 0 0 0 0 45717054.10521698 1432856235.6474571 0 1432856235.6474571 -2381804097.1444855 0 0 0 0 -2864542.1033072509 -2785583.746648957 0 -2785583.746648957 -3179822.0231340528 0 0 0 0 -561638450.23847961 796803699.32663727 0 796803699.32663727 -1855904372.2565002 0 0 0 0 555871386.52361298 -97148494.557342529 0 -97148494.557342529 -1797850660.049839 0 0 0 0 1058139882.9756393 479817263.84947968 0 479817263.84947968 -2288705273.289257 0 0 0 0 1229503125.1068377 -1375059540.8785028 0 -1375059540.8785028 -1746925169.9792023 0 0 0 0 -4428566.4473160673 4129246.6832434367 0 4129246.6832434367 -8143889.0571956346 0 0 0 0 -4046712676.9118042 -1456287416.484436 0 -1456287416.484436 -1409745340.0262003 0 0 0 0 -78736286.679916382 -2887838243.9927673 0 -2887838243.9927673 -3006700076.9695587 0 0 0 0 -840043822.21817398 -1425956486.9293365 0 -1425956486.9293365 -631864360.29353333 0 0 0 0 561634799.2049408 501721202.44265366 0 501721202.44265366 92837289.446992874 0 0 0 0 391594902.4163599 605478509.49485779 0 605478509.49485779 402712394.53294754 0 0 0 0 10123829.494850159 116994346.87704086 0 116994346.87704086 -124135164.83117867 0 0 0 0 -7623631.365888915 7828891.8064429015 0 7828891.8064429015 -6214471.581739828 0 0 0 0 308415578.68428993 244825303.7532692 0 244825303.7532692 329119106.87920332 0 0 0 0 467975093.3574276 162991838.36779976 0 162991838.36779976 -269603200.99662781 0 0 0 0 -475558815.83383942 -47209524.791015625 0 -47209524.791015625 18775746.457084656 0 0 0 0 447849108.07431507 -4510591.7936725616 0 -4510591.7936725616 -497976380.63792229 0 0 0 0 -1175762.7395352281 1197899.168821007 0 1197899.168821007 -1270409.5952295375 0 0 0 0 28053687.043831825 -19099611.346479416 0 -19099611.346479416 8057148.8157310486 0 0 0 0 -6921953.1176827131 4897923.9661173774 0 4897923.9661173774 -3474836.696015982 0 0 0 0 -343775055.90413451 828553310.74611998 0 828553310.74611998 845264563.15389252 0 0 0 0 -319231542.87425518 -287752674.41364479 0 -287752674.41364479 -170360631.12514496 0 0 0 0 139069151.9413681 -281908156.13697815 0 -281908156.13697815 -959162753.26429367 0 0 0 0 160766632.79269791 12456820.415939331 0 12456820.415939331 -835622124.88672638 0 0 0 0 80942498.610187531 -78816633.172233582 0 -78816633.172233582 -521439609.54445076 0 0 0 0 52136651.415779114 -134636699.54092026 0 -134636699.54092026 -531596714.10053253 0 0 0 0 -51531048.59146595 531009810.80850029 0 531009810.80850029 -768551864.37712097 0 0 0 0 140855007.32392311 -33934427.536735535 0 -33934427.536735535 -864712931.6998291 0 0 0 0 2231670.0510673523 -28966593.973464966 0 -28966593.973464966 -436966890.83340073 0 0 0 0 4879001.9879875183 195882967.53883362 0 195882967.53883362 -613524336.93534851 0 0 0 0 -97001420.199720383 115112649.33821487 0 115112649.33821487 -347499974.50343323 0 0 0 0 26876451.206390381 39665036.932090759 0 39665036.932090759 -360810403.33551407 0 0 0 0 -60143800.638300896 205034091.39503002 0 205034091.39503002 -643202820.53067017 0 0 0 0 -106391551.50545502 -2352574.1595611572 0 -2352574.1595611572 119525200.84192276 0 0 0 0 -12014920.261290973 7512019.1464936603 0 7512019.1464936603 -4486904.1061193114 0 0 0 0 -88472785.610866547 -17144984.067127228 0 -17144984.067127228 -156569891.23698425 0 0 0 0 273842.32626628876 91501355.461972237 0 91501355.461972237 -100982954.20736694 0 0 0 0 -68464045.339283943 -147048718.35784531 0 -147048718.35784531 -136470283.30332947 0 0 0 0 19684955.638900757 -56626683.31483078 0 -56626683.31483078 -156375798.10871792 0 0 0 0 -22328813.12443018 -4650645.0738134384 0 -4650645.0738134384 -169079160.64529419 0 0 0 0 245092112.26496506 246754654.35316277 0 246754654.35316277 170033993.97821426 0 0 0 0 7594036.7919054627 120401730.63681364 0 120401730.63681364 169866340.56564331 0 0 0 0 -8442558.2718543671 9082806.2182970196 0 9082806.2182970196 -6959751.5304601006 0 0 0 0 327493441.16712332 136875540.58418131 0 136875540.58418131 -19774236.572227478 0 0 0 0 237658027.00427437 122633163.78638649 0 122633163.78638649 -8149247.5286903381 0 0 0 0 139218640.873209 131489521.30978966 0 131489521.30978966 -3531444.9733467102 0 0 0 0 140438133.96527767 109886788.8052578 0 109886788.8052578 -7170063.4797286987 0 0 0 0 -2728440.3469910352 -855347.36398798693 0 -855347.36398798693 3015814.930651458 0 0 0 0 227701597.5912056 95413865.05765152 0 95413865.05765152 -68102725.552165985 0 0 0 0 45365399.29751873 14521511.778264999 0 14521511.778264999 -14740678.486516953 0 0 0 0 -35734229.202312469 20034303.539207458 0 20034303.539207458 4555749.1298716068 0 0 0 0 -2221801.486043598 8560232.562913347 0 8560232.562913347 -2152096.8298144769 0 0 0 0 -26999222.170674086 42395915.450675964 0 42395915.450675964 -31140378.512678146 0 0 0 0 29234152.594067574 51978449.005174637 0 51978449.005174637 15649602.882598877 0 0 0 0 175610531.57515049 14087926.108567238 0 14087926.108567238 -8345191.3778686523 0 0 0 0 301566814.51951599 -21815468.723859787 0 -21815468.723859787 -58537082.583023071 0 0 0 0 247523339.98734283 79869585.268335342 0 79869585.268335342 -64515956.762047768 0 0 0 0 261154679.93585777 65610737.312000275 0 65610737.312000275 -101969060.50752258 0 0 0 0 180519901.49422741 -6849414.9300661087 0 -6849414.9300661087 -95426379.528562546 0 0 0 0 193764154.95508099 17422673.834674835 0 17422673.834674835 -58786910.062385559 0 0 0 0 239019654.36330223 29436804.219769478 0 29436804.219769478 -157918178.94842529 0 0 0 0 290364317.80643368 110445345.04255199 0 110445345.04255199 -114356488.97398949 0 0 0 0 120853520.50426674 -3351919.1655015945 0 -3351919.1655015945 -102856197.70590591 0 0 0 0 116876166.47578239 36038939.165659904 0 36038939.165659904 -181781693.89035988 0 0 0 0 135014742.59225464 79217578.904568672 0 79217578.904568672 -121283698.06513977 0 0 0 0 -113067399.70502472 31975018.363501549 0 31975018.363501549 -58350184.112932205 0 0 0 0 -7381212.068367362 39779803.393035233 0 39779803.393035233 -45775032.777482986 0 0 0 0 330306638.56902456 -105703799.73274612 0 -105703799.73274612 17660806.241624832 0 0 0 0 149523235.05656815 59474131.706940651 0 59474131.706940651 35911424.705387115 0 0 0 0 432426643.78041935 66332230.778853416 0 66332230.778853416 -74625254.764860153 0 0 0 0 129557501.29932785 -1502262.6898431778 0 -1502262.6898431778 -118874073.6267786 0 0 0 0 449414.74166297913 7115443.4435768127 0 7115443.4435768127 -56585116.073337555 0 0 0 0 -127952170.46504498 106494800.206285 0 106494800.206285 -57008750.152576447 0 0 0 0 42872599.656380355 97111134.094445646 0 97111134.094445646 -123494428.59984016 0 0 0 0 -1855120.2327145003 3017166.7476168382 0 3017166.7476168382 355749.52294693328 0 0 0 0 250775230.54135227 39644871.096901894 0 39644871.096901894 -53415961.260010719 0 0 0 0 -646013.76170746912 719340.45063114027 0 719340.45063114027 258924.18232034892 0 0 0 0 579666348.46404362 -125040802.79542637 0 -125040802.79542637 -81002014.035373688 0 0 0 0 -239744240.24051523 171663059.79630756 0 171663059.79630756 -203475328.46284485 0 0 0 0 19516.929009760031 94356.035805760883 0 94356.035805760883 278574.38699707575 0 0 0 0 -360071586.77722931 296827864.94991875 0 296827864.94991875 -170615876.96837211 0 0 0 0 320543837.94265556 -310524888.44720554 0 -310524888.44720554 -2468453.579246521 0 0 0 0 328288621.97445107 -90477752.492710114 0 -90477752.492710114 -6613769.9774799347 0 0 0 0 620260.71122182114 444601.02283452172 0 444601.02283452172 351392.63397578709 0 0 0 0 102334328.10759497 -74338290.147069454 0 -74338290.147069454 -115919670.88080978 0 0 0 0 -185445075.01483059 440358394.74574375 0 440358394.74574375 -162818624.69821525 0 0 0 0 1003142.2122991607 525061.46372061502 0 525061.46372061502 276407.76205584966 0 0 0 0 216590417.86327505 -256806264.16952991 0 -256806264.16952991 29690073.989429474 0 0 0 0 210580499.91296434 -236703427.36557961 0 -236703427.36557961 -7767643.6728515625 0 0 0 0 55034380.980222225 -170578103.83748674 0 -170578103.83748674 954399.69193267822 0 0 0 0 177446318.15796757 -223398819.32361031 0 -223398819.32361031 32961828.693576813 0 0 0 0 200509001.24347782 -146968885.52612495 0 -146968885.52612495 -128181342.90183258 0 0 0 0 75076579.440954208 -90713589.812511444 0 -90713589.812511444 -108841657.7941103 0 0 0 0 55221580.246171951 21333001.070638657 0 21333001.070638657 -5962693.9255905151 0 0 0 0 123604902.25714016 -12619489.67628336 0 -12619489.67628336 -100840512.23043823 0 0 0 0 86964436.382190704 29623176.927061081 0 29623176.927061081 -243321614.46291733 0 0 0 0 90720264.92814827 -56262148.765716553 0 -56262148.765716553 -132038322.75022316 0 0 0 0 -17737076.956272125 119279906.35801125 0 119279906.35801125 -212106486.89996147 0 0 0 0 50771451.703690529 -55856851.905344009 0 -55856851.905344009 -100062919.2814436 0 0 0 0 -16656482.231266975 -48374606.133738518 0 -48374606.133738518 -69658888.251850128 0 0 0 0 53491172.191632271 -16876249.855284691 0 -16876249.855284691 -167170659.98507881 0 0 0 0 385938.92510509491 -9229632.7130975723 0 -9229632.7130975723 -43551701.246232033 0 0 0 0 449118.7687163353 -229884.268503692 0 -229884.268503692 -35207445.219966888 0 0 0 0 -1490482.1339521408 29623137.933907509 0 29623137.933907509 -78433150.940694809 0 0 0 0 -258327.36893844604 -201188173.51685858 0 -201188173.51685858 -6342760.5203590393 0 0 0 0 56313115.891991615 -40279824.260845184 0 -40279824.260845184 5006924.5013799667 0 0 0 0 -54717107.063116789 2811312.9887573719 0 2811312.9887573719 10789707.090694427 0 0 0 0 559348.49470424559 -110797.67298277467 0 -110797.67298277467 102448.67275732756 0 0 0 0 1819141.879128078 -1246181.8930257605 0 -1246181.8930257605 -463735.38033477962 0 0 0 0 1435231.9501149766 -292165.93689602707 0 -292165.93689602707 -1585616.9265437201 0 0 0 0 -60034113.390360832 56377265.592956066 0 56377265.592956066 -20946095.040802002 0 0 0 0 56774929.599133492 -82090315.375090599 0 -82090315.375090599 142203207.05790901 0 0 0 0 293584758.18378353 162243567.36899185 0 162243567.36899185 79315649.619380951 0 0 0 0 397901901.0674181 296527048.92288208 0 296527048.92288208 182394205.73844528 0 0 0 0 187975135.27255344 -250247151.46017075 0 -250247151.46017075 67571426.504892349 0 0 0 0 555481996.3589499 67328659.992435455 0 67328659.992435455 -104951370.50086975 0 0 0 0 456582414.38076019 -306138005.34468079 0 -306138005.34468079 -118177758.72307396 0 0 0 0 310136005.4140892 -70340879.563932419 0 -70340879.563932419 -72850355.427192688 0 0 0 0 252313244.92663431 -74784309.842576981 0 -74784309.842576981 -71471667.893704414 0 0 0 0 271291455.92605448 -24095055.083148003 0 -24095055.083148003 -92701660.393424988 0 0 0 0 339738871.82213032 48541189.160018921 0 48541189.160018921 -30441354.361862183 0 0 0 0 26815794.003968239 60975545.759037018 0 60975545.759037018 58571262.57667923 0 0 0 0 -55571000.021954119 39092802.028709412 0 39092802.028709412 95435026.388652802 0 0 0 0 1762282.1139729461 -2562714.4221866457 0 -2562714.4221866457 -2890189.9680993706 0 0 0 0 102010351.08132517 -57212964.775921822 0 -57212964.775921822 -31972098.634796143 0 0 0 0 190112732.3862834 2176819.1093559265 0 2176819.1093559265 -44648656.676862717 0 0 0 0 195100071.23570824 -22791547.930473328 0 -22791547.930473328 -22732426.488666534 0 0 0 0 1085493.0688733561 -3770022.0825344576 0 -3770022.0825344576 -1257592.3261759039 0 0 0 0 3065088.9414428473 -3462005.6173019409 0 -3462005.6173019409 -2137327.425453186 0 0 0 0 9756326.07822752 5084613.2376976013 0 5084613.2376976013 -4690528.8207931519 0 0 0 0 23680.286200124654 -474802.32237413805 0 -474802.32237413805 -1595387.8201138135 0 0 0 0 239587404.0184164 -92538704.19785881 0 -92538704.19785881 71989848.143135071 0 0 0 0 194858647.8083868 -24007821.249261856 0 -24007821.249261856 -11483485.392328262 0 0 0 0 274560038.33820295 -37772195.440885544 0 -37772195.440885544 -41983676.960575104 0 0 0 0 31195356.259985685 47295733.500146866 0 47295733.500146866 -24415457.106277466 0 0 0 0 -1153882.9209902042 -763274.50479909778 0 -763274.50479909778 -113427.49385505728 0 0 0 0 433203521.13354731 -295613499.83875656 0 -295613499.83875656 -36686469.446550369 0 0 0 0 30901818.054080963 23815455.207010269 0 23815455.207010269 7288772.2558021545 0 0 0 0 895516.35845739883 -2298374.631369764 0 -2298374.631369764 -6282853.0869368799 0 0 0 0 936279.06986730616 1225676.0623072926 0 1225676.0623072926 -510666.6143431738 0 0 0 0 -13858968.028705865 -15948979.38256073 0 -15948979.38256073 -1817942.7067642212 0 0 0 0 42540340.161524981 -22621006.054899216 0 -22621006.054899216 -18837942.798736572 0 0 0 0 -1454428.8385868073 -118924883.41132736 0 -118924883.41132736 -155250104.22775745 0 0 0 0 -268893347.1565876 -97301422.024299622 0 -97301422.024299622 -118996622.80021667 0 0 0 0 -277299.24364475068 -131009.63209468685 0 -131009.63209468685 467413.97142932564 0 0 0 0 -14068255.713693798 -59935501.969453573 0 -59935501.969453573 -123050463.73497391 0 0 0 0 -1854909.513431251 71594676.246026635 0 71594676.246026635 -68647536.014606476 0 0 0 0 1792006.696331671 -202684.34044728475 0 -202684.34044728475 -1865912.2501199283 0 0 0 0 117098031.31160355 15411660.388075829 0 15411660.388075829 -22930782.781761169 0 0 0 0 797521.82678884547 -111831.70224358048 0 -111831.70224358048 -829656.51436642185 0 0 0 0 330575377.08883715 363397.69492721558 0 363397.69492721558 -23194790.572902083 0 0 0 0 -3626187.6332085133 -124810297.19612455 0 -124810297.19612455 -153316168.42487335 0 0 0 0 327006970.18472338 22859260.702136993 0 22859260.702136993 98540756.154090881 0 0 0 0 -48723083.345661163 -99920062.343008041 0 -99920062.343008041 178672587.47473145 0 0 0 0 156302479.58126354 -194744358.30696487 0 -194744358.30696487 -164222256.84107304 0 0 0 0 -487663440.05788434 -513321258.99649477 0 -513321258.99649477 -231749218.29270935 0 0 0 0 -103296277.77062416 -280804448.06023407 0 -280804448.06023407 -281570171.58091545 0 0 0 0 -87492050.502504349 -68247115.070640564 0 -68247115.070640564 -139839765.89117432 0 0 0 0 -126383856.68329144 -151037352.0226078 0 -151037352.0226078 -577025350.46641159 0 0 0 0 -123589418.0982914 -209972121.03294754 0 -209972121.03294754 -385716299.46539307 0 0 0 0 -22078031.384696484 -196952923.82950211 0 -196952923.82950211 -222090139.68663788 0 0 0 0 -433196220.25236118 -257694104.48770666 0 -257694104.48770666 100894907.22762299 0 0 0 0 1243924.9380994695 311834.89867584314 0 311834.89867584314 -4309685.3062474821 0 0 0 0 -9814099.7382445335 -13229948.023219109 0 -13229948.023219109 5243654.753868103 0 0 0 0 -29227082.67566967 -99796378.721780777 0 -99796378.721780777 -295349646.83765984 0 0 0 0 -65557256.30380106 -294128155.9231205 0 -294128155.9231205 -374940692.09405518 0 0 0 0 341958426.341712 -148886231.09700394 0 -148886231.09700394 -860774885.51586914 0 0 0 0 238641858.30308318 -43650548.597253799 0 -43650548.597253799 -374309561.73861694 0 0 0 0 141662421.50287342 202435910.1379776 0 202435910.1379776 -298861496.70661163 0 0 0 0 85993949.917828083 -463017379.61960602 0 -463017379.61960602 -66073743.577793121 0 0 0 0 -862846.2041441137 -435842.60587363783 0 -435842.60587363783 304323.55414673872 0 0 0 0 61544240.299526811 -465051442.30742645 0 -465051442.30742645 308094358.63533783 0 0 0 0 -376812.62666878826 470651.81709480379 0 470651.81709480379 512775.55202038027 0 0 0 0 -42551773.963791847 -58089605.646179199 0 -58089605.646179199 -187842737.81962585 0 0 0 0 -178654904.01588631 27469197.085723877 0 27469197.085723877 -24581621.650512695 0 0 0 0 -12407242.098146975 47942230.455208778 0 47942230.455208778 -4581680.2511749268 0 0 0 0 -248802549.31189668 -341812192.12822533 0 -341812192.12822533 -408117566.41916656 0 0 0 0 183399.7920246328 -898372.2762854055 0 -898372.2762854055 -2291529.1980989389 0 0 0 0 1177568.0290400088 167604350.42561913 0 167604350.42561913 -585889286.79678345 0 0 0 0 -124132933.76265836 -127795905.01818085 0 -127795905.01818085 -86646650.601762772 0 0 0 0 -84100642.314091921 -238726235.35762787 0 -238726235.35762787 -333642045.89252472 0 0 0 0 24005392.23707962 -113263684.40720367 0 -113263684.40720367 -190744189.29851341 0 0 0 0 120829239.47065401 -134262108.67807007 0 -134262108.67807007 -536835458.48212934 0 0 0 0 129047035.97951293 -177966867.093647 0 -177966867.093647 -537995336.1472702 0 0 0 0 63783010.7704916 228245379.85413361 0 228245379.85413361 -484264902.12784529 0 0 0 0 132988187.37281013 -97248860.542415619 0 -97248860.542415619 -459868188.85238647 0 0 0 0 141949413.25313357 -80808157.546588421 0 -80808157.546588421 -1108554977.5203018 0 0 0 0 -144921837.58952463 595659096.14675903 0 595659096.14675903 -831074046.37029266 0 0 0 0 -87518510.015068114 336869167.03120041 0 336869167.03120041 23056705.231292725 0 0 0 0 -31519435.374186516 185974199.48765564 0 185974199.48765564 -86130856.215484619 0 0 0 0 -9175362.3220567703 98237049.874633789 0 98237049.874633789 -25898052.307907104 0 0 0 0 -39786056.180022717 147623892.1449337 0 147623892.1449337 -7323120.4132843018 0 0 0 0 330153820.34655046 -178449411.92763805 0 -178449411.92763805 -737907929.65245819 0 0 0 0 321206514.7656042 -344154518.15886497 0 -344154518.15886497 -1094629661.8133011 0 0 0 0 -544759766.61697948 -466884663.99250031 0 -466884663.99250031 -349909381.76380157 0 0 0 0 -802733317.04120302 371946615.26961136 0 371946615.26961136 84765363.68548584 0 0 0 0 -157221901.83076644 97746815.167541504 0 97746815.167541504 113983381.59858704 0 0 0 0 -245177772.4435344 20301552.28377533 0 20301552.28377533 684460532.3604126 0 0 0 0 -358174866.7322787 257300702.63501358 0 257300702.63501358 991468461.64002991 0 0 0 0 255197988.96041465 79330709.824539185 0 79330709.824539185 9266459.439781189 0 0 0 0 101742139.38473982 -165768613.62260437 0 -165768613.62260437 415157546.0496521 0 0 0 0 -595883.60154722922 534651.74159457255 0 534651.74159457255 -1996063.7985762395 0 0 0 0 -14928261.920844972 -21070469.185029984 0 -21070469.185029984 438674545.08917952 0 0 0 0 -23092416.108454108 18114754.974014282 0 18114754.974014282 -7665570.1537322998 0 0 0 0 3676151.0925803185 2670351.3825721741 0 2670351.3825721741 -4674161.2501945496 0 0 0 0 -85894.865525165587 682401.62980339117 0 682401.62980339117 -48438.334597628564 0 0 0 0 -221776984.76774561 -346342578.33848572 0 -346342578.33848572 1054772514.743957 0 0 0 0 1486873.3379855757 1328186.8868895182 0 1328186.8868895182 -4569216.6718453504 0 0 0 0 1502656.8154044151 3067770.4299087524 0 3067770.4299087524 -2807996.7949256897 0 0 0 0 -5564757.1803679466 -605144.04273223877 0 -605144.04273223877 129530696.55973625 0 0 0 0 34673282.878716946 30261415.747180939 0 30261415.747180939 130238234.76200485 0 0 0 0 -1428568.5598113846 4212920.2855319269 0 4212920.2855319269 -1234192.4507093653 0 0 0 0 123348076.0399549 -21583377.834884644 0 -21583377.834884644 283820034.77328491 0 0 0 0 27324938.675942421 -255243239.88702393 0 -255243239.88702393 238681677.89476776 0 0 0 0 -78545712.227550447 124372229.03043556 0 124372229.03043556 299216428.97146606 0 0 0 0 109399948.01588786 -231852129.89283752 0 -231852129.89283752 540943176.75374985 0 0 0 0 193420982.70770741 133744759.77017212 0 133744759.77017212 616774027.80230713 0 0 0 0 -295236.49540933751 126684.28470746335 0 126684.28470746335 349399.69060613587 0 0 0 0 2507178.5432661772 4695835.551115036 0 4695835.551115036 -3435912.4297714233 0 0 0 0 -11958813.75033927 -937203.01268386841 0 -937203.01268386841 2154050.1025981903 0 0 0 0 469450.64216495957 2557882.7139349114 0 2557882.7139349114 -4844374.780499611 0 0 0 0 43479512.216281891 93250962.384115219 0 93250962.384115219 11787478.137023926 0 0 0 0 4214923.4756894112 12765087.048319817 0 12765087.048319817 -2158809.2426109314 0 0 0 0 24443726.980592728 -134511039.89738941 0 -134511039.89738941 -125479768.21316147 0 0 0 0 17264935.70949173 139737414.50046539 0 139737414.50046539 -30642033.102144241 0 0 0 0 50210156.229656458 -93032675.754711151 0 -93032675.754711151 -67490455.674922943 0 0 0 0 -199063681.36334205 201939552.35670662 0 201939552.35670662 238652275.20883942 0 0 0 0 255152990.92700338 -80396514.357872009 0 -80396514.357872009 -674880736.49106598 0 0 0 0 30689845.527010918 151867473.15527344 0 151867473.15527344 228802428.90755463 0 0 0 0 -260384.19629444557 551133.32948196214 0 551133.32948196214 -665909.86127735302 0 0 0 0 -50997920.578529477 -236441966.97583961 0 -236441966.97583961 -269875613.83375931 0 0 0 0 4281188.0326384306 -153418491.84799194 0 -153418491.84799194 -148979335.50738144 0 0 0 0 41418771.894357562 -84065951.228855133 0 -84065951.228855133 -60919694.512517929 0 0 0 0 -51168343.28444314 19068378.222576141 0 19068378.222576141 15869267.195426941 0 0 0 0 -26387911.26619184 25558632.993715286 0 25558632.993715286 -22373902.993614197 0 0 0 0 -234046.08512265299 62575.889543297701 0 62575.889543297701 -724840.32259359956 0 0 0 0 -20858021.937953591 -160609756.58671951 0 -160609756.58671951 -217169213.66056824 0 0 0 0 -382255079.25314593 -99147435.00749588 0 -99147435.00749588 -55014843.886581421 0 0 0 0 -156388973.59843862 21999382.379707336 0 21999382.379707336 8275136.2492103577 0 0 0 0 -194985754.31681967 -200362659.38067245 0 -200362659.38067245 -116953064.09954834 0 0 0 0 65220159.515701041 -169091490.66832328 0 -169091490.66832328 -162079402.56630707 0 0 0 0 -21238008.847196341 -176566149.37144661 0 -176566149.37144661 -110966456.82666016 0 0 0 0 228099792.94157791 -140449097.86574173 0 -140449097.86574173 -259501730.18040466 0 0 0 0 -52453688.343896806 47880274.323122025 0 47880274.323122025 31602298.875324249 0 0 0 0 -99238448.849724412 194460230.82369423 0 194460230.82369423 -426236607.97605193 0 0 0 0 -222046121.95815861 -351251517.01960754 0 -351251517.01960754 -396796487.18899536 0 0 0 0 -266915977.8286075 116121922.8424778 0 116121922.8424778 90315.399120330811 0 0 0 0 3557485.9307952821 -35514226.820838928 0 -35514226.820838928 -6964115.9475443363 0 0 0 0 312006140.18729663 233062647.28626442 0 233062647.28626442 -167153580.89426041 0 0 0 0 22434937.71796006 -48246200.296140671 0 -48246200.296140671 29810397.224220276 0 0 0 0 -401653.06288568553 1168960.1632989813 0 1168960.1632989813 -1858222.6886053011 0 0 0 0 68660602.686044335 -178707990.41516495 0 -178707990.41516495 -63097704.045654297 0 0 0 0 315112741.6908291 -24025079.758836746 0 -24025079.758836746 -103183656.90647507 0 0 0 0 128188686.42333972 -147057705.36508179 0 -147057705.36508179 -179864838.91545105 0 0 0 0 375770431.63205099 281476961.16270161 0 281476961.16270161 -111679730.88277435 0 0 0 0 -400675.10533008433 1175186.4416282251 0 1175186.4416282251 -1809611.5047186278 0 0 0 0 322632616.98538089 27400586.261264801 0 27400586.261264801 -171199056.56066322 0 0 0 0 180972154.41459894 -798773.89387130737 0 -798773.89387130737 -151242199.61257935 0 0 0 0 97071399.947705388 213556245.75559807 0 213556245.75559807 -686761663.51663971 0 0 0 0 -296038560.27297616 -468768455.48021889 0 -468768455.48021889 -435825408.46668243 0 0 0 0 -4425455.3494763374 -136253008.70881271 0 -136253008.70881271 -57895708.020881653 0 0 0 0 -4434898.4312808514 -136084777.54781723 0 -136084777.54781723 -41982349.447601318 0 0 0 0 -8807844.3531370163 -105053690.24232483 0 -105053690.24232483 -124783953.88117218 0 0 0 0 52473089.264739037 -172585843.54253387 0 -172585843.54253387 -54601561.24956131 0 0 0 0 -12276856.86652565 -131935482.26016998 0 -131935482.26016998 -60090679.956417084 0 0 0 0 52431393.103706419 -83725006.987541199 0 -83725006.987541199 -159624721.94230652 0 0 0 0 -67087403.008914948 -38278645.486213684 0 -38278645.486213684 -59943600.088809967 0 0 0 0 -58565275.936192863 -40062223.309962273 0 -40062223.309962273 -34689264.357345581 0 0 0 0 128935.22554812505 351449.17827637866 0 351449.17827637866 -314281.49858495593 0 0 0 0 90312759.576987267 -48508603.225036621 0 -48508603.225036621 -206961346.45855713 0 0 0 0 39979900.287082195 -267579725.83287048 0 -267579725.83287048 -210213587.1288538 0 0 0 0 100752855.78476191 -111508827.73480606 0 -111508827.73480606 -215578920.54715729 0 0 0 0 46689361.47459507 -13737051.618011475 0 -13737051.618011475 -132453563.77163696 0 0 0 0 -212312.91965508787 189203.73561019078 0 189203.73561019078 -188044.38118452579 0 0 0 0 -181335623.63139153 -241996209.22344589 0 -241996209.22344589 23773200.341626167 0 0 0 0 125400870.25556348 26513090.350898743 0 26513090.350898743 -120531485.0687027 0 0 0 0 103069847.39097244 -32836683.154054642 0 -32836683.154054642 -83598927.826377869 0 0 0 0 1662380.3569812775 38500636.674316406 0 38500636.674316406 -204343905.37649965 0 0 0 0 -70486184.042286873 -35506561.356063843 0 -35506561.356063843 -118466305.42819214 0 0 0 0 -133236728.30367166 -127684978.17710209 0 -127684978.17710209 -237767582.8321228 0 0 0 0 -129634449.88298514 -10670531.904282331 0 -10670531.904282331 -187420378.43704224 0 0 0 0 64633532.523535967 41973751.551467896 0 41973751.551467896 -222978515.81004333 0 0 0 0 40785100.485017776 -25104104.072776794 0 -25104104.072776794 -194774917.33552551 0 0 0 0 -27379165.78491354 132184808.24262238 0 132184808.24262238 -101443561.67206001 0 0 0 0 -52953992.737967134 -1236673.6622810364 0 -1236673.6622810364 142701847.73977661 0 0 0 0 27117447.81795913 58473694.340400696 0 58473694.340400696 40919933.870117188 0 0 0 0 900193.55546569824 -3581375.1433410645 0 -3581375.1433410645 -18176667.647035599 0 0 0 0 61417.415384823107 59526.265873428434 0 59526.265873428434 -2505889.757914912 0 0 0 0 -24050262.584383726 -51998547.997344971 0 -51998547.997344971 -30565433.04302597 0 0 0 0 -42860218.834497586 -16364009.490769148 0 -16364009.490769148 11275964.264373779 0 0 0 0 95119.324001330009 -283662.03853620356 0 -283662.03853620356 -326378.67263840139 0 0 0 0 2986949.8393149376 -924705.38956832886 0 -924705.38956832886 1671135.8724517822 0 0 0 0 -110391570.48468933 -211600076.26468468 0 -211600076.26468468 -461789087.05957031 0 0 0 0 94058860.393078566 98867569.388141632 0 98867569.388141632 155903744.97919464 0 0 0 0 -230825.49622912193 519610.66945835482 0 519610.66945835482 -742593.54552622512 0 0 0 0 -229985350.75043568 187980488.15458512 0 187980488.15458512 200851437.78226471 0 0 0 0 80207347.293998837 -44000038.06955719 0 -44000038.06955719 -859983363.61843872 0 0 0 0 29516812.575595651 -155037553.68802088 0 -155037553.68802088 -547085158.86363983 0 0 0 0 -51665084.197372854 -238940645.62704468 0 -238940645.62704468 -454450934.034729 0 0 0 0 -164630387.87770653 -133278162.62750244 0 -133278162.62750244 -199541401.2019577 0 0 0 0 24738736.05618906 295544.59533691406 0 295544.59533691406 -233618562.71008396 0 0 0 0 -57170242.156566381 60840556.048002243 0 60840556.048002243 -191253739.08126831 0 0 0 0 -70113950.258842945 411454781.82048035 0 411454781.82048035 -71771198.912372589 0 0 0 0 262073129.97073245 141840677.13478851 0 141840677.13478851 -645447179.09934235 0 0 0 0 -96195926.703877926 570960944.54689407 0 570960944.54689407 -99261489.260093689 0 0 0 0 -29314624.890944004 113943682.41714478 0 113943682.41714478 581923619.40304565 0 0 0 0 2312122.1760423183 -3677202.1413269043 0 -3677202.1413269043 -623119.02546691895 0 0 0 0 194652.37196683884 -14549767.433717728 0 -14549767.433717728 5377551.2787852287 0 0 0 0 99036.533246664752 -2849301.2035100241 0 -2849301.2035100241 -678535.97535346448 0 0 0 0 554313.30500222382 -987114.88479288388 0 -987114.88479288388 -5813975.4602883868 0 0 0 0 1494279.0816894174 -1061485.1679272652 0 -1061485.1679272652 -776765.3981628418 0 0 0 0 1781829.3389906129 -2688517.9497875627 0 -2688517.9497875627 -4886002.9947445188 0 0 0 0 806021.98862293293 -891941.59952436481 0 -891941.59952436481 -2211386.180150209 0 0 0 0 1982637.0786271095 -2113542.0434341431 0 -2113542.0434341431 -1233996.0762405396 0 0 0 0 2574940.4205627441 -1863190.1855163574 0 -1863190.1855163574 -1291697.1436157227 0 0 0 0 1836883.2498545051 -2902250.2123084068 0 -2902250.2123084068 -2277507.939491272 0 0 0 0 1212777.3699794412 -2450381.4462428335 0 -2450381.4462428335 -8162191.7790430672 0 0 0 0 -388747.50135391462 -2254365.2106939387 0 -2254365.2106939387 -9743678.0682632234 0 0 0 0 7009587.5675945282 -7826528.3390254974 0 -7826528.3390254974 1328837.5821437836 0 0 0 0 3526964.8013784317 -4077853.9673238574 0 -4077853.9673238574 -10301558.928516973 0 0 0 0 726433.03535449505 -1963429.0753765106 0 -1963429.0753765106 -781841.19638061523 0 0 0 0 1234653.685076348 -4874834.1476922724 0 -4874834.1476922724 -557400.66658135504 0 0 0 0 74271644.65902853 -217699990.64467621 0 -217699990.64467621 691084841.72070503 0 0 0 0 -2158486.7290767394 -1362264.7412596252 0 -1362264.7412596252 -3119099.131890323 0 0 0 0 48376897.315358639 45579798.156036377 0 45579798.156036377 263617684.96694946 0 0 0 0 6382602.0395572484 -14353366.902696908 0 -14353366.902696908 10067024.41129303 0 0 0 0 2477993.370993495 -11788238.397680283 0 -11788238.397680283 11757514.853908539 0 0 0 0 -41681.724953044788 -5462821.2215052284 0 -5462821.2215052284 3833029.0096246917 0 0 0 0 -714551.54714667797 -8741547.136841774 0 -8741547.136841774 10331991.5991745 0 0 0 0 -129983.13836302113 -1662497.0593896653 0 -1662497.0593896653 194575.5002509933 0 0 0 0 -15111366.66349411 -19589949.415536404 0 -19589949.415536404 -15619026.731025696 0 0 0 0 185013.30524635315 -3542944.2258720398 0 -3542944.2258720398 428442.45092201233 0 0 0 0 -94884.413381576538 -26763551.52658844 0 -26763551.52658844 -35930897.684671402 0 0 0 0 1358461.406829834 -12365785.982694626 0 -12365785.982694626 -28465970.247509003 0 0 0 0 -862613.39499210939 -2615719.1990923779 0 -2615719.1990923779 -286595.17918404937 0 0 0 0 -2021585.165309906 4161812.0767707825 0 4161812.0767707825 15866125.50267601 0 0 0 0 -50987.18293094635 -2750530.3624916077 0 -2750530.3624916077 -11033620.821800232 0 0 0 0 375144.42502194643 -721394.7947716713 0 -721394.7947716713 -13912251.811454773 0 0 0 0 126240.45470821857 -247857.31747627258 0 -247857.31747627258 -15712294.009147644 0 0 0 0 -91357066.66908884 169769370.54734421 0 169769370.54734421 192163967.2696867 0 0 0 0 -226615.60514555871 -1882840.0708084106 0 -1882840.0708084106 -13016012.429986954 0 0 0 0 470984.69461289461 -196026.03209920786 0 -196026.03209920786 -5241091.3531958126 0 0 0 0 -607181.81996099651 -3306492.4136657715 0 -3306492.4136657715 -13491891.315326691 0 0 0 0 -1907055.7651655525 -2622734.9077949524 0 -2622734.9077949524 -11455934.587020874 0 0 0 0 46900.67964089103 -420861.58391952515 0 -420861.58391952515 -10795595.595777512 0 0 0 0 15313608.447707653 -6649085.4284610748 0 -6649085.4284610748 9294770.423248291 0 0 0 0 -1262403.5520560741 -2046275.8954696655 0 -2046275.8954696655 -5191270.5812301636 0 0 0 0 380067.81580021896 -1530585.7743040724 0 -1530585.7743040724 -13722212.061181016 0 0 0 0 859066.8511852026 -1769182.4149169922 0 -1769182.4149169922 -5216705.1736221313 0 0 0 0 785466.40059065819 -833041.14511108398 0 -833041.14511108398 -10237533.761333466 0 0 0 0 206656.47217226832 350092.78995005321 0 350092.78995005321 -343195.96591988206 0 0 0 0 1223346.617184639 -3052866.4686088562 0 -3052866.4686088562 -4930119.0448455811 0 0 0 0 1909441.4958527088 539636.17192745209 0 539636.17192745209 -3713014.4041824341 0 0 0 0 -259163.91971541371 -1010872.235318982 0 -1010872.235318982 -4809571.9248174727 0 0 0 0 8151289.9347913265 12360207.491470337 0 12360207.491470337 3817199.1132850647 0 0 0 0 -2929117.3621276617 -2277317.5061159134 0 -2277317.5061159134 -8875720.6632156372 0 0 0 0 -258176.05312330532 490037.7313236855 0 490037.7313236855 463117.54416638985 0 0 0 0 -8777492.9512941837 3723193.0532360077 0 3723193.0532360077 8473729.3237686157 0 0 0 0 -26751939.697397709 -1537709.046836853 0 -1537709.046836853 -413525.64860248566 0 0 0 0 1869798.5664408207 12617848.855407715 0 12617848.855407715 1424439.0612430573 0 0 0 0 6503829.8243299127 8350198.623488903 0 8350198.623488903 4652494.7328338623 0 0 0 0 -50974819.173505783 -52751351.779754639 0 -52751351.779754639 -60522202.137086391 0 0 0 0 11090075.274148328 4828492.2234336305 0 4828492.2234336305 -20847260.077111766 0 0 0 0 -53759252.333276629 -77390181.345233202 0 -77390181.345233202 -103603598.51787567 0 0 0 0 11280334.763877878 5829868.6674138978 0 5829868.6674138978 -20993938.96196039 0 0 0 0 15273026.218007445 45141773.464444637 0 45141773.464444637 23175822.176963806 0 0 0 0 20196935.214213371 12167508.609130859 0 12167508.609130859 2227764.497844696 0 0 0 0 -19426107.968551397 40457675.98412323 0 40457675.98412323 -17581616.194749832 0 0 0 0 42137214.069669008 55360356.989594936 0 55360356.989594936 11444045.06350708 0 0 0 0 18732543.017558575 14844797.892585754 0 14844797.892585754 6906073.3147697449 0 0 0 0 -3635606.533844471 -15218934.187181473 0 -15218934.187181473 -28142033.328012466 0 0 0 0 25468646.919856071 18173307.216796875 0 18173307.216796875 -18761449.679908752 0 0 0 0 15258357.465710521 -5496653.9713802338 0 -5496653.9713802338 -66231306.423290253 0 0 0 0 -19923787.381222963 25725544.729141235 0 25725544.729141235 -76802029.492763519 0 0 0 0 -22114443.601886272 -31312601.015808105 0 -31312601.015808105 -34079945.032859802 0 0 0 0 -12312066.621613264 27040853.634132385 0 27040853.634132385 -77770027.142868042 0 0 0 0 58375583.531660676 -28507926.925325394 0 -28507926.925325394 -78442883.440896988 0 0 0 0 -8080067.1352624893 22795780.492340088 0 22795780.492340088 -81527824.050646782 0 0 0 0 101814.24172965041 787375.40721667744 0 787375.40721667744 -633076.38342639059 0 0 0 0 -47357728.912419885 8857060.9312944412 0 8857060.9312944412 -69952017.153121948 0 0 0 0 6553976.9996328354 22582108.430114746 0 22582108.430114746 -81657777.344055176 0 0 0 0 86756.90550570935 149747.03197607771 0 149747.03197607771 -844138.07156496868 0 0 0 0 -19450147.745075703 -14516214.404907227 0 -14516214.404907227 -22917967.925590515 0 0 0 0 14241868.958004236 25696041.898757935 0 25696041.898757935 -78113045.081620216 0 0 0 0 34888438.774263859 -17157064.091201782 0 -17157064.091201782 -61822966.492542267 0 0 0 0 -1949707.0772550106 -2880742.9898719788 0 -2880742.9898719788 -13678777.583325863 0 0 0 0 -2918203.8187901974 -5018403.1857795715 0 -5018403.1857795715 -18387236.677680969 0 0 0 0 -35281351.373639226 -8451083.9087352753 0 -8451083.9087352753 -6000339.1832275391 0 0 0 0 -17020903.84297657 -77636209.732721329 0 -77636209.732721329 -26966704.218078613 0 0 0 0 -56362367.286020279 49978319.825523376 0 49978319.825523376 -67308418.587080002 0 0 0 0 2516145.8000869751 17741814.165687561 0 17741814.165687561 -53184128.611671448 0 0 0 0 1860136.0816561673 1460811.4791644998 0 1460811.4791644998 -4635729.6701610237 0 0 0 0 64423213.819379807 65035769.26751709 0 65035769.26751709 -65485925.069671631 0 0 0 0 -38126602.898738146 107252670.29027176 0 107252670.29027176 -6338311.0211791992 0 0 0 0 -127707090.63578916 107161290.4030571 0 107161290.4030571 12417871.141372681 0 0 0 0 180682618.51857376 212499740.92828369 0 212499740.92828369 32669225.431739807 0 0 0 0 -21708837.347327709 1878433.5216064453 0 1878433.5216064453 -32955016.966976166 0 0 0 0 85190879.866486073 -155202882.91525841 0 -155202882.91525841 -105967945.23712158 0 0 0 0 308856019.56516367 -88471197.995101929 0 -88471197.995101929 -10707026.544525146 0 0 0 0 -81140979.130182028 -128135439.06949782 0 -128135439.06949782 -158396571.41485596 0 0 0 0 -66180256.638451815 116286.02725982666 0 116286.02725982666 -124111401.39985275 0 0 0 0 -4511673.6061718659 -387444.4381605275 0 -387444.4381605275 2232376.883389499 0 0 0 0 -52586165.488834023 -89709716.035010815 0 -89709716.035010815 -120363458.66181946 0 0 0 0 -84438463.735689163 -80793919.506690979 0 -80793919.506690979 -111017861.68136406 0 0 0 0 1476210.0751312037 728743.90404748172 0 728743.90404748172 -2297142.1772113442 0 0 0 0 27748149.418485165 67040978.750564575 0 67040978.750564575 -105791507.97903442 0 0 0 0 -3793279.7183944564 -1664073.3674977198 0 -1664073.3674977198 2699686.8146303669 0 0 0 0 -116886935.48387909 -36086819.721466064 0 -36086819.721466064 -204825828.2048645 0 0 0 0 -44613809.750226021 -143587863.55315399 0 -143587863.55315399 -45853922.684074402 0 0 0 0 -69558424.823484421 -95746279.990211487 0 -95746279.990211487 -113319284.93983459 0 0 0 0 -70553739.360795975 -77275480.10042572 0 -77275480.10042572 -89804294.885321617 0 0 0 0 -54785498.067960739 -64314200.73664093 0 -64314200.73664093 -101626819.12692165 0 0 0 0 37116145.840359688 14390586.788150787 0 14390586.788150787 -15953039.063419342 0 0 0 0 34780151.080647945 45409687.866266251 0 45409687.866266251 21306940.14151001 0 0 0 0 10881597.83242959 6163698.5579865761 0 6163698.5579865761 -21566568.226540681 0 0 0 0 -54172406.017009735 -52832266.019500732 0 -52832266.019500732 -114256919.67897034 0 0 0 0 -47551205.600496054 -83698246.865222454 0 -83698246.865222454 -152639803.45188904 0 0 0 0 -112515962.50579071 -106281517.04941559 0 -106281517.04941559 -113137557.71689391 0 0 0 0 7504530.4403152466 -32856781.045722961 0 -32856781.045722961 -117861665.41493368 0 0 0 0 -73171119.919735432 -189384449.83636665 0 -189384449.83636665 -203864711.78633118 0 0 0 0 -67543689.182292938 -116622109.98812866 0 -116622109.98812866 -171492178.97197342 0 0 0 0 -28716342.837099075 6531911.4678955078 0 6531911.4678955078 -50913733.834552765 0 0 0 0 -5564026.690470865 613301.14101749659 0 613301.14101749659 1615903.3790589795 0 0 0 0 52601541.363335133 65838243.971728325 0 65838243.971728325 -52898070.714374542 0 0 0 0 8015084.6623931453 3999148.0726814158 0 3999148.0726814158 -24653298.115728028 0 0 0 0 -987784.20123898983 -147750004.50097084 0 -147750004.50097084 -161085642.45587158 0 0 0 0 -47606766.828201294 -61477188.394348145 0 -61477188.394348145 -13044434.715301514 0 0 0 0 9935435.1516774744 5763142.2906070091 0 5763142.2906070091 -22678924.567445241 0 0 0 0 30927509.311769485 54134248.551744461 0 54134248.551744461 29859538.111698151 0 0 0 0 4530134.1716127396 25664857.438625336 0 25664857.438625336 16846906.572938919 0 0 0 0 32961674.795761108 -22827498.491994858 0 -22827498.491994858 -207936130.52072906 0 0 0 0 215323.94851533044 566742.5681628976 0 566742.5681628976 -458250.69980571978 0 0 0 0 23433921.14402771 13989513.03320694 0 13989513.03320694 -4380682.5291500092 0 0 0 0 2452929.1129932404 23351016.618587494 0 23351016.618587494 7486635.828792572 0 0 0 0 38052843.660888255 18885820.483114481 0 18885820.483114481 -1418355.5749473572 0 0 0 0 16381188.252861023 -7821224.0798983574 0 -7821224.0798983574 -30149057.212219238 0 0 0 0 173685.82794748107 1002966.501718916 0 1002966.501718916 -775729.0638207607 0 0 0 0 11085228.431878567 -87795810.638694763 0 -87795810.638694763 -235518956.31623077 0 0 0 0 31136826.073993206 -57405020.827198029 0 -57405020.827198029 -190072347.00201416 0 0 0 0 -17350114.969631195 -85173858.72618866 0 -85173858.72618866 -186157697.06676483 0 0 0 0 -19080493.24874568 -104895975.82504463 0 -104895975.82504463 -134320776.51335144 0 0 0 0 2231492.5868215561 -58392261.030063629 0 -58392261.030063629 -155730266.91899109 0 0 0 0 1304814.478903689 -1723342.5711565949 0 -1723342.5711565949 -2225535.3341071196 0 0 0 0 132102460.86162615 2368570.7841110229 0 2368570.7841110229 -39245262.091964722 0 0 0 0 -78035909.368484497 -77456604.755363464 0 -77456604.755363464 -52293882.005132675 0 0 0 0 -149895596.42423058 -126134720.7123909 0 -126134720.7123909 -67895100.324249268 0 0 0 0 -41773117.325849533 -96811106.066009521 0 -96811106.066009521 -128382582.74766541 0 0 0 0 -58369778.865906239 -75127574.40231514 0 -75127574.40231514 -100609882.44902039 0 0 0 0 -35840855.622384071 -49440619.936199188 0 -49440619.936199188 -77323427.789840698 0 0 0 0 -37351445.327734947 -45077625.802196503 0 -45077625.802196503 -33619281.500762939 0 0 0 0 -10621873.905230999 -22987352.064037323 0 -22987352.064037323 -82163373.4923172 0 0 0 0 28314195.497638404 -34945022.684205532 0 -34945022.684205532 -168485081.17471313 0 0 0 0 -2608655.2469024658 -54768584.40536499 0 -54768584.40536499 -124206043.50612259 0 0 0 0 -8623212.4989705086 -37366628.626783371 0 -37366628.626783371 -168518110.94488525 0 0 0 0 3140946.5394353867 16036144.70545578 0 16036144.70545578 -159578490.49258041 0 0 0 0 3771043.9187040329 -37731897.818447113 0 -37731897.818447113 -87383021.013835907 0 0 0 0 -5808813.5144484043 -56498165.251292229 0 -56498165.251292229 -22334653.495052338 0 0 0 0 88986089.246567726 -24687360.395729065 0 -24687360.395729065 -78713086.430556297 0 0 0 0 -440929.46850728989 3288617.0961992741 0 3288617.0961992741 -44058470.412590027 0 0 0 0 77653036.807895005 224309583.18275833 0 224309583.18275833 -59229066.969573975 0 0 0 0 48712318.721826091 -77347936.682052612 0 -77347936.682052612 -199338301.43787193 0 0 0 0 8128409.58010602 -245869725.77123642 0 -245869725.77123642 -507627632.3748436 0 0 0 0 214961935.590271 185978448.28483963 0 185978448.28483963 -611402194.00036812 0 0 0 0 -370098009.8880322 42231812.688810349 0 42231812.688810349 286592452.22949219 0 0 0 0 -631187.34827679268 692564.47781428136 0 692564.47781428136 -565474.26428601146 0 0 0 0 -66564659.453431606 -9517712.800113678 0 -9517712.800113678 -11649810.097343445 0 0 0 0 -708927700.19059718 -179214647.73343277 0 -179214647.73343277 257092386.08270264 0 0 0 0 -278785.8807571542 1009309.9036897179 0 1009309.9036897179 -971502.58859153464 0 0 0 0 57269627.522117615 -43853334.407447815 0 -43853334.407447815 -69520096.293384552 0 0 0 0 -3522117.0673804283 -16561477.496669769 0 -16561477.496669769 -23410300.074251175 0 0 0 0 -62057643.007379055 9301168.0890693665 0 9301168.0890693665 15771247.757972717 0 0 0 0 22354.008740794146 984157.82031075284 0 984157.82031075284 -745621.30836777762 0 0 0 0 10292884.895794868 12444182.425329208 0 12444182.425329208 -6115239.6035938263 0 0 0 0 37368532.842923522 -57417766.700407982 0 -57417766.700407982 -65851214.605499268 0 0 0 0 -65446523.801685333 72793841.457839966 0 72793841.457839966 -73837617.186105728 0 0 0 0 54941637.669835567 -54708537.794765472 0 -54708537.794765472 -351695480.68346024 0 0 0 0 169151.76081187581 528937.65111212246 0 528937.65111212246 -618138.51440240815 0 0 0 0 55982683.706787385 -78287656.36186409 0 -78287656.36186409 -231301264.39871979 0 0 0 0 23661823.573910594 -70439553.587406158 0 -70439553.587406158 -233206926.12893295 0 0 0 0 -105068641.79784489 -77986962.459972382 0 -77986962.459972382 -157937614.07569122 0 0 0 0 -46807737.107246399 36783633.06803894 0 36783633.06803894 -220739711.43450165 0 0 0 0 8771216.8433713913 -23496765.369777679 0 -23496765.369777679 -189953730.61152649 0 0 0 0 32780324.671187401 -79337024.620605469 0 -79337024.620605469 -106326806.79998875 0 0 0 0 -14619758.142539024 -83061938.611419678 0 -83061938.611419678 -106461688.61274719 0 0 0 0 -37317860.519656181 -29933651.630804062 0 -29933651.630804062 -92198781.307800293 0 0 0 0 22939092.766849518 -21559743.949737549 0 -21559743.949737549 -91035995.916261673 0 0 0 0 -1877846.1141047478 -45564005.831384659 0 -45564005.831384659 -45956996.053756714 0 0 0 0 54784123.128400803 -42837667.571357727 0 -42837667.571357727 -52029824.478107452 0 0 0 0 38886582.521829605 -67964592.002658844 0 -67964592.002658844 -20636921.093390465 0 0 0 0 -6478984.2569140196 -33056718.768558502 0 -33056718.768558502 -104783947.12228394 0 0 0 0 1712469.3521711826 -21948995.202739716 0 -21948995.202739716 -154532177.85555267 0 0 0 0 -17402176.37500912 -44029001.815185547 0 -44029001.815185547 -68279228.486404419 0 0 0 0 8129595.7238528132 -7596231.6615772247 0 -7596231.6615772247 -88165156.307998657 0 0 0 0 -4063979.4163188934 -45839268.64414978 0 -45839268.64414978 -48739897.049537659 0 0 0 0 -12743655.671772003 -21049673.904918671 0 -21049673.904918671 -54274774.461402893 0 0 0 0 -61981840.73067534 -56620179.716911316 0 -56620179.716911316 -39257155.781427383 0 0 0 0 -16811949.209426135 -47403401.848179817 0 -47403401.848179817 -120230295.94252777 0 0 0 0 17594799.506223962 -82809573.632766724 0 -82809573.632766724 -128525917.26603031 0 0 0 0 -30167503.605300263 -158128254.16798401 0 -158128254.16798401 -244351711.02479553 0 0 0 0 80970563.438696265 -87433150.305185318 0 -87433150.305185318 -244867804.93666077 0 0 0 0 324398.59223685111 -483554.63760157372 0 -483554.63760157372 -2211933.1432358101 0 0 0 0 -235395626.12899232 299998695.03920174 0 299998695.03920174 -22824262.617019653 0 0 0 0 -275412045.37158942 -226445344.63462639 0 -226445344.63462639 -163772791.43157578 0 0 0 0 -122048709.21647263 -77510334.506633759 0 -77510334.506633759 -19139116.146881104 0 0 0 0 -37561180.260203004 3914176.7150735855 0 3914176.7150735855 -10308230.161567688 0 0 0 0 7094643.3627326488 1682604.7144813538 0 1682604.7144813538 -30879464.582176208 0 0 0 0 19796566.599085331 -16015040.781715393 0 -16015040.781715393 -14048787.866088867 0 0 0 0 1274073.3667889533 -2145851.0255937544 0 -2145851.0255937544 -5929437.7210783064 0 0 0 0 -9790010.5894762278 -1106605.1008901596 0 -1106605.1008901596 5858219.2968215942 0 0 0 0 14794482.56405735 -4964947.8996086121 0 -4964947.8996086121 2949168.5407371521 0 0 0 0 7146886.1328057051 -14345470.977310181 0 -14345470.977310181 5583343.9654245377 0 0 0 0 -15187000.043510437 -14276672.743034363 0 -14276672.743034363 5787819.9732704163 0 0 0 0 -30073723.305031568 -20898279.020549774 0 -20898279.020549774 1224631.8457870483 0 0 0 0 -3755366.5240727216 -13613954.580368996 0 -13613954.580368996 -1694986.1330718994 0 0 0 0 -21786228.054676533 -15822468.379871368 0 -15822468.379871368 -24515764.235298157 0 0 0 0 -27196363.915944189 -41504996.290964127 0 -41504996.290964127 -19851800.297019958 0 0 0 0 -10072421.512482405 -23790447.979118347 0 -23790447.979118347 -4650426.7548217773 0 0 0 0 5847889.4800959826 -54691746.833112717 0 -54691746.833112717 1144463.2006149292 0 0 0 0 24894947.842309952 -50611958.239345551 0 -50611958.239345551 10113006.480377197 0 0 0 0 7300008.7821884155 -18060776.789016724 0 -18060776.789016724 -14502716.89415741 0 0 0 0 67477157.456649303 -36715952.246505737 0 -36715952.246505737 -12107136.747322083 0 0 0 0 1190537.2290173534 -4555720.2272930052 0 -4555720.2272930052 -1558665.8319359161 0 0 0 0 3493376.021171093 -10546292.966579437 0 -10546292.966579437 2032952.986618042 0 0 0 0 1822374.4059627235 -11595488.729580704 0 -11595488.729580704 -6711820.9285910502 0 0 0 0 13380869.986313581 -32294776.553691864 0 -32294776.553691864 -12385710.954807281 0 0 0 0 -546158.35449182987 -9097614.0302753448 0 -9097614.0302753448 -4555173.4249725342 0 0 0 0 -61319.223428692843 -12662065.070446992 0 -12662065.070446992 -1834429.9302915931 0 0 0 0 12380929.152092695 -25185808.116138458 0 -25185808.116138458 856010.71961212158 0 0 0 0 -7633082.7163668275 -32875920.098391533 0 -32875920.098391533 -292735.44219207764 0 0 0 0 -1729161.1344158649 -21827136.676708221 0 -21827136.676708221 2713204.2546920776 0 0 0 0 -11070361.651926994 -15813650.265190125 0 -15813650.265190125 32479801.010772705 0 0 0 0 5562448.838107883 -12179882.194038916 0 -12179882.194038916 -16082902.885740492 0 0 0 0 -340975.18712381832 -6562526.4137743674 0 -6562526.4137743674 5357621.1218112409 0 0 0 0 4446563.3951826096 -12854664.2473526 0 -12854664.2473526 11596926.630599976 0 0 0 0 1240153.8569735617 -8155398.4919090206 0 -8155398.4919090206 -3974487.2126287967 0 0 0 0 -6864411.2802033424 -24016508.104240417 0 -24016508.104240417 6732513.3160552979 0 0 0 0 2411313.6711953389 -8311198.1690828651 0 -8311198.1690828651 -8202336.4213524088 0 0 0 0 -7537132.5284366608 -9614764.0285720825 0 -9614764.0285720825 -2464158.6319084167 0 0 0 0 17344128.8355093 -38353774.14705658 0 -38353774.14705658 3022043.8997039795 0 0 0 0 -10048021.436738014 -32948940.422782898 0 -32948940.422782898 15444193.885139465 0 0 0 0 6157300.085931778 -35202414.81098938 0 -35202414.81098938 27560925.611081123 0 0 0 0 104865083.77109241 -78804637.198989868 0 -78804637.198989868 -10525237.956855774 0 0 0 0 8163874.0672928095 -10753753.439034946 0 -10753753.439034946 -18503569.989336852 0 0 0 0 2316225.5709847212 -9084529.6886615753 0 -9084529.6886615753 9064425.3533287048 0 0 0 0 10140749.298528671 -36516639.108776093 0 -36516639.108776093 11450141.063064575 0 0 0 0 -1525812.4362982411 -15167840.820654357 0 -15167840.820654357 -24778167.509938166 0 0 0 0 -613895.60342806205 -12115599.053823121 0 -12115599.053823121 -28487018.074170575 0 0 0 0 83258925.142364502 -56623429.566347122 0 -56623429.566347122 -42117834.998527527 0 0 0 0 -16240185.114333153 -41891197.73740387 0 -41891197.73740387 -10393424.053535461 0 0 0 0 -16650610.913146257 -43904979.256918907 0 -43904979.256918907 -18371516.343719482 0 0 0 0 11022179.343471527 -57508056.633195877 0 -57508056.633195877 -9907268.217277348 0 0 0 0 -8684852.4470710754 -36882746.901922226 0 -36882746.901922226 -7206519.2263336182 0 0 0 0 -697851.95412538724 -11536717.28958053 0 -11536717.28958053 4493783.9867130741 0 0 0 0 -50286324.636746168 -52785069.892250299 0 -52785069.892250299 -11433710.90713501 0 0 0 0 -36641442.968416214 -42350528.523658752 0 -42350528.523658752 -10217789.344306946 0 0 0 0 -194157.4670647867 542004.39658649452 0 542004.39658649452 1401680.5342887575 0 0 0 0 -50150278.421369553 -51424444.500858307 0 -51424444.500858307 -7686175.5556335449 0 0 0 0 -41363368.441711426 -56501878.099151611 0 -56501878.099151611 -10821288.763336182 0 0 0 0 -44288764.653640747 -55627937.266464233 0 -55627937.266464233 -9570206.2287063599 0 0 0 0 -42996156.213388443 -61348108.922359467 0 -61348108.922359467 -29486101.310317993 0 0 0 0 -73927621.983125687 -62216721.068119049 0 -62216721.068119049 -31113785.65297699 0 0 0 0 -43016044.62992797 -45670315.948513962 0 -45670315.948513962 -22383268.656066895 0 0 0 0 2576493.0154309273 -19237922.408443451 0 -19237922.408443451 -8775102.635848999 0 0 0 0 5490174.0043535233 -9539231.2899017334 0 -9539231.2899017334 -548552.96719360352 0 0 0 0 705779.91157850076 -9584365.2320021354 0 -9584365.2320021354 -7368103.4398177043 0 0 0 0 -2201649.2528509619 -8548593.8684414383 0 -8548593.8684414383 8762178.4289371371 0 0 0 0 6026103.3591804504 -6403257.2099609375 0 -6403257.2099609375 -7996607.5790557861 0 0 0 0 6892509.4027523994 -12681238.086990356 0 -12681238.086990356 -2874471.7137069702 0 0 0 0 7624460.637611866 -6850268.0928726196 0 -6850268.0928726196 -7876393.5115356445 0 0 0 0 -276316.69044290355 -10448338.993304644 0 -10448338.993304644 -79692.95417939499 0 0 0 0 -12383454.642160892 -16430155.409423828 0 -16430155.409423828 944576.17984008789 0 0 0 0 152834.15912275133 -403969.32943121344 0 -403969.32943121344 -1373385.6697537228 0 0 0 0 22053619.316669069 -23263409.186310768 0 -23263409.186310768 -20366702.860855103 0 0 0 0 -1586011.0042735636 -21814274.159172058 0 -21814274.159172058 -11757935.070465088 0 0 0 0 9314575.2781178951 -14582981.653579712 0 -14582981.653579712 -10977813.206687927 0 0 0 0 12286203.957899481 -34665652.200790405 0 -34665652.200790405 -40661941.461471558 0 0 0 0 -32796567.243400097 -28028666.508056641 0 -28028666.508056641 -14285822.90486145 0 0 0 0 722798.80902082869 -9294921.5986456014 0 -9294921.5986456014 -7765175.1014618799 0 0 0 0 -8125874.0936626196 -32277242.57600975 0 -32277242.57600975 -14993018.439056396 0 0 0 0 -5478102.3405464552 -12102130.544948503 0 -12102130.544948503 12916663.544544421 0 0 0 0 -3529370.3760275841 -56859980.384304047 0 -56859980.384304047 -33262833.396682739 0 0 0 0 -23813406.381088257 -34661944.603336334 0 -34661944.603336334 -71761.003294944763 0 0 0 0 -88479054.317817688 -42813695.954956055 0 -42813695.954956055 -31529279.126983643 0 0 0 0 -57726823.466244936 -66602468.542032242 0 -66602468.542032242 -36145422.413711548 0 0 0 0 22798417.004813194 60167956.443222046 0 60167956.443222046 -91755725.169692993 0 0 0 0 -2067518.6639944739 -3010366.2536626533 0 -3010366.2536626533 -1140907.6879719123 0 0 0 0 -1172699.5728217149 -3258197.51013254 0 -3258197.51013254 -2389959.7768309489 0 0 0 0 3672938.237402916 -105016068.76283264 0 -105016068.76283264 92508784.681884766 0 0 0 0 -54623158.043165207 21101992.981719971 0 21101992.981719971 -180240842.78540039 0 0 0 0 -63813435.130221367 -84468640.75302887 0 -84468640.75302887 86762678.297058105 0 0 0 0 192071638.89226103 11404434.579500198 0 11404434.579500198 -28403942.641433716 0 0 0 0 -1158122.6021387116 -1414017.6956979968 0 -1414017.6956979968 944313.5201536268 0 0 0 0 277953138.51323891 -48080332.72838974 0 -48080332.72838974 -144764179.07585144 0 0 0 0 -59223086.428487778 63034631.799209595 0 63034631.799209595 -80553585.223890781 0 0 0 0 177698877.61108208 -313103906.59683228 0 -313103906.59683228 -96454367.160387993 0 0 0 0 31211575.882649422 -130198254.78305054 0 -130198254.78305054 23221490.249404907 0 0 0 0 -1163278.1117188723 -562880.80785813928 0 -562880.80785813928 270595.42306078225 0 0 0 0 138688868.09600067 -266685225.7295723 0 -266685225.7295723 151468883.70770264 0 0 0 0 421998428.15820885 -150983158.78149033 0 -150983158.78149033 -36258194.212814331 0 0 0 0 -127337527.60289097 -148670577.55577087 0 -148670577.55577087 -24414264.124603271 0 0 0 0 -16451861.127420902 -37542370.987167358 0 -37542370.987167358 -68788549.319770813 0 0 0 0 -68935759.147766352 -19261887.657012939 0 -19261887.657012939 -36338090.39012146 0 0 0 0 13103326.890546799 -36054665.174057007 0 -36054665.174057007 -51029337.706207275 0 0 0 0 184642630.53184128 -130940590.90863037 0 -130940590.90863037 -50961743.81375885 0 0 0 0 24245522.175108939 -20745320.516033173 0 -20745320.516033173 -33788455.451934814 0 0 0 0 44384664.740175247 -156088360.65299988 0 -156088360.65299988 -37871862.278137207 0 0 0 0 90930185.312555313 -53664314.768074036 0 -53664314.768074036 -20687797.234947205 0 0 0 0 38832311.984151602 -18650105.020111084 0 -18650105.020111084 -45295301.573242188 0 0 0 0 44059261.884056807 -4739908.2018814087 0 -4739908.2018814087 -11159165.98626709 0 0 0 0 25201212.630646676 8699122.1254425049 0 8699122.1254425049 -33102527.288772583 0 0 0 0 9677159.0074721966 4912233.9744772911 0 4912233.9744772911 -19331477.692138672 0 0 0 0 -17837866.159408092 -23955658.508232117 0 -23955658.508232117 -21030654.872467041 0 0 0 0 18620977.256264269 -17892012.177482605 0 -17892012.177482605 -44623385.62322998 0 0 0 0 18984182.200859368 -10159825.361238003 0 -10159825.361238003 5742991.087097168 0 0 0 0 -522240.18206452148 -714011.97520470619 0 -714011.97520470619 -1000824.1648765951 0 0 0 0 67176896.225494385 -10587382.750793457 0 -10587382.750793457 -28188641.931159973 0 0 0 0 80703634.026175022 35406949.492706299 0 35406949.492706299 -55565827.024719238 0 0 0 0 -412240.3279541753 516628.29381154291 0 516628.29381154291 -98266.79916511476 0 0 0 0 27625777.392944306 25024721.696318626 0 25024721.696318626 3169201.9374542236 0 0 0 0 -66494865.836569443 -98908232.245313644 0 -98908232.245313644 -80063024.445648193 0 0 0 0 -41675776.64086175 21853826.079534531 0 21853826.079534531 -40083059.811172485 0 0 0 0 -43335.955403412896 -1366269.9274534546 0 -1366269.9274534546 -46841.096605217084 0 0 0 0 15088968.282739282 -69431951.651329041 0 -69431951.651329041 182920203.26595116 0 0 0 0 7116505.6253813505 -92475323.460235596 0 -92475323.460235596 -116732495.78689766 0 0 0 0 172270785.60951295 -40107742.017580986 0 -40107742.017580986 132400845.18408203 0 0 0 0 65041602.257530928 -132959787.73521423 0 -132959787.73521423 24601518.347076416 0 0 0 0 62803191.082149506 -10370849.941741943 0 -10370849.941741943 -125639982.13587952 0 0 0 0 -15808743.320285082 -126157308.3948822 0 -126157308.3948822 -81761435.107254028 0 0 0 0 65071386.299268007 -108271289.78240967 0 -108271289.78240967 -120869789.69728088 0 0 0 0 99246867.222279549 -86680827.959777832 0 -86680827.959777832 -54560451.306236267 0 0 0 0 135698995.88103867 -112012132.66629028 0 -112012132.66629028 78023250.611022949 0 0 0 0 123323994.48578167 -12274722.386962891 0 -12274722.386962891 2122612.0447692871 0 0 0 0 118729509.64146566 -84837211.464691162 0 -84837211.464691162 108900445.86238098 0 0 0 0 71278103.010616302 -21356194.345489502 0 -21356194.345489502 34136104.576705933 0 0 0 0 228156987.72947502 -2584961.0342712402 0 -2584961.0342712402 -2069660.1233520508 0 0 0 0 82120690.791293144 -133373611.4213562 0 -133373611.4213562 46289733.746616364 0 0 0 0 100270323.09780884 -75390816.116081238 0 -75390816.116081238 49330763.585693359 0 0 0 0 71977977.726191044 -115472829.92578888 0 -115472829.92578888 64084189.095031738 0 0 0 0 117348787.65214014 -208861592.02076721 0 -208861592.02076721 -76808136.176635742 0 0 0 0 -72609856.015546381 31207618.176212311 0 31207618.176212311 -153704900.65536499 0 0 0 0 109248682.20001054 -193640620.97983551 0 -193640620.97983551 23554577.424697876 0 0 0 0 2402223.4431930571 59926.999820202589 0 59926.999820202589 -2873441.025699541 0 0 0 0 -78517137.315648079 112821039.45823669 0 112821039.45823669 -184323410.52679443 0 0 0 0 -10613581.917996407 177536900.48983002 0 177536900.48983002 -177805379.72393799 0 0 0 0 -91852614.872673035 128661084.51837158 0 128661084.51837158 127031088.05688477 0 0 0 0 -91925942.0013237 134530304.43231201 0 134530304.43231201 -112842816.65789795 0 0 0 0 -158669442.23364258 201587961.03123474 0 201587961.03123474 -140458377.67276001 0 0 0 0 -67236637.973636627 223038839.54684448 0 223038839.54684448 -141379483.92036438 0 0 0 0 -67817353.39025116 217739589.14901733 0 217739589.14901733 -15365830.230895996 0 0 0 0 -225146154.58116341 223753659.45347595 0 223753659.45347595 -172398028.04472351 0 0 0 0 -85711635.257602692 200607409.01127625 0 200607409.01127625 -198675135.63415527 0 0 0 0 -231836237.41266155 221684832.35569763 0 221684832.35569763 -191587964.56348419 0 0 0 0 -165800050.42878222 235290125.92893982 0 235290125.92893982 -200574869.69393921 0 0 0 0 -206295031.88389778 174438066.35987854 0 174438066.35987854 -150893901.85189819 0 0 0 0 23268255.820486069 1262782.7811126709 0 1262782.7811126709 -2409046.8536529541 0 0 0 0 -71472447.988115311 -33010124.351890564 0 -33010124.351890564 66318251.88523674 0 0 0 0 2897411.7038807496 344559.26900176331 0 344559.26900176331 -2685485.6950336918 0 0 0 0 643684.37191743962 -257842.35783774778 0 -257842.35783774778 -585268.35450901464 0 0 0 0 108727507.31240463 35470626.634471893 0 35470626.634471893 3096104.3804473877 0 0 0 0 -136705035.0854969 104418736.56427765 0 104418736.56427765 -164578811.45043945 0 0 0 0 -169584461.53857994 187205207.25848389 0 187205207.25848389 -146469917.14025116 0 0 0 0 877912.48272989038 -377028.07953815162 0 -377028.07953815162 -1019708.094727166 0 0 0 0 113307400.32365417 28537788.629737854 0 28537788.629737854 -10496554.849052429 0 0 0 0 42259812.121221542 -95379925.006374359 0 -95379925.006374359 -188621373.07502556 0 0 0 0 32087235.493518829 127864559.04321861 0 127864559.04321861 34484386.071029663 0 0 0 0 262967022.02791882 -33820396.665225983 0 -33820396.665225983 -244364459.44982147 0 0 0 0 -65448936.054892063 -114176170.13908195 0 -114176170.13908195 42965213.09954834 0 0 0 0 1216037.4469976258 -1184404.6964303888 0 -1184404.6964303888 -58986.733063496649 0 0 0 0 -102875271.26427269 9680113.7632675171 0 9680113.7632675171 20610839.608769417 0 0 0 0 31723290.096356392 385374.8288192749 0 385374.8288192749 -146846843.92034912 0 0 0 0 26772141.541510582 11996761.200363159 0 11996761.200363159 -34025527.7056427 0 0 0 0 7879963.2394515276 -51832230.137499809 0 -51832230.137499809 -122860714.6444397 0 0 0 0 10101884.502948761 -35691326.283351898 0 -35691326.283351898 -43189719.844516754 0 0 0 0 -41620634.46980834 -40054691.678587914 0 -40054691.678587914 -29600058.886962891 0 0 0 0 -118126797.4235059 -115418425.51647282 0 -115418425.51647282 -92307224.446434021 0 0 0 0 41621909.985291481 -86793534.951099396 0 -86793534.951099396 -90270708.141334534 0 0 0 0 49505110.042851448 -20108589.259601593 0 -20108589.259601593 -22884469.818603516 0 0 0 0 1435823.8498692513 -58072312.621103287 0 -58072312.621103287 -17525734.679504395 0 0 0 0 26900476.616052628 -53124472.2056427 0 -53124472.2056427 -148371608.61782455 0 0 0 0 -68443.984607364051 -2270573.6923091263 0 -2270573.6923091263 -78769.960877008736 0 0 0 0 -40598546.957939625 -73344000.064125061 0 -73344000.064125061 4546431.5867455006 0 0 0 0 -41708340.832943916 -27898287.243061066 0 -27898287.243061066 48671002.497596741 0 0 0 0 -6951.1483131172135 -1310786.4650196768 0 -1310786.4650196768 -48016.196797846118 0 0 0 0 122630374.67225647 8431229.4856185913 0 8431229.4856185913 -112557595.56432867 0 0 0 0 120969011.66725922 -23349418.816711426 0 -23349418.816711426 29283671.725341797 0 0 0 0 -22473451.102226257 -58838585.974891663 0 -58838585.974891663 141044107.09735107 0 0 0 0 -91378491.968554497 -59664486.710277557 0 -59664486.710277557 33734434.82951355 0 0 0 0 216581307.83435154 122447084.31591225 0 122447084.31591225 -16036174.366195679 0 0 0 0 138830930.53956604 -13776159.644714355 0 -13776159.644714355 34366337.90165782 0 0 0 0 151738120.00080299 -34210776.25050354 0 -34210776.25050354 9911724.7592163086 0 0 0 0 150115708.37650299 -36201381.987518311 0 -36201381.987518311 7515067.571472168 0 0 0 0 19574531.796045303 -2639913.1169700623 0 -2639913.1169700623 -9893572.5148010254 0 0 0 0 73230318.626983643 35956375.430427551 0 35956375.430427551 -126985333.18795776 0 0 0 0 3140580.2768973266 5349725.2480870057 0 5349725.2480870057 -14782191.746665947 0 0 0 0 15160003.3465271 -6373957.3794555664 0 -6373957.3794555664 -10936248.621200562 0 0 0 0 16162461.828899384 -5297288.5639953613 0 -5297288.5639953613 -10243046.080871582 0 0 0 0 10153802.327428818 -1192320.1037540436 0 -1192320.1037540436 -5751327.0952453613 0 0 0 0 1140717.9633524895 1657966.3852746212 0 1657966.3852746212 -6810721.3471241519 0 0 0 0 9858857.3291606903 -768271.48193359375 0 -768271.48193359375 -5333056.2852783203 0 0 0 0 1588169.9380178647 1410295.8820635993 0 1410295.8820635993 -6882372.3357156627 0 0 0 0 11957199.149223328 -3679212.4431610107 0 -3679212.4431610107 -6458029.455619812 0 0 0 0 5205176.7629302433 -4486967.6318197865 0 -4486967.6318197865 -7351940.0528077483 0 0 0 0 15193293.573759079 -3440603.8192481995 0 -3440603.8192481995 -8015190.9506225586 0 0 0 0 11041360.985405922 5574906.8796348572 0 5574906.8796348572 -19335778.740081787 0 0 0 0 13016574.321027756 -4895831.2860870361 0 -4895831.2860870361 -8493282.899810791 0 0 0 0 501262.32215658482 521217.14239536785 0 521217.14239536785 -751806.95640824735 0 0 0 0 4041370.3099429822 -2059414.87082869 0 -2059414.87082869 -8777827.7387522757 0 0 0 0 13415223.543804169 -1102615.854888916 0 -1102615.854888916 -10146748.262145996 0 0 0 0 3064440.0007699644 2773774.2888609888 0 2773774.2888609888 -15594467.017744869 0 0 0 0 26586880.416964531 920236.14019298553 0 920236.14019298553 -14129209.2525177 0 0 0 0 -1488562.1015319824 -52772424.608177185 0 -52772424.608177185 -13810873.012763977 0 0 0 0 3346955.1331668263 -3983033.1320720445 0 -3983033.1320720445 -5319821.2054019496 0 0 0 0 19190183.979740143 9053151.3311080933 0 9053151.3311080933 -18386304.701942444 0 0 0 0 32755122.249869347 -6269285.1141929626 0 -6269285.1141929626 -10434616.750091553 0 0 0 0 7021930.4925214052 -9492741.3033894468 0 -9492741.3033894468 -12426371.889790028 0 0 0 0 4270599.4522758089 1587913.6999699553 0 1587913.6999699553 -15387939.322481461 0 0 0 0 19060946.741461754 456070.3659362793 0 456070.3659362793 -12759991.038093567 0 0 0 0 19152037.660717964 -1009616.4206466675 0 -1009616.4206466675 -10677277.278743744 0 0 0 0 10933907.416745067 782358.19991970062 0 782358.19991970062 -8329231.0871124268 0 0 0 0 2378249.0114146667 2098628.6584100807 0 2098628.6584100807 -8704545.0128747895 0 0 0 0 8576135.9506292343 -5936302.6317749023 0 -5936302.6317749023 -7384672.8328704834 0 0 0 0 7150094.9624614716 -4343978.6674537659 0 -4343978.6674537659 -8919707.9524497986 0 0 0 0 4351862.2245540582 -4980543.743001096 0 -4980543.743001096 -9370385.3656053767 0 0 0 0 29105238.464751244 -2968511.8860321045 0 -2968511.8860321045 -5274595.635383606 0 0 0 0 2209866.3644041736 -1723828.6429947102 0 -1723828.6429947102 -6408912.7772633806 0 0 0 0 2554057.5048956871 -3530703.8166561127 0 -3530703.8166561127 -7981739.5526676178 0 0 0 0 2772932.1379995495 -4373799.8552322388 0 -4373799.8552322388 -15082981.688529968 0 0 0 0 6723875.3445305824 -173042.83355903625 0 -173042.83355903625 -12685087.202804565 0 0 0 0 4033171.7101187967 -2400032.8052303633 0 -2400032.8052303633 -8506194.4834439643 0 0 0 0 8576897.4395945072 -4862569.804227829 0 -4862569.804227829 -11501305.723876953 0 0 0 0 6835351.6463415623 -1186812.2919435501 0 -1186812.2919435501 -11657796.117832184 0 0 0 0 4033179.0827758107 -3362249.2427906506 0 -3362249.2427906506 -9370266.011318244 0 0 0 0 2673073.9415208539 -556592.80697785504 0 -556592.80697785504 -9049531.362849243 0 0 0 0 6390708.1875324249 -2698353.9926948547 0 -2698353.9926948547 -11340359.002922535 0 0 0 0 3807093.4085547617 -1296754.0790406 0 -1296754.0790406 -11475158.388367478 0 0 0 0 574818.414935112 -3548169.7336502075 0 -3548169.7336502075 -15412188.275981903 0 0 0 0 751902.9687449187 -1065316.5431334972 0 -1065316.5431334972 -11074062.902412415 0 0 0 0 2528806.8013436408 213833.02715470828 0 213833.02715470828 -11995610.864713913 0 0 0 0 29922484.027142525 42185985.594081879 0 42185985.594081879 -13289099.691326141 0 0 0 0 -1142438.8580872882 -401269.18981041387 0 -401269.18981041387 -3101913.6438137013 0 0 0 0 8357679.8813431263 -60851320.478270531 0 -60851320.478270531 -118319293.2890358 0 0 0 0 -50652835.911277771 111009858.39056206 0 111009858.39056206 -19569263.524729729 0 0 0 0 6912035.6413965225 1369384.329460144 0 1369384.329460144 -12762589.454807281 0 0 0 0 -30346816.063762665 -2635236.1023607254 0 -2635236.1023607254 -19551931.782133102 0 0 0 0 -27070467.65662241 2287566.3064422607 0 2287566.3064422607 -16369795.814472198 0 0 0 0 -7901165.3247857094 15149381.869326591 0 15149381.869326591 -7054997.7822465897 0 0 0 0 -30882472.925268173 4921400.5542840958 0 4921400.5542840958 -8668635.1962909698 0 0 0 0 -6103184.7268924713 -4103584.8009023666 0 -4103584.8009023666 -6678834.235827446 0 0 0 0 -93918893.601947308 89278787.911232471 0 89278787.911232471 68807798.850193024 0 0 0 0 -722122.95475751068 -72902.137388074771 0 -72902.137388074771 -504494.73087834381 0 0 0 0 -114467501.93703938 2444722.9063663483 0 2444722.9063663483 3814903.6961975098 0 0 0 0 -52260595.892793059 30402831.560445786 0 30402831.560445786 -22166412.243581772 0 0 0 0 -42930238.952681541 -3501186.3286781311 0 -3501186.3286781311 1242814.9533176422 0 0 0 0 -431256083.31274223 113793077.98464203 0 113793077.98464203 -33480465.014906734 0 0 0 0 20599013.032547951 23572563.074767113 0 23572563.074767113 5695388.536813736 0 0 0 0 824763.5822225553 -260929.20709931757 0 -260929.20709931757 -1829279.818860434 0 0 0 0 -84658112.970965624 82492825.854535341 0 82492825.854535341 -34066871.407260895 0 0 0 0 121747908.98200989 -416525604.88005829 0 -416525604.88005829 -31018286.172012329 0 0 0 0 90438322.653549075 5252368.7362837791 0 5252368.7362837791 -32026287.231021881 0 0 0 0 -71318458.874626637 24209266.16827774 0 24209266.16827774 141032984.19855881 0 0 0 0 60887954.139228821 -81879393.906676769 0 -81879393.906676769 -5393949.4444656372 0 0 0 0 -27798590.507144451 -61550056.332097054 0 -61550056.332097054 -7980471.5262823105 0 0 0 0 2280352.4965133667 8644474.6573925018 0 8644474.6573925018 -32068041.138853654 0 0 0 0 -8685511.5323123932 -2061134.9213724136 0 -2061134.9213724136 -9087671.6380319595 0 0 0 0 29649165.868119717 7827247.6768531799 0 7827247.6768531799 -59280373.359912872 0 0 0 0 1256500.4353146553 -4357650.7347927094 0 -4357650.7347927094 -12708691.325904727 0 0 0 0 2674119.5495889601 -274293.80877740169 0 -274293.80877740169 -9685645.8226067517 0 0 0 0 -43752205.118471146 58532816.643134117 0 58532816.643134117 40103242.118211746 0 0 0 0 4970383.0508378446 97122.027842521667 0 97122.027842521667 -9995429.4097709656 0 0 0 0 1839859.1148438454 -2250401.0955290794 0 -2250401.0955290794 -7862624.2472839355 0 0 0 0 1731318.3305097222 -3142028.6392650604 0 -3142028.6392650604 -10261247.407881737 0 0 0 0 3259856.2014027582 -1263322.8959922194 0 -1263322.8959922194 -10135048.928047981 0 0 0 0 3448281.4112646887 -1038837.119490291 0 -1038837.119490291 -7674915.5232211892 0 0 0 0 -699876.88057899475 -4543600.3308858871 0 -4543600.3308858871 -15460512.648326874 0 0 0 0 -271806.35772877932 -1649184.946559906 0 -1649184.946559906 -8893871.3135375977 0 0 0 0 496199.63810210058 435013.20535814762 0 435013.20535814762 -10537668.459338065 0 0 0 0 -1444407.8569931984 -14275637.973300934 0 -14275637.973300934 -6097487.6269130707 0 0 0 0 382141.05955394567 -3602277.4658098118 0 -3602277.4658098118 -13598863.819737729 0 0 0 0 -3092846.7504475266 27914491.919769287 0 27914491.919769287 -22792791.156082153 0 0 0 0 6937931.8435516357 258251.67615127563 0 258251.67615127563 -32054453.003131866 0 0 0 0 7841989.9261003733 -3111924.6887540817 0 -3111924.6887540817 -20880166.135986328 0 0 0 0 11312971.726626158 -3798891.9669418335 0 -3798891.9669418335 -21161152.182727814 0 0 0 0 4243860.8054847717 5343169.1045751572 0 5343169.1045751572 -37646658.886329174 0 0 0 0 4467825.7444864213 -186033.65437705163 0 -186033.65437705163 -9392373.0308776237 0 0 0 0 7024533.2171106339 6078079.7591247559 0 6078079.7591247559 -40091699.117021561 0 0 0 0 2547948.2644171715 17849163.462216377 0 17849163.462216377 -45257729.633565903 0 0 0 0 2986994.1189302485 2815525.226837921 0 2815525.226837921 -13371510.249114102 0 0 0 0 -8541566.9638941288 21295795.138711452 0 21295795.138711452 -54367157.108699799 0 0 0 0 1571778.2318039604 -1958554.2354830503 0 -1958554.2354830503 -1911447.4862134494 0 0 0 0 -4481519.1501951218 -15397798.444925308 0 -15397798.444925308 -2024332.6271514893 0 0 0 0 -1101725.3296217918 -15661420.296791077 0 -15661420.296791077 -13785278.388975143 0 0 0 0 14327223.029866815 -21438062.76584959 0 -21438062.76584959 -43916688.95019722 0 0 0 0 4341189.3601894379 -4342868.6270093918 0 -4342868.6270093918 2238818.4903087616 0 0 0 0 4356980.1361813545 -3105008.0308667421 0 -3105008.0308667421 -23518790.803089142 0 0 0 0 2133862.4619522095 10233812.647159576 0 10233812.647159576 -10749583.320690155 0 0 0 0 6308567.1576299667 4478834.8553104401 0 4478834.8553104401 -38194086.219999313 0 0 0 0 1895552.8823947662 3419418.7980120764 0 3419418.7980120764 -12002768.227180257 0 0 0 0 6094988.2465586662 12964402.697300911 0 12964402.697300911 -15266583.852226257 0 0 0 0 5341706.2239551544 10156201.953964233 0 10156201.953964233 -16401991.017749786 0 0 0 0 5009432.5679035187 13557989.449910164 0 13557989.449910164 -8964925.0824069977 0 0 0 0 9045981.2882833481 727514.34372329712 0 727514.34372329712 -14205048.505023956 0 0 0 0 7667226.1875674129 -8575753.4268190861 0 -8575753.4268190861 -9136359.4813308716 0 0 0 0 -5865773.344824791 -1152448.4683647156 0 -1152448.4683647156 -12272754.487236023 0 0 0 0 1010716.1177723408 -3287213.5033569336 0 -3287213.5033569336 -17781086.019798279 0 0 0 0 2387436.9180107117 -631731.23791122437 0 -631731.23791122437 -14013846.914315462 0 0 0 0 10996171.453720093 20917070.436035156 0 20917070.436035156 -1533229.9645080566 0 0 0 0 842966.9062877628 3385784.7541592121 0 3385784.7541592121 -8663835.5731637329 0 0 0 0 19410702.000610352 11751085.723163605 0 11751085.723163605 -11114454.405117035 0 0 0 0 284253.71929292788 -175933.57041575434 0 -175933.57041575434 -240249.34563208371 0 0 0 0 4371081.1576271057 14744204.21178627 0 14744204.21178627 19099960.79996109 0 0 0 0 732119.15865835827 -566000.05431799777 0 -566000.05431799777 -2347901.810960317 0 0 0 0 -7201298.7749786377 1425423.1186943054 0 1425423.1186943054 -22274322.415817261 0 0 0 0 4992020.6402478516 1485711.0666155256 0 1485711.0666155256 -14822515.902499497 0 0 0 0 -3722613.7019609213 5501841.035197258 0 5501841.035197258 -2696111.5951309204 0 0 0 0 2908685.7619725168 7193753.6756234169 0 7193753.6756234169 -3814331.0609169006 0 0 0 0 -6355402.8571668863 -11884884.323358536 0 -11884884.323358536 -2385239.580493927 0 0 0 0 -10858564.350517035 17392569.032548904 0 17392569.032548904 -22507679.166882515 0 0 0 0 -185363.79851946584 54467.530237514526 0 54467.530237514526 -89081.909493587911 0 0 0 0 -6920304.8482151031 -4728284.3922691345 0 -4728284.3922691345 3173751.0823116302 0 0 0 0 11506119.311003327 -2416804.1782569885 0 -2416804.1782569885 -8231762.3853988647 0 0 0 0 8871534.4443225861 3847806.5678634644 0 3847806.5678634644 -18099599.617725372 0 0 0 0 -6975236.6903808117 5658431.1276111603 0 5658431.1276111603 -3597536.2800827026 0 0 0 0 -13443825.290086746 -23333679.072101593 0 -23333679.072101593 4760755.3587341309 0 0 0 0 148313.67536370439 955691.19597839657 0 955691.19597839657 -1017846.4624438956 0 0 0 0 515979.60607094376 404512.24752761796 0 404512.24752761796 -4697409.8228299059 0 0 0 0 -30325615.302952766 7931647.3951454163 0 7931647.3951454163 -15527343.689407349 0 0 0 0 -10382557.672891021 -35230269.58133316 0 -35230269.58133316 16930286.894407272 0 0 0 0 -28219748.533664048 -11665087.04018569 0 -11665087.04018569 40678016.560119629 0 0 0 0 22343758.675018281 9340940.4343366623 0 9340940.4343366623 -11144831.254554749 0 0 0 0 19801636.494053841 4150795.5527877808 0 4150795.5527877808 -24204496.584545135 0 0 0 0 27654173.737503946 8811368.5696496964 0 8811368.5696496964 -44826193.12285614 0 0 0 0 331810.73298540583 -730365.41517401859 0 -730365.41517401859 -484512.54503443837 0 0 0 0 29390072.579447985 13383466.468406677 0 13383466.468406677 -34120455.084785461 0 0 0 0 34254296.983007431 56377002.089550018 0 56377002.089550018 -400646009.73373413 0 0 0 0 17432759.237098515 -1180115.6969213486 0 -1180115.6969213486 -35723537.428405762 0 0 0 0 -135868090.06103539 179270990.61254311 0 179270990.61254311 113060102.78059769 0 0 0 0 65478005.898221016 -79483095.49376297 0 -79483095.49376297 45874218.317955017 0 0 0 0 2467198.8986760015 -8579675.5769065022 0 -8579675.5769065022 -7707992.6650684737 0 0 0 0 -16527835.452851534 -71384184.207416534 0 -71384184.207416534 132677234.65681314 0 0 0 0 -56546542.299387932 37410408.102722168 0 37410408.102722168 15601056.906845093 0 0 0 0 -76120932.693585157 -13063463.966236115 0 -13063463.966236115 81496046.036361694 0 0 0 0 336907.25045102835 -12092138.728981972 0 -12092138.728981972 -2117647.9366226196 0 0 0 0 3496516.9751705267 -3166640.9879128225 0 -3166640.9879128225 -16998345.598984841 0 0 0 0 5382026.8764640093 1645222.7259502411 0 1645222.7259502411 34614837.085935593 0 0 0 0 36648103.499219179 -47925090.794994354 0 -47925090.794994354 25902655.357599258 0 0 0 0 3015119.9977487065 -1195351.2277218122 0 -1195351.2277218122 -4973309.1227630004 0 0 0 0 6408068.2101631165 -758425.79954528809 0 -758425.79954528809 -10636685.499444962 0 0 0 0 5325963.850573794 -8305292.7405830566 0 -8305292.7405830566 -18150829.028964624 0 0 0 0 40305375.812758207 -14227517.197097778 0 -14227517.197097778 -4160011.8178100586 0 0 0 0 3378911.1470413208 -3064508.0085067749 0 -3064508.0085067749 -6477965.8652496338 0 0 0 0 7827883.6453018188 -2974037.1872253418 0 -2974037.1872253418 -12876524.896736145 0 0 0 0 4449925.3442067485 -3537110.4384424537 0 -3537110.4384424537 -10269437.542433694 0 0 0 0 8146302.1333310157 -1369895.287694931 0 -1369895.287694931 -10902031.3072052 0 0 0 0 2395189.9951900342 -929153.37855381332 0 -929153.37855381332 -13623043.144361433 0 0 0 0 4901803.4754648209 -829228.12432098389 0 -829228.12432098389 -7678746.6442337036 0 0 0 0 -1042769.043753624 -6868553.8584899902 0 -6868553.8584899902 -3443041.4027557373 0 0 0 0 728938.01165549119 -2696982.6355768498 0 -2696982.6355768498 -8059304.9956893902 0 0 0 0 613868.71340154286 -365970.75916932337 0 -365970.75916932337 -729009.29713124782 0 0 0 0 1881980.0415268415 982498.48828910291 0 982498.48828910291 -9855375.0801261775 0 0 0 0 3781480.5490469933 -3181506.1382541656 0 -3181506.1382541656 -10392163.317012787 0 0 0 0 6734386.1048574448 -2174772.635597229 0 -2174772.635597229 -16136628.440850258 0 0 0 0 -2103105.3376005888 -7613888.9129486084 0 -7613888.9129486084 3050351.737449646 0 0 0 0 11576689.201992631 -2486941.237121582 0 -2486941.237121582 -20865700.888008118 0 0 0 0 384998.57360267639 5342723.5771331787 0 5342723.5771331787 -24002109.653465271 0 0 0 0 5853031.6990492344 4210959.3199996948 0 4210959.3199996948 -16334391.326278687 0 0 0 0 681685.50376170489 -890138.47631987138 0 -890138.47631987138 -826371.98875915632 0 0 0 0 2109476.9381468585 -1076666.7057149811 0 -1076666.7057149811 -6146808.6824623905 0 0 0 0 2516609.7251373096 -3733056.6273720069 0 -3733056.6273720069 -3118676.206285134 0 0 0 0 5749545.3500426412 -2092913.4350605011 0 -2092913.4350605011 -12217666.540519714 0 0 0 0 2344899.7875852585 -16178355.324140549 0 -16178355.324140549 -14346158.936334133 0 0 0 0 -2717655.0627251863 -15019840.848499298 0 -15019840.848499298 -39714009.468320847 0 0 0 0 -4172.5403289779424 -5800627.5512733459 0 -5800627.5512733459 -23513431.502960205 0 0 0 0 486422.12718689197 886788.08865863457 0 886788.08865863457 -3652069.7326753363 0 0 0 0 -4962185.4021477588 -2800108.1676034927 0 -2800108.1676034927 -15639909.860137939 0 0 0 0 -431812.71321923693 -1583578.412542928 0 -1583578.412542928 -2590380.8754063062 0 0 0 0 -1512323.0366849899 -3653574.7945404053 0 -3653574.7945404053 -13505013.70715332 0 0 0 0 -8885.7567967881678 960692.36806704104 0 960692.36806704104 -4229047.1827613227 0 0 0 0 -146278.39588998258 -1053392.877948761 0 -1053392.877948761 -10294868.535369873 0 0 0 0 -4498344.2000081791 1385287.4684257507 0 1385287.4684257507 -15175643.698974609 0 0 0 0 125682.09836905135 -6313168.3873748779 0 -6313168.3873748779 -29408317.605453491 0 0 0 0 -3352072.5410801284 -13220417.242893219 0 -13220417.242893219 -50622110.224250793 0 0 0 0 -12801739.590367867 -21473037.147506714 0 -21473037.147506714 -31812003.259157181 0 0 0 0 -10578064.867404617 -6119262.5906758308 0 -6119262.5906758308 -11009909.042266846 0 0 0 0 164976.01526826961 -53474.336642812937 0 -53474.336642812937 -1340950.3170374408 0 0 0 0 -23010048.329890594 -22476938.212558746 0 -22476938.212558746 -42291620.045547485 0 0 0 0 -9721033.6038843654 -33545936.037452698 0 -33545936.037452698 -69680395.914848328 0 0 0 0 -1569772.9323653369 -25101141.363618135 0 -25101141.363618135 -73805091.148948669 0 0 0 0 -22806.899793375313 -7412870.4433555603 0 -7412870.4433555603 -41909802.665866852 0 0 0 0 21364.266117324354 -9908743.4214897156 0 -9908743.4214897156 -110303882.06106567 0 0 0 0 -3625145.422210969 -26341732.905235291 0 -26341732.905235291 -73677616.511693478 0 0 0 0 3574.8184322304851 -482530.6548538208 0 -482530.6548538208 -131119052.23336792 0 0 0 0 12278600.461063085 -15404556.417625427 0 -15404556.417625427 -113135082.14083672 0 0 0 0 12872045.74994646 -13344025.530731678 0 -13344025.530731678 -147813718.6995697 0 0 0 0 5971935.9560830668 29405608.522491455 0 29405608.522491455 -199493461.39320374 0 0 0 0 17850219.378619242 -29077329.07125473 0 -29077329.07125473 -228058809.4526825 0 0 0 0 21254595.804700062 21579931.473407745 0 21579931.473407745 -168970297.15176392 0 0 0 0 17859200.599129681 -17920879.485595703 0 -17920879.485595703 -159661288.69397354 0 0 0 0 3435951.5643235631 -49510305.66608429 0 -49510305.66608429 -153000856.60574341 0 0 0 0 16584549.53806689 -12968275.0956707 0 -12968275.0956707 -175829648.19480896 0 0 0 0 1865810.2894387729 -31607823.651077271 0 -31607823.651077271 -128769126.00885773 0 0 0 0 1786932.4782962464 -34514577.596694946 0 -34514577.596694946 -110847036.23467255 0 0 0 0 -882264.67904896848 -22724773.647678375 0 -22724773.647678375 -101046154.52203369 0 0 0 0 -15191046.670816887 -47611849.878440857 0 -47611849.878440857 -90992653.848556519 0 0 0 0 -6950748.3190044975 -27641203.678667068 0 -27641203.678667068 -81535615.828033447 0 0 0 0 -24525707.670890652 -48866500.065284729 0 -48866500.065284729 -76542093.899917603 0 0 0 0 -27342483.804111414 -20144743.81105423 0 -20144743.81105423 -33184434.789627075 0 0 0 0 -24134226.251650482 -35758034.173828125 0 -35758034.173828125 -75425079.420013428 0 0 0 0 -23718904.658480309 -16493548.412780762 0 -16493548.412780762 -43893298.899162292 0 0 0 0 -7988589.8472543061 -3312337.6273117065 0 -3312337.6273117065 -33611822.60231781 0 0 0 0 -49316846.346635252 -28005204.818321228 0 -28005204.818321228 -24943132.819519043 0 0 0 0 -80811771.188123018 -78376900.448486328 0 -78376900.448486328 -66603039.539550781 0 0 0 0 -15287708.865012895 -66686282.644233704 0 -66686282.644233704 -165423248.1995697 0 0 0 0 -13400919.889136534 -36550264.497802734 0 -36550264.497802734 -102970795.39079285 0 0 0 0 -16672584.69569695 -68465682.554023743 0 -68465682.554023743 -122486726.28363037 0 0 0 0 2317873.1863459549 -38369869.59002161 0 -38369869.59002161 -177275627.90937805 0 0 0 0 2688579.9929269906 -35007364.92591095 0 -35007364.92591095 -174838623.68387604 0 0 0 0 9943725.529821584 -29794018.066993713 0 -29794018.066993713 -265766542.46820068 0 0 0 0 13132781.377683356 -78014355.578094482 0 -78014355.578094482 -169789680.83454514 0 0 0 0 -4317277.2348452732 -128495651.04224014 0 -128495651.04224014 -314933981.16297913 0 0 0 0 74000013.296033412 -71313212.743480682 0 -71313212.743480682 -296156826.43756104 0 0 0 0 53471629.571460262 -41124081.568435669 0 -41124081.568435669 -294582792.98202515 0 0 0 0 20784570.520573031 63865166.789604187 0 63865166.789604187 -364702010.69856262 0 0 0 0 -250070527.95727137 -382482895.89842224 0 -382482895.89842224 -649522575.15988159 0 0 0 0 47460553.046656132 156584487.21098328 0 156584487.21098328 -824438806.1088562 0 0 0 0 109266882.10964191 -106834103.75990677 0 -106834103.75990677 -532573132.10372925 0 0 0 0 -264846685.77540544 410961412.35308075 0 410961412.35308075 -506437573.54164124 0 0 0 0 19846660.046962768 -241533144.76473236 0 -241533144.76473236 -753413872.65431595 0 0 0 0 -188613669.54613635 -254470437.60591125 0 -254470437.60591125 -202489021.91784668 0 0 0 0 -152770671.97044119 -158818585.60025787 0 -158818585.60025787 -100861769.1709137 0 0 0 0 -92341240.904851139 -82454783.352401733 0 -82454783.352401733 -56528696.975906372 0 0 0 0 -163003480.51572812 -96220962.136629105 0 -96220962.136629105 -44053005.874267578 0 0 0 0 -284900464.14997506 44413531.068744659 0 44413531.068744659 -179275248.90847778 0 0 0 0 -422765259.93582904 327509434.90116119 0 327509434.90116119 -465431822.62116241 0 0 0 0 1298587.4269328525 -111653.48245322704 0 -111653.48245322704 -2350424.9605281278 0 0 0 0 225996525.0422678 97109628.391967773 0 97109628.391967773 42578746.231567383 0 0 0 0 -119121047.40028644 -7861189.5208435059 0 -7861189.5208435059 102467762.31616211 0 0 0 0 89718619.543296307 -6498284.1032409668 0 -6498284.1032409668 -24927487.508071899 0 0 0 0 51505.059425498359 -2620773.5399609413 0 -2620773.5399609413 -4506308.7861366868 0 0 0 0 169481.41883360886 -273080.24747173488 0 -273080.24747173488 -211230.7236058563 0 0 0 0 49357237.076916218 118386816.93333435 0 118386816.93333435 103154107.37402344 0 0 0 0 207704306.47129226 -98829046.215606689 0 -98829046.215606689 6085255.1067123413 0 0 0 0 -43357918.284125268 -43879070.378646851 0 -43879070.378646851 -56057973.04675293 0 0 0 0 -22231294.914453506 5949441.609954834 0 5949441.609954834 -1671858.6596679688 0 0 0 0 -147760678.70091283 -80616572.554092407 0 -80616572.554092407 74278465.121704102 0 0 0 0 -58314560.335386455 9359440.7429962158 0 9359440.7429962158 16804794.676223755 0 0 0 0 39936271.195330262 26380535.519042969 0 26380535.519042969 -19648288.438949585 0 0 0 0 -31359500.102883875 -2045312.0813140869 0 -2045312.0813140869 -16800686.027328491 0 0 0 0 -64250037.692503668 -47415017.887931824 0 -47415017.887931824 -33779748.130432129 0 0 0 0 -11809218.402701646 1088136.3211746216 0 1088136.3211746216 -16067006.324966431 0 0 0 0 -25444388.126191437 -6298497.849281311 0 -6298497.849281311 -17165271.336669922 0 0 0 0 17994425.331710994 13004286.837928772 0 13004286.837928772 -21038270.028835297 0 0 0 0 15376828.554609053 567337.81726741791 0 567337.81726741791 -2619127.9663391113 0 0 0 0 53318526.92771253 -19019198.47436142 0 -19019198.47436142 -13340735.55619812 0 0 0 0 23079992.273057282 5350239.2390365601 0 5350239.2390365601 -13894108.48979187 0 0 0 0 10473853.257680297 5964550.2989730835 0 5964550.2989730835 -11039594.187744141 0 0 0 0 10914887.764368579 7213681.9322052002 0 7213681.9322052002 -7734123.9970703125 0 0 0 0 2166807.064748764 -11534868.180168152 0 -11534868.180168152 -16115026.564308167 0 0 0 0 -12265511.564668655 -32927262.502281189 0 -32927262.502281189 -44251562.237915039 0 0 0 0 3916682.3350967458 2290505.5123781562 0 2290505.5123781562 -5217756.3592058197 0 0 0 0 5086819.5878146291 13197091.130432129 0 13197091.130432129 -810527.05944061279 0 0 0 0 9291172.5133564994 6934286.3380203247 0 6934286.3380203247 -5838071.6480102539 0 0 0 0 5527571.8312133551 13867208.725715637 0 13867208.725715637 -15841416.278823853 0 0 0 0 -11394956.692788631 4975233.5680770874 0 4975233.5680770874 -5908303.7919464111 0 0 0 0 -2009983.0976563618 -986012.36187744141 0 -986012.36187744141 -32902733.153671265 0 0 0 0 -8566954.614928145 10504296.964599609 0 10504296.964599609 -6090078.0498352051 0 0 0 0 -1838770.8545065075 -22896440.039039612 0 -22896440.039039612 -46257837.259849548 0 0 0 0 1420828.5123341277 -1265381.8085313588 0 -1265381.8085313588 -5546809.8569716737 0 0 0 0 -8393615.2212322056 -3775566.0431632996 0 -3775566.0431632996 7664184.0549316406 0 0 0 0 -2962699.2698819637 -3290322.4064025879 0 -3290322.4064025879 -16736636.192733765 0 0 0 0 -512442.30511819513 706692.01915064827 0 706692.01915064827 -6129617.4657086805 0 0 0 0 -1780382.3101324514 -324734.8839225769 0 -324734.8839225769 -3735109.3932952881 0 0 0 0 -2069489.6848744154 -570318.24054718018 0 -570318.24054718018 -5974647.3381652832 0 0 0 0 -3564704.145234576 -829754.95735462755 0 -829754.95735462755 -3660499.5978510901 0 0 0 0 2554532.5771575011 -3132394.3442153931 0 -3132394.3442153931 -19462522.345947266 0 0 0 0 1246929.6608054042 -807034.65293121338 0 -807034.65293121338 -19398415.782287598 0 0 0 0 74881.655937505828 -1063764.7960051186 0 -1063764.7960051186 -4014338.2336880993 0 0 0 0 -1546733.767541945 -1613086.6963577271 0 -1613086.6963577271 -7905241.6315612793 0 0 0 0 -3937186.6110481429 2237500.5068432167 0 2237500.5068432167 -4545416.2869571391 0 0 0 0 -9404652.4536342621 30602609.398094177 0 30602609.398094177 281030291.10085297 0 0 0 0 23697438.211700439 164447855.81713104 0 164447855.81713104 228322684.5791111 0 0 0 0 -5923614.5356363766 1021622.0614666976 0 1021622.0614666976 -2911793.7314462475 0 0 0 0 -80931369.292001724 152875747.05970001 0 152875747.05970001 450835683.26217651 0 0 0 0 55196943.370697021 47253030.518463135 0 47253030.518463135 26492355.403015137 0 0 0 0 -2353660.434574604 -1241930.3008575439 0 -1241930.3008575439 -1581765.0163421631 0 0 0 0 1869706.6929400046 -2276238.9719638154 0 -2276238.9719638154 -4190896.7179884017 0 0 0 0 -7849317.8457069397 -8383676.3533782959 0 -8383676.3533782959 -11161455.413002014 0 0 0 0 -4362255.0886749756 -4272499.7773956358 0 -4272499.7773956358 -5147931.8550606035 0 0 0 0 -3880435.3180119395 -775194.47616958618 0 -775194.47616958618 -1394983.1595230103 0 0 0 0 1018978.4151439755 1148422.5158865415 0 1148422.5158865415 -3778485.1511859596 0 0 0 0 -8751611.4171895757 -2926382.3145125508 0 -2926382.3145125508 -271381.49046053179 0 0 0 0 -5966962.4508075714 65051439.500778198 0 65051439.500778198 -5852430.0714263916 0 0 0 0 -1836699.1702528 -192259.85650634766 0 -192259.85650634766 8378845.2564086914 0 0 0 0 -54741644.843723297 49980038.560585022 0 49980038.560585022 154025242.28549194 0 0 0 0 -8488003.7504770067 1031520.5322357267 0 1031520.5322357267 -2115596.4402528331 0 0 0 0 -1120793.2129624421 -927809.15551099181 0 -927809.15551099181 799401.08943516016 0 0 0 0 83274849.217414856 -133319900.9286499 0 -133319900.9286499 138184917.09571838 0 0 0 0 -69684914.718170166 -114287958.82964325 0 -114287958.82964325 -19813890.641235352 0 0 0 0 -7940040.6469990639 -1556699.9114214145 0 -1556699.9114214145 -2091623.5764723904 0 0 0 0 -4504659.2978410721 -1046490.2889785767 0 -1046490.2889785767 2628814.9968643188 0 0 0 0 -69643257.572650909 -92938423.280441284 0 -92938423.280441284 24045850.321899414 0 0 0 0 -7503322.1219477979 -1676038.1781074367 0 -1676038.1781074367 -2313014.1581295673 0 0 0 0 -100246823.71472168 -100590405.36950684 0 -100590405.36950684 22133143.798034668 0 0 0 0 -3224093.7226333618 -47448421.837753296 0 -47448421.837753296 -31648455.489273071 0 0 0 0 -146890690.73296165 101787375.18156433 0 101787375.18156433 268875009.42976761 0 0 0 0 -120777902.60871887 47914277.928222656 0 47914277.928222656 467848438.00216293 0 0 0 0 37072908.411484241 -27291298.636470795 0 -27291298.636470795 330804515.73735046 0 0 0 0 -89908823.17729187 -73399709.734367371 0 -73399709.734367371 239295046.23948669 0 0 0 0 -5767205.0501422882 -29621780.911239624 0 -29621780.911239624 434939805.42803955 0 0 0 0 -16613692.373458862 45274513.789634705 0 45274513.789634705 344765529.39945984 0 0 0 0 19364233.536296844 20957404.605682373 0 20957404.605682373 606303506.95079041 0 0 0 0 4427648.6032779217 -120070908.213521 0 -120070908.213521 340248507.3348999 0 0 0 0 10238376.574270248 -51687028.399772644 0 -51687028.399772644 212124002.0584259 0 0 0 0 -93268013.057426453 -88339093.342330933 0 -88339093.342330933 435994028.38337708 0 0 0 0 -9463730.035059303 511064.43601021543 0 511064.43601021543 227043.44387213141 0 0 0 0 -85574603.007354736 -91413447.109893799 0 -91413447.109893799 357474648.43294716 0 0 0 0 -32184170.549949646 -149319185.46360779 0 -149319185.46360779 148752630.68617249 0 0 0 0 30792254.226461411 -5133117.3060150146 0 -5133117.3060150146 304955995.1415863 0 0 0 0 -15290207.315189362 -93141578.754898071 0 -93141578.754898071 357037737.18106079 0 0 0 0 -8392002.8862701878 -2019899.8705357276 0 -2019899.8705357276 -143289.9592701681 0 0 0 0 -51027505.34264946 -3348505.5842590332 0 -3348505.5842590332 13866049.48740387 0 0 0 0 -88899270.979663849 -131931464.04483795 0 -131931464.04483795 253807065.20906067 0 0 0 0 -94868083.08731842 -194444970.73165894 0 -194444970.73165894 111036673.09464264 0 0 0 0 23697952.345277786 -188178417.12368011 0 -188178417.12368011 104668512.60958099 0 0 0 0 -10285828.90287024 -872082.96595717221 0 -872082.96595717221 -551937.36316350847 0 0 0 0 -3887602.6161065102 5416984.5894470215 0 5416984.5894470215 5453310.7963943481 0 0 0 0 -15747670.344698906 14938827.618850708 0 14938827.618850708 -2169035.4645814896 0 0 0 0 -38371246.599815845 3536638.5370826721 0 3536638.5370826721 4884679.7602844238 0 0 0 0 -21399648.05596137 -14413737.834518433 0 -14413737.834518433 -8516413.2897338867 0 0 0 0 -22625734.526753426 28986476.312316895 0 28986476.312316895 -3863748.9670562744 0 0 0 0 14263537.614798546 3758074.1976623535 0 3758074.1976623535 -2727763.8607788086 0 0 0 0 -4175621.0436763763 6187341.9669494629 0 6187341.9669494629 -5403328.918548584 0 0 0 0 -12431843.908830643 -27754301.560562134 0 -27754301.560562134 -2681744.5728912354 0 0 0 0 -3801848.3552312851 -3229670.471206665 0 -3229670.471206665 10111551.994514465 0 0 0 0 -4387003.0519980835 -3984200.0124969929 0 -3984200.0124969929 -17574.657926626503 0 0 0 0 8578748.121462822 -7687851.8600463867 0 -7687851.8600463867 -434452.74078369141 0 0 0 0 76303.678579857573 231765.07885505632 0 231765.07885505632 -309840.66182636656 0 0 0 0 -2823945.1765226126 35169955.299539089 0 35169955.299539089 83507145.509078979 0 0 0 0 -37578966.110954285 -98509755.325111389 0 -98509755.325111389 43787309.677631378 0 0 0 0 27877970.003914833 -52511360.323407173 0 -52511360.323407173 -188421156.7180481 0 0 0 0 -16424301.349002838 -144624226.74274063 0 -144624226.74274063 -99029857.112182617 0 0 0 0 1590782.2886227574 -133677.80007612333 0 -133677.80007612333 -1515388.1262803338 0 0 0 0 4079838.6024456024 -33156139.004692078 0 -33156139.004692078 -93079851.613586426 0 0 0 0 32205966.501132965 -72773371.67591095 0 -72773371.67591095 -122301568.69966507 0 0 0 0 -54691769.478760719 -55863533.384658813 0 -55863533.384658813 -47617239.560684204 0 0 0 0 1292282.3363196133 -678590.56836424023 0 -678590.56836424023 -2593114.8471920937 0 0 0 0 2963645.5002269745 -954927.42246246338 0 -954927.42246246338 -3682418.8014221191 0 0 0 0 -15848469.031126022 -82340656.665689468 0 -82340656.665689468 -86017122.539459229 0 0 0 0 -128165615.25577927 -64492801.892986298 0 -64492801.892986298 -43180445.673904419 0 0 0 0 -20866091.526321411 -85271705.024534225 0 -85271705.024534225 -176175254.26159668 0 0 0 0 -910449.46423339844 -20578399.119140625 0 -20578399.119140625 -40522146.026275635 0 0 0 0 -6685171.6052284241 12292776.650405884 0 12292776.650405884 -9965498.3561477661 0 0 0 0 4908816.5011117589 892156.67921324074 0 892156.67921324074 -4936215.769402381 0 0 0 0 -19655240.028827667 -91988501.303993225 0 -91988501.303993225 -121481825.11462402 0 0 0 0 13512665.759490967 10492269.340644836 0 10492269.340644836 -107989003.53328896 0 0 0 0 2069479.5780593581 1724809.5617458997 0 1724809.5617458997 -2129417.995230563 0 0 0 0 4258409.7919869423 -2565543.7370758057 0 -2565543.7370758057 -4012670.0030212402 0 0 0 0 16287008.882813394 -1229839.6420974731 0 -1229839.6420974731 -11490470.913955688 0 0 0 0 26659765.186956882 -2129036.0099105835 0 -2129036.0099105835 -14607039.784736633 0 0 0 0 2586258.4139615931 -1590200.8369923215 0 -1590200.8369923215 -7814309.426038079 0 0 0 0 2466151.0176725388 -1282296.8150787354 0 -1282296.8150787354 -3311701.8373756409 0 0 0 0 354778.42197418213 -1599675.7668685913 0 -1599675.7668685913 -3317723.7486724854 0 0 0 0 2442784.4985589981 -930616.64636993408 0 -930616.64636993408 -4984802.7543029785 0 0 0 0 -228283631.79506111 25243237.800304413 0 25243237.800304413 -662208507.36489105 0 0 0 0 1264324.0896520615 -1720445.9981765747 0 -1720445.9981765747 -5276684.3606262207 0 0 0 0 350372577.64011383 512148447.05181885 0 512148447.05181885 -278983535.91326141 0 0 0 0 5412755.1474027634 -1780595.5322780609 0 -1780595.5322780609 -4990702.868522644 0 0 0 0 3861787.557818966 -1991609.6544668451 0 -1991609.6544668451 -3049055.2291629165 0 0 0 0 -44818479.117835999 -62262908.034606934 0 -62262908.034606934 -162240056.62584305 0 0 0 0 32841374.09053421 -25904227.749298096 0 -25904227.749298096 -569532066.37240601 0 0 0 0 15363823.572808266 46916282.17137146 0 46916282.17137146 -207103246.7660675 0 0 0 0 303287140.84102786 568078711.50289536 0 568078711.50289536 22216762.992248535 0 0 0 0 369392883.0803194 79605465.833145142 0 79605465.833145142 -358551121.68081665 0 0 0 0 906474.39997718856 -1228531.12288386 0 -1228531.12288386 -47572.511004012078 0 0 0 0 -138147907.07962179 493124766.9727478 0 493124766.9727478 584972644.83601379 0 0 0 0 -191928848.49000549 99506815.201080322 0 99506815.201080322 -5334127.5918064117 0 0 0 0 -224750644.27283025 -176719844.23400688 0 -176719844.23400688 -751557320.32086182 0 0 0 0 -113700488.14626789 -261944014.78015137 0 -261944014.78015137 -591846046.36871338 0 0 0 0 -185765533.94523335 213175957.07617188 0 213175957.07617188 -239832866.3269043 0 0 0 0 76001651.691258907 290691961.2890358 0 290691961.2890358 -314298498.996521 0 0 0 0 -223571282.53718758 -400361155.02958679 0 -400361155.02958679 -502468968.15411377 0 0 0 0 116347920.90554293 -250964005.6477809 0 -250964005.6477809 -651106819.64527893 0 0 0 0 67157747.125457764 -167793365.65896606 0 -167793365.65896606 -620775118.9557724 0 0 0 0 -109546432.48589084 -169656089.07235265 0 -169656089.07235265 -433328972.77786255 0 0 0 0 -117329999.31524181 226401842.51826477 0 226401842.51826477 -324885960.29559326 0 0 0 0 -30399025.632534981 3635344.8567962646 0 3635344.8567962646 19432098.540359497 0 0 0 0 391637164.96482229 -30049876.142028809 0 -30049876.142028809 -180026201.07009888 0 0 0 0 206824169.70071125 103989912.65520477 0 103989912.65520477 -163479190.39285278 0 0 0 0 84327247.325962067 84106571.739433289 0 84106571.739433289 258109668.78475952 0 0 0 0 3565050.2840931006 -3308091.4037768282 0 -3308091.4037768282 -734397.89847746305 0 0 0 0 -42368893.124200821 12440943.755584717 0 12440943.755584717 -319092182.26454926 0 0 0 0 178576813.39084053 62362352.87845993 0 62362352.87845993 14565532.361206055 0 0 0 0 -10132507.086946487 19273616.131484985 0 19273616.131484985 -486442525.28568268 0 0 0 0 -13674482.875164032 -53038029.512046814 0 -53038029.512046814 -387587153.97884369 0 0 0 0 57683395.085578918 48317907.071861267 0 48317907.071861267 -799359919.20877075 0 0 0 0 2243815.7022473877 -2816946.7724132054 0 -2816946.7724132054 -2545901.3028774671 0 0 0 0 154438.03153371811 -2911753.3193440437 0 -2911753.3193440437 -5589371.5143127441 0 0 0 0 518426.06759643555 -1946839.0851821899 0 -1946839.0851821899 -4934930.6285476685 0 0 0 0 63272.103721473366 -3629466.2916668616 0 -3629466.2916668616 -2329862.5360636786 0 0 0 0 -386554.46475124359 -3149132.8881626129 0 -3149132.8881626129 -5627081.4927749634 0 0 0 0 1807483.5568023287 339419.2520015277 0 339419.2520015277 -847198.63971686736 0 0 0 0 184572159.74280548 115731762.64250946 0 115731762.64250946 -63509860.886856079 0 0 0 0 115354770.28197098 269461224.66204453 0 269461224.66204453 -338592762.64959717 0 0 0 0 -89752068.887237549 41730557.56211853 0 41730557.56211853 -32778923.447845459 0 0 0 0 480598.12357711792 373618997.40088272 0 373618997.40088272 1233206301.3556213 0 0 0 0 1019429.6345602516 -655105.39620578289 0 -655105.39620578289 -742513.43904258497 0 0 0 0 -391223.48353859596 -223066.19228745997 0 -223066.19228745997 -135297.33942800388 0 0 0 0 -71580766.287807465 286204861.63365936 0 286204861.63365936 444819689.19113159 0 0 0 0 -1206809603.9761477 -907672978.08006668 0 -907672978.08006668 510756974.71820068 0 0 0 0 326056.72897765413 1061005.4936423339 0 1061005.4936423339 -5092866.8829263374 0 0 0 0 -588556742.61480331 -1236308546.640379 0 -1236308546.640379 466663164.29026794 0 0 0 0 248752161.90629578 1024639799.9837341 0 1024639799.9837341 -410259314.49642944 0 0 0 0 -27781285.125332355 167026846.47027588 0 167026846.47027588 23887518.645187378 0 0 0 0 362298415.98030472 340206979.80247879 0 340206979.80247879 -436689977.04855347 0 0 0 0 -1347653.0236129761 -74253817.885635376 0 -74253817.885635376 -5770741.3203639984 0 0 0 0 -27563942.129379272 58873653.672836304 0 58873653.672836304 -345773768.89920044 0 0 0 0 -27616716.270431519 64225730.097366333 0 64225730.097366333 -590886754.66738129 0 0 0 0 -24287665.573447227 180752545.57291412 0 180752545.57291412 -314130398.00979614 0 0 0 0 -110011702.981987 39402462.879562378 0 39402462.879562378 -176009141.88333893 0 0 0 0 -121204410.22392273 -19168690.598403931 0 -19168690.598403931 -394956583.53973389 0 0 0 0 62391460.933933258 -26056173.476318359 0 -26056173.476318359 -454283502.51626587 0 0 0 0 302866.77950724156 -106772.79446999263 0 -106772.79446999263 -118150.93944554031 0 0 0 0 17185034.379638672 -103333164.92754364 0 -103333164.92754364 -211421088.51498413 0 0 0 0 -2872062.455537878 -3605140.6003242694 0 -3605140.6003242694 1917084.6977330428 0 0 0 0 3518599.225189209 -32831328.569061279 0 -32831328.569061279 -355491568.83590698 0 0 0 0 -149736515.08498383 -232445504.23659992 0 -232445504.23659992 -311198706.46429443 0 0 0 0 304347100.67046165 44834735.918170929 0 44834735.918170929 -292951867.7257843 0 0 0 0 103390592.39902496 -190408715.46178436 0 -190408715.46178436 -216685470.03057861 0 0 0 0 -40642241.81086731 102316170.53952026 0 102316170.53952026 -94033952.433013916 0 0 0 0 -948200.9826993309 -1279283.3162097782 0 -1279283.3162097782 650393.75854060054 0 0 0 0 -25493725.568132401 -12173539.462799072 0 -12173539.462799072 84026633.498474121 0 0 0 0 -25729431.209913254 -2434849.2498931885 0 -2434849.2498931885 31097381.626037598 0 0 0 0 -18255768.675899506 734151.77879333496 0 734151.77879333496 6329994.4898147583 0 0 0 0 1442856.1199912957 -8279201.2609125897 0 -8279201.2609125897 383358.80544406176 0 0 0 0 -5659499.1931548119 -13255524.413845062 0 -13255524.413845062 17076903.060943604 0 0 0 0 -143467892.92491615 22322746.542823315 0 22322746.542823315 3737887.9872741699 0 0 0 0 -503318395.00744057 -512277815.83401489 0 -512277815.83401489 196633275.54740906 0 0 0 0 1425096.0409319573 -1461590.6162951533 0 -1461590.6162951533 -3158722.420139648 0 0 0 0 -351937838.10886574 -219092715.92599487 0 -219092715.92599487 179646771.45108032 0 0 0 0 -230292505.99894333 -678446051.68313599 0 -678446051.68313599 293204492.9289856 0 0 0 0 -394701951.81255341 -354344527.36505127 0 -354344527.36505127 -206021332.03323364 0 0 0 0 -46905403.360534668 199189152.54751587 0 199189152.54751587 -1077003161.4763184 0 0 0 0 -107901624.61619949 154935090.4180069 0 154935090.4180069 -4757002.839050293 0 0 0 0 46466260.120761871 -183609142.54760742 0 -183609142.54760742 229158159.98791504 0 0 0 0 -14283692.139167786 -34595820.905960083 0 -34595820.905960083 39959007.082260132 0 0 0 0 -285980734.6198349 85333468.902938843 0 85333468.902938843 610424066.91040039 0 0 0 0 -322976813.26488876 -448288220.92832184 0 -448288220.92832184 329845028.01773071 0 0 0 0 -359836578.3744812 -280731116.83009338 0 -280731116.83009338 472436603.03912354 0 0 0 0 -196894314.72363091 -341232324.57257843 0 -341232324.57257843 -262740019.68878174 0 0 0 0 -313833041.72785568 -458635873.34414673 0 -458635873.34414673 258489547.00118637 0 0 0 0 150423319.06920624 295223274.50286865 0 295223274.50286865 -279617226.19311523 0 0 0 0 1690242.1614618702 3467620.5760321524 0 3467620.5760321524 -15825754.532604523 0 0 0 0 -169253228.69810486 -225197396.9384613 0 -225197396.9384613 -545073348.6697998 0 0 0 0 -162871205.99288177 -281842493.33330536 0 -281842493.33330536 -200176764.41957092 0 0 0 0 -101057688.71184254 17976686.390720367 0 17976686.390720367 -29360042.3176651 0 0 0 0 20620540.14825058 -9415026.7761383057 0 -9415026.7761383057 -34095501.651931763 0 0 0 0 -477524049.95729828 -234729833.95159149 0 -234729833.95159149 -45709850.084243774 0 0 0 0 5704134.4416656494 -18729780.243751526 0 -18729780.243751526 -33241855.73431015 0 0 0 0 -16067343.581320763 -7009865.8818740845 0 -7009865.8818740845 11968516.208164215 0 0 0 0 377832.21166834095 1505072.9031947665 0 1505072.9031947665 -5952012.0712642819 0 0 0 0 -55827423.755645752 -38392207.149940491 0 -38392207.149940491 -529239400.18078613 0 0 0 0 -168834.30448405724 -1530330.9311416112 0 -1530330.9311416112 -5527469.3653337285 0 0 0 0 -129894000.61171722 -28078880.509674072 0 -28078880.509674072 -716903333.50872803 0 0 0 0 -122796480.39278412 -86049106.583862305 0 -86049106.583862305 -383807253.64285278 0 0 0 0 -38436925.156543732 -406588361.1182785 0 -406588361.1182785 -93579969.858886719 0 0 0 0 -510105039.15692902 117055108.54439545 0 117055108.54439545 -604039450.87205505 0 0 0 0 -14039585.053678513 -666251.01567840576 0 -666251.01567840576 -17247799.359117031 0 0 0 0 771644906.59378433 358120982.13028717 0 358120982.13028717 148730731.8165741 0 0 0 0 591949817.67336273 231127047.52600098 0 231127047.52600098 536491668.12438965 0 0 0 0 939355.07765939645 161981.58315605298 0 161981.58315605298 -750315.50888540968 0 0 0 0 -6475768.8238546895 1486407.1640872918 0 1486407.1640872918 394236.5688502267 0 0 0 0 -14768152.446392059 -33323060.45072937 0 -33323060.45072937 -13880679.274414062 0 0 0 0 -271012289.28081703 -130664031.16516876 0 -130664031.16516876 -80641444.339172363 0 0 0 0 -126808058.54481506 -215676575.2493515 0 -215676575.2493515 -198876043.6242218 0 0 0 0 24348186.439771891 23467500.374047279 0 23467500.374047279 -316002164.98983765 0 0 0 0 -29683241.90871048 -89051252.386047363 0 -89051252.386047363 -329034533.19296265 0 0 0 0 -37576288.006420135 -157832734.40394592 0 -157832734.40394592 -189010383.89105606 0 0 0 0 -86624034.997047424 -307729085.76000977 0 -307729085.76000977 -622176778.52835083 0 0 0 0 16958931.836053848 92755855.251426697 0 92755855.251426697 -139484360.13440704 0 0 0 0 -17573722.927812576 115418062.79046631 0 115418062.79046631 -69510924.326078415 0 0 0 0 2820074.6332348334 4804481.1917641629 0 4804481.1917641629 -3940363.4060600773 0 0 0 0 -332791758.32538986 -199629600.37200928 0 -199629600.37200928 -121202906.69532776 0 0 0 0 -135294823.16441327 -390459998.04851967 0 -390459998.04851967 -252810324.32635498 0 0 0 0 18224322.83782959 -407500931.03561401 0 -407500931.03561401 -14071156.169235229 0 0 0 0 164780575.55874634 50543834.90537262 0 50543834.90537262 -8720392.7089996338 0 0 0 0 -135316790.6934166 -376608131.34001923 0 -376608131.34001923 -434525397.36578369 0 0 0 0 -14212888.978151023 -9715346.6736043692 0 -9715346.6736043692 -7268889.0847930908 0 0 0 0 -6752780.1558103925 -1029694.1579631157 0 -1029694.1579631157 -9207369.6242901683 0 0 0 0 870419.88433881465 4020667.9827547036 0 4020667.9827547036 -2076948.7375301495 0 0 0 0 2413454.7185048275 1943405.6157975122 0 1943405.6157975122 -1140780.6644324437 0 0 0 0 -747349875.06465912 -112149913.08383179 0 -112149913.08383179 -545633913.70196533 0 0 0 0 -3274481.8648331887 2321248.1842871904 0 2321248.1842871904 -1436951.182295315 0 0 0 0 7315928.1849279404 8810826.8160552979 0 8810826.8160552979 4771301.1231994629 0 0 0 0 -878166453.47053814 -1000642715.4821625 0 -1000642715.4821625 -350455450.2877655 0 0 0 0 968389981.96544266 587482750.11463165 0 587482750.11463165 -1837575283.5546799 0 0 0 0 -93645985.257101059 59321387.926631927 0 59321387.926631927 414199487.34997559 0 0 0 0 595554208.61034775 426835581.59759521 0 426835581.59759521 -1023275988.6020737 0 0 0 0 -2790682.3004817963 2320445.1061096191 0 2320445.1061096191 638135.10842895508 0 0 0 0 -7980996.5460045375 2973645.1364505477 0 2973645.1364505477 -2634019.2089085616 0 0 0 0 -7390185.429857254 -3244006.3834228516 0 -3244006.3834228516 3484620.6320114136 0 0 0 0 521872.78864027071 -92739.337234772742 0 -92739.337234772742 -1272483.8838218004 0 0 0 0 -202711991.17412949 -173753965.54659271 0 -173753965.54659271 -261292693.91614008 0 0 0 0 -8743813.3141649235 -2275369.8352868725 0 -2275369.8352868725 -1240452.4791252166 0 0 0 0 -506452830.88479042 -331795109.53669357 0 -331795109.53669357 -5774835.2576446533 0 0 0 0 -7616088.834142386 414877.78367411159 0 414877.78367411159 -666655.05084392428 0 0 0 0 -276776663.16347003 -199396103.40771914 0 -199396103.40771914 -100714908.00514221 0 0 0 0 -487827757.88121414 -188199327.49812317 0 -188199327.49812317 -20583668.737457275 0 0 0 0 902674.36592400074 -8768683.3297386169 0 -8768683.3297386169 -13260600.608459473 0 0 0 0 7174899.4195833206 -3271201.5263366699 0 -3271201.5263366699 -8176772.0424804688 0 0 0 0 -13860749.330860138 7956805.8359375 0 7956805.8359375 8997541.6091156006 0 0 0 0 -464750643.00126076 -132825582.38404083 0 -132825582.38404083 -32396962.611053467 0 0 0 0 -5787206.2607728895 531006.47372319177 0 531006.47372319177 -580932.87727383524 0 0 0 0 1417965.4794626236 -13921592.776428223 0 -13921592.776428223 -5130594.0127258301 0 0 0 0 16038623.537480831 7296381.0655670166 0 7296381.0655670166 -3275012.2633666992 0 0 0 0 122398.30284634512 -35029.310362517834 0 -35029.310362517834 -349487.10773579031 0 0 0 0 15515917.674578667 -9528322.3012084961 0 -9528322.3012084961 -10203684.114509583 0 0 0 0 7504463.5012435913 -400824808.08093262 0 -400824808.08093262 -513584354.8656311 0 0 0 0 -752109679.28553009 -99143805.009979248 0 -99143805.009979248 23541965.474761963 0 0 0 0 -454179144.78247643 -276113961.87864685 0 -276113961.87864685 -250084781.73880005 0 0 0 0 -721435.46621224005 1153064.8331560381 0 1153064.8331560381 384458.88295311108 0 0 0 0 -455741521.03741455 12141412.23802948 0 12141412.23802948 -242950899.67944336 0 0 0 0 -436284230.12420654 -228328852.73538208 0 -228328852.73538208 -28729531.713272095 0 0 0 0 -820695834.87653732 -296806013.10063171 0 -296806013.10063171 -32796850.836303711 0 0 0 0 -453095402.07582092 -566519569.19624329 0 -566519569.19624329 -327084992.72076416 0 0 0 0 -94771266.647689819 -316498489.6477356 0 -316498489.6477356 -191176137.52288818 0 0 0 0 228557403.37812042 -128431078.56362915 0 -128431078.56362915 -357121757.88342285 0 0 0 0 -133921425.89748383 -280219775.55819702 0 -280219775.55819702 -169710947.64428711 0 0 0 0 -118914809.06225586 -274491390.39886475 0 -274491390.39886475 -68606161.995666504 0 0 0 0 -320429445.19421959 -416457649.04559326 0 -416457649.04559326 -145339782.92877197 0 0 0 0 -136057178.36602783 -292438747.76031494 0 -292438747.76031494 -29053649.561462402 0 0 0 0 -135138415.66564178 -267530357.34124756 0 -267530357.34124756 -1650540.5072021484 0 0 0 0 102201369.18398285 -18165923.873840332 0 -18165923.873840332 -101423141.69219971 0 0 0 0 6308612.811706543 -120204143.42279053 0 -120204143.42279053 -4650386.9371061325 0 0 0 0 -135860022.80948067 -146463631.34881592 0 -146463631.34881592 -156287582.62770081 0 0 0 0 -295615054.74586487 -94242151.557266235 0 -94242151.557266235 -46841252.569423676 0 0 0 0 -266142606.67173767 -139598990.39582825 0 -139598990.39582825 -125490750.86569214 0 0 0 0 -220174024.49363708 -50026347.538864136 0 -50026347.538864136 -68804470.982452393 0 0 0 0 -88364416.477350235 -62165317.916236877 0 -62165317.916236877 -40887532.574783325 0 0 0 0 152153978.85790062 -82037008.163261414 0 -82037008.163261414 -114359450.23467255 0 0 0 0 172902032.91931915 -187801375.19296265 0 -187801375.19296265 -18921593.074723244 0 0 0 0 138080598.71174049 -82105369.841491699 0 -82105369.841491699 -4834611.1085443497 0 0 0 0 2535008.8350773249 -9539216.8458793033 0 -9539216.8458793033 -31683688.385239266 0 0 0 0 105984113.8373971 -133866076.52416229 0 -133866076.52416229 110258129.40988159 0 0 0 0 2200640.5843049176 -1182025.0274608918 0 -1182025.0274608918 -4663490.6184884757 0 0 0 0 -292232738.36754107 -104649736.89879179 0 -104649736.89879179 200016730.8621521 0 0 0 0 195761927.03515625 -29415025.017028809 0 -29415025.017028809 -69775563.061485291 0 0 0 0 7232178.1418457031 -113428660.19935608 0 -113428660.19935608 -58942127.346229553 0 0 0 0 14189227.377241135 -76469934.271240234 0 -76469934.271240234 -37358862.272453308 0 0 0 0 127838269.28090858 -81243130.17641449 0 -81243130.17641449 -80860479.516723633 0 0 0 0 253886949.92832756 -25797094.485816956 0 -25797094.485816956 -62068588.807598114 0 0 0 0 290092629.92075205 -93491153.993839264 0 -93491153.993839264 -87163004.756362915 0 0 0 0 156052739.48553276 -97721818.034622192 0 -97721818.034622192 -37782156.500230789 0 0 0 0 145188747.79615378 -44759601.75381279 0 -44759601.75381279 -93970861.228500366 0 0 0 0 -19089490.294155121 -58457900.43132782 0 -58457900.43132782 -54120003.391609192 0 0 0 0 -168501499.78796768 -84809770.903961182 0 -84809770.903961182 -45483121.172332764 0 0 0 0 -22861248.511699677 -75111883.794757843 0 -75111883.794757843 -97905315.363861084 0 0 0 0 -317169677.19789886 -65343981.538543701 0 -65343981.538543701 -54689681.332855225 0 0 0 0 -166114498.00342178 -114562730.66319275 0 -114562730.66319275 -43950334.720809937 0 0 0 0 -156970462.65478897 -142781713.28417969 0 -142781713.28417969 -13094172.005187988 0 0 0 0 -266661552.72859955 -141797864.63230896 0 -141797864.63230896 -12263382.766937256 0 0 0 0 -7753498.6047654152 -69090651.153190613 0 -69090651.153190613 -51899706.563323975 0 0 0 0 -129903390.88355255 -309461914.02844238 0 -309461914.02844238 -67656543.866605759 0 0 0 0 -304391619.76913071 -260081284.42861938 0 -260081284.42861938 -2376171.5874633789 0 0 0 0 -217001875.98482132 -280316492.45822144 0 -280316492.45822144 -2726087.0273170471 0 0 0 0 -310430195.48622513 -269071309.01460266 0 -269071309.01460266 -15548944.779083252 0 0 0 0 -406015858.24726677 -182129801.78065491 0 -182129801.78065491 7262620.9326171875 0 0 0 0 -235918606.20804596 -186707922.7328186 0 -186707922.7328186 6845177.0907373428 0 0 0 0 -205466104.82348633 -198723672.12496948 0 -198723672.12496948 -38137795.643981934 0 0 0 0 -188067582.73097992 -221708961.71279907 0 -221708961.71279907 -7940287.9748001099 0 0 0 0 -274606701.70811844 -224186658.31634521 0 -224186658.31634521 -4602463.7279663086 0 0 0 0 -158213936.98651218 -253637287.20569992 0 -253637287.20569992 -56541987.416351318 0 0 0 0 -163234163.37590027 -264681951.90322876 0 -264681951.90322876 -25034492.040100098 0 0 0 0 -196975624.00150299 -255384094.30853271 0 -255384094.30853271 -27269615.260406494 0 0 0 0 -145281073.25377083 -279676130.88087463 0 -279676130.88087463 -28142683.034820557 0 0 0 0 -163280602.65883231 -263568162.8661356 0 -263568162.8661356 -23976510.106506348 0 0 0 0 -135591330.12524056 -248010999.79093456 0 -248010999.79093456 -56026187.058197021 0 0 0 0 -133493728.06200409 -219775696.64825439 0 -219775696.64825439 -107804051.01730347 0 0 0 0 -136605350.0549202 -198207815.26596069 0 -198207815.26596069 -67771596.268951416 0 0 0 0 -132422261.01791 -182957264.40257263 0 -182957264.40257263 -38383614.243041992 0 0 0 0 -101466339.33918953 -191120240.56877136 0 -191120240.56877136 -146923928.56887817 0 0 0 0 -91586632.129802704 -163848850.414505 0 -163848850.414505 -91680169.314842224 0 0 0 0 -98674880.719326019 -207669867.28929138 0 -207669867.28929138 -103898077.63111877 0 0 0 0 -100820039.8620348 -220496859.25731277 0 -220496859.25731277 -178357471.08132935 0 0 0 0 8407037.8608882427 -112167355.52070904 0 -112167355.52070904 -68451794.584381104 0 0 0 0 -113503803.62742424 -103975784.54683685 0 -103975784.54683685 -37924585.150665283 0 0 0 0 -141124296.7871933 -160737446.27835083 0 -160737446.27835083 -46302592.52180481 0 0 0 0 -124134448.86447811 -152469079.09580612 0 -152469079.09580612 -44388941.895294189 0 0 0 0 -93774367.396924973 -158635336.0406189 0 -158635336.0406189 -104097227.640625 0 0 0 0 -67224649.84979248 -126510277.90995789 0 -126510277.90995789 -66615369.329544067 0 0 0 0 -68106318.608650208 -126508369.72743988 0 -126508369.72743988 -50124689.2396698 0 0 0 0 18025926.953453064 -95416146.011024475 0 -95416146.011024475 -80168302.123466492 0 0 0 0 -55648436.987168789 -96304341.547609329 0 -96304341.547609329 -42472586.128479004 0 0 0 0 -52467577.980631828 -92664555.477264404 0 -92664555.477264404 -146267988.78051758 0 0 0 0 -88308693.758710861 -9814149.1648712158 0 -9814149.1648712158 -111429349.21979141 0 0 0 0 -26832388.179916382 -41754457.61517334 0 -41754457.61517334 -92616719.055923462 0 0 0 0 -71208881.594463348 -106863001.28178406 0 -106863001.28178406 -93612673.650526047 0 0 0 0 -72564665.012298584 -122118025.28495789 0 -122118025.28495789 -175154869.16214371 0 0 0 0 -18328185.027972221 -30762194.780767441 0 -30762194.780767441 -284040888.53077698 0 0 0 0 -46818870.695289612 -135051299.74767303 0 -135051299.74767303 -219832775.38458252 0 0 0 0 155534202.80145073 11117819.302101135 0 11117819.302101135 -288818211.19273376 0 0 0 0 -31704975.254302979 -1885722.5257587433 0 -1885722.5257587433 -218839796.66513062 0 0 0 0 -86104992.799585342 198210180.8429184 0 198210180.8429184 -405465534.99021912 0 0 0 0 492977.6702501839 25381.088048294187 0 25381.088048294187 -374989.33622263372 0 0 0 0 -148914843.53501892 61508828.091659546 0 61508828.091659546 -187229243.33215332 0 0 0 0 -44267747.539539337 55513241.819946289 0 55513241.819946289 -158696293.89067078 0 0 0 0 -70839730.510189056 -49068894.92855835 0 -49068894.92855835 -68718279.762496948 0 0 0 0 -72820420.885625839 33662634.772785187 0 33662634.772785187 -297444472.91183472 0 0 0 0 -98541168.791730881 50810243.958198547 0 50810243.958198547 -146428258.76577759 0 0 0 0 -17558092.430925369 53447439.575637817 0 53447439.575637817 -72372674.149551392 0 0 0 0 -39822989.971389771 -100772843.80797577 0 -100772843.80797577 380484628.39842224 0 0 0 0 -64226878.794403553 25128529.393888474 0 25128529.393888474 31947452.737136841 0 0 0 0 144552104.14895248 -101211024.79447174 0 -101211024.79447174 -70785197.518966675 0 0 0 0 9841516.5462036133 -130445650.38536072 0 -130445650.38536072 23833738.508377075 0 0 0 0 140474342.03577137 -52644623.000858307 0 -52644623.000858307 -33793352.086273193 0 0 0 0 19261620.578829288 -103563740.4395752 0 -103563740.4395752 -44106915.009429932 0 0 0 0 136522563.42041755 -107476499.96203804 0 -107476499.96203804 -50127909.003875732 0 0 0 0 384581539.82809448 110712494.23476028 0 110712494.23476028 11090613.290985107 0 0 0 0 437323007.14675426 -167730094.71772766 0 -167730094.71772766 -44577219.409660339 0 0 0 0 234637981.58485413 -346764917.80726624 0 -346764917.80726624 -91284006.375076294 0 0 0 0 217582391.9779911 339127005.87809753 0 339127005.87809753 -71397071.192207336 0 0 0 0 134531588.10974884 -86274751.297631264 0 -86274751.297631264 -461995491.27102661 0 0 0 0 -170096950.55076504 326259285.87706375 0 326259285.87706375 -19226139.412689209 0 0 0 0 -75559831.579555511 110799265.52381897 0 110799265.52381897 11306718.811569214 0 0 0 0 58907092.501147747 93372299.125465393 0 93372299.125465393 -432268455.66369629 0 0 0 0 -163717784.93545151 221550796.14549255 0 221550796.14549255 -214568404.42354584 0 0 0 0 8306958.5148696899 3467383.6439056396 0 3467383.6439056396 -1070470.3311462402 0 0 0 0 1453816.992364971 -608151.99371553957 0 -608151.99371553957 -1632244.9997987822 0 0 0 0 -125850744.44253159 144811969.06687164 0 144811969.06687164 -228053617.077528 0 0 0 0 -5411916.8933353424 72732459.693450928 0 72732459.693450928 -437274192.38463593 0 0 0 0 -15174063.470164299 -5741323.5203094482 0 -5741323.5203094482 3940599.7366333008 0 0 0 0 2513317.7404233525 -36174.271341711283 0 -36174.271341711283 -1509465.6052089073 0 0 0 0 -102623282.34633255 287424120.28746033 0 287424120.28746033 -433077825.37975693 0 0 0 0 641998.81311771087 -106735.38675455377 0 -106735.38675455377 -895359.41827252507 0 0 0 0 -230907885.86264038 236232013.00090027 0 236232013.00090027 -244311403.50437927 0 0 0 0 -91229758.02072525 185086503.82218933 0 185086503.82218933 -265992445.93084717 0 0 0 0 -84072160.388572693 230527000.41622925 0 230527000.41622925 -254148913.27835083 0 0 0 0 -54704898.254191399 191011207.85365295 0 191011207.85365295 -281375571.34225464 0 0 0 0 -162419829.61182404 263843320.4931488 0 263843320.4931488 -313338959.73500061 0 0 0 0 -180708776.57420349 216003162.51182556 0 216003162.51182556 -250196650.25100708 0 0 0 0 -162613109.38999796 276437020.97933483 0 276437020.97933483 -349730010.21458435 0 0 0 0 -147121616.26925087 197606528.76799011 0 197606528.76799011 -268413048.23403931 0 0 0 0 -208552284.28887379 353033889.59356606 0 353033889.59356606 -411945952.80526733 0 0 0 0 -209406271.71505356 270992726.95207214 0 270992726.95207214 -300835855.05876923 0 0 0 0 -268094258.81846166 333084737.15182686 0 333084737.15182686 -320367999.18041992 0 0 0 0 -167220417.00370884 296498164.45796204 0 296498164.45796204 -354545048.51950836 0 0 0 0 -307281145.99943924 415773065.20927429 0 415773065.20927429 -403977777.01886749 0 0 0 0 -252088378.248353 310683950.99106598 0 310683950.99106598 -270758288.16907883 0 0 0 0 -159686225.17146826 203964853.53522873 0 203964853.53522873 -255067621.84339905 0 0 0 0 -238913955.45425224 492971912.52572632 0 492971912.52572632 -581572362.07431793 0 0 0 0 -189410015.17766953 533000129.64568329 0 533000129.64568329 -556730941.99071503 0 0 0 0 -312894691.65720081 452752753.02461433 0 452752753.02461433 -434301520.12145996 0 0 0 0 -232035226.74608254 419356073.87052631 0 419356073.87052631 -506079920.34954834 0 0 0 0 -239819210.6223278 343997483.01358795 0 343997483.01358795 -413046349.67352295 0 0 0 0 -184093831.68870163 279942391.66448975 0 279942391.66448975 -341573266.89241791 0 0 0 0 -147742769.29313278 389307806.54750919 0 389307806.54750919 -463040551.19197083 0 0 0 0 -123242049.07572174 500753858.31134796 0 500753858.31134796 -541508836.13539124 0 0 0 0 -126689325.01657677 357964226.09357452 0 357964226.09357452 -430377997.23628235 0 0 0 0 -232837253.97822952 546588242.06410217 0 546588242.06410217 -539857759.22689819 0 0 0 0 -131562945.31588745 483582187.15190887 0 483582187.15190887 -567484000.23808289 0 0 0 0 21784732.823682785 357159450.47091675 0 357159450.47091675 -527943299.64297867 0 0 0 0 -60552903.426351547 277184426.89527512 0 277184426.89527512 -409641537.53573608 0 0 0 0 -47153923.037490845 271677225.65142822 0 271677225.65142822 -416769717.18515015 0 0 0 0 -89325387.141433716 204848858.29014587 0 204848858.29014587 -310670708.51314545 0 0 0 0 -128978667.24950027 277857842.57463074 0 277857842.57463074 -361158568.35644531 0 0 0 0 -62822037.182582855 313179650.13822937 0 313179650.13822937 -457301532.34899139 0 0 0 0 -31087283.212156296 197539274.91736603 0 197539274.91736603 -341672041.1569519 0 0 0 0 -67747626.342119217 221978230.06150055 0 221978230.06150055 -263307887.48815918 0 0 0 0 -50223105.990871429 198999182.3447113 0 198999182.3447113 -326695256.4289856 0 0 0 0 -4073700.1810379028 -2034777.2291717529 0 -2034777.2291717529 -2713990.5542449951 0 0 0 0 -32316983.044553757 129032835.42051697 0 129032835.42051697 -352981537.36206055 0 0 0 0 19765222.087741852 9980715.4869232178 0 9980715.4869232178 -262142876.3017807 0 0 0 0 -94556445.869060516 160455707.63005066 0 160455707.63005066 -207906801.7485199 0 0 0 0 1023916.4947592383 146798.92680694163 0 146798.92680694163 -651151.27379436046 0 0 0 0 -54558336.393817902 317039429.17409515 0 317039429.17409515 -313131601.02381897 0 0 0 0 1291831.6000284581 -444242.03662516922 0 -444242.03662516922 -1165379.9984268695 0 0 0 0 -83351949.335071564 189118082.04121399 0 189118082.04121399 -225072288.21079254 0 0 0 0 82549735.635861397 285356146.39997864 0 285356146.39997864 -572363239.0140686 0 0 0 0 8101010.0304527283 143897840.91923523 0 143897840.91923523 -276988532.85984802 0 0 0 0 54129525.50214386 146998943.9994812 0 146998943.9994812 -378884378.09385681 0 0 0 0 27011382.981918335 -40681440.52331543 0 -40681440.52331543 59670987.05871582 0 0 0 0 215344718.58950758 104375524.80620956 0 104375524.80620956 -499454468.57672119 0 0 0 0 229067430.33886528 -11272955.944297791 0 -11272955.944297791 -439260297.32949829 0 0 0 0 -77240812.518060684 352387167.31373596 0 352387167.31373596 -629706193.6102829 0 0 0 0 -16941309.222106934 39675863.414604187 0 39675863.414604187 -763054338.19467926 0 0 0 0 -218319301.10010338 250573871.76318741 0 250573871.76318741 -869838818.52566528 0 0 0 0 -91008569.253526688 235934599.49522018 0 235934599.49522018 -1053476982.7594604 0 0 0 0 -265511047.85879612 756230177.95956421 0 756230177.95956421 -890158205.94352722 0 0 0 0 -4059248.2072944641 247623649.69709778 0 247623649.69709778 -578616378.80799866 0 0 0 0 -46430638.935688019 468275722.96565628 0 468275722.96565628 -698008630.38832092 0 0 0 0 -149417934.92210627 562735972.51447296 0 562735972.51447296 -593383308.22972107 0 0 0 0 -160455236.53251648 540481068.89794922 0 540481068.89794922 -583903598.69470978 0 0 0 0 -184773519.38567543 607956916.04161072 0 607956916.04161072 -589927035.01700401 0 0 0 0 -325196756.01033878 509082824.66252136 0 509082824.66252136 -358675332.09130859 0 0 0 0 -171375940.450387 580618239.89355087 0 580618239.89355087 -534556707.69565582 0 0 0 0 -243041092.45378876 569884423.34703064 0 569884423.34703064 -515115598.04719543 0 0 0 0 -585009495.22724342 259207036.51445007 0 259207036.51445007 -71321268.10776329 0 0 0 0 -334157557.03189373 556271507.10361099 0 556271507.10361099 -475126275.23657227 0 0 0 0 -426218842.06110573 614995730.18256378 0 614995730.18256378 -467143519.62464237 0 0 0 0 -1210559158.0121813 482583644.63989258 0 482583644.63989258 -116024504.54608917 0 0 0 0 -210834603.68376637 -91306037.98972702 0 -91306037.98972702 2134697.2510070801 0 0 0 0 -270219.85092550935 1988253.5667336602 0 1988253.5667336602 -3811726.3005921766 0 0 0 0 -661171576.15886593 1083313161.8825417 0 1083313161.8825417 -1335335427.123764 0 0 0 0 -276134414.4032073 -43499946.209907532 0 -43499946.209907532 -2085015463.7310486 0 0 0 0 -1297709465.893115 -100109334.19705582 0 -100109334.19705582 -743121382.38866425 0 0 0 0 -518015342.38908005 190901828.96136475 0 190901828.96136475 -645414173.01080322 0 0 0 0 -313373019.84195709 80967806.667144775 0 80967806.667144775 -352663235.44403076 0 0 0 0 -359197975.25649834 -44000419.761770248 0 -44000419.761770248 -494360088.65339661 0 0 0 0 -287372920.62434769 -82843240.53704071 0 -82843240.53704071 -449377648.28383636 0 0 0 0 -427949580.09764671 -89178221.883449554 0 -89178221.883449554 -161746606.90811157 0 0 0 0 -302969451.2026329 -207403421.95362091 0 -207403421.95362091 -323599644.95360565 0 0 0 0 -677959643.92329812 -258296187.25930595 0 -258296187.25930595 -528022589.7219696 0 0 0 0 -164733315.00633192 -1578632.0140151978 0 -1578632.0140151978 -496283648.06175232 0 0 0 0 -170984694.52451515 -102937646.26890564 0 -102937646.26890564 -1086720475.3910103 0 0 0 0 -87964824.899610519 -179015433.87095642 0 -179015433.87095642 -614891483.89393234 0 0 0 0 -81541673.260225296 -132281529.54821777 0 -132281529.54821777 -309616033.68997192 0 0 0 0 6125059.3195056915 145037140.51381683 0 145037140.51381683 -308657134.6149292 0 0 0 0 40638282.001893997 -163431822.50717163 0 -163431822.50717163 -385928629.2569809 0 0 0 0 -49479639.928733826 -201035429.04589844 0 -201035429.04589844 -365401844.1592865 0 0 0 0 -139544272.5883379 -266585864.86130524 0 -266585864.86130524 -259774814.00534058 0 0 0 0 -172188824.46790791 -223843453.76350403 0 -223843453.76350403 -204091057.09002686 0 0 0 0 -32183621.389513016 -155434934.30731964 0 -155434934.30731964 -252458480.12506104 0 0 0 0 -99546672.371341705 -237556018.77702332 0 -237556018.77702332 -201820421.92394257 0 0 0 0 -102182980.14233398 -222287270.13058472 0 -222287270.13058472 -212218451.72943115 0 0 0 0 -333170977.60687065 -229367204.89278412 0 -229367204.89278412 -314652516.1313324 0 0 0 0 -140050237.08161354 -208458870.82843018 0 -208458870.82843018 -317011649.423172 0 0 0 0 -215666068.38899374 -111846217.1102376 0 -111846217.1102376 -221711466.74761963 0 0 0 0 -223734682.21576118 -248112447.28704071 0 -248112447.28704071 -176112138.30586243 0 0 0 0 -151239820.72152597 -265617743.90012407 0 -265617743.90012407 -134343800.30172729 0 0 0 0 -147393671.97638422 -177233879.02967572 0 -177233879.02967572 -111212539.19494629 0 0 0 0 -120476730.30319214 -226933631.44847107 0 -226933631.44847107 -86163846.514022827 0 0 0 0 -118510311.97916031 -253414310.7828064 0 -253414310.7828064 -111928134.06207275 0 0 0 0 -118832172.69066238 -236642139.43869019 0 -236642139.43869019 -141375851.15058899 0 0 0 0 -119902009.18172073 -221042488.91230774 0 -221042488.91230774 -208750195.52041626 0 0 0 0 -126234233.6807785 -258861819.44786072 0 -258861819.44786072 -168741454.52801514 0 0 0 0 -127008570.00903702 -218297787.44482422 0 -218297787.44482422 -77682783.3540802 0 0 0 0 -112561499.59150696 -274645502.50003052 0 -274645502.50003052 -103863779.53617859 0 0 0 0 -135227973.55809903 -245303732.95435715 0 -245303732.95435715 -96068500.111236572 0 0 0 0 -117271301.28749847 -273060109.33390808 0 -273060109.33390808 -67337088.933197021 0 0 0 0 -122967446.98997164 -251610536.71008682 0 -251610536.71008682 -61101822.581420898 0 0 0 0 -97735506.130336761 -277440249.18258667 0 -277440249.18258667 -37396734.718673706 0 0 0 0 -101316418.7616601 -218385951.83082819 0 -218385951.83082819 5976673.6102294922 0 0 0 0 -12394562.977277756 -205185950.99980164 0 -205185950.99980164 5917991.2966003418 0 0 0 0 -72115721.718593597 -256053416.11594391 0 -256053416.11594391 49337597.212127686 0 0 0 0 -81265061.174964905 -223795658.35162354 0 -223795658.35162354 -4759846.2560424805 0 0 0 0 -49872071.590232849 -217198415.78363037 0 -217198415.78363037 -9636543.4889526367 0 0 0 0 -114417784.82467651 -289456730.75283813 0 -289456730.75283813 -24352745.174163818 0 0 0 0 -174716830.62146854 -126878551.34881973 0 -126878551.34881973 27203250.524353027 0 0 0 0 -56637595.681206703 -105583314.19240189 0 -105583314.19240189 25858817.748535156 0 0 0 0 -101218343.80294418 -164188077.27302551 0 -164188077.27302551 4644953.1207733154 0 0 0 0 -88786659.741569519 -250926347.89381409 0 -250926347.89381409 -61949756.587539673 0 0 0 0 -82225811.982532501 -145320425.69555664 0 -145320425.69555664 148929327.19659424 0 0 0 0 -77908129.087738037 -213581673.03765869 0 -213581673.03765869 42151431.845741272 0 0 0 0 -65317567.394044876 12170484.023557663 0 12170484.023557663 99499523.564880371 0 0 0 0 -129147532.41924095 -134850952.93212891 0 -134850952.93212891 181449300.4708786 0 0 0 0 -226512776.29524803 -91421823.82509613 0 -91421823.82509613 55975114.696819305 0 0 0 0 -247726939.40872288 112731887.25550079 0 112731887.25550079 65495545.005462646 0 0 0 0 -134877159.91764736 61007839.420501709 0 61007839.420501709 -102514400.18359375 0 0 0 0 -348530642.77820492 -5474651.1829910278 0 -5474651.1829910278 -120804195.38154602 0 0 0 0 -200329617.96597862 -188841471.72013855 0 -188841471.72013855 -70614012.06854248 0 0 0 0 -188834992.287817 -26775105.196205139 0 -26775105.196205139 -147985345.85487366 0 0 0 0 61184496.884832382 89913652.994087219 0 89913652.994087219 -289251483.29559326 0 0 0 0 -90880390.932649612 125993550.54814911 0 125993550.54814911 -15333.586059570312 0 0 0 0 -93943485.364123344 230227733.38937378 0 230227733.38937378 -251058831.94994354 0 0 0 0 -121218527.14492702 32299175.397796631 0 32299175.397796631 -126659886.38447571 0 0 0 0 -219758022.6279583 177049599.83689117 0 177049599.83689117 -299606806.77087402 0 0 0 0 -35657492.925798416 7528593.2111053467 0 7528593.2111053467 108183747.80412292 0 0 0 0 -142292285.15918016 164136463.20815659 0 164136463.20815659 220027452.9654541 0 0 0 0 44145912.651432037 155027334.10153198 0 155027334.10153198 -6146882.4550857544 0 0 0 0 13877454.555410385 103138063.68409729 0 103138063.68409729 171769640.76896667 0 0 0 0 167395231.00766969 208248877.38660812 0 208248877.38660812 -1909505.9930114746 0 0 0 0 -1069758.1158056266 2019312.2804711945 0 2019312.2804711945 -9049789.998614274 0 0 0 0 854150.23040926456 -3099213.3978805542 0 -3099213.3978805542 -1475856.2902183533 0 0 0 0 42259568.965102315 -12491096.917358398 0 -12491096.917358398 -54856695.018890381 0 0 0 0 57059799.024787933 212058044.56652486 0 212058044.56652486 -293715410.80174255 0 0 0 0 137875773.95637417 11658979.319854736 0 11658979.319854736 55685758.023525238 0 0 0 0 201588121.24085617 92589105.182632446 0 92589105.182632446 -874996229.15007019 0 0 0 0 218970611.72592497 -198294573.87090302 0 -198294573.87090302 -456450626.44934082 0 0 0 0 189214543.16591474 -157099718.28659725 0 -157099718.28659725 107574216.6887207 0 0 0 0 -61054.099020546186 1300840.7935819328 0 1300840.7935819328 -7417385.2709280401 0 0 0 0 278157659.08453131 58147364.649780273 0 58147364.649780273 -203017579.14107513 0 0 0 0 -34029275.550099134 -305758543.79324341 0 -305758543.79324341 -1389827279.688385 0 0 0 0 -145368.00797369122 628485.88617170975 0 628485.88617170975 -702305.06851337291 0 0 0 0 447366775.06048012 -159788602.93540192 0 -159788602.93540192 -1344157959.5447998 0 0 0 0 376059137.35879993 51725045.824913025 0 51725045.824913025 -1965594145.5895386 0 0 0 0 363558963.15748978 -30802665.328071594 0 -30802665.328071594 -901411575.37220573 0 0 0 0 104678263.60051727 230800449.91241455 0 230800449.91241455 -925022402.20295715 0 0 0 0 307602225.33183479 126488438.76399994 0 126488438.76399994 -1293539661.1457367 0 0 0 0 -30434163.513442993 118060119.41462708 0 118060119.41462708 -334480613.54133606 0 0 0 0 5371938.1265077591 207963844.92584991 0 207963844.92584991 -455922622.45217896 0 0 0 0 199442468.25902009 34988454.450500131 0 34988454.450500131 -745207980.14160156 0 0 0 0 -492160647.81247187 135336758.88244057 0 135336758.88244057 -303334220.60134888 0 0 0 0 -194660354.66839314 369988542.32876205 0 369988542.32876205 -720718349.02966309 0 0 0 0 105395149.97212029 221378053.19764709 0 221378053.19764709 -869056139.23514938 0 0 0 0 403403326.63341045 301119038.50382996 0 301119038.50382996 -1926694256.8446121 0 0 0 0 -551843911.19827747 756913225.94246101 0 756913225.94246101 -1281972760.3727493 0 0 0 0 308542856.22045541 113578246.94238281 0 113578246.94238281 -1148967811.1596375 0 0 0 0 417463167.64309883 92231925.036430359 0 92231925.036430359 -1289949891.6896667 0 0 0 0 479766111.79935598 109229007.87463379 0 109229007.87463379 -1169260161.6138 0 0 0 0 113282062.43048859 -464769292.57884216 0 -464769292.57884216 -1391277934.3348083 0 0 0 0 46197169.010406017 -137664332.90151978 0 -137664332.90151978 -183813545.34101868 0 0 0 0 216293451.56554651 348543704.51273155 0 348543704.51273155 368207559.866745 0 0 0 0 202211076.76451397 232722195.24043655 0 232722195.24043655 -95933620.93778801 0 0 0 0 427143.64299879968 5471316.3584658252 0 5471316.3584658252 -9886976.0674968511 0 0 0 0 96104274.74209404 46248532.61333847 0 46248532.61333847 -112038269.23339081 0 0 0 0 240243169.46622849 -161236276.12539291 0 -161236276.12539291 109293143.14694214 0 0 0 0 641661942.38463879 29309675.295166016 0 29309675.295166016 -529655116.84266663 0 0 0 0 272856472.4205687 203691002.17425537 0 203691002.17425537 -593362362.43460083 0 0 0 0 216651566.4633967 -95868467.664610863 0 -95868467.664610863 -597476441.87678528 0 0 0 0 88971434.936965704 130253317.58631134 0 130253317.58631134 -338139268.67354584 0 0 0 0 455339019.14921474 -24463942.628105164 0 -24463942.628105164 -1063652589.3488998 0 0 0 0 388479687.37622166 102112522.86365509 0 102112522.86365509 -1098877667.08988 0 0 0 0 280035523.28004372 85888873.441469193 0 85888873.441469193 -1413559046.9129791 0 0 0 0 333415978.49764681 243303326.22586823 0 243303326.22586823 -1382333306.5805054 0 0 0 0 -36017057.812167406 99396663.710250854 0 99396663.710250854 -1392793986.7030334 0 0 0 0 -723716135.58675683 40598588.543243408 0 40598588.543243408 -1247422913.1141047 0 0 0 0 -27587158.035588026 -32126871.75252533 0 -32126871.75252533 -1249711600.5195196 0 0 0 0 -235478658.53242385 -162991130.68044662 0 -162991130.68044662 -928801211.00790405 0 0 0 0 62907056.995322764 33772387.888305664 0 33772387.888305664 -1293970601.3888245 0 0 0 0 -163799594.07281137 -224371750.50106812 0 -224371750.50106812 -1533894125.1156693 0 0 0 0 6009400.314538613 -80372235.155017853 0 -80372235.155017853 -906700494.97344971 0 0 0 0 -241515676.86402106 144951896.76967621 0 144951896.76967621 -955433463.65419006 0 0 0 0 148634520.87487555 94743471.831298828 0 94743471.831298828 -954597765.42603314 0 0 0 0 75305454.36806488 -62020972.485496521 0 -62020972.485496521 -430907838.86833954 0 0 0 0 -157080532.90135098 30784096.297409058 0 30784096.297409058 -465819474.84643555 0 0 0 0 -94794881.647087649 -21861884.615101814 0 -21861884.615101814 -107782885.24954224 0 0 0 0 -60211480.202135265 88652692.481420517 0 88652692.481420517 -63422437.894393921 0 0 0 0 -68596846.509329021 -53557667.336742401 0 -53557667.336742401 -251360136.47517395 0 0 0 0 3604158.9782353044 24163035.754325867 0 24163035.754325867 -503791381.70757961 0 0 0 0 -91734255.721150726 -47390151.240219116 0 -47390151.240219116 -514404754.7667408 0 0 0 0 -45696.666478800456 77030066.86139679 0 77030066.86139679 -559779933.65092468 0 0 0 0 97286156.540410995 -65562863.981933594 0 -65562863.981933594 -1173914615.1719055 0 0 0 0 149144.37472103207 75561409.364925385 0 75561409.364925385 -992055980.21497345 0 0 0 0 -3069685.5727010369 -155874808.72664261 0 -155874808.72664261 -762356873.58269501 0 0 0 0 105139725.22255385 196928938.9538269 0 196928938.9538269 -1221251299.7013245 0 0 0 0 22319.944501005073 144667139.49464524 0 144667139.49464524 -1067130540.4178085 0 0 0 0 -284811.12011541653 892007.73131030798 0 892007.73131030798 -1909969.5545822103 0 0 0 0 -6695017.261504069 -5839817.4327011108 0 -5839817.4327011108 16390873.654560089 0 0 0 0 102897999.92665628 158375654.8345356 0 158375654.8345356 -1670621223.8766327 0 0 0 0 -410267645.89757359 577930030.2461319 0 577930030.2461319 -813527251.57843018 0 0 0 0 -204675630.76657736 511586609.11381531 0 511586609.11381531 -2373955222.773468 0 0 0 0 -188060.0012203306 510246.79346026108 0 510246.79346026108 -1058136.620793201 0 0 0 0 -205029759.08773685 -700625923.93960571 0 -700625923.93960571 -2284378341.219101 0 0 0 0 -174047.77422504942 1325233.2145775706 0 1325233.2145775706 -2646577.3195830155 0 0 0 0 -7702751.4137665629 -909468.59593200684 0 -909468.59593200684 10243000.750713348 0 0 0 0 -50679.003203719854 15793657.214588165 0 15793657.214588165 -18749804.875350952 0 0 0 0 -12700099.830735892 8382514.5946807861 0 8382514.5946807861 -19673623.213562965 0 0 0 0 -58464569.521722555 -27369121.017410278 0 -27369121.017410278 23388879.966262817 0 0 0 0 11052521.33048749 16858506.197055817 0 16858506.197055817 -14647475.744567871 0 0 0 0 7992599.1354787797 6788395.8053512573 0 6788395.8053512573 -61008216.396934509 0 0 0 0 -141904.72159756589 68942.002190254629 0 68942.002190254629 36715.018692906946 0 0 0 0 -2110255.7386422157 -3176675.4042053223 0 -3176675.4042053223 6026165.1873092651 0 0 0 0 2595089.0351983905 -1447142.5534210205 0 -1447142.5534210205 -1205114.9635658264 0 0 0 0 -400495.71471581171 -4762.8718685954809 0 -4762.8718685954809 87700.348633371294 0 0 0 0 -1382489.3545366526 -1407265.4693374634 0 -1407265.4693374634 1924928.2319488525 0 0 0 0 10633474.407709867 5360241.9086608887 0 5360241.9086608887 -55079216.141880035 0 0 0 0 206357.79800169598 -698512.35840769485 0 -698512.35840769485 -2765030.2671340555 0 0 0 0 -70706.470075196034 -411099.34382193536 0 -411099.34382193536 -2380764.360928297 0 0 0 0 -278491.23473045719 -1629727.3134765625 0 -1629727.3134765625 -9915541.5620727539 0 0 0 0 69114.142785359756 -171703.43788138032 0 -171703.43788138032 -1279854.4062733371 0 0 0 0 -459.51831195672662 -330446.70306396484 0 -330446.70306396484 -1284015.9799194336 0 0 0 0 16447.149245853645 -3974046.5689697266 0 -3974046.5689697266 -11337900.914489746 0 0 0 0 -3472212.9594573453 -4320424.9332122803 0 -4320424.9332122803 -81464637.027442932 0 0 0 0 -199158.58814197738 -448402.9188846685 0 -448402.9188846685 -1103341.0166276172 0 0 0 0 37334.744583161148 21702675.853515841 0 21702675.853515841 -36958579.032928467 0 0 0 0 -9373841.5282488614 25045173.591442108 0 25045173.591442108 -19137773.799972534 0 0 0 0 -4690268.6082166918 4754707.5187926292 0 4754707.5187926292 -29915552.791412354 0 0 0 0 8265886.2652312778 5314270.2872314453 0 5314270.2872314453 -28435463.045440674 0 0 0 0 -6820229.9395387024 -3540402.5932674408 0 -3540402.5932674408 -31363368.714050293 0 0 0 0 86429333.405583799 73031861.85382843 0 73031861.85382843 -160162709.97117615 0 0 0 0 -68732191.625017956 158729495.67159271 0 158729495.67159271 29938413.646983862 0 0 0 0 31260803.789117157 173361923.26344299 0 173361923.26344299 -241406464.95252991 0 0 0 0 244550.800233847 81335911.296535492 0 81335911.296535492 -19882047.612106323 0 0 0 0 -153794620.29781461 243099410.40810394 0 243099410.40810394 -227404394.31014061 0 0 0 0 470378.66152521968 91137002.757808685 0 91137002.757808685 -507750519.18643188 0 0 0 0 -14972361.985518422 196006098.58583832 0 196006098.58583832 -183074439.8189888 0 0 0 0 162245615.12976947 68391783.165988922 0 68391783.165988922 -389993437.53526306 0 0 0 0 142187836.88686681 173328460.98335266 0 173328460.98335266 -121660146.62965012 0 0 0 0 225781970.19347626 -102607255.07891083 0 -102607255.07891083 -20305829.708335876 0 0 0 0 861615.95502692647 -902070.63160432503 0 -902070.63160432503 -684849.36030194163 0 0 0 0 424328046.46305394 -87410368.166923523 0 -87410368.166923523 13831199.823669434 0 0 0 0 200504455.24686456 -69187024.465179443 0 -69187024.465179443 68945785.5235672 0 0 0 0 423679549.75496042 -90513146.912750244 0 -90513146.912750244 -835462.16175842285 0 0 0 0 63452854.692775041 121374997.60816193 0 121374997.60816193 20653073.55305481 0 0 0 0 291477291.63040292 32471140.904495239 0 32471140.904495239 13312753.92928791 0 0 0 0 266849058.77514669 175507106.07038879 0 175507106.07038879 222064136.33436584 0 0 0 0 66861506.870659843 61118328.567718506 0 61118328.567718506 169836540.66828918 0 0 0 0 479112230.86885482 -139688516.36294556 0 -139688516.36294556 33623402.139343262 0 0 0 0 759412.95841124665 147204.97627282888 0 147204.97627282888 -1025448.3689859807 0 0 0 0 14803426.98068285 -2336486.1389160156 0 -2336486.1389160156 -2453570.0237731934 0 0 0 0 263010204.43540582 -11413925.630817413 0 -11413925.630817413 19630029.080718994 0 0 0 0 567960308.66658878 27469691.478378296 0 27469691.478378296 24578794.142150879 0 0 0 0 384052019.85484946 233584381.31621933 0 233584381.31621933 133706795.22575378 0 0 0 0 409457401.99993145 206455743.71787453 0 206455743.71787453 154270549.82899475 0 0 0 0 272879007.12129319 -1813507.8364562988 0 -1813507.8364562988 241312343.46717739 0 0 0 0 85317351.734560117 78198318.275125504 0 78198318.275125504 164790591.65841675 0 0 0 0 76530972.73499611 95206825.315704346 0 95206825.315704346 28327367.666879654 0 0 0 0 -37135380.41286204 136637652.79399109 0 136637652.79399109 153410142.224823 0 0 0 0 32377421.185757488 53246417.584205627 0 53246417.584205627 189313892.76641464 0 0 0 0 -127068.18826145583 72871748.872879758 0 72871748.872879758 192682924.84788513 0 0 0 0 17326637.43065758 54223690.893493652 0 54223690.893493652 173267528.60377502 0 0 0 0 25955715.940724745 89386102.084365845 0 89386102.084365845 187063405.96646118 0 0 0 0 40929896.817408025 42603342.475265503 0 42603342.475265503 125210640.65373993 0 0 0 0 25901.265212116778 84503530.226104736 0 84503530.226104736 131960327.70262909 0 0 0 0 -38267943.155207723 42870897.261138916 0 42870897.261138916 41200179.659739494 0 0 0 0 47746408.024316967 70156399.693389893 0 70156399.693389893 42077000.693077087 0 0 0 0 5119210.238891596 1782451.1958379745 0 1782451.1958379745 -100986544.33779907 0 0 0 0 47248214.39895913 65094506.907035828 0 65094506.907035828 -218498834.80528259 0 0 0 0 -72582.510544226199 90739470.894680023 0 90739470.894680023 -95152651.458770752 0 0 0 0 98179485.495809555 158300653.15322876 0 158300653.15322876 -94081496.351013184 0 0 0 0 66855058.508965731 145735561.30471039 0 145735561.30471039 78247978.188873291 0 0 0 0 51124320.072837234 49610196.814338684 0 49610196.814338684 -134337361.43924141 0 0 0 0 -19633434.372925714 126926702.80239773 0 126926702.80239773 30592319.510650635 0 0 0 0 159665662.19728065 101371648.77436829 0 101371648.77436829 27432918.641529083 0 0 0 0 144622828.07513276 213904462.63976479 0 213904462.63976479 47096238.022491455 0 0 0 0 340379767.52866518 175409125.38011551 0 175409125.38011551 54646201.475967407 0 0 0 0 70968321.690487981 132944969.8822298 0 132944969.8822298 100168481.73518372 0 0 0 0 81833493.542173907 101804159.80759382 0 101804159.80759382 224189198.09838867 0 0 0 0 245848129.42371577 57917464.040527344 0 57917464.040527344 128008071.13428497 0 0 0 0 216383598.29425853 153597454.25671864 0 153597454.25671864 179623431.06170654 0 0 0 0 276365597.82930875 269803561.60902405 0 269803561.60902405 137972495.57474327 0 0 0 0 52467976.682209015 8156446.9928588867 0 8156446.9928588867 -40435333.883777618 0 0 0 0 34432430.924612045 20368761.801834106 0 20368761.801834106 37297826.612731934 0 0 0 0 48152438.90921402 53252132.337738037 0 53252132.337738037 -49177751.335601807 0 0 0 0 25877869.095306396 -24747346.711425781 0 -24747346.711425781 -5487538.4300231934 0 0 0 0 1341336.3490663727 2756734.2910505682 0 2756734.2910505682 -9914239.8604022861 0 0 0 0 -5417528.7718515396 -19239499.943496704 0 -19239499.943496704 12435067.673095703 0 0 0 0 174178551.58673358 147083086.30384064 0 147083086.30384064 18607562.783683777 0 0 0 0 505277918.8602314 280894083.32394409 0 280894083.32394409 -1103416.6192092896 0 0 0 0 286308691.03848457 288484718.99497223 0 288484718.99497223 53971738.977172852 0 0 0 0 317223387.51131433 212295184.67885494 0 212295184.67885494 -5130630.1136703491 0 0 0 0 221313076.30493426 347216303.79364014 0 347216303.79364014 273497380.81751633 0 0 0 0 303455690.44602251 -78981713.030563354 0 -78981713.030563354 6887379.009180069 0 0 0 0 5749545.9599526599 2397474.4883423746 0 2397474.4883423746 -6394040.7226730026 0 0 0 0 8604268.5693421364 7178563.4879055023 0 7178563.4879055023 -15095465.95085907 0 0 0 0 -25301266.121335983 -72554215.786087036 0 -72554215.786087036 29230564.474617004 0 0 0 0 855718.58784927335 1414672.065067865 0 1414672.065067865 -2316479.7755341865 0 0 0 0 14132657.348594666 8170378.6380767822 0 8170378.6380767822 -23673188.843673706 0 0 0 0 2479167.3484316212 2885144.9647598676 0 2885144.9647598676 -10993442.765206113 0 0 0 0 2909122.7587859631 20897.080448150635 0 20897.080448150635 -16053270.457252502 0 0 0 0 10591676.374689102 5013560.3973999023 0 5013560.3973999023 -14849130.901367188 0 0 0 0 7467036.0855569839 8815020.6806640625 0 8815020.6806640625 -2185510.8231658936 0 0 0 0 2454554.5910873413 19514255.031913757 0 19514255.031913757 17802416.522628784 0 0 0 0 10586250.823125601 3651025.026927948 0 3651025.026927948 -17147.098510742188 0 0 0 0 5824608.5902576447 27238535.766540527 0 27238535.766540527 -6886789.9000244141 0 0 0 0 10881160.671150208 16105543.957275391 0 16105543.957275391 4942212.1631317139 0 0 0 0 -6554751.2722177505 17320138.651916504 0 17320138.651916504 9922038.0648498535 0 0 0 0 14571533.504116058 4260476.3360443115 0 4260476.3360443115 17888598.272598267 0 0 0 0 42865521.980627537 37555407.551204681 0 37555407.551204681 54327891.885559082 0 0 0 0 13014519.177803516 27008385.573944092 0 27008385.573944092 60651747.457519531 0 0 0 0 -3596.4652085616253 42945.070257227868 0 42945.070257227868 -43720.158561994322 0 0 0 0 162629.20718536247 187462.79452880099 0 187462.79452880099 -284404.7903200388 0 0 0 0 21288259.894939423 -20040426.656494141 0 -20040426.656494141 -19549698.80657959 0 0 0 0 12363939.853286743 33272511.335205078 0 33272511.335205078 64725851.930175781 0 0 0 0 613974.4982202719 -202180.26449837908 0 -202180.26449837908 -726740.56007442856 0 0 0 0 -507716.88763427734 7326868.0490570068 0 7326868.0490570068 -6028114.4144592285 0 0 0 0 -1615543.4860954285 -770409.59576416016 0 -770409.59576416016 -6472517.7827968597 0 0 0 0 1519583.7900049314 288018.09283386916 0 288018.09283386916 -2119224.3996284828 0 0 0 0 1770305.1237601102 -158436.22958789021 0 -158436.22958789021 -2387210.2010913938 0 0 0 0 17047435.089898586 2989742.5167198181 0 2989742.5167198181 -4973164.1784667969 0 0 0 0 16578720.721931458 -5241102.6268615723 0 -5241102.6268615723 -22218591.038970947 0 0 0 0 53468690.068977356 -1065532.5122070312 0 -1065532.5122070312 -8961084.8728027344 0 0 0 0 25543226.875101089 -12660513.739379883 0 -12660513.739379883 7486563.0074768066 0 0 0 0 -75434.33685435541 1207592.0445331112 0 1207592.0445331112 -700850.00430326164 0 0 0 0 357299.61320877075 495464.20794677734 0 495464.20794677734 -326925.89335632324 0 0 0 0 1123136.6523943222 1431492.7968804725 0 1431492.7968804725 -7155389.8633286646 0 0 0 0 3267466.490194574 8034349.1578702927 0 8034349.1578702927 -14190563.166793823 0 0 0 0 89098.4947681427 2915686.9670791626 0 2915686.9670791626 -302347.15684509277 0 0 0 0 91247.202391902916 1162354.8380706869 0 1162354.8380706869 -64747.300787746906 0 0 0 0 993572.46189117432 1216800.7477416992 0 1216800.7477416992 992406.86151123047 0 0 0 0 563405.29743863456 568869.34318483621 0 568869.34318483621 -6297.8482662141323 0 0 0 0 794739.00364719704 648769.89826839417 0 648769.89826839417 -3507270.4778427877 0 0 0 0 3976613.4833018929 -22705478.3163867 0 -22705478.3163867 -6425228.885848999 0 0 0 0 3889194.7111037583 5535453.535919793 0 5535453.535919793 -5870793.6691897213 0 0 0 0 -2866682.5642066002 -10558631.219093323 0 -10558631.219093323 -18463406.13192749 0 0 0 0 2626414.0209604902 -3538051.3625001889 0 -3538051.3625001889 -8390381.8995008171 0 0 0 0 -12297603.866799593 -2877928.5766716003 0 -2877928.5766716003 -9692457.9417266846 0 0 0 0 16317448.036070824 -15418411.279899597 0 -15418411.279899597 -7853700.4832305908 0 0 0 0 9414781.4364728928 -3321487.9971313477 0 -3321487.9971313477 -4981436.6158561707 0 0 0 0 -661617.62386226654 4657982.3122940063 0 4657982.3122940063 -19760164.368360519 0 0 0 0 4266012.5601711273 1343007.6653518677 0 1343007.6653518677 -19140430.184341431 0 0 0 0 27432373.796186209 -3666918.2525196075 0 -3666918.2525196075 -45647142.536743164 0 0 0 0 18564003.596595287 -21758372.789951324 0 -21758372.789951324 9005465.5841674805 0 0 0 0 1071772.5159313455 247611.95107780397 0 247611.95107780397 -1927667.2902326919 0 0 0 0 -46012602.434885025 47088300.865478516 0 47088300.865478516 -29753162.012763977 0 0 0 0 566401.24500928959 -54398.404512364417 0 -54398.404512364417 -748075.58127904683 0 0 0 0 -12034866.586975098 13086842.695755005 0 13086842.695755005 9790566.1936264038 0 0 0 0 50951274.561881065 -88231304.591552734 0 -88231304.591552734 37275909.551635742 0 0 0 0 36734596.301184654 -15965484.904281616 0 -15965484.904281616 -38284556.93699646 0 0 0 0 30908089.903347015 78932871.45803833 0 78932871.45803833 20769802.57723999 0 0 0 0 -9125549.152320385 3727026.8312187195 0 3727026.8312187195 42077278.104766846 0 0 0 0 510145.08345187642 103640.08837198466 0 103640.08837198466 -690034.66721902788 0 0 0 0 41649439.347096443 84679732.834960938 0 84679732.834960938 -26482268.102043152 0 0 0 0 12105201.156280518 -9022837.4053955078 0 -9022837.4053955078 -9720092.3872833252 0 0 0 0 24095678.679901123 12536490.620269775 0 12536490.620269775 -2363319.7370605469 0 0 0 0 2279600.1782579208 2090469.6666290928 0 2090469.6666290928 -10516547.724090762 0 0 0 0 2502330.1450047493 9640333.0632820129 0 9640333.0632820129 72618897.530658722 0 0 0 0 -7371568.1115484238 -8534898.2945251465 0 -8534898.2945251465 -5776813.1877746582 0 0 0 0 613220.24310786312 1658726.5762460073 0 1658726.5762460073 -29028.343618452549 0 0 0 0 4373547.4487199783 -1339473.6029052734 0 -1339473.6029052734 -1589408.3193359375 0 0 0 0 2700855.4050361398 3251937.0954464003 0 3251937.0954464003 -5697666.2309782356 0 0 0 0 6742895.6357457638 -6771033.0274200439 0 -6771033.0274200439 824482.8306427002 0 0 0 0 1715722.683079116 -3864433.2205425594 0 -3864433.2205425594 -1961411.635765478 0 0 0 0 2747214.4085612805 -696362.51022655983 0 -696362.51022655983 -2933681.6661563218 0 0 0 0 3080452.8837041855 11335262.236541748 0 11335262.236541748 -26432245.528272629 0 0 0 0 11091476.852311134 6853925.8993530273 0 6853925.8993530273 -26948677.316558838 0 0 0 0 3779102.1037453311 -883190.7761323303 0 -883190.7761323303 -7018982.4512205869 0 0 0 0 3273229.6590843201 6127111.0740814209 0 6127111.0740814209 -22395194.790496826 0 0 0 0 7054724.9636096954 -481068.58506774902 0 -481068.58506774902 21266398.035827637 0 0 0 0 5098021.0067434311 -30120907.732898712 0 -30120907.732898712 2910739.3105621338 0 0 0 0 -35193408.274938583 -2708053.1102142334 0 -2708053.1102142334 21305952.620367527 0 0 0 0 79805296.204613328 -92201095.669010162 0 -92201095.669010162 94816861.89024353 0 0 0 0 26293920.503470659 8374841.3534851074 0 8374841.3534851074 7059642.6710510254 0 0 0 0 1082165.0008744996 -823284.80552277016 0 -823284.80552277016 -1558601.5809002221 0 0 0 0 12023425.924095154 27261670.815273285 0 27261670.815273285 14354127.784179688 0 0 0 0 -60882009.543553352 16065035.355186462 0 16065035.355186462 26239081.195236206 0 0 0 0 -88621832.577414989 -68667941.963340759 0 -68667941.963340759 -5820915.261932373 0 0 0 0 85275743.691785216 8664867.3705062866 0 8664867.3705062866 -266989129.43943787 0 0 0 0 32387276.029417515 -14983818.686882019 0 -14983818.686882019 -3654045.9840393066 0 0 0 0 48628820.872206688 -7066766.55493927 0 -7066766.55493927 -220474362.29870605 0 0 0 0 -39185937.291402817 3097950.3269805908 0 3097950.3269805908 27203859.961263657 0 0 0 0 22166806.411582947 -21311559.552322388 0 -21311559.552322388 -12776250.887384653 0 0 0 0 7238229.2624728903 -1995310.5849221908 0 -1995310.5849221908 -9235403.0261406805 0 0 0 0 62166.936852894723 1013225.35988608 0 1013225.35988608 -1146017.7486834901 0 0 0 0 17964148.10905695 -4315503.9100761414 0 -4315503.9100761414 -11133091.306991577 0 0 0 0 6412618.1343381405 -4462971.5201435089 0 -4462971.5201435089 -4785294.466506958 0 0 0 0 12588192.867821217 -5439552.290561676 0 -5439552.290561676 -17185022.529434204 0 0 0 0 5310237.1656549033 -656676.00304027647 0 -656676.00304027647 -6362274.5650436357 0 0 0 0 11821253.39034462 4604325.0963363647 0 4604325.0963363647 -18268110.258399963 0 0 0 0 30126472.607077599 -7339333.5217208862 0 -7339333.5217208862 -34464267.28452301 0 0 0 0 27295124.13835144 -2053236.6398925781 0 -2053236.6398925781 -6935813.2516784668 0 0 0 0 -9909490.7702021599 11247522.799606323 0 11247522.799606323 8060743.6404342651 0 0 0 0 2884447.1078799516 -4919785.7134858295 0 -4919785.7134858295 -6422245.880997248 0 0 0 0 8784671.1808988545 961990.49370745197 0 961990.49370745197 -6107927.1082332619 0 0 0 0 93417715.725755692 39243098.083702087 0 39243098.083702087 7932788.7970569134 0 0 0 0 5052709.7029619692 2076668.3818263747 0 2076668.3818263747 -2763445.6811206145 0 0 0 0 77633867.98862648 -111654374.61456299 0 -111654374.61456299 75066465.347006321 0 0 0 0 -161280424.17961907 50695317.061271667 0 50695317.061271667 200825027.2609446 0 0 0 0 87958504.406767845 -45061875.560890198 0 -45061875.560890198 17725806.629526377 0 0 0 0 1623290.7258586455 1161745.8741808012 0 1161745.8741808012 -740578.95900972513 0 0 0 0 199857476.71912569 -261111650.27845955 0 -261111650.27845955 103978603.16145325 0 0 0 0 215968287.16225147 -93714195.399543762 0 -93714195.399543762 -32872198.393638611 0 0 0 0 125434788.18126678 -46508175.050645351 0 -46508175.050645351 -55103191.374710083 0 0 0 0 471122921.82648373 52593757.467224121 0 52593757.467224121 -75452862.634277344 0 0 0 0 544937538.52618599 -372594530.39168549 0 -372594530.39168549 -197258603.34108734 0 0 0 0 522683209.99817681 -107069060.12181282 0 -107069060.12181282 -395587512.32699585 0 0 0 0 76860380.513021469 79857589.423171997 0 79857589.423171997 -30952796.192302704 0 0 0 0 115327900.26284409 86885304.443695068 0 86885304.443695068 -31449996.346420288 0 0 0 0 137443627.70575142 36679571.976875305 0 36679571.976875305 -31189253.547668457 0 0 0 0 61793764.908518314 -23448272.101131439 0 -23448272.101131439 -3972297.8724212646 0 0 0 0 16669985.699467659 706325.44435119629 0 706325.44435119629 -11660906.761245728 0 0 0 0 128407976.59762859 -28333235.186180115 0 -28333235.186180115 -11677511.850613594 0 0 0 0 35798604.791457176 14469844.241474152 0 14469844.241474152 25862218.085739136 0 0 0 0 27564146.230923653 -9229529.2860069275 0 -9229529.2860069275 -18005544.649986267 0 0 0 0 -10250253.620152473 -9102955.8606185913 0 -9102955.8606185913 7808050.1475448608 0 0 0 0 14238277.752140045 -18662985.335296631 0 -18662985.335296631 -16677888.353820801 0 0 0 0 8971785.4489546977 2351563.9574847184 0 2351563.9574847184 -5651569.1986034773 0 0 0 0 -2671127.4224939346 -3508793.5945968628 0 -3508793.5945968628 -28478953.490692139 0 0 0 0 21608591.968961716 -8490215.5569076538 0 -8490215.5569076538 -61403773.989974976 0 0 0 0 21903938.074821472 38494751.180809021 0 38494751.180809021 -34499422.525062561 0 0 0 0 10558220.551527977 31651197.288635254 0 31651197.288635254 -27905844.075204849 0 0 0 0 15758537.318932533 -24391378.219009399 0 -24391378.219009399 -32465432.621376038 0 0 0 0 717904.28645038605 6450086.6468963623 0 6450086.6468963623 9001187.5511703491 0 0 0 0 -201940.85787399299 2660036.1891089305 0 2660036.1891089305 -2869545.4332814813 0 0 0 0 -2444474.7281150818 13787549.98046875 0 13787549.98046875 6855944.2662353516 0 0 0 0 -3987162.3111694641 3124401.3438627981 0 3124401.3438627981 -108410.35346343368 0 0 0 0 -11969674.345496178 -22582003.809263229 0 -22582003.809263229 1494332.2190704346 0 0 0 0 10757459.268404007 -7095446.8570556641 0 -7095446.8570556641 3388027.8188705444 0 0 0 0 -4614180.6165771484 7463300.9493103027 0 7463300.9493103027 14633858.930084229 0 0 0 0 -106643.14575765282 2414853.3091927767 0 2414853.3091927767 -2268460.6764412262 0 0 0 0 -2884337.3123373734 6039053.6073166765 0 6039053.6073166765 -4268442.093737416 0 0 0 0 1347611.3046760559 4539635.7549285889 0 4539635.7549285889 1732699.9099807739 0 0 0 0 1412728.4174957275 4267692.1782226562 0 4267692.1782226562 2203763.8963012695 0 0 0 0 273538.73290111497 318971.84143311903 0 318971.84143311903 437441.3957516402 0 0 0 0 2927087.3932189941 3878560.6445007324 0 3878560.6445007324 4033082.2207336426 0 0 0 0 108350.64018849144 392376.2563145645 0 392376.2563145645 299068.91404826939 0 0 0 0 6805335.8225722313 9761936.524646759 0 9761936.524646759 863864.60092163086 0 0 0 0 -6335066.6927947998 -163709.12023925781 0 -163709.12023925781 14958453.657287598 0 0 0 0 10264454.728155136 4950766.7714385986 0 4950766.7714385986 -5964324.5105895996 0 0 0 0 7421527.1016693115 -3890054.7788848877 0 -3890054.7788848877 -20393324.409393311 0 0 0 0 11275631.793197632 6078894.0511703491 0 6078894.0511703491 -14907587.628009796 0 0 0 0 871678.44028091431 -1691654.2229614258 0 -1691654.2229614258 -830414.46295166016 0 0 0 0 9448331.9165782928 1758565.1795654297 0 1758565.1795654297 -14909272.685272217 0 0 0 0 12303295.262529373 7864474.193649292 0 7864474.193649292 -26056530.330665588 0 0 0 0 9755078.424030304 2662126.4449615479 0 2662126.4449615479 -36637078.397415161 0 0 0 0 3085816.4521355629 -8410351.9329566956 0 -8410351.9329566956 -31408773.757049561 0 0 0 0 -167780.39557647705 -5352620.634147644 0 -5352620.634147644 -10494526.443939209 0 0 0 0 11129766.328214169 12872702.710136414 0 12872702.710136414 -3204898.9375762939 0 0 0 0 240744.29351269733 131257.77621703967 0 131257.77621703967 -120594.74784891307 0 0 0 0 231911.32553516142 159679.44656918943 0 159679.44656918943 -16357.639126442373 0 0 0 0 -37874880.196704865 2480717.4117431641 0 2480717.4117431641 -26470746.81842041 0 0 0 0 -35872866.851409912 3832135.2786407471 0 3832135.2786407471 11378877.091461182 0 0 0 0 -23671741.745824814 25429370.884857178 0 25429370.884857178 1300080.1384277344 0 0 0 0 20042828.605968475 15539382.07119751 0 15539382.07119751 -1893209.935333252 0 0 0 0 -6216964.4514636993 43239233.303199768 0 43239233.303199768 -30939926.239868164 0 0 0 0 3495658.4270053916 470717.97911410034 0 470717.97911410034 -4029663.9340253621 0 0 0 0 -192592765.22799492 85052886.495571136 0 85052886.495571136 15028654.686447144 0 0 0 0 -39056671.163705826 83226667.230918884 0 83226667.230918884 -128131645.0579834 0 0 0 0 -47361316.361744881 454578774.8949852 0 454578774.8949852 -617465047.13140869 0 0 0 0 -115804213.74926567 529876465.0222702 0 529876465.0222702 -692350819.7744751 0 0 0 0 -125690063.51333904 381336265.55000305 0 381336265.55000305 -444323765.93321228 0 0 0 0 -32461544.142089844 271494520.13174438 0 271494520.13174438 -351630528.58413458 0 0 0 0 -81016703.264259338 55283432.190185547 0 55283432.190185547 -177134196.31876373 0 0 0 0 1342219.4810561659 -290574.3383451812 0 -290574.3383451812 -3279295.7026794124 0 0 0 0 1051369.343919754 2917199.5672531128 0 2917199.5672531128 -7905964.36378479 0 0 0 0 18746855.349111319 8626093.3522453308 0 8626093.3522453308 -9842985.6191558838 0 0 0 0 10544379.250717163 845862.18048095703 0 845862.18048095703 -11698608.276184082 0 0 0 0 -331086.79691728018 -140174.94474770874 0 -140174.94474770874 465464.63113430515 0 0 0 0 -4124440.7571716309 3374342.3338317871 0 3374342.3338317871 -7853086.9313049316 0 0 0 0 -3007721.9539244855 3332597.7896126583 0 3332597.7896126583 -1142446.6640590951 0 0 0 0 44158796.223976135 69728195.690364838 0 69728195.690364838 -917856071.65248108 0 0 0 0 432412144.09005737 281708131.44377136 0 281708131.44377136 -3937227.4117736816 0 0 0 0 -26166.605697769672 101977.58741160482 0 101977.58741160482 -188675.48307834193 0 0 0 0 142806335.76495361 24145924.63256073 0 24145924.63256073 22380172.77747345 0 0 0 0 139582705.10967445 28505029.645195007 0 28505029.645195007 18971758.984130859 0 0 0 0 566371450.99954987 -5129537.7226638794 0 -5129537.7226638794 -33205777.489753723 0 0 0 0 46572544.654760361 -110866984.57450867 0 -110866984.57450867 41651744.427818298 0 0 0 0 -53226559.705532074 53931517.640281677 0 53931517.640281677 32665714.957015991 0 0 0 0 -17654330.450481415 -7894338.9249191284 0 -7894338.9249191284 74039801.655593872 0 0 0 0 -75948771.335235596 93174867.873558044 0 93174867.873558044 13884726.256629944 0 0 0 0 8756945.705078125 53999294.707450867 0 53999294.707450867 -140844418.3631134 0 0 0 0 76820568.897772789 72457643.205425262 0 72457643.205425262 -14856256.277496338 0 0 0 0 6004243.6062465189 848269.77294654027 0 848269.77294654027 -2743834.1546616517 0 0 0 0 566334836.48819542 -198795421.13870239 0 -198795421.13870239 -92467513.8074646 0 0 0 0 299763852.80759811 459955078.27293015 0 459955078.27293015 490778462.26348114 0 0 0 0 2212006.6186822187 186049.39422878623 0 186049.39422878623 -800581.98640656844 0 0 0 0 -41240797.573527336 304061485.91168213 0 304061485.91168213 668924639.00394058 0 0 0 0 811790311.8096199 884266126.11791992 0 884266126.11791992 -3566225.6004867554 0 0 0 0 -48407069.782096863 162833348.56277466 0 162833348.56277466 -104267686.42528152 0 0 0 0 -268589708.17483139 1018769996.8166904 0 1018769996.8166904 -191197210.36352539 0 0 0 0 3998192.297039032 563892251.01379013 0 563892251.01379013 53069631.548278809 0 0 0 0 1216826659.616642 174700012.11943436 0 174700012.11943436 -236637896.4690094 0 0 0 0 472073553.25983047 212494890.57713509 0 212494890.57713509 -184265047.14532471 0 0 0 0 344249461.93925858 519778136.87088013 0 519778136.87088013 -21254649.911987305 0 0 0 0 371292677.27984428 317468620.77297211 0 317468620.77297211 19563388.165924072 0 0 0 0 334652728.6502018 125476217.10553551 0 125476217.10553551 186602844.29533386 0 0 0 0 13037159.004440308 560778161.00812531 0 560778161.00812531 503196795.63402557 0 0 0 0 -748179.56845916621 534088.44955305383 0 534088.44955305383 -1312234.2749042902 0 0 0 0 24430093.711257935 218373144.99342346 0 218373144.99342346 -1377210111.2455826 0 0 0 0 104577505.20510101 278671682.34658051 0 278671682.34658051 707868240.21045685 0 0 0 0 -330127174.12023211 858905255.98974609 0 858905255.98974609 -838268678.12677002 0 0 0 0 -342467095.88056946 952985682.66416931 0 952985682.66416931 72962886.328613281 0 0 0 0 -441382757.25287843 432618147.4159236 0 432618147.4159236 -502252710.70031738 0 0 0 0 -333063290.62236977 508204796.60683441 0 508204796.60683441 -475153686.73832512 0 0 0 0 -115623306.13419151 551887051.33209229 0 551887051.33209229 -1248867731.5527344 0 0 0 0 -432801724.43005109 743412397.10211587 0 743412397.10211587 -716011743.42749023 0 0 0 0 -401331227.15418625 430776380.96177673 0 430776380.96177673 -335765272.36136436 0 0 0 0 -252148943.20725155 293552917.4475708 0 293552917.4475708 -312625163.43519592 0 0 0 0 -366362059.89364147 548090185.44606018 0 548090185.44606018 -516821109.53406525 0 0 0 0 -292797148.00437355 421718810.8082962 0 421718810.8082962 -403810157.79943085 0 0 0 0 -360029976.01386261 743713622.44775009 0 743713622.44775009 -271855860.78890991 0 0 0 0 -320320498.07166481 358141616.92707825 0 358141616.92707825 -290722960.20716095 0 0 0 0 -705092217.44520712 328021480.87307167 0 328021480.87307167 -292343086.41308594 0 0 0 0 -614432507.72888851 481281202.53232765 0 481281202.53232765 -167737159.21727753 0 0 0 0 -787611487.63355827 634500663.77072144 0 634500663.77072144 -105572584.4886322 0 0 0 0 -1559167909.3895893 145179879.98966217 0 145179879.98966217 -132795223.78456545 0 0 0 0 -655583163.77896452 -351019247.63166046 0 -351019247.63166046 -1426226310.9502869 0 0 0 0 -241146073.41300964 347215424.71472931 0 347215424.71472931 -316354394.80037689 0 0 0 0 -463001173.11065769 877955160.80326605 0 877955160.80326605 -1222783049.3550415 0 0 0 0 -1566140752.8336477 -337648937.11942673 0 -337648937.11942673 -67927432.320259094 0 0 0 0 -144987.12470114417 -459596.87685874477 0 -459596.87685874477 -4405421.1854019389 0 0 0 0 -776080534.99636793 1019676758.2118568 0 1019676758.2118568 -1085086377.9091568 0 0 0 0 1242381980.3036308 390047207.59461212 0 390047207.59461212 -657480640.10938263 0 0 0 0 512082787.5312767 -195796235.75492096 0 -195796235.75492096 -593505987.54134083 0 0 0 0 266050241.24075508 -146795679.86811447 0 -146795679.86811447 -404604952.44819641 0 0 0 0 145424233.04429817 -652553599.51810455 0 -652553599.51810455 -1451221333.7142239 0 0 0 0 635465408.45621681 -577817795.81491852 0 -577817795.81491852 -250005930.53886032 0 0 0 0 508220698.02769279 -165916237.26144409 0 -165916237.26144409 -483426125.13667297 0 0 0 0 259908999.5410881 -603253282.02431107 0 -603253282.02431107 758125520.49710846 0 0 0 0 432252154.93182755 -696819252.14096832 0 -696819252.14096832 35648744.921970367 0 0 0 0 -152356835.90961361 -134790536.62530899 0 -134790536.62530899 509804691.71831512 0 0 0 0 -707231627.43690681 -75968009.707679749 0 -75968009.707679749 145331362.39999676 0 0 0 0 63139.687414882937 -2003401.8116769269 0 -2003401.8116769269 -12554394.134817861 0 0 0 0 187366425.80819988 178902349.15093994 0 178902349.15093994 -348774347.03497314 0 0 0 0 -217316112.37510204 -336026535.62669849 0 -336026535.62669849 -84894682.118232727 0 0 0 0 -50510801.555446625 -224061279.54834747 0 -224061279.54834747 -2524317.8067512512 0 0 0 0 -54973464.025305033 -195492738.09824467 0 -195492738.09824467 -184425773.34056091 0 0 0 0 934891.40611151373 -3459176.1907104552 0 -3459176.1907104552 -20123296.124190614 0 0 0 0 -103400081.04262185 -259651905.48659801 0 -259651905.48659801 -25410094.832168579 0 0 0 0 296372757.39130819 16584157.648298264 0 16584157.648298264 -3895746.3211975098 0 0 0 0 -83835818.608762741 -327249772.94267273 0 -327249772.94267273 94094544.332029343 0 0 0 0 -36696929.771464348 -333873926.44176483 0 -333873926.44176483 -95334679.077682495 0 0 0 0 -10332145.242664337 -363244467.30518341 0 -363244467.30518341 -210580046.61295319 0 0 0 0 175259541.41824102 -110924843.4895668 0 -110924843.4895668 -425162715.53268433 0 0 0 0 620819037.57880902 -252258889.76168823 0 -252258889.76168823 -439442148.87701416 0 0 0 0 328536720.46313 -303230661.37338257 0 -303230661.37338257 -381034149.14749146 0 0 0 0 86782492.725946426 -44146073.494308472 0 -44146073.494308472 -584829493.14098358 0 0 0 0 122581632.39585686 -166941214.35287476 0 -166941214.35287476 -265772738.83566284 0 0 0 0 82416241.848495483 2619278.9415092468 0 2619278.9415092468 -587437728.10028839 0 0 0 0 -197829.60733073205 1701124.272759784 0 1701124.272759784 -425865.51543378271 0 0 0 0 -61991832.213972092 132123650.85762024 0 132123650.85762024 -173982677.03591919 0 0 0 0 78507845.151484489 97684586.74609375 0 97684586.74609375 -383177675.46432495 0 0 0 0 32651774.749979019 -4856107.9020690918 0 -4856107.9020690918 -426279423.47657776 0 0 0 0 76963774.932151794 76561422.773132324 0 76561422.773132324 -483255086.62358093 0 0 0 0 33638704.5169034 13709538.593505859 0 13709538.593505859 -330985724.41717529 0 0 0 0 -1173898.9788591713 3266940.682002537 0 3266940.682002537 -669523.90320735797 0 0 0 0 31870601.363202095 -68402289.466377258 0 -68402289.466377258 125706992.01463318 0 0 0 0 -1339542.2958732881 2152273.93345033 0 2152273.93345033 3743143.9897845164 0 0 0 0 31441186.973106384 79028226.045379639 0 79028226.045379639 85411184.718170166 0 0 0 0 -31280699.335477829 44744858.992141724 0 44744858.992141724 57299770.687019348 0 0 0 0 -31832225.711231232 10767038.874580383 0 10767038.874580383 105935379.45096207 0 0 0 0 -20486315.07897377 80690631.550973892 0 80690631.550973892 90545849.901473999 0 0 0 0 -40029323.262940407 125683157.03905296 0 125683157.03905296 -941840.14027404785 0 0 0 0 -16746434.565891266 36596115.329742432 0 36596115.329742432 52757524.626777649 0 0 0 0 -81645867.802558899 53283748.139274597 0 53283748.139274597 79194792.23563385 0 0 0 0 -17746825.717323303 96613446.494697571 0 96613446.494697571 -449679290.78023529 0 0 0 0 -63557122.537336349 18157866.902984619 0 18157866.902984619 -39774489.212558746 0 0 0 0 2808752.3137142723 -3967990.8613904929 0 -3967990.8613904929 -27588975.961007509 0 0 0 0 304164267.35153961 -79332983.210479736 0 -79332983.210479736 -290376998.72601318 0 0 0 0 751272560.118119 189487974.31410789 0 189487974.31410789 95753312.826248169 0 0 0 0 6918279.9839465339 -1611751.8647961244 0 -1611751.8647961244 -35179468.635113999 0 0 0 0 1058605880.7055731 -218215349.5064621 0 -218215349.5064621 -861661065.65376282 0 0 0 0 118990058.42619324 86638476.996459961 0 86638476.996459961 -5880392.2039833069 0 0 0 0 10722886.465982441 13996331.168930154 0 13996331.168930154 -6538044.0871658325 0 0 0 0 25549841.712794304 37402687.597450256 0 37402687.597450256 -5541262.3779144287 0 0 0 0 89473981.090339005 -344689996.56554794 0 -344689996.56554794 -1099522419.7022324 0 0 0 0 -479620260.83501017 207543659.90884399 0 207543659.90884399 618112657.53614616 0 0 0 0 -98029451.250367582 528371019.7246151 0 528371019.7246151 -1742061428.0416565 0 0 0 0 1434714.1459985974 4536188.3783602752 0 4536188.3783602752 -5466136.3524358645 0 0 0 0 381883744.5690279 27432453.265311718 0 27432453.265311718 -3397071839.3506851 0 0 0 0 298215926.98012108 238346113.95963049 0 238346113.95963049 -1663974271.9668121 0 0 0 0 300076472.41469228 -761036836.82636261 0 -761036836.82636261 -2782030153.7936096 0 0 0 0 581535504.30261946 -923043135.56500244 0 -923043135.56500244 -3463812750.6844673 0 0 0 0 163462156.83398062 -960800015.11118317 0 -960800015.11118317 -3311573779.9524078 0 0 0 0 333171917.43298739 -599996578.09634018 0 -599996578.09634018 -2945926138.7634087 0 0 0 0 -1833535084.7756345 -1650043509.7440033 0 -1650043509.7440033 -3467782135.2326202 0 0 0 0 -1502083349.8614526 -1930010177.243351 0 -1930010177.243351 -1140461583.877533 0 0 0 0 -929788622.35000753 -687956730.52832603 0 -687956730.52832603 495265036.13301086 0 0 0 0 187433613.37348527 -1282902120.6209831 0 -1282902120.6209831 -2462511944.504982 0 0 0 0 183861038.31150052 -1495150490.2389526 0 -1495150490.2389526 -3475579667.7919254 0 0 0 0 302079200.84244335 -496586228.17351657 0 -496586228.17351657 -2204839867.2571564 0 0 0 0 -102904858.50759672 -851735261.34824753 0 -851735261.34824753 -1661803689.9669266 0 0 0 0 -315450197.34376121 -305866712.3731308 0 -305866712.3731308 -550049706.36061096 0 0 0 0 -212184358.67998433 -443216681.19473267 0 -443216681.19473267 -1004188485.4774413 0 0 0 0 -474065167.36062288 -112987150.48817635 0 -112987150.48817635 -124923134.14283752 0 0 0 0 -141543497.67466938 139206753.15283966 0 139206753.15283966 58171481.138145447 0 0 0 0 214821974.93876076 268903989.53438377 0 268903989.53438377 12149500.997627258 0 0 0 0 37671722.50180655 -88801025.864860535 0 -88801025.864860535 -698686256.68231201 0 0 0 0 -148774424.03988487 287880751.73939896 0 287880751.73939896 103352294.7712059 0 0 0 0 258877116.27857903 96271166.820810318 0 96271166.820810318 -864353664.95410919 0 0 0 0 7324218.0587609233 16201098.60529127 0 16201098.60529127 -3281576.0520749316 0 0 0 0 16828226.244879723 -3681284.9516525269 0 -3681284.9516525269 38923188.35874939 0 0 0 0 -172794048.10438633 -7423463.2449073792 0 -7423463.2449073792 416864489.52711105 0 0 0 0 4720325.5491633918 8485171.776406154 0 8485171.776406154 -8665660.5109607801 0 0 0 0 3889700.4408974648 6623755.2062683105 0 6623755.2062683105 -2554360.8766174316 0 0 0 0 2724648.5256191203 5588765.871998325 0 5588765.871998325 -3771503.3838050589 0 0 0 0 -725023.04656028748 24206963.549591064 0 24206963.549591064 106640886.43487167 0 0 0 0 4857313.1204006672 3190122.4428272247 0 3190122.4428272247 -7568397.8709030151 0 0 0 0 2664146.9253294468 4312573.5474395752 0 4312573.5474395752 -3555575.8712768555 0 0 0 0 5402751.0054916143 3296292.397605896 0 3296292.397605896 -4850715.7386016846 0 0 0 0 4516636.0411686897 5965593.245265007 0 5965593.245265007 -2110368.4131164551 0 0 0 0 372199965.79829216 -200402056.11218262 0 -200402056.11218262 34896775.4441185 0 0 0 0 319185115.73071647 116695464.84893322 0 116695464.84893322 -129311980.21565247 0 0 0 0 258607480.77297688 -11411204.957374573 0 -11411204.957374573 -262163647.87926483 0 0 0 0 270351126.08064842 150639685.12069702 0 150639685.12069702 -219038790.84003448 0 0 0 0 6858379.9577824119 3627998.9430056252 0 3627998.9430056252 -12167784.387652926 0 0 0 0 6777856.9418392181 4997276.3002214432 0 4997276.3002214432 -3442586.4749450684 0 0 0 0 7222140.8616714478 6799449.004234314 0 6799449.004234314 -2580683.4135475159 0 0 0 0 3597787.0146278921 5266094.7851885632 0 5266094.7851885632 -11702127.841403875 0 0 0 0 -1826101.9063568963 -3578433.6339626499 0 -3578433.6339626499 -7899075.8865117468 0 0 0 0 31697.208339377074 893275.26881214418 0 893275.26881214418 -2120848.1909764633 0 0 0 0 271932462.32995075 590965137.99917412 0 590965137.99917412 -3192911226.8648911 0 0 0 0 -93886854.890391618 -2079241203.4760742 0 -2079241203.4760742 -3460297698.5306244 0 0 0 0 -269439736.9906413 -763836384.74588776 0 -763836384.74588776 -2166513961.8429832 0 0 0 0 -1362074.6688559975 -1126124.8923280723 0 -1126124.8923280723 -2391928.2275069952 0 0 0 0 131934701.52210827 152155957.26815796 0 152155957.26815796 -4520945266.5622597 0 0 0 0 335473418.75483626 1067309643.7540207 0 1067309643.7540207 -3458304695.0783463 0 0 0 0 510133891.06814528 167042269.087677 0 167042269.087677 -1703741624.7491302 0 0 0 0 3459471.2628717422 2975163.3961448669 0 2975163.3961448669 -3194650.9581604004 0 0 0 0 -719701242.65179539 1032948909.1101418 0 1032948909.1101418 -1578771393.0478058 0 0 0 0 -3154909072.8565512 1285812101.4307251 0 1285812101.4307251 1216286904.0545654 0 0 0 0 1459195.2266982577 4356582.1758837765 0 4356582.1758837765 -1209759.440396741 0 0 0 0 1422188.0272057683 3606382.5819163928 0 3606382.5819163928 -445499.90222658217 0 0 0 0 -246397769.86571074 -108161051.94167709 0 -108161051.94167709 315900038.26959229 0 0 0 0 2146013.252632793 8094146.8563879058 0 8094146.8563879058 -4995740.3594816923 0 0 0 0 -96738495.496491373 -104235591.16479111 0 -104235591.16479111 121816874.93308258 0 0 0 0 76916674.173265189 544005599.2464962 0 544005599.2464962 -1460419675.7616577 0 0 0 0 551918.84414344048 8551418.9412019067 0 8551418.9412019067 -3437848.0803450532 0 0 0 0 -4810861.6389966011 11546046.672087669 0 11546046.672087669 6218731.5038146973 0 0 0 0 6983431.6580209732 4844080.8596954346 0 4844080.8596954346 -3336418.6336517334 0 0 0 0 3850186.7090343595 5057322.9460560111 0 5057322.9460560111 -9647668.7785611153 0 0 0 0 21261890.757850647 23120754.160507202 0 23120754.160507202 -14850110.001029968 0 0 0 0 -8404514.6341128945 26204419.648542404 0 26204419.648542404 -2552808.113067627 0 0 0 0 4914543.8921031952 4135877.6403236389 0 4135877.6403236389 -5237609.4204807281 0 0 0 0 88553048.329692841 16369795.239707947 0 16369795.239707947 -59306251.194442749 0 0 0 0 3588227.9998433567 1398704.6992782929 0 1398704.6992782929 -9205997.3136817291 0 0 0 0 51482116.862277985 4538843.393371582 0 4538843.393371582 -3985707.1094732285 0 0 0 0 77708861.288202286 30265250.395645142 0 30265250.395645142 -61151246.259441376 0 0 0 0 111940623.56980705 -26747415.642608643 0 -26747415.642608643 16790317.539428711 0 0 0 0 -39048651.996423244 14734681.382528305 0 14734681.382528305 6493608.5903625488 0 0 0 0 -5315849.7807674175 4147584.1635604389 0 4147584.1635604389 3067328.4730297402 0 0 0 0 -12255237.230264187 64753666.921226501 0 64753666.921226501 -46752692.399505615 0 0 0 0 23686336.401306152 -30331167.709373474 0 -30331167.709373474 221369664.43364716 0 0 0 0 71624257.885481656 118276826.41977167 0 118276826.41977167 85598320.006896973 0 0 0 0 83757612.350893319 22369142.853146553 0 22369142.853146553 -6286000.6897735596 0 0 0 0 153582269.04557514 -408429676.62858582 0 -408429676.62858582 -268946281.11209106 0 0 0 0 117214088.474226 -116657385.73169708 0 -116657385.73169708 -475675525.0931778 0 0 0 0 63658994.332814217 -305826330.69472504 0 -305826330.69472504 -664587877.25759888 0 0 0 0 -987137473.8390137 990881351.77850914 0 990881351.77850914 303403160.82151794 0 0 0 0 87017128.1796875 -476562843.49154663 0 -476562843.49154663 -2252858226.6984558 0 0 0 0 -1472009422.2801685 -431672498.33811951 0 -431672498.33811951 42095479.569274902 0 0 0 0 265149429.28604889 -135291139.4546051 0 -135291139.4546051 -7020980.2404060364 0 0 0 0 -949970.98281452619 1360334.8663402684 0 1360334.8663402684 -1783145.5469022021 0 0 0 0 107968946.72296023 1204860075.4413419 0 1204860075.4413419 165861946.33294678 0 0 0 0 -279113010.1747489 -5958459.3490715027 0 -5958459.3490715027 1032816700.7357941 0 0 0 0 764199.54276931472 1541656.3560633175 0 1541656.3560633175 -782437.17463269271 0 0 0 0 -163014465.8148241 -169132934.22776794 0 -169132934.22776794 243868277.02026367 0 0 0 0 -3886981.5297658886 3920655.537953455 0 3920655.537953455 -9808.4357146844268 0 0 0 0 -85003.837632398907 923583.08102625958 0 923583.08102625958 159489.59222793579 0 0 0 0 -208183619.97504234 275918731.87825012 0 275918731.87825012 1373504507.0879517 0 0 0 0 315430267.01736456 183281051.16086102 0 183281051.16086102 89132425.677978516 0 0 0 0 -9822.2408626992255 74323.750583332032 0 74323.750583332032 -237296.43165075406 0 0 0 0 -2337329.445806738 4089418.1238978393 0 4089418.1238978393 -560374.60073967185 0 0 0 0 721529.76961435564 4984346.8696135134 0 4984346.8696135134 -1559128.3835128546 0 0 0 0 12968913.105203629 -32831087.037750244 0 -32831087.037750244 103335230.06130981 0 0 0 0 190451478.55777907 335181935.98453522 0 335181935.98453522 -152703151.15773773 0 0 0 0 -8997645.2714576721 -54043937.118392944 0 -54043937.118392944 89836435.455085754 0 0 0 0 -73658731.174733162 59190292.249832153 0 59190292.249832153 89871285.492927551 0 0 0 0 46414979.766916275 12674598.420814514 0 12674598.420814514 -5829980.1464233398 0 0 0 0 61075840.185242653 121494275.204216 0 121494275.204216 -399212388.31268311 0 0 0 0 -110026937.74576283 248989287.47776031 0 248989287.47776031 -323528760.81335449 0 0 0 0 18664461.452546239 -27888022.424079895 0 -27888022.424079895 44310497.88932991 0 0 0 0 -32516805.851512514 -87453842.256326675 0 -87453842.256326675 -19974540.853088379 0 0 0 0 -226623051.48650646 166229230.12566376 0 166229230.12566376 -86611564.912525177 0 0 0 0 338005.60743151582 663480.15943389386 0 663480.15943389386 -1826185.1791983992 0 0 0 0 387422544.17519236 -643801523.64202881 0 -643801523.64202881 -1695796890.149147 0 0 0 0 536036448.94749171 -153818303.31326866 0 -153818303.31326866 -1337921974.6816864 0 0 0 0 -132582236.8922534 505144085.33200073 0 505144085.33200073 -772877297.69438934 0 0 0 0 155792431.05502129 -238137232.22090149 0 -238137232.22090149 -969961161.30897713 0 0 0 0 29871021.452576756 -190026049.47226715 0 -190026049.47226715 -310304297.88417053 0 0 0 0 -293220444.28290451 -112770571.08555222 0 -112770571.08555222 -295972505.81703186 0 0 0 0 -156127566.26543903 221556432.60980988 0 221556432.60980988 -770322078.61748505 0 0 0 0 -104057080.5892632 -152081642.62531185 0 -152081642.62531185 -242502972.31587219 0 0 0 0 -27145509.873450994 138385227.49782276 0 138385227.49782276 -25172523.11668396 0 0 0 0 2870038.2863012291 -5402320.7848648056 0 -5402320.7848648056 -9212402.2443660423 0 0 0 0 -42296587.320052147 34127801.601318359 0 34127801.601318359 -139070875.71999359 0 0 0 0 10252563.329355717 32259540.539020538 0 32259540.539020538 -154170726.50134277 0 0 0 0 242968110.02168965 91616380.060822487 0 91616380.060822487 -1336234911.0135498 0 0 0 0 -268622903.02550316 394029823.26411438 0 394029823.26411438 -412851736.46847534 0 0 0 0 -276811210.24925613 -561211906.95084381 0 -561211906.95084381 -434963570.87882996 0 0 0 0 392386.92225981015 -2186214.863569634 0 -2186214.863569634 -3074512.1875121593 0 0 0 0 -407415151.44561625 763204919.50465012 0 763204919.50465012 -1294674333.271759 0 0 0 0 106915092.16098118 -40836076.340339661 0 -40836076.340339661 -545248682.91011047 0 0 0 0 230685849.94556028 23853965.295948029 0 23853965.295948029 -589770293.21002197 0 0 0 0 160921578.22713804 30932178.720062256 0 30932178.720062256 -581690955.54685974 0 0 0 0 -30052967.434106082 155112402.89466667 0 155112402.89466667 -279126671.84443665 0 0 0 0 159585926.9214077 16531452.636726379 0 16531452.636726379 -503002174.78887177 0 0 0 0 52668328.104410648 -70791598.171798706 0 -70791598.171798706 -286967405.53617859 0 0 0 0 60826716.832039356 -134435102.78600693 0 -134435102.78600693 -576121541.99455261 0 0 0 0 145253661.64623815 162845716.41096115 0 162845716.41096115 -376718789.22544861 0 0 0 0 -132278166.66007042 -159181897.32807922 0 -159181897.32807922 -188120595.48626709 0 0 0 0 404468.30426333885 124564.45293987729 0 124564.45293987729 -778480.26947771013 0 0 0 0 -162218732.42910537 -17442964.891076803 0 -17442964.891076803 -490085242.95245361 0 0 0 0 69981642.593772292 9810604.9581680298 0 9810604.9581680298 -564148325.20771408 0 0 0 0 -162927774.78500652 -8398014.7199935913 0 -8398014.7199935913 -429180543.34207153 0 0 0 0 88176777.224858761 26709220.67074585 0 26709220.67074585 -599098083.08035374 0 0 0 0 -135837135.57551289 9289485.0154953003 0 9289485.0154953003 -429215502.07504815 0 0 0 0 -168630377.56452489 -37559489.99647522 0 -37559489.99647522 -366823735.54309082 0 0 0 0 -219290586.44733119 17191344.603759766 0 17191344.603759766 -425921834.27752686 0 0 0 0 -275225422.96514177 113360726.57221985 0 113360726.57221985 -472766717.03747559 0 0 0 0 -396076709.03120095 24542984.811040878 0 24542984.811040878 -302246470.65736389 0 0 0 0 -360021870.39098364 144375458.54633141 0 144375458.54633141 -468056392.24069214 0 0 0 0 71467528.012957096 -144158678.25008774 0 -144158678.25008774 -367042944.4911499 0 0 0 0 -246707383.38326192 4428271.9066314697 0 4428271.9066314697 -129569200.39625549 0 0 0 0 72849198.184198856 -95628370.524772644 0 -95628370.524772644 -216393269.25636292 0 0 0 0 105482351.49048656 -9146371.8640556335 0 -9146371.8640556335 -392438518.42327881 0 0 0 0 198418605.03241396 -101724287.51747131 0 -101724287.51747131 -505037097.5852356 0 0 0 0 204298617.53664112 -78398122.66506958 0 -78398122.66506958 -703277246.42747498 0 0 0 0 163643038.4814167 -289398567.15264893 0 -289398567.15264893 -361591343.89584351 0 0 0 0 119701652.78917789 -57220697.434356689 0 -57220697.434356689 -278032506.00806808 0 0 0 0 11333200.640114307 77451380.834587097 0 77451380.834587097 61750480.991680145 0 0 0 0 11988662.716848373 87582357.074813843 0 87582357.074813843 217550928.45619202 0 0 0 0 374039811.81910133 183245984.14144135 0 183245984.14144135 -186765180.25829887 0 0 0 0 -102301567.70258391 -113056792.46110916 0 -113056792.46110916 263267210.58573151 0 0 0 0 220744187.06130964 235365585.52460432 0 235365585.52460432 -144257679.75045776 0 0 0 0 244993547.03708839 25729771.627540588 0 25729771.627540588 -5424315.5910339355 0 0 0 0 -2795445.4173368481 5831318.0562013239 0 5831318.0562013239 -4846256.9695608243 0 0 0 0 -298490.71167095006 1373826.1725769639 0 1373826.1725769639 -736063.24134282768 0 0 0 0 -53340000.495741636 301235193.92463017 0 301235193.92463017 -904670996.21787262 0 0 0 0 -216276447.78704381 -1294369645.11127 0 -1294369645.11127 -3459363494.739151 0 0 0 0 -85797572.14873074 -725661359.96398544 0 -725661359.96398544 -1168408119.9670315 0 0 0 0 578092496.70843387 -40607398.972766876 0 -40607398.972766876 -3466254702.6148911 0 0 0 0 -574999998.80421114 853661961.45069885 0 853661961.45069885 -2218932958.7934875 0 0 0 0 570910140.1923722 431517651.34719849 0 431517651.34719849 -3448084139.9544144 0 0 0 0 -1136861558.0662601 832717113.58168137 0 832717113.58168137 -300745927.18264771 0 0 0 0 -1141389850.6551168 316009346.99801636 0 316009346.99801636 191228375.24830627 0 0 0 0 -1329268.7538121021 1980625.9217024669 0 1980625.9217024669 -2544638.0773469284 0 0 0 0 -429350711.17892098 -77880743.125442505 0 -77880743.125442505 63992716.816808701 0 0 0 0 -848190156.33783519 274840165.2571106 0 274840165.2571106 -11285221.807861328 0 0 0 0 -342222149.8297773 35722660.443935394 0 35722660.443935394 576514210.09909058 0 0 0 0 -833906600.22772431 496858137.57818985 0 496858137.57818985 645908388.65319824 0 0 0 0 -606237017.53301358 548317528.31970596 0 548317528.31970596 -74217676.540756226 0 0 0 0 -602243745.13735342 653346385.98297119 0 653346385.98297119 224773764.94122314 0 0 0 0 -554570978.44661641 437280411.86919403 0 437280411.86919403 77650381.733856201 0 0 0 0 -274568512.47647595 202668621.85755539 0 202668621.85755539 -294385286.12117004 0 0 0 0 -406905688.28104138 131532566.96750641 0 131532566.96750641 -112334030.84648705 0 0 0 0 -680502453.99147511 377052872.99619293 0 377052872.99619293 -325332506.46813965 0 0 0 0 -441574657.19340181 176489916.05249786 0 176489916.05249786 -267781277.45565796 0 0 0 0 -1524448897.9218514 1039128688.3459473 0 1039128688.3459473 269552056.56634521 0 0 0 0 -481914818.73259115 357449396.20517731 0 357449396.20517731 -998284175.22286987 0 0 0 0 338781336.24299836 119586326.20724487 0 119586326.20724487 -1171763289.664856 0 0 0 0 841733582.77133751 566894353.56402588 0 566894353.56402588 -2040535845.347744 0 0 0 0 361504295.72635126 52601178.199157715 0 52601178.199157715 -1002713547.5234375 0 0 0 0 -495599.85141195724 308650.10531140491 0 308650.10531140491 -237413.98008745909 0 0 0 0 1065590504.5236535 -1030209387.4087372 0 -1030209387.4087372 638251204.11706543 0 0 0 0 738277554.4395318 327513160.05215454 0 327513160.05215454 -2017386783.5779343 0 0 0 0 -668728965.07528603 115838947.00174999 0 115838947.00174999 141908333.66238403 0 0 0 0 41462890.616624236 271837686.96875 0 271837686.96875 -697800770.81746674 0 0 0 0 -373934.86072183563 -478404.2109855637 0 -478404.2109855637 -1731046.8907506391 0 0 0 0 -410478434.66530079 713876294.81668854 0 713876294.81668854 -549956642.17344093 0 0 0 0 -622475982.8251754 196978327.95346069 0 196978327.95346069 -163482508.52502441 0 0 0 0 122041271.78967953 -131533196.39797974 0 -131533196.39797974 144994015.70156097 0 0 0 0 116351.44307490806 1559705.9055167297 0 1559705.9055167297 -1590344.8182244599 0 0 0 0 -98210.638967593724 678255.63872953318 0 678255.63872953318 -684658.58708369732 0 0 0 0 58665949.712450922 330498694.40856171 0 330498694.40856171 -373986890.0684967 0 0 0 0 384024291.21529686 -218846834.80567169 0 -218846834.80567169 -398157661.78466034 0 0 0 0 -203924924.1107285 182422699.17676544 0 182422699.17676544 350204465.50257874 0 0 0 0 -192378815.6172446 741201723.71928406 0 741201723.71928406 -964711041.06974792 0 0 0 0 -256157066.04948381 -329005941.8515892 0 -329005941.8515892 96115531.860374451 0 0 0 0 492885268.74780399 146368365.057477 0 146368365.057477 -3455688607.0708923 0 0 0 0 54444.869733531959 744792.96902337158 0 744792.96902337158 -680906.53130492568 0 0 0 0 156006450.47353151 820233529.53631592 0 820233529.53631592 -3413414112.4906921 0 0 0 0 116214.33560375319 1361293.8935959022 0 1361293.8935959022 -1163626.3226035833 0 0 0 0 664819175.2216413 -227893806.27663422 0 -227893806.27663422 -2177266203.6881561 0 0 0 0 -765915764.17728233 751710689.24304581 0 751710689.24304581 -973068421.85675049 0 0 0 0 896827.71963233827 -28233513.210464478 0 -28233513.210464478 -1593375827.4261475 0 0 0 0 266494.31336144061 531080.38298136787 0 531080.38298136787 -2835531.1326990277 0 0 0 0 -36281680.704932958 610690804.06993866 0 610690804.06993866 -3451105447.3288879 0 0 0 0 -117330618.48301995 -619891278.77664948 0 -619891278.77664948 -1596829023.5822296 0 0 0 0 496206351.10646659 75206475.856004715 0 75206475.856004715 -1976175773.9596863 0 0 0 0 539680756.27824879 -369873688.6525116 0 -369873688.6525116 -3459629194.4049754 0 0 0 0 -324897820.05807287 326659416.31468201 0 326659416.31468201 551102193.86410522 0 0 0 0 -268841396.86067009 -536377554.53533936 0 -536377554.53533936 -491119221.15431976 0 0 0 0 131107.78402232844 9809712.3143234253 0 9809712.3143234253 6760725.7852172852 0 0 0 0 -968389934.54340589 719524781.44489288 0 719524781.44489288 70228393.040985107 0 0 0 0 642509.27752777841 -1500698.7152740173 0 -1500698.7152740173 -3199449.9035804123 0 0 0 0 63773921.61861442 51831615.454090118 0 51831615.454090118 34427385.947105408 0 0 0 0 392675.35111426376 -953283.59078149498 0 -953283.59078149498 -2713089.9743941128 0 0 0 0 158871.19520259058 698370.97280745255 0 698370.97280745255 -3853386.8809733987 0 0 0 0 38851607.268435359 -38371038.196575165 0 -38371038.196575165 30386934.291717529 0 0 0 0 -441272911.95326304 307249605.84593201 0 307249605.84593201 -95615358.070041656 0 0 0 0 -8012828.1086452752 -152953695.84102106 0 -152953695.84102106 -136949100.59196472 0 0 0 0 -175673.91211344674 63405948.870002747 0 63405948.870002747 74040226.239425659 0 0 0 0 113530605.07548732 -66680505.524394989 0 -66680505.524394989 -314352551.6489563 0 0 0 0 93846685.336524367 -8033691.9907989502 0 -8033691.9907989502 -207551138.77114868 0 0 0 0 41541115.108855918 -96353688.359420776 0 -96353688.359420776 -41318138.503074646 0 0 0 0 428399.59607658716 143737622.18394777 0 143737622.18394777 -441194484.75180054 0 0 0 0 133123644.61463636 395496202.84359741 0 395496202.84359741 -205880996.85786438 0 0 0 0 133563974.5112242 22117055.913516998 0 22117055.913516998 -717154129.0710144 0 0 0 0 227090913.62003934 787252544.93060303 0 787252544.93060303 -1410605517.9159546 0 0 0 0 -163070314.36195615 351937174.44469452 0 351937174.44469452 -519328565.28906894 0 0 0 0 575227.76050082978 175673.97229349986 0 175673.97229349986 -2448296.1076403633 0 0 0 0 -469916373.39509922 -191984.89852905273 0 -191984.89852905273 -1082993504.6665649 0 0 0 0 -382209254.32686043 342284374.00520325 0 342284374.00520325 -518772685.92946911 0 0 0 0 -17562.032527592273 563259.65470597474 0 563259.65470597474 -1530368.2398247719 0 0 0 0 -476839703.66395932 424737748.08578825 0 424737748.08578825 -294423738.91047668 0 0 0 0 412936.93868331035 84329.387060761452 0 84329.387060761452 -1186563.9133188277 0 0 0 0 201512799.35713577 -217526413.57318878 0 -217526413.57318878 -387995471.22486877 0 0 0 0 -173157208.93347466 310532000.01616669 0 310532000.01616669 -91775776.189247131 0 0 0 0 -917760018.86573374 760433165.0504303 0 760433165.0504303 -970538905.69195557 0 0 0 0 -761076579.36746991 17866221.853683472 0 17866221.853683472 -499221440.53314209 0 0 0 0 -134756515.94080138 91622551.628372192 0 91622551.628372192 -404772263.50644559 0 0 0 0 -216363081.07393765 361337950.85536957 0 361337950.85536957 -404077585.64519006 0 0 0 0 -420663796.39577723 151804702.20082092 0 151804702.20082092 -377748923.06770325 0 0 0 0 -125545629.98840964 210806788.0506134 0 210806788.0506134 -561295755.03440857 0 0 0 0 -139468500.78911877 178952433.97267151 0 178952433.97267151 -395194383.33970642 0 0 0 0 -149233728.05706778 403850531.76994324 0 403850531.76994324 -420665158.39099121 0 0 0 0 -148180147.01660562 254659187.59014511 0 254659187.59014511 -428458026.34725952 0 0 0 0 -41054302.059402227 317280322.83090973 0 317280322.83090973 -433633461.55796719 0 0 0 0 -42131983.489542425 334661822.54008484 0 334661822.54008484 -611136798.91560364 0 0 0 0 -91771096.530117929 333017837.73120117 0 333017837.73120117 -597853006.03665161 0 0 0 0 26832348.545134872 311162587.40676975 0 311162587.40676975 -662804805.54953003 0 0 0 0 64796810.362700701 177385188.40933228 0 177385188.40933228 -556115215.79476166 0 0 0 0 154690026.66939247 214611816.98268318 0 214611816.98268318 -550736716.13626099 0 0 0 0 14300966.141810056 216794606.65519714 0 216794606.65519714 -394734484.74485779 0 0 0 0 43999338.155181676 143824959.32643127 0 143824959.32643127 -564777052.65827942 0 0 0 0 -79499656.515354544 327553493.00054169 0 327553493.00054169 -583008523.60152054 0 0 0 0 -120996333.33573192 239750182.67324066 0 239750182.67324066 -731061981.34347534 0 0 0 0 -1326202.0595225615 152407193.22303772 0 152407193.22303772 -684107316.33049011 0 0 0 0 -92442012.72136718 575241387.27771759 0 575241387.27771759 -1171065783.5989838 0 0 0 0 218329.94400645333 477107.36830164865 0 477107.36830164865 -1989851.9616742507 0 0 0 0 -586520566.44904375 911240157.467659 0 911240157.467659 -926955471.81744385 0 0 0 0 -455538.32209543814 199325910.32117462 0 199325910.32117462 -83121311.090885162 0 0 0 0 -590279677.4446969 470343822.66162872 0 470343822.66162872 -545642686.46356201 0 0 0 0 -81755489.751056582 349981143.35296631 0 349981143.35296631 -718150797.72889709 0 0 0 0 -283081658.98614371 542827185.04107666 0 542827185.04107666 -796780411.39846802 0 0 0 0 -1369278.8407914974 8131658.9500783617 0 8131658.9500783617 -28541294.457740676 0 0 0 0 195128305.11354971 234425373.61739206 0 234425373.61739206 -352535380.31552124 0 0 0 0 297560654.22227478 69670017.34651947 0 69670017.34651947 -110542177.90890503 0 0 0 0 53627931.724949837 21678180.808269501 0 21678180.808269501 -51523662.786686897 0 0 0 0 -2803566.1550417822 -45655878.005519405 0 -45655878.005519405 -73432520.990234375 0 0 0 0 -26297335.084653854 83200276.681637764 0 83200276.681637764 -45053304.621594191 0 0 0 0 82303541.009693146 -9898724.713634491 0 -9898724.713634491 -98996221.298578262 0 0 0 0 35211432.975310564 13213022.449773312 0 13213022.449773312 -38792916.593929291 0 0 0 0 200186497.83031464 87930319.937042236 0 87930319.937042236 -40053359.835784912 0 0 0 0 -170825588.55566788 37307374.271591187 0 37307374.271591187 93419924.130241394 0 0 0 0 -52684666.122688293 -243325326.8296051 0 -243325326.8296051 -124387155.39356995 0 0 0 0 -1621474.1965494435 -462053.47638010979 0 -462053.47638010979 -1901822.7218531743 0 0 0 0 149966705.72714186 113866344.14474535 0 113866344.14474535 -8754951.5309677124 0 0 0 0 108171483.51989675 -39038125.686295509 0 -39038125.686295509 -106700831.86686707 0 0 0 0 77935195.268119812 177226800.56205368 0 177226800.56205368 104296774.51195717 0 0 0 0 -1611115.4844472483 45704.287878572941 0 45704.287878572941 627443.64556097984 0 0 0 0 -160306801.46121407 47578805.238487244 0 47578805.238487244 -14913279.066261292 0 0 0 0 221081775.26662827 -95143216.721847534 0 -95143216.721847534 -6528074.6486206055 0 0 0 0 14063706.178531647 -76378185.69758606 0 -76378185.69758606 -71962949.411560059 0 0 0 0 180861587.57070923 -16403989.306869507 0 -16403989.306869507 -159234579.15719604 0 0 0 0 95327882.257369995 -126542954.49269104 0 -126542954.49269104 -258874333.43928528 0 0 0 0 47702781.609428406 75563330.240768433 0 75563330.240768433 -211823284.28378487 0 0 0 0 48952630.265705109 43136486.352443695 0 43136486.352443695 57225833.234832764 0 0 0 0 61483296.217193604 15087186.899307251 0 15087186.899307251 105955319.54785156 0 0 0 0 326374706.23983192 -39405214.403728485 0 -39405214.403728485 -263173707.26755524 0 0 0 0 357513251.24072075 232965151.26000214 0 232965151.26000214 -120824341.03133011 0 0 0 0 151396560.83171892 -41755418.012938023 0 -41755418.012938023 299863365.51708984 0 0 0 0 -3759125.2712258492 4323800.4636268467 0 4323800.4636268467 3846458.5639440939 0 0 0 0 -792113.64474443533 4162081.4166342206 0 4162081.4166342206 -23549605.572766766 0 0 0 0 -155513853.3938708 -338544260.87561411 0 -338544260.87561411 -294950961.45253754 0 0 0 0 101056640.17024994 23090991.647684097 0 23090991.647684097 -365485402.13951111 0 0 0 0 77899766.829030037 -30279521.539926529 0 -30279521.539926529 96326833.148925781 0 0 0 0 30191657.270187378 119694085.6080513 0 119694085.6080513 -56013661.76659584 0 0 0 0 408723712.18324661 241142584.24165726 0 241142584.24165726 16025868.797691345 0 0 0 0 -7973500.1212736852 8432946.2140155323 0 8432946.2140155323 -11386107.634491839 0 0 0 0 -4247426.9416675568 2071976.330581665 0 2071976.330581665 -10112617.476478577 0 0 0 0 2204037.4530420303 -20364095.915400982 0 -20364095.915400982 -37923544.244213104 0 0 0 0 -5736985.2330608368 -3013843.6667938232 0 -3013843.6667938232 -18684484.662700653 0 0 0 0 -908710.5145774018 -2166689.3242397457 0 -2166689.3242397457 -892074.76420704648 0 0 0 0 16662382.488613844 -8387996.7602062225 0 -8387996.7602062225 -39888521.043437958 0 0 0 0 23115662.231956482 5101070.3628025055 0 5101070.3628025055 -33868414.19228363 0 0 0 0 -3817612.7850790024 -7451623.6827201843 0 -7451623.6827201843 -28045625.637893677 0 0 0 0 19829773.449953556 -105843081.96649742 0 -105843081.96649742 -75244362.414932251 0 0 0 0 16839579.788889408 -50438045.281476974 0 -50438045.281476974 -9583506.6410102844 0 0 0 0 163591119.63093328 94029460.486972809 0 94029460.486972809 -234722005.57621002 0 0 0 0 295350245.92366707 -248200028.9928062 0 -248200028.9928062 206036623.480371 0 0 0 0 -26431756.801439881 28937778.728385001 0 28937778.728385001 173930734.01178598 0 0 0 0 -332037265.98274064 642856768.39045978 0 642856768.39045978 -237946156.82823372 0 0 0 0 -339212974.59498358 524569131.01657581 0 524569131.01657581 -582551917.22811127 0 0 0 0 -37883.35808961498 -462547.03757331852 0 -462547.03757331852 -2277303.2439812375 0 0 0 0 93207007.462296009 -111467783.23807454 0 -111467783.23807454 113717662.72417545 0 0 0 0 55988399.741364956 -39176976.028394699 0 -39176976.028394699 51036833.804314137 0 0 0 0 -92393022.977077603 -145451003.26175374 0 -145451003.26175374 327428502.61120391 0 0 0 0 -122369650.60365045 33348102.37485373 0 33348102.37485373 -703877787.11014211 0 0 0 0 -333726372.60318202 -141100457.21141046 0 -141100457.21141046 268893788.0921917 0 0 0 0 -16477486.230133057 244718013.82444763 0 244718013.82444763 -419585958.91680908 0 0 0 0 137504624.80575371 173628241.0294919 0 173628241.0294919 -496535272.97109985 0 0 0 0 -513675.11783507653 2122075.8302368345 0 2122075.8302368345 -117853.87200254947 0 0 0 0 5175651.0038965754 -5976864.8828625903 0 -5976864.8828625903 -3007219.5737447366 0 0 0 0 -45210013.103516579 -41373623.717533112 0 -41373623.717533112 41368812.207363129 0 0 0 0 632438.02135771955 4034337.1524678473 0 4034337.1524678473 -24399390.064917356 0 0 0 0 680113143.95582867 137546684.60176444 0 137546684.60176444 -443440100.57999659 0 0 0 0 235555457.27610993 702834498.84733772 0 702834498.84733772 -973057805.52256501 0 0 0 0 106454500.20108604 -88984935.391500473 0 -88984935.391500473 340762638.72849274 0 0 0 0 -69985512.119155824 -152980501.69701624 0 -152980501.69701624 -213341994.89624596 0 0 0 0 -1467142.2121459278 968674.74854677985 0 968674.74854677985 -513153.55973921809 0 0 0 0 -311291207.64280736 481578222.05718493 0 481578222.05718493 -110411202.77041721 0 0 0 0 -95806527.907173395 -40797780.09476459 0 -40797780.09476459 -516834334.25048161 0 0 0 0 40211014.367564201 -134680742.59164715 0 -134680742.59164715 210085231.73604417 0 0 0 0 -155864622.01460284 79710983.601737738 0 79710983.601737738 92317378.95994091 0 0 0 0 268641516.49203849 158808806.6266287 0 158808806.6266287 37001178.481762886 0 0 0 0 -2968293.7146832906 2199542.0941991298 0 2199542.0941991298 -2227177.11277002 0 0 0 0 54942666.69287324 82953466.150536001 0 82953466.150536001 90906194.281661987 0 0 0 0 -56136965.287203312 -86038573.056576252 0 -86038573.056576252 77985031.896778584 0 0 0 0 -221249417.63411337 23059087.216970205 0 23059087.216970205 131384896.91290665 0 0 0 0 -17198394.11819911 63100979.330340385 0 63100979.330340385 -17068384.78559494 0 0 0 0 -3640074.0040521622 83173022.919951439 0 83173022.919951439 -64452822.579408646 0 0 0 0 -155902318.20401144 101322431.31558418 0 101322431.31558418 96045011.33447504 0 0 0 0 49430478.815739155 7972253.0266742706 0 7972253.0266742706 32890389.612074375 0 0 0 0 -5284165.4874540269 -18482478.631973267 0 -18482478.631973267 -64014861.318738937 0 0 0 0 42559789.360343695 721086.6191701889 0 721086.6191701889 -22970812.610305786 0 0 0 0 123822679.38635159 406527473.14697075 0 406527473.14697075 812889780.61165047 0 0 0 0 836732.42992833978 -110233.33194755611 0 -110233.33194755611 -1245580.7236591973 0 0 0 0 -142746812.95430654 9722276.1561299562 0 9722276.1561299562 143900765.68560028 0 0 0 0 -158390335.17679048 -4918766.5993666649 0 -4918766.5993666649 331567900.32392788 0 0 0 0 -191147331.59684032 84503070.69641161 0 84503070.69641161 234696637.91209841 0 0 0 0 -127038968.09383178 148352604.77544689 0 148352604.77544689 322518065.2656858 0 0 0 0 -48471793.610509992 178851104.36856651 0 178851104.36856651 202037853.72226524 0 0 0 0 -157648764.7747761 71107916.633529663 0 71107916.633529663 188820173.85302734 0 0 0 0 32609344.598336577 119925038.55145979 0 119925038.55145979 58164196.818632126 0 0 0 0 -55609064.6993431 131219881.35622084 0 131219881.35622084 125840078.5146637 0 0 0 0 -155249221.46540916 70296772.122878075 0 70296772.122878075 89096863.852140427 0 0 0 0 -33835977.074511766 41654165.670745373 0 41654165.670745373 -10723458.427733421 0 0 0 0 1377713.0437717529 -3509890.1062364215 0 -3509890.1062364215 -10706525.270703692 0 0 0 0 -208441573.51528007 -109092761.12110233 0 -109092761.12110233 22312926.271341324 0 0 0 0 5848939.2841501236 -238150866.49524689 0 -238150866.49524689 7311949.0553970337 0 0 0 0 106538687.20233536 105073021.16825676 0 105073021.16825676 -155820935.61799335 0 0 0 0 375795911.78330827 -395606326.53950548 0 -395606326.53950548 15852268.284614563 0 0 0 0 -624788286.68402839 -257596472.12440109 0 -257596472.12440109 22423744.006368637 0 0 0 0 48054798.852654338 -131278437.05038881 0 -131278437.05038881 -85061812.647636414 0 0 0 0 -504671622.74358243 183187357.0354166 0 183187357.0354166 -111208320.16830254 0 0 0 0 230239.82441978151 -690051.67087731685 0 -690051.67087731685 -3293193.802558382 0 0 0 0 96644709.820319891 -19508110.324278355 0 -19508110.324278355 -333389411.44236565 0 0 0 0 -263764142.77255863 1398693.6194229126 0 1398693.6194229126 -13219605.319136679 0 0 0 0 -201223174.01238936 227502370.276402 0 227502370.276402 -163902123.27653694 0 0 0 0 -122515906.33947253 -666284387.50160599 0 -666284387.50160599 498745209.10223103 0 0 0 0 -45079650.740736365 302074051.12318754 0 302074051.12318754 -924645560.97573471 0 0 0 0 491172737.2273407 -572889703.94708252 0 -572889703.94708252 -220069587.05194855 0 0 0 0 -492491379.71291947 -762987549.78855515 0 -762987549.78855515 -250591916.87551689 0 0 0 0 -412134429.08826089 621621946.85892105 0 621621946.85892105 406010144.43699455 0 0 0 0 -1234509782.5166967 503292942.45661807 0 503292942.45661807 391723788.1236496 0 0 0 0 105174774.17738914 421542396.98593807 0 421542396.98593807 -929724974.99361992 0 0 0 0 145744381.98156023 216287112.02030754 0 216287112.02030754 -43430886.989253998 0 0 0 0 301267406.78193474 152411731.04764366 0 152411731.04764366 -20638205.503660202 0 0 0 0 361739870.27595234 183250717.14197254 0 183250717.14197254 -499313283.78084564 0 0 0 0 29847900.579313278 -300823457.79229832 0 -300823457.79229832 -651400331.5092926 0 0 0 0 -6328359.8057336807 -120722382.57281685 0 -120722382.57281685 -104565696.28026676 0 0 0 0 104880825.64990902 -45640870.323406219 0 -45640870.323406219 -130408007.5878129 0 0 0 0 248973394.8625288 91816477.599523544 0 91816477.599523544 -13472452.025272369 0 0 0 0 50905918.241457939 -37632519.821240187 0 -37632519.821240187 -95427847.967201233 0 0 0 0 103998038.43558097 -118873749.11981726 0 -118873749.11981726 -129511682.33680534 0 0 0 0 -59952595.479140282 49462125.526702881 0 49462125.526702881 -92165958.422787666 0 0 0 0 -189483.37082255026 -68229.756951084826 0 -68229.756951084826 -2190209.5791953569 0 0 0 0 -115422616.16925383 16331005.371759415 0 16331005.371759415 -37356482.407058716 0 0 0 0 -58413976.269462347 -11155663.376854548 0 -11155663.376854548 -25727740.842159271 0 0 0 0 -58417399.796444893 25829934.595924377 0 25829934.595924377 -44183792.629190445 0 0 0 0 -834315.47870022524 886375.31943027023 0 886375.31943027023 -6680700.3345427979 0 0 0 0 -9784852.3334197998 17599307.868492126 0 17599307.868492126 -71938449.570448875 0 0 0 0 -9169896.9164772332 13108437.303433418 0 13108437.303433418 -69057970.730070114 0 0 0 0 1934647.4711418152 -1831758.6438541412 0 -1831758.6438541412 -61327444.306988716 0 0 0 0 -7119749.6618709564 9504758.7825603485 0 9504758.7825603485 -53651250.774477959 0 0 0 0 -6264640.2745492458 5579809.3514323235 0 5579809.3514323235 -36377625.767803192 0 0 0 0 -9948941.0499373674 -493880.72365260124 0 -493880.72365260124 -23419816.424381256 0 0 0 0 -11910239.48358953 8225663.8547596931 0 8225663.8547596931 -19711655.576198578 0 0 0 0 -27349628.598460197 7456648.7803840637 0 7456648.7803840637 -27048222.21626091 0 0 0 0 -26248033.329773664 5914063.1068911552 0 5914063.1068911552 -32573402.707176208 0 0 0 0 -44253008.549782753 318920.22342395782 0 318920.22342395782 -15862273.826290131 0 0 0 0 -30142253.760835171 -10155943.557788849 0 -10155943.557788849 -27446074.636007309 0 0 0 0 -293276308.47064406 41194203.995782375 0 41194203.995782375 805389277.05662918 0 0 0 0 -5042381.5910383463 19469866.169300556 0 19469866.169300556 -74630345.038344383 0 0 0 0 -271829.13826245232 3277247.6992182499 0 3277247.6992182499 -13263752.788684176 0 0 0 0 3052559.3235855103 187285.56853485107 0 187285.56853485107 -5616217.9704360962 0 0 0 0 26846.639266661368 1307051.5392686855 0 1307051.5392686855 -18130024.538963631 0 0 0 0 2450062.9297778755 -1287571.5656355154 0 -1287571.5656355154 -8284535.8861660808 0 0 0 0 2473925.8913125992 -1184649.1609344482 0 -1184649.1609344482 -5100177.0575256348 0 0 0 0 -5157.5703908540308 5819432.1778161693 0 5819432.1778161693 -19106297.40472763 0 0 0 0 1919015.1157218996 3561109.9214733923 0 3561109.9214733923 -17133586.181959584 0 0 0 0 238731119.03266582 265785333.03426063 0 265785333.03426063 211048705.54652023 0 0 0 0 238605042.57952499 270109154.39230347 0 270109154.39230347 85140842.536323547 0 0 0 0 7415686.0408058167 12775305.48453331 0 12775305.48453331 -80408572.609173775 0 0 0 0 -5144176.5067253113 15469571.141664505 0 15469571.141664505 -79142673.429769516 0 0 0 0 8778181.1042442322 1404501.4904460907 0 1404501.4904460907 -31098967.459856987 0 0 0 0 -95965.166730676079 786437.27221827442 0 786437.27221827442 -5060939.5621129647 0 0 0 0 3953538.0599956512 -7251041.3547363281 0 -7251041.3547363281 -50128105.854839325 0 0 0 0 4417380.9666900635 -3403166.0925979614 0 -3403166.0925979614 -36319884.296077728 0 0 0 0 2726249.792263031 -2953687.1530399323 0 -2953687.1530399323 -28976030.696540833 0 0 0 0 6286600.6690998077 5246580.8495502472 0 5246580.8495502472 -34794069.154248714 0 0 0 0 -4203362.9092845917 -3513783.7824668884 0 -3513783.7824668884 -4397592.6475293636 0 0 0 0 13700663.428711653 -874706.41565847397 0 -874706.41565847397 -29761787.911460876 0 0 0 0 12219873.417013645 3706088.334113121 0 3706088.334113121 -33095222.085632324 0 0 0 0 2010132.7340957336 -1851882.8929978171 0 -1851882.8929978171 -10791544.058811953 0 0 0 0 24423913.679636955 -36483218.143718719 0 -36483218.143718719 -54649675.565772533 0 0 0 0 6386950.3595118523 3589128.4025440216 0 3589128.4025440216 -12376769.033485413 0 0 0 0 3490186.5128880367 -173282.57405425003 0 -173282.57405425003 -14974275.343511678 0 0 0 0 6202647.1612143517 1668169.610004425 0 1668169.610004425 -19136381.072982788 0 0 0 0 2888275.2019610405 201196.01437950134 0 201196.01437950134 -13289226.774272919 0 0 0 0 742535.14763587341 4050514.0302961376 0 4050514.0302961376 -19784584.696894731 0 0 0 0 -819992.92678070068 4484685.9268188477 0 4484685.9268188477 -20512457.98141861 0 0 0 0 784549.74472618103 1929272.7705192566 0 1929272.7705192566 -14599567.653121471 0 0 0 0 2425315.5425879098 -899630.79437636118 0 -899630.79437636118 -9077201.6322186776 0 0 0 0 5240754.1142625809 184979.45488739014 0 184979.45488739014 -6886791.0193786621 0 0 0 0 5276781.3801450729 -27882.393501281738 0 -27882.393501281738 -5685400.5907287598 0 0 0 0 4628665.3071640301 -4904907.2804330122 0 -4904907.2804330122 -11315609.399490844 0 0 0 0 3628557.2976761041 111676.52264943114 0 111676.52264943114 -7148601.3782725595 0 0 0 0 854423.69954457879 3979442.6867649518 0 3979442.6867649518 -21804671.252674136 0 0 0 0 -56191.18548909761 4153228.3831147905 0 4153228.3831147905 -21375457.908511862 0 0 0 0 279233.85369873047 670077.30813598633 0 670077.30813598633 -7717906.9809579849 0 0 0 0 411475.01965999603 740358.41825866699 0 740358.41825866699 -7716348.9630279541 0 0 0 0 649290.52017792221 297492.04338641744 0 297492.04338641744 -3940264.4521492831 0 0 0 0 2694383.6897505848 811012.68570232019 0 811012.68570232019 -6626205.4034577981 0 0 0 0 8676714.6097493172 -3566984.8685092926 0 -3566984.8685092926 -5560614.9325408936 0 0 0 0 35767456.499355316 -28310343.635421753 0 -28310343.635421753 -36429513.929870605 0 0 0 0 5641279.7250581738 -2413207.1194227515 0 -2413207.1194227515 -16842886.454378031 0 0 0 0 8406454.6935539246 -1509636.0223045349 0 -1509636.0223045349 -2236303.4124450684 0 0 0 0 40885305.620544434 -10049593.851753235 0 -10049593.851753235 -36300372.707305908 0 0 0 0 853099.77512237709 4549665.5812458955 0 4549665.5812458955 -19500249.685812913 0 0 0 0 -523735.11641693115 4151272.581817627 0 4151272.581817627 -20594767.198249817 0 0 0 0 6201450.1305770874 675812.90590667725 0 675812.90590667725 -10720247.177379608 0 0 0 0 6102324.8700180054 671644.21948623657 0 671644.21948623657 -10672129.611377716 0 0 0 0 5058772.0631523132 -1444694.0460472107 0 -1444694.0460472107 -5327481.2742652893 0 0 0 0 1977003.0748145925 -426249.64434006531 0 -426249.64434006531 -7257754.9061738402 0 0 0 0 2007011.437540256 3269053.6681969725 0 3269053.6681969725 -19708436.255459301 0 0 0 0 6026322.337576217 -5620389.1409434266 0 -5620389.1409434266 -13735745.962339979 0 0 0 0 5368144.2265331345 2033362.31217351 0 2033362.31217351 -22352341.247880157 0 0 0 0 302841167.97323489 134804711.94385242 0 134804711.94385242 100389224.45167923 0 0 0 0 401446723.45190096 232985045.12555218 0 232985045.12555218 -124759574.50700569 0 0 0 0 380399825.36592865 77347754.615751266 0 77347754.615751266 80972153.869007111 0 0 0 0 7459627.2274164967 -11208715.010604363 0 -11208715.010604363 -10451481.158736616 0 0 0 0 22462438.284086227 -717100.25098419189 0 -717100.25098419189 -8311982.2960510254 0 0 0 0 2194277.6055583656 8083349.1876619812 0 8083349.1876619812 -9697940.3469930142 0 0 0 0 23420446.367828369 -669073.94676208496 0 -669073.94676208496 -8746082.020324707 0 0 0 0 1689562.5662675472 10235198.606467782 0 10235198.606467782 -26473959.611748822 0 0 0 0 18867663.036499023 2730465.8232841492 0 2730465.8232841492 -6803098.1210327148 0 0 0 0 11805167.295854583 -8949162.8061832599 0 -8949162.8061832599 -23333578.875308394 0 0 0 0 6984562.7904524449 2557833.7905835174 0 2557833.7905835174 -23158983.720673665 0 0 0 0 12232855.737625122 -1078258.3769989014 0 -1078258.3769989014 -4626941.813659668 0 0 0 0 38542586.04983902 11195220.310134888 0 11195220.310134888 -27989536.999832153 0 0 0 0 44581715.274295807 -5101316.6564826965 0 -5101316.6564826965 -49598247.766906738 0 0 0 0 50832989.600242615 4288820.3830566406 0 4288820.3830566406 -42145646.995986938 0 0 0 0 72518602.246505737 15288855.429344177 0 15288855.429344177 -54176711.106018066 0 0 0 0 53166035.323661804 30301128.876998901 0 30301128.876998901 -23167254.500480652 0 0 0 0 -4230612.1601648331 -46234476.374933243 0 -46234476.374933243 -28198994.983734131 0 0 0 0 7316476.7061651777 -3044380.8672024161 0 -3044380.8672024161 -15279523.517835468 0 0 0 0 83896943.462551117 38311969.187011719 0 38311969.187011719 -39273737.467536926 0 0 0 0 132306787.26353836 -34478097.774753571 0 -34478097.774753571 -119474516.06518555 0 0 0 0 -1324466.5660277011 11446848.531664092 0 11446848.531664092 -33483871.880472966 0 0 0 0 37322617.309258938 49974368.18184948 0 49974368.18184948 -37401215.92105484 0 0 0 0 1117193.7548833531 3596933.884252945 0 3596933.884252945 -4033226.2453935761 0 0 0 0 585245175.04784679 -171219104.77938175 0 -171219104.77938175 -227127545.54050827 0 0 0 0 399891129.78605652 33241603.914426804 0 33241603.914426804 -78967023.343128204 0 0 0 0 5409004.2997698225 3762164.3185069421 0 3762164.3185069421 -20727137.778596487 0 0 0 0 378861.92097588861 11130687.699190944 0 11130687.699190944 5736287.0099578332 0 0 0 0 23577680.151973724 -2936220.7982635498 0 -2936220.7982635498 -4180636.662361145 0 0 0 0 35465065.92354393 6832663.5783462524 0 6832663.5783462524 -42450219.749687195 0 0 0 0 -38613235.536967278 -18865069.24937439 0 -18865069.24937439 -36187664.476654053 0 0 0 0 24662697.234318018 -50314582.709136009 0 -50314582.709136009 -168071792.24703979 0 0 0 0 31842904.563850403 -7925274.6250991821 0 -7925274.6250991821 -4089413.0388851166 0 0 0 0 78814261.308393478 -14291252.180644989 0 -14291252.180644989 -33444001.091156006 0 0 0 0 60673890.605773926 16447445.026519775 0 16447445.026519775 -45362799.588302612 0 0 0 0 101640243.79965401 10688685.572444916 0 10688685.572444916 -50542665.038421631 0 0 0 0 35553439.738571167 -2352227.6864242554 0 -2352227.6864242554 -35844359.662338257 0 0 0 0 40923921.919677734 -18248510.094360352 0 -18248510.094360352 -69115249.527992249 0 0 0 0 69282443.888057709 3593455.3988647461 0 3593455.3988647461 -69788993.201660156 0 0 0 0 59101482.835321426 -5446433.6168518066 0 -5446433.6168518066 -65545407.669921875 0 0 0 0 36931893.013130188 -17342482.656326294 0 -17342482.656326294 -57601973.221656799 0 0 0 0 27469209.522484779 -41723843.361708641 0 -41723843.361708641 -99045807.813354492 0 0 0 0 31144433.809066772 -14901661.671089172 0 -14901661.671089172 -65246789.083236694 0 0 0 0 37510224.431678772 -24234103.475341797 0 -24234103.475341797 -78344487.137939453 0 0 0 0 -36306252.08115387 -52429161.26159668 0 -52429161.26159668 -64751137.797088623 0 0 0 0 -657907.67148965877 -1859611.9764010087 0 -1859611.9764010087 -1384242.5312787294 0 0 0 0 -82479793.606521606 -68400261.016929626 0 -68400261.016929626 -60311487.851318359 0 0 0 0 207854025.09566689 172989350.69794464 0 172989350.69794464 53279756.945374489 0 0 0 0 -62275309.432753086 -126922915.22174263 0 -126922915.22174263 -95424205.911651611 0 0 0 0 -50673173.68368721 -28233131.481716156 0 -28233131.481716156 -48494107.361816406 0 0 0 0 41651564.02708292 -14114460.66724205 0 -14114460.66724205 -96464668.173324585 0 0 0 0 -12513375.65845871 -65927078.775924683 0 -65927078.775924683 -107309881.0791626 0 0 0 0 -27821849.075130463 -60661067.053833008 0 -60661067.053833008 -67951092.202789307 0 0 0 0 -80002669.087335587 -351804474.07980537 0 -351804474.07980537 146196021.89720154 0 0 0 0 164952997.80123138 56054941.695831299 0 56054941.695831299 -189085793.80481339 0 0 0 0 -26441134.82183075 -22845839.168304443 0 -22845839.168304443 -52870165.071975708 0 0 0 0 269561971.79800415 -10202292.961368561 0 -10202292.961368561 -689771214.49612427 0 0 0 0 69017331.490917206 38334407.146316528 0 38334407.146316528 -129689092.42803955 0 0 0 0 103458943.5130558 44635869.695365906 0 44635869.695365906 -191118784.42477417 0 0 0 0 83112693.888813019 5780815.9715118408 0 5780815.9715118408 -86007819.926940918 0 0 0 0 116398569.68871307 12623488.923065186 0 12623488.923065186 -165052711.72071838 0 0 0 0 74360554.530521393 28177364.919086456 0 28177364.919086456 -130695768.44439697 0 0 0 0 105507686.59327507 68740951.914604187 0 68740951.914604187 -113742148.72036743 0 0 0 0 7388017.1647032797 -6246876.2076074444 0 -6246876.2076074444 -11594326.07728219 0 0 0 0 -505642.31182479858 -40785724.04725647 0 -40785724.04725647 -39581990.322174072 0 0 0 0 40319311.914593458 -20056609.680094719 0 -20056609.680094719 -62676313.558624268 0 0 0 0 23589108.251350403 -25271380.534408569 0 -25271380.534408569 -42009049.864562988 0 0 0 0 -4425053.4307861328 -29156765.945983887 0 -29156765.945983887 -51794855.866970062 0 0 0 0 6664951.6633148193 -40832477.254821777 0 -40832477.254821777 -48761646.853927612 0 0 0 0 6451902.4573822021 -38057561.145477295 0 -38057561.145477295 -62178251.011566162 0 0 0 0 23040527.409862518 -30210370.744874954 0 -30210370.744874954 -58649755.69140625 0 0 0 0 5462455.0039596558 -42037422.045883179 0 -42037422.045883179 -65789499.172149658 0 0 0 0 34136573.264578819 -22093153.775079727 0 -22093153.775079727 -35762229.991943359 0 0 0 0 -1795014.6005096436 -41923038.416641235 0 -41923038.416641235 -23325450.836547852 0 0 0 0 20954354.220344543 -30197985.209411621 0 -30197985.209411621 -40918492.385192871 0 0 0 0 23988419.521224976 -33713373.919143677 0 -33713373.919143677 -45592082.006484985 0 0 0 0 2496412.3152160645 -24474630.37688446 0 -24474630.37688446 4887819.8858642578 0 0 0 0 -733897.47312164307 2852113.6332168579 0 2852113.6332168579 -8823235.4297790527 0 0 0 0 4374791.8206226937 -1140260.3212748133 0 -1140260.3212748133 -22129381.530736413 0 0 0 0 878487.44523121044 4915192.7402444687 0 4915192.7402444687 -19497583.562677696 0 0 0 0 4062276.4646339417 522709.63105773926 0 522709.63105773926 -6941117.8546447754 0 0 0 0 -23982716.450683594 -21076994.827056885 0 -21076994.827056885 79296111.387634277 0 0 0 0 -41505800.270900726 1097665.9709472656 0 1097665.9709472656 54772199.633300781 0 0 0 0 21922015.327255249 -68058474.995178223 0 -68058474.995178223 99660374.498748779 0 0 0 0 -78921.183652244508 446845.84565896541 0 446845.84565896541 -1603839.501850361 0 0 0 0 -27210235.471389771 -1118428.7871551514 0 -1118428.7871551514 8539145.6495056152 0 0 0 0 4206300.8387198858 -3236517.6635315493 0 -3236517.6635315493 -23320905.349687196 0 0 0 0 6421865.9428024292 -238109.60276794434 0 -238109.60276794434 -8556748.0308990479 0 0 0 0 7123058.1211433411 -2981660.742067337 0 -2981660.742067337 -7755911.160949707 0 0 0 0 27015210.552856445 -43635878.635009766 0 -43635878.635009766 -27373449.598114014 0 0 0 0 5276052.8175005782 -3931990.4327780604 0 -3931990.4327780604 -11996969.834600795 0 0 0 0 1779395.6498040608 1791227.4638324417 0 1791227.4638324417 -5456087.3236311525 0 0 0 0 74529228.215164185 15224892.225845337 0 15224892.225845337 -60360502.455078125 0 0 0 0 3401932.6692922004 -4378983.3373676948 0 -4378983.3373676948 -4775688.1958508492 0 0 0 0 40718380.020633698 -32477143.114898682 0 -32477143.114898682 15272082.145355225 0 0 0 0 47077531.449806213 -25186521.875213623 0 -25186521.875213623 -18927402.22869873 0 0 0 0 57310791.11555481 -12632948.575378418 0 -12632948.575378418 -25291684.942749023 0 0 0 0 90234327.136211395 -70973691.159088135 0 -70973691.159088135 -46306438.258956909 0 0 0 0 86340834.925822258 -19370545.480232239 0 -19370545.480232239 -124314878.23928833 0 0 0 0 78803535.497062683 -25785275.453742981 0 -25785275.453742981 -46455977.451049805 0 0 0 0 65840544.479644299 4051542.5742845535 0 4051542.5742845535 -18822842.820556641 0 0 0 0 62617639.636398315 2808918.5485229492 0 2808918.5485229492 2783997.3433837891 0 0 0 0 79088818.872192383 -8243630.244140625 0 -8243630.244140625 -83737024.125968933 0 0 0 0 65830875.677026272 4597703.6426925659 0 4597703.6426925659 -45659926.600219727 0 0 0 0 56833116.368484497 -10659487.742858887 0 -10659487.742858887 -22990206.753845215 0 0 0 0 56564660.183639526 -2347337.891418457 0 -2347337.891418457 -10865960.135375977 0 0 0 0 56037547.61706543 -919286.99615478516 0 -919286.99615478516 3870561.0177001953 0 0 0 0 47285692.104232788 -10964064.305084229 0 -10964064.305084229 15814025.064758301 0 0 0 0 46841136.149291992 -15257318.86706543 0 -15257318.86706543 5126458.9277954102 0 0 0 0 48712896.998565674 -19439697.703338623 0 -19439697.703338623 -1207554.9577636719 0 0 0 0 13632235.555655479 1652504.8856544495 0 1652504.8856544495 -4306765.7724304199 0 0 0 0 43324633.019958496 -20645785.517028809 0 -20645785.517028809 7059877.6349487305 0 0 0 0 44893719.707229614 -17063604.634155273 0 -17063604.634155273 10622355.110809326 0 0 0 0 3137459.7091464791 -2759913.9634374417 0 -2759913.9634374417 -15922202.920584816 0 0 0 0 48765575.630996704 -7248960.1012115479 0 -7248960.1012115479 28433833.488464355 0 0 0 0 404095.46221828833 -129100.50274254009 0 -129100.50274254009 -2874405.6613747552 0 0 0 0 -82429980.24054718 104288288.9717865 0 104288288.9717865 80286559.823638916 0 0 0 0 13886313.578994751 -124742581.15467834 0 -124742581.15467834 79987458.301887512 0 0 0 0 39151051.973651886 -20575600.105102539 0 -20575600.105102539 15600672.226959229 0 0 0 0 1373885.3422212601 -186094527.43066597 0 -186094527.43066597 -123189976.76612854 0 0 0 0 -170251.80289720464 -154582.90699016675 0 -154582.90699016675 -361612.75313470513 0 0 0 0 223943110.46857738 152524680.09178162 0 152524680.09178162 50725069.351740837 0 0 0 0 -165247464.28103399 -176720635.13298988 0 -176720635.13298988 129574518.35099792 0 0 0 0 88033953.715775907 -125936364.25970817 0 -125936364.25970817 -242909387.78833008 0 0 0 0 208237876.31664276 -10957839.977706909 0 -10957839.977706909 -257366031.58016968 0 0 0 0 174926043.36152458 -41028622.247898102 0 -41028622.247898102 -274142414.15992737 0 0 0 0 85445117.924484253 13354533.473506927 0 13354533.473506927 -75444332.820358276 0 0 0 0 132968484.74656296 -24500190.15171051 0 -24500190.15171051 -115694403.65222836 0 0 0 0 136710882.09950066 -62046354.927967072 0 -62046354.927967072 -123278275.27134705 0 0 0 0 236732853.66334295 -20821462.027227402 0 -20821462.027227402 -155016639.59191895 0 0 0 0 15259751.601288795 -24690578.793357849 0 -24690578.793357849 -82575408.813064575 0 0 0 0 8510622.8362035751 -61301109.018829346 0 -61301109.018829346 -70716141.726928711 0 0 0 0 4736432.8356845379 -92033777.831210136 0 -92033777.831210136 -87588012.596343994 0 0 0 0 41677212.227419853 -4190329.4940910339 0 -4190329.4940910339 -219365664.18979645 0 0 0 0 60513791.287905455 -65715370.090083122 0 -65715370.090083122 -111717243.72554016 0 0 0 0 -37001986.899913311 -18897705.445007324 0 -18897705.445007324 -171301539.08415985 0 0 0 0 -39097746.774319649 143996780.94445038 0 143996780.94445038 -260575608.28817177 0 0 0 0 -121983612.91725373 127548360.2171526 0 127548360.2171526 -218710785.3381424 0 0 0 0 -45344182.073933601 58449204.372612 0 58449204.372612 -47464838.133831024 0 0 0 0 184970325.4864707 20603137.078947067 0 20603137.078947067 -146805696.76322937 0 0 0 0 369752983.72296333 256624919.54063416 0 256624919.54063416 -5102934.4537315369 0 0 0 0 -1106809.0637131706 -332535.04803884774 0 -332535.04803884774 539368.37495481968 0 0 0 0 -40804260.063977584 -171877243.96925455 0 -171877243.96925455 -238800112.4354248 0 0 0 0 212100392.43309981 -16542715.913972616 0 -16542715.913972616 -68538828.189170837 0 0 0 0 135291613.97511101 55678852.655708313 0 55678852.655708313 60046611.422616959 0 0 0 0 163406376.43869781 18227619.351997375 0 18227619.351997375 -167707583.73200989 0 0 0 0 -264291730.55602777 150741544.48787498 0 150741544.48787498 -307086880.77809143 0 0 0 0 -370933635.78475904 306007438.54498672 0 306007438.54498672 -261204263.15986633 0 0 0 0 -183499168.45419025 242979110.93914032 0 242979110.93914032 -265575567.55438232 0 0 0 0 -187507668.41283989 139759746.56729126 0 139759746.56729126 -159427114.64294434 0 0 0 0 -172224092.00922632 205182131.37434387 0 205182131.37434387 -277435487.7828598 0 0 0 0 -238867936.38232648 153464948.92267227 0 153464948.92267227 -47092816.086517334 0 0 0 0 -164472094.31928635 231853881.36340332 0 231853881.36340332 -413791173.57968903 0 0 0 0 -211674302.63844642 106678983.26218605 0 106678983.26218605 -446158258.28095245 0 0 0 0 -122238645.32018483 213654405.20074654 0 213654405.20074654 -381514264.33410645 0 0 0 0 19405737.816388249 -144309932.21395874 0 -144309932.21395874 117381696.84880543 0 0 0 0 1258335.0019808291 33192.421194896102 0 33192.421194896102 -1580263.2881643623 0 0 0 0 5921716.5135474801 -14403637.774295807 0 -14403637.774295807 47230282.989425659 0 0 0 0 8695648.5287083387 -203508544.40026093 0 -203508544.40026093 -70593463.76675415 0 0 0 0 25744857.197857708 -43310203.936882019 0 -43310203.936882019 -335759147.01177979 0 0 0 0 -143664416.5275405 50996476.669252396 0 50996476.669252396 -318321559.79271698 0 0 0 0 -101888263.07866055 101003093.6257515 0 101003093.6257515 -266870938.41942596 0 0 0 0 -185606275.20396018 262517916.64474869 0 262517916.64474869 -378587495.65923691 0 0 0 0 -202174960.84806186 223775126.04079628 0 223775126.04079628 -450810645.47020721 0 0 0 0 -183655040.61738974 136392956.09852982 0 136392956.09852982 -471547348.00226593 0 0 0 0 -206515006.6195097 104477014.67147827 0 104477014.67147827 -515425228.18238831 0 0 0 0 -357636681.91079617 181416361.85271454 0 181416361.85271454 -425740891.05564117 0 0 0 0 -245832128.57436776 285941116.53249359 0 285941116.53249359 -497562010.07474375 0 0 0 0 -337697895.61144686 208921337.59928131 0 208921337.59928131 -581297705.65404069 0 0 0 0 -402370193.09159851 98185292.056879044 0 98185292.056879044 -578931099.23239899 0 0 0 0 -224603786.11040211 719779361.24090958 0 719779361.24090958 -669022940.11739731 0 0 0 0 -139592293.32221437 570819831.35950089 0 570819831.35950089 -939647849.92175293 0 0 0 0 -270349547.69864094 169875082.87977791 0 169875082.87977791 -778900058.41950989 0 0 0 0 -199090090.52067468 519877586.37483215 0 519877586.37483215 -579354055.56665802 0 0 0 0 -297128541.60838985 480375943.5103035 0 480375943.5103035 -489635450.04573107 0 0 0 0 -219573297.53940654 345403857.93519592 0 345403857.93519592 -298304844.99097443 0 0 0 0 -406705718.44146919 523526943.49798965 0 523526943.49798965 -384292757.42047501 0 0 0 0 -554377853.27259707 489437707.96654725 0 489437707.96654725 -354597360.3416214 0 0 0 0 -168100841.55277205 810375429.07697296 0 810375429.07697296 -752321763.31859207 0 0 0 0 -520000746.9433946 810432602.37421799 0 810432602.37421799 -507527971.51158905 0 0 0 0 -204268302.5151782 696753460.1071434 0 696753460.1071434 -535209624.86154556 0 0 0 0 -268941993.09449196 637752264.55596542 0 637752264.55596542 -508099950.59164429 0 0 0 0 323412308.84144163 440122762.6186924 0 440122762.6186924 -579246553.09696198 0 0 0 0 -29352398.362797737 270568518.15152359 0 270568518.15152359 -227152943.04231644 0 0 0 0 79049781.571928978 126750423.93473053 0 126750423.93473053 -200502530.11042023 0 0 0 0 -63925748.842010736 196408410.65977478 0 196408410.65977478 -113809627.39994049 0 0 0 0 68564202.293960571 -1208834.9071807861 0 -1208834.9071807861 -69929443.326339722 0 0 0 0 -63135692.210847378 161214127.48011589 0 161214127.48011589 -218259505.46324921 0 0 0 0 -219059051.27714539 346385889.478405 0 346385889.478405 -296841800.8620739 0 0 0 0 -257275424.6619482 314908184.76643372 0 314908184.76643372 -196460584.7172823 0 0 0 0 -466848768.7995863 534824940.40442276 0 534824940.40442276 -345324080.55565262 0 0 0 0 -266205647.19921517 293043507.07446671 0 293043507.07446671 -239182074.44581604 0 0 0 0 -407460857.44999504 532482420.89287376 0 532482420.89287376 -570998872.35725021 0 0 0 0 -631167586.56905556 484558667.26950836 0 484558667.26950836 -168921641.87166214 0 0 0 0 -343290247.75445843 316781054.59196472 0 316781054.59196472 -78630239.858528137 0 0 0 0 -416670505.2600193 167061035.54163361 0 167061035.54163361 -10396038.377285004 0 0 0 0 -171965767.63839924 69757699.362659693 0 69757699.362659693 -120480466.07563782 0 0 0 0 -145449722.33340549 297218921.77272224 0 297218921.77272224 -284684239.63018036 0 0 0 0 -170564291.08774757 39689297.057537079 0 39689297.057537079 -17619526.637641907 0 0 0 0 -176902783.30667305 67171905.630458832 0 67171905.630458832 -116937206.82331085 0 0 0 0 -157846214.16059875 167609769.0331192 0 167609769.0331192 21002400.097640991 0 0 0 0 -210022264.73950577 -1978059.0026931763 0 -1978059.0026931763 39018684.199134827 0 0 0 0 -52564184.770879507 300373974.20681787 0 300373974.20681787 116202986.20862579 0 0 0 0 -19317063.254802704 45977046.127872467 0 45977046.127872467 -150593174.01910782 0 0 0 0 -570288750.08782959 -96967673.505153656 0 -96967673.505153656 37877157.670490265 0 0 0 0 -429857865.51868105 175458094.8231144 0 175458094.8231144 89883676.601799011 0 0 0 0 -1009533184.7455955 342688628.66431999 0 342688628.66431999 58278591.178787231 0 0 0 0 -849477025.51260424 563742357.10444832 0 563742357.10444832 80519890.695045471 0 0 0 0 -935286415.81577659 977259458.77664185 0 977259458.77664185 101888042.86901855 0 0 0 0 -1684882804.7103906 674047260.2412262 0 674047260.2412262 197234532.19285536 0 0 0 0 -869251230.92685103 518084106.81740665 0 518084106.81740665 170750960.7786026 0 0 0 0 -2065787558.219173 1224283924.0428696 0 1224283924.0428696 -481240724.42977142 0 0 0 0 -726137905.057953 813756033.77851868 0 813756033.77851868 -1053816579.3996925 0 0 0 0 -1125922762.5674984 -90399301.896562576 0 -90399301.896562576 -2020617908.6237149 0 0 0 0 -1142980644.0891614 1380128160.0705299 0 1380128160.0705299 -1662435381.1298828 0 0 0 0 -954626884.88920736 1512130062.1025181 0 1512130062.1025181 -1952110045.6525617 0 0 0 0 124188061.39810014 67994745.624118805 0 67994745.624118805 -2036950972.9905376 0 0 0 0 -310337509.96555054 53458045.411944389 0 53458045.411944389 -4187387.9027023315 0 0 0 0 -1813512998.4558301 -208140669.8026247 0 -208140669.8026247 233531752.47052002 0 0 0 0 -3900809.294383355 2046193.9189703856 0 2046193.9189703856 -1520723.2738314234 0 0 0 0 586204731.44776249 26801256.868579865 0 26801256.868579865 -63484602.014472961 0 0 0 0 336567105.60686111 -41918495.859806061 0 -41918495.859806061 -134429123.85483837 0 0 0 0 108638555.98514736 190643066.7191267 0 190643066.7191267 131777415.41172791 0 0 0 0 -2231641.4544133656 2666152.9593094811 0 2666152.9593094811 -390698.77911250666 0 0 0 0 550002207.72004032 329840393.09534454 0 329840393.09534454 132315508.58376293 0 0 0 0 -10391739.387299061 166828012.46863937 0 166828012.46863937 600257995.35263062 0 0 0 0 -1701180.9609262617 1671000.238702761 0 1671000.238702761 119273.89004548267 0 0 0 0 -525537685.47527689 1168005254.5404949 0 1168005254.5404949 282194325.80478668 0 0 0 0 516908303.49051762 233213105.24925232 0 233213105.24925232 -741248440.27206588 0 0 0 0 -502606118.84547228 1132691593.4375801 0 1132691593.4375801 -416811562.43351555 0 0 0 0 -321216962.93307853 747334226.1394577 0 747334226.1394577 -281140575.6973381 0 0 0 0 -760053896.55235767 824466307.20559645 0 824466307.20559645 -231234371.5636673 0 0 0 0 -346735299.78007454 316527405.86886215 0 316527405.86886215 -1164977628.7112083 0 0 0 0 375711169.73664284 100018749.80787659 0 100018749.80787659 -1195392288.8095055 0 0 0 0 384159196.65657282 441171083.57378387 0 441171083.57378387 -719381271.51819229 0 0 0 0 1007534955.207499 891729697.79593086 0 891729697.79593086 -323099311.74355698 0 0 0 0 718978907.16586637 2290908.9874076843 0 2290908.9874076843 -172860442.68444252 0 0 0 0 1297112120.6371508 272716985.20457458 0 272716985.20457458 141087148.16973114 0 0 0 0 -1003105.7128995201 1203628.4185417835 0 1203628.4185417835 -24821.883336436003 0 0 0 0 673478969.98040104 -173679392.67948532 0 -173679392.67948532 -849026881.07222748 0 0 0 0 436963479.32044315 184485937.36664581 0 184485937.36664581 203755830.74929047 0 0 0 0 597293950.6858387 288329971.51820374 0 288329971.51820374 250168772.79013443 0 0 0 0 -144556033.56292197 -59477979.643239975 0 -59477979.643239975 -53921615.455751419 0 0 0 0 2420815.0092784399 100072.28395408764 0 100072.28395408764 -3727969.3950929865 0 0 0 0 2113961179.3487558 -253665774.70310211 0 -253665774.70310211 -861904187.75357056 0 0 0 0 608367880.59358025 296631212.43699837 0 296631212.43699837 -140417502.07210541 0 0 0 0 1812050809.9186506 -1076657267.0752411 0 -1076657267.0752411 898313666.70501137 0 0 0 0 1483179555.6571841 389951685.8549695 0 389951685.8549695 -233850038.71952057 0 0 0 0 689391641.85089183 50665157.236989975 0 50665157.236989975 -373629705.20991898 0 0 0 0 743634729.58475375 -1288035038.9895592 0 -1288035038.9895592 -35437873.337606907 0 0 0 0 392011074.76160502 -788892135.90733337 0 -788892135.90733337 -1287148487.6334352 0 0 0 0 361500484.30086988 -176690600.82677078 0 -176690600.82677078 -1023818083.2029343 0 0 0 0 502109893.19640911 -283973338.83368587 0 -283973338.83368587 -944966976.74129105 0 0 0 0 211156781.97549093 -436664682.68955994 0 -436664682.68955994 -1470098798.4301529 0 0 0 0 -17112128.97495985 -254928709.36672735 0 -254928709.36672735 -1957847272.6942902 0 0 0 0 817272284.60992074 104658251.05333042 0 104658251.05333042 -1874907850.3340073 0 0 0 0 988208174.45045185 -146342478.16409111 0 -146342478.16409111 -3466114504.1964264 0 0 0 0 1031117701.3449204 -641615134.07336998 0 -641615134.07336998 -2384118800.0341854 0 0 0 0 721843981.0210278 -645371069.17136765 0 -645371069.17136765 -2372195254.9841461 0 0 0 0 -229905031.15579975 -531210776.39227676 0 -531210776.39227676 -3464214315.508009 0 0 0 0 1114788669.436799 -73985113.354931593 0 -73985113.354931593 -3692331420.9101868 0 0 0 0 1324339532.5130398 -1296718644.2577553 0 -1296718644.2577553 -2747655653.6481781 0 0 0 0 -449919145.25453556 1075060906.1053886 0 1075060906.1053886 -2015778141.4386635 0 0 0 0 -762804322.80365205 1008480205.4282532 0 1008480205.4282532 -1375094254.1966412 0 0 0 0 -1186507973.8602927 1254452515.4738846 0 1254452515.4738846 -1354470380.526108 0 0 0 0 -647335144.53584361 1413357217.8455887 0 1413357217.8455887 -1593960936.1092148 0 0 0 0 -1003150632.8030543 1455771453.1386347 0 1455771453.1386347 -1534466993.1135178 0 0 0 0 -310827963.17398858 1143480193.7748642 0 1143480193.7748642 -1843105799.2674866 0 0 0 0 -1979057981.1901588 441613088.5317173 0 441613088.5317173 -1933083959.8778496 0 0 0 0 -456281061.73860765 603755891.69740868 0 603755891.69740868 -1822784638.6544418 0 0 0 0 58237464.395307183 -67781828.249584198 0 -67781828.249584198 -2315276757.3391113 0 0 0 0 138756496.8828553 -1062708530.0976791 0 -1062708530.0976791 -1460925508.0567112 0 0 0 0 -311257368.23071855 1441183414.5812111 0 1441183414.5812111 -1466902494.4536705 0 0 0 0 1711.3506720593314 536828.50995650305 0 536828.50995650305 -2620956.7087134644 0 0 0 0 -882728240.43996096 1127191309.082098 0 1127191309.082098 -358314226.89098358 0 0 0 0 -89698732.292020261 -317879655.84981918 0 -317879655.84981918 -464340014.14653778 0 0 0 0 -220695865.31615603 1362865836.1212177 0 1362865836.1212177 -1462197857.353756 0 0 0 0 655064793.22457147 663608930.02869987 0 663608930.02869987 -3458077595.1502838 0 0 0 0 12986.119128460421 929045.601236496 0 929045.601236496 -2644431.0135653652 0 0 0 0 234093798.08254641 -963023215.26587856 0 -963023215.26587856 -1160446599.8057823 0 0 0 0 30127522.444866132 258955496.76909447 0 258955496.76909447 -3456211083.6507573 0 0 0 0 -805306485.30429804 1195945924.600008 0 1195945924.600008 -1888200659.5438347 0 0 0 0 -99817877.472735286 1065954544.4985695 0 1065954544.4985695 -3465247433.3951721 0 0 0 0 6633562.8197432049 335074908.19329858 0 335074908.19329858 -1797991822.543293 0 0 0 0 -130555983.6215317 1184054008.2354093 0 1184054008.2354093 -2290066797.8940773 0 0 0 0 -770304050.36182642 1864114885.4981651 0 1864114885.4981651 -2085425741.4142151 0 0 0 0 -212945082.30486941 1681881999.8630857 0 1681881999.8630857 -3466394437.6349125 0 0 0 0 -599834562.41152275 1262338014.387886 0 1262338014.387886 -1721506519.2392216 0 0 0 0 -600464488.92988133 1508798649.95047 0 1508798649.95047 -2002258478.2093163 0 0 0 0 -2332365.3702377933 2034768.6916782092 0 2034768.6916782092 -6045475.5099299438 0 0 0 0 -952594605.02563143 2392576339.8649712 0 2392576339.8649712 -3456529689.4967856 0 0 0 0 -3170668036.9395924 2185736786.9721336 0 2185736786.9721336 -990504192.27566719 0 0 0 0 -1423694.6550523164 3244588.1692883731 0 3244588.1692883731 -15224562.013387773 0 0 0 0 -28700074.316683769 589219070.24747658 0 589219070.24747658 -395451939.99653244 0 0 0 0 -860712196.60718656 282289508.46190453 0 282289508.46190453 -110572131.53282356 0 0 0 0 -35656038.480356216 -168390892.26656723 0 -168390892.26656723 -102286232.6144762 0 0 0 0 -610082786.53930902 1256034539.8424988 0 1256034539.8424988 -1585468713.3379784 0 0 0 0 -616208497.23338079 1234049592.0247476 0 1234049592.0247476 -1608294720.1618805 0 0 0 0 -675256888.24463773 818069012.81708717 0 818069012.81708717 -540308952.26685333 0 0 0 0 -916692335.43382967 1397726828.2455797 0 1397726828.2455797 -1326525962.0209923 0 0 0 0 -194140886.8568716 339020537.92262268 0 339020537.92262268 -725112748.00448704 0 0 0 0 -329636697.99460089 666628148.7261095 0 666628148.7261095 -959408660.39881134 0 0 0 0 -453142222.37574244 650382049.36048508 0 650382049.36048508 -860861935.77143478 0 0 0 0 -17747773.888076305 122329338.87185097 0 122329338.87185097 -835978174.94903183 0 0 0 0 -6462600.3145118952 -194200920.86843872 0 -194200920.86843872 -332459718.89692688 0 0 0 0 -1361072.5557519062 242464.62473956775 0 242464.62473956775 430837.65477363765 0 0 0 0 -199598288.03627205 146682817.6555481 0 146682817.6555481 62566604.946182251 0 0 0 0 1196407.8062801361 114827444.8924408 0 114827444.8924408 -9926703.3076705933 0 0 0 0 -274798414.78383398 3592717.0214767456 0 3592717.0214767456 -70201704.716926575 0 0 0 0 -185642728.43262053 -97025385.94524765 0 -97025385.94524765 -4643026.2578926086 0 0 0 0 -263733936.21797514 2411114.378616333 0 2411114.378616333 53846293.078765869 0 0 0 0 -385282106.15994143 310422009.66035175 0 310422009.66035175 -286969243.65759277 0 0 0 0 -114363773.61510324 -135898881.74636078 0 -135898881.74636078 -170215176.48513699 0 0 0 0 501068240.0754509 84134004.473697662 0 84134004.473697662 -235272988.645504 0 0 0 0 -696078.33530826261 3615948.8983057016 0 3615948.8983057016 -19305339.303364202 0 0 0 0 50342142.804134607 -110718012.0927639 0 -110718012.0927639 51665904.346450806 0 0 0 0 -5882732.3390445709 -11541724.208572388 0 -11541724.208572388 -36660415.987854004 0 0 0 0 -101922731.60661745 -62319334.021280289 0 -62319334.021280289 25496605.312156677 0 0 0 0 21460307.053953171 -135559624.85635376 0 -135559624.85635376 -112727.36622714996 0 0 0 0 327218805.75506353 -79206319.039117813 0 -79206319.039117813 -70445700.175098419 0 0 0 0 112337326.20261788 2672878.0168390274 0 2672878.0168390274 -6052763.3204574585 0 0 0 0 41154427.469598055 -61116628.056635857 0 -61116628.056635857 8506005.6602096558 0 0 0 0 -81734097.586889744 -77523549.858785629 0 -77523549.858785629 23132862.720413208 0 0 0 0 22527268.072207451 -24339202.048116684 0 -24339202.048116684 -62332720.418960571 0 0 0 0 -85542965.876870632 -66129501.761810303 0 -66129501.761810303 7692636.4155578613 0 0 0 0 -4682390.7561398232 1131861.216054447 0 1131861.216054447 -3066949.9115654957 0 0 0 0 -7616436.6114044189 971306.48965072632 0 971306.48965072632 -8965215.0922393799 0 0 0 0 -4900139.0874737017 2075576.4016573299 0 2075576.4016573299 249094.20050898939 0 0 0 0 334631054.56021118 214699868.84010696 0 214699868.84010696 40062500.974460602 0 0 0 0 58383871.529699326 57353255.881484985 0 57353255.881484985 78570542.928390503 0 0 0 0 -1850925.6316833496 22388120.588756561 0 22388120.588756561 114608852.0193634 0 0 0 0 -6844775.433501143 6212555.1502766442 0 6212555.1502766442 -4352569.8798776641 0 0 0 0 8618826.5716400146 8854582.9912719727 0 8854582.9912719727 4996306.4388427734 0 0 0 0 -6288332.1160812378 125874563.3728714 0 125874563.3728714 5784113.5319824219 0 0 0 0 -80590332.701887131 -25214684.409370422 0 -25214684.409370422 1846444.5430908203 0 0 0 0 -4970626.77172691 1362590.3502531853 0 1362590.3502531853 2199012.8422683515 0 0 0 0 -16307343.054559231 27998292.701099396 0 27998292.701099396 33913608.611530304 0 0 0 0 -8287074.099133241 5379469.9627519324 0 5379469.9627519324 -5556822.0745806172 0 0 0 0 -114388814.62722611 25549068.051742554 0 25549068.051742554 102679117.69416046 0 0 0 0 -2044120.910212178 1512346.6025720406 0 1512346.6025720406 -6870020.6251385808 0 0 0 0 -2540096.183123528 1228554.3508595405 0 1228554.3508595405 1546955.2565830611 0 0 0 0 -95415024.457227945 -46646824.201251984 0 -46646824.201251984 6717584.1816711426 0 0 0 0 -25259594.878113389 12887033.829587936 0 12887033.829587936 27919291.377655029 0 0 0 0 -98713344.276060104 -49463434.076728821 0 -49463434.076728821 21274078.02123642 0 0 0 0 145645534.50114584 -148464499.00753593 0 -148464499.00753593 62264619.900055051 0 0 0 0 122660163.69163668 -119567506.77401185 0 -119567506.77401185 113811199.76852226 0 0 0 0 -528186.7047779212 -1537091.017245366 0 -1537091.017245366 -4985276.1308693103 0 0 0 0 -404399903.63921916 172029895.29236078 0 172029895.29236078 -108584355.94091797 0 0 0 0 -219619081.62568593 70586422.88850832 0 70586422.88850832 -65547739.000682831 0 0 0 0 -143816540.41036379 103379347.62202489 0 103379347.62202489 -231877970.3514061 0 0 0 0 -52283506.249328852 32115273.655687809 0 32115273.655687809 -346941114.06815004 0 0 0 0 -177338119.14721727 102333637.7545681 0 102333637.7545681 -225740892.68472862 0 0 0 0 -579060482.47707462 174590394.72750044 0 174590394.72750044 -38986882.22955513 0 0 0 0 -404436427.33163941 177315564.64113867 0 177315564.64113867 -109721382.43513775 0 0 0 0 -288484314.6857543 421702468.00954247 0 421702468.00954247 -671283156.43754959 0 0 0 0 -247291846.63863587 273940106.91986704 0 273940106.91986704 -513142427.1847887 0 0 0 0 145165411.08258945 -141668114.29944822 0 -141668114.29944822 5744156.7916660309 0 0 0 0 -1766555193.1602182 1023886935.5112648 0 1023886935.5112648 74645364.750083447 0 0 0 0 91772064.720416546 -10800062.671747208 0 -10800062.671747208 -14927907.853263855 0 0 0 0 142571297.47282457 -64594987.738649845 0 -64594987.738649845 -68447570.306468427 0 0 0 0 146288657.56181526 -113797742.64090967 0 -113797742.64090967 -62112435.499922752 0 0 0 0 137483450.68429565 -134505825.68927765 0 -134505825.68927765 17197920.480545044 0 0 0 0 109804622.39841986 -70031693.289451122 0 -70031693.289451122 -17956415.756097555 0 0 0 0 127728639.25066876 -114510976.64658308 0 -114510976.64658308 65415239.443095207 0 0 0 0 216357743.7514807 -194345520.13118494 0 -194345520.13118494 80305373.263546467 0 0 0 0 158222794.06219828 -118659489.47375894 0 -118659489.47375894 27325434.046818733 0 0 0 0 150503454.91932464 -153979815.46475244 0 -153979815.46475244 50338832.819489956 0 0 0 0 209839668.93926084 -147471418.30463791 0 -147471418.30463791 25581528.67390871 0 0 0 0 136709089.14883947 -145991291.99686337 0 -145991291.99686337 45159161.290698051 0 0 0 0 153785586.62089586 -136183084.94419897 0 -136183084.94419897 2826811.7462759018 0 0 0 0 -2033587.7299274998 9562327.4408462644 0 9562327.4408462644 -227487.57029371336 0 0 0 0 475641695.36714882 -143786533.68103963 0 -143786533.68103963 -9013716.5233588219 0 0 0 0 127497307.62424231 -43089034.967205048 0 -43089034.967205048 -52574256.877662659 0 0 0 0 344912.65389798844 3321482.1141138379 0 3321482.1141138379 -22815262.093586836 0 0 0 0 381384619.32257295 -70592820.117062271 0 -70592820.117062271 -19544498.356064081 0 0 0 0 231589764.69510007 -45496767.675862551 0 -45496767.675862551 -3676528.6114213467 0 0 0 0 84488355.074358523 -28312353.586061716 0 -28312353.586061716 16580946.711071491 0 0 0 0 -1740516.4519095195 9451685.2706343979 0 9451685.2706343979 333237.08686511498 0 0 0 0 112518523.28250909 27018131.108063698 0 27018131.108063698 -86141671.174095154 0 0 0 0 -377356.79925495991 3568160.2050444609 0 3568160.2050444609 -21316549.019326851 0 0 0 0 115186355.3096137 -23880148.842352152 0 -23880148.842352152 -1695024.9358210564 0 0 0 0 106326283.21117881 -30030633.936856151 0 -30030633.936856151 2143064.2881011963 0 0 0 0 142255639.5631367 -132834366.20638227 0 -132834366.20638227 62369049.491624355 0 0 0 0 187834813.70575917 -87542210.430997372 0 -87542210.430997372 25802174.545434475 0 0 0 0 140652554.32066503 -124360502.13322818 0 -124360502.13322818 17915784.665252686 0 0 0 0 84517368.997978985 -49976438.31598568 0 -49976438.31598568 17582069.790590048 0 0 0 0 119493766.4287498 -104669242.82841635 0 -104669242.82841635 44832232.719722271 0 0 0 0 125996977.16412511 -96733879.010944366 0 -96733879.010944366 54344491.699888706 0 0 0 0 58657135.699041009 -38232239.674626827 0 -38232239.674626827 46404689.249988735 0 0 0 0 80449169.836753473 -17597788.584663153 0 -17597788.584663153 -333204.80479240417 0 0 0 0 113205746.98408186 -86149168.016282082 0 -86149168.016282082 66235380.585150719 0 0 0 0 29167121.95155561 -3627135.9254333973 0 -3627135.9254333973 -14173020.146654606 0 0 0 0 -450548.66934904875 2144636.8868152974 0 2144636.8868152974 33232.655713967513 0 0 0 0 120530612.27738345 -49898447.225371361 0 -49898447.225371361 365353873.8856411 0 0 0 0 42303316.454161748 10498168.656959534 0 10498168.656959534 966680.89412491024 0 0 0 0 48268870.789947912 18714149.940981865 0 18714149.940981865 17139147.629961491 0 0 0 0 154705156.82725227 190755880.14877355 0 190755880.14877355 -20211711.411771774 0 0 0 0 223635027.23273575 102706934.10200691 0 102706934.10200691 -284719681.03758621 0 0 0 0 67111233.112999499 99563187.89014864 0 99563187.89014864 -94761451.351853669 0 0 0 0 48642628.994441807 33179005.821910858 0 33179005.821910858 -103258714.95504284 0 0 0 0 51463683.474033281 115529365.65508866 0 115529365.65508866 9870977.6946601868 0 0 0 0 3347112.3680903912 -6615361.2961111069 0 -6615361.2961111069 58383159.375944614 0 0 0 0 29140779.167034268 1194279.4721862078 0 1194279.4721862078 25035662.770874977 0 0 0 0 -1324285.0692059994 69263067.427705288 0 69263067.427705288 -27808682.342415333 0 0 0 0 -61996440.150948882 65825163.194296837 0 65825163.194296837 -12102357.357527256 0 0 0 0 -67986298.014381409 -41062571.300801277 0 -41062571.300801277 36862604.260961413 0 0 0 0 119371629.28879237 -130804365.13953161 0 -130804365.13953161 42007154.05688858 0 0 0 0 42579659.534044981 -87368845.161460638 0 -87368845.161460638 123789217.8940258 0 0 0 0 80339931.524769068 -54846648.492634296 0 -54846648.492634296 28417148.970392585 0 0 0 0 256842048.70498079 -138721444.20551255 0 -138721444.20551255 58436654.981568336 0 0 0 0 137897773.6283493 -56483311.42451787 0 -56483311.42451787 86682977.374883056 0 0 0 0 -191998966.66171026 156248124.46598816 0 156248124.46598816 -66659546.765224457 0 0 0 0 -592725.97278006119 -2057930.7630682411 0 -2057930.7630682411 -6848216.7640874712 0 0 0 0 -547152899.52582121 295155810.68079281 0 295155810.68079281 186571345.26119232 0 0 0 0 252129841.0167923 -265415120.99180526 0 -265415120.99180526 134428772.12192726 0 0 0 0 -520876224.13645649 191662491.37925339 0 191662491.37925339 -191267238.6467514 0 0 0 0 64474137.129535675 -4346691.6970267296 0 -4346691.6970267296 137373750.93213582 0 0 0 0 81051305.590827465 -152821276.68270779 0 -152821276.68270779 261759650.86676741 0 0 0 0 74998869.377952814 45670168.447318554 0 45670168.447318554 43358721.043626502 0 0 0 0 351164468.92631149 -289285467.46708107 0 -289285467.46708107 -226702467.84762239 0 0 0 0 91847594.849699736 -23237562.208160877 0 -23237562.208160877 -215946279.90020466 0 0 0 0 -76218732.520518422 -59177662.706912041 0 -59177662.706912041 -221404300.49478149 0 0 0 0 155937075.81784362 176059067.11855745 0 176059067.11855745 -1378679213.6440301 0 0 0 0 -30448209.309459209 97353046.28253299 0 97353046.28253299 -38352643.443259716 0 0 0 0 -158019413.74040076 7086917.4181776047 0 7086917.4181776047 80901034.258656502 0 0 0 0 8601537.2822913527 178297994.26028776 0 178297994.26028776 92115566.221853733 0 0 0 0 -83072186.484138906 78261183.813604355 0 78261183.813604355 28748941.582967281 0 0 0 0 -150939190.5482685 -140667483.74945831 0 -140667483.74945831 -101139036.95778072 0 0 0 0 -37229879.069842905 28401894.061736822 0 28401894.061736822 -115044327.61746693 0 0 0 0 3513088.7029830813 22341417.010589361 0 22341417.010589361 -630383371.10893154 0 0 0 0 224494544.3401455 -118991775.25756413 0 -118991775.25756413 -496959927.39851284 0 0 0 0 -78464737.72129488 -15944089.416844368 0 -15944089.416844368 -519544296.70727396 0 0 0 0 -312054808.54627395 -618811405.50205982 0 -618811405.50205982 -1027410213.0849838 0 0 0 0 593081198.09863746 -888487501.12414432 0 -888487501.12414432 -3465503135.9231644 0 0 0 0 -1138605831.8005219 -1715330879.7881126 0 -1715330879.7881126 -1495406989.9534597 0 0 0 0 592533019.34756827 -885474343.60159826 0 -885474343.60159826 -3457619433.7958727 0 0 0 0 478181553.21985066 -65272382.789971232 0 -65272382.789971232 -2118770482.1383224 0 0 0 0 501641975.65729362 64052458.96484971 0 64052458.96484971 -1446667320.5435517 0 0 0 0 506478685.19864047 676189867.01643705 0 676189867.01643705 -3464917488.6011152 0 0 0 0 30553131.364166915 597536794.18773043 0 597536794.18773043 -1095913771.6007998 0 0 0 0 237645.93100341549 510345.34614393767 0 510345.34614393767 -4574257.1490364196 0 0 0 0 -630346176.46433282 1852734808.5935557 0 1852734808.5935557 -3458881854.1139545 0 0 0 0 -54641171.527323812 -739822624.59983873 0 -739822624.59983873 -721902453.94721794 0 0 0 0 298187700.96595567 -439088552.51131439 0 -439088552.51131439 -3457501042.4106202 0 0 0 0 193335093.1854319 785258304.64098597 0 785258304.64098597 -3458248704.4604988 0 0 0 0 239133064.86240646 166413895.89902401 0 166413895.89902401 -1190354583.4307766 0 0 0 0 -212182513.37295318 146034392.24136591 0 146034392.24136591 -1191035314.6081238 0 0 0 0 -478265291.82064235 287407727.41132879 0 287407727.41132879 -283338741.59273434 0 0 0 0 -215134954.12830874 311999812.75850487 0 311999812.75850487 51121531.020261765 0 0 0 0 -401239001.92427009 9618557.5544142723 0 9618557.5544142723 -272294901.40120697 0 0 0 0 -97502852.888199449 178464736.170084 0 178464736.170084 25448632.173268795 0 0 0 0 -428748300.79552382 258461751.79361153 0 258461751.79361153 6991316.4752731323 0 0 0 0 -68829007.580184162 -62295935.279899597 0 -62295935.279899597 40202540.925382614 0 0 0 0 -444302570.07993346 -78057482.345310643 0 -78057482.345310643 91695047.436662674 0 0 0 0 -278022025.00553048 58209887.415596962 0 58209887.415596962 1858445.1227197647 0 0 0 0 -6018761.9489987493 3515795.9738149643 0 3515795.9738149643 -508003.67470276356 0 0 0 0 -86369617.132558763 186585541.83242559 0 186585541.83242559 -73670052.195796967 0 0 0 0 -35402774.474498868 104503911.94519424 0 104503911.94519424 -97694033.913716316 0 0 0 0 -100840181.39702067 168765620.65866637 0 168765620.65866637 -84596100.342346191 0 0 0 0 -404977.38682169945 -2072012.9864868654 0 -2072012.9864868654 -8082521.9483593609 0 0 0 0 -166942835.15946889 208578880.97382259 0 208578880.97382259 -108543698.76597881 0 0 0 0 -167526805.17852044 223353190.46538591 0 223353190.46538591 -246067112.77260017 0 0 0 0 228017495.81452259 168379801.31524396 0 168379801.31524396 -1164780334.6591213 0 0 0 0 -104198.64795596519 -1270458.685892425 0 -1270458.685892425 -7767058.5073706172 0 0 0 0 220529857.68921307 133676084.08548951 0 133676084.08548951 -155691632.63093758 0 0 0 0 2942713.8961004019 -42166094.153120041 0 -42166094.153120041 -74168006.442497253 0 0 0 0 -168765521.16564915 168105804.23535395 0 168105804.23535395 -97389891.732217789 0 0 0 0 -3128681.1448062216 -2327267.2499298705 0 -2327267.2499298705 -3890435.2474634927 0 0 0 0 -354362.0914923579 392913.01675941504 0 392913.01675941504 -1470333.1349753849 0 0 0 0 -40432959.10617587 730981520.71747303 0 730981520.71747303 -1697923140.7801781 0 0 0 0 313439250.16152966 -497896723.6952858 0 -497896723.6952858 -3427995117.9314499 0 0 0 0 -627353355.13389182 -117982194.68860817 0 -117982194.68860817 351406176.61241531 0 0 0 0 -53189305.909354061 -48154370.19688797 0 -48154370.19688797 356498761.66513324 0 0 0 0 625759122.03026044 61741676.526437759 0 61741676.526437759 -3450637518.8111391 0 0 0 0 -977695.39157668082 318401.69711268938 0 318401.69711268938 -2626820.9368142094 0 0 0 0 -154590846.76674163 -671353165.8852396 0 -671353165.8852396 -1970873858.7116413 0 0 0 0 -506223242.80205655 945608993.03114033 0 945608993.03114033 -863575182.32311249 0 0 0 0 -277925078.60334653 -197227819.51314068 0 -197227819.51314068 248220336.00073433 0 0 0 0 397431000.66265553 -16921388.282736301 0 -16921388.282736301 -147676866.03830528 0 0 0 0 -60518863.220812887 -38210552.385114551 0 -38210552.385114551 70013920.245536804 0 0 0 0 16814501.674461961 -126073052.98736191 0 -126073052.98736191 25023844.167413473 0 0 0 0 6565311.6186688216 -7416394.5813703537 0 -7416394.5813703537 -61604257.566382408 0 0 0 0 -51812.811268294856 -2897771.9817454461 0 -2897771.9817454461 -7744546.1042554239 0 0 0 0 -984857.55403909145 311497.5956424484 0 311497.5956424484 -5655478.0848873463 0 0 0 0 -11758931.445563074 10226345.385211945 0 10226345.385211945 227365317.469944 0 0 0 0 38030370.421227202 25048489.144823074 0 25048489.144823074 -53162727.6248703 0 0 0 0 -62938511.314372003 -37057556.003898203 0 -37057556.003898203 -17610416.494815826 0 0 0 0 -680480.11028521438 -240335.76211916722 0 -240335.76211916722 -2463503.3777104747 0 0 0 0 33837747.858905368 -63174878.036078453 0 -63174878.036078453 195109421.61903572 0 0 0 0 -1447754.7045389425 -2475727.5183604374 0 -2475727.5183604374 -1583262.1271766089 0 0 0 0 -9691250.1047154069 -11778500.127033234 0 -11778500.127033234 1323030.7429084778 0 0 0 0 -3190344.2059127092 -8530932.0659008026 0 -8530932.0659008026 -5592925.203710556 0 0 0 0 7512915.5561707485 -5221374.4864922315 0 -5221374.4864922315 -24368865.820098877 0 0 0 0 7484094.4865086079 -2112845.6620407104 0 -2112845.6620407104 -21587682.424953461 0 0 0 0 4343866.6443056762 -4493915.2841086388 0 -4493915.2841086388 -16713960.883148193 0 0 0 0 4677198.2221198976 -3520194.2685217857 0 -3520194.2685217857 -20688779.366855621 0 0 0 0 -609961.76363641303 -4243567.0654021762 0 -4243567.0654021762 -13417839.046842705 0 0 0 0 502895.02277028409 -276239.12226730026 0 -276239.12226730026 -11298254.110145381 0 0 0 0 2878542.4702918977 -742381.24245369434 0 -742381.24245369434 -1661372.6494598389 0 0 0 0 2686314.7181493044 -3166318.165977478 0 -3166318.165977478 -20645318.927408218 0 0 0 0 419318.63272121141 -268826.97533651337 0 -268826.97533651337 -11003448.199646495 0 0 0 0 -285046.41977598099 -772198.48545653722 0 -772198.48545653722 -9657420.485293502 0 0 0 0 85571341.435118556 -23174347.387054443 0 -23174347.387054443 -16659412.432920456 0 0 0 0 70235285.704278469 -14174141.968515396 0 -14174141.968515396 -15637180.256191254 0 0 0 0 -22760246.930575967 -29102672.364767075 0 -29102672.364767075 14640120.086212158 0 0 0 0 -3619639.1949667931 -31717344.900154114 0 -31717344.900154114 14938363.720186234 0 0 0 0 5932338.5638532639 -68016239.69642067 0 -68016239.69642067 19791559.661838531 0 0 0 0 22997550.989032745 -79110598.408462524 0 -79110598.408462524 24022478.928123474 0 0 0 0 102796833.94561827 -135310035.4609642 0 -135310035.4609642 31016180.021331787 0 0 0 0 193329901.81756568 -148181858.22672844 0 -148181858.22672844 48429421.182807922 0 0 0 0 157224982.05499083 101273302.64059925 0 101273302.64059925 -142547171.8659935 0 0 0 0 -11814425.414354486 -10695802.708995819 0 -10695802.708995819 -2793045.7753982544 0 0 0 0 258035.48601117049 -94705.190967914183 0 -94705.190967914183 -594370.60583873466 0 0 0 0 242633086.17035866 103840029.68967819 0 103840029.68967819 -89878158.226303101 0 0 0 0 -116495029.43425649 -57772418.940077066 0 -57772418.940077066 82221081.934276581 0 0 0 0 -47525207.100234032 -107378928.03229904 0 -107378928.03229904 81648254.690658569 0 0 0 0 -80806195.205453396 36155252.780773163 0 36155252.780773163 3885802.9524440765 0 0 0 0 -35019250.647157669 30187130.313739777 0 30187130.313739777 -28612343.599234581 0 0 0 0 -52173276.209413826 -52954218.052744389 0 -52954218.052744389 -49917171.594920158 0 0 0 0 -505824.06774166354 97077.181748060044 0 97077.181748060044 -147.85689557495061 0 0 0 0 -126482259.64566848 993857.17198705673 0 993857.17198705673 51074343.344608307 0 0 0 0 -32468537.360570431 2787071.1086826324 0 2787071.1086826324 16149152.691243172 0 0 0 0 -43666840.847518802 -5961513.6576423645 0 -5961513.6576423645 16082221.226131439 0 0 0 0 -35631537.646696329 -33403608.302207947 0 -33403608.302207947 38328241.413134575 0 0 0 0 -23802394.016268253 -12520483.665870667 0 -12520483.665870667 18189979.602043152 0 0 0 0 -28033199.688662052 -1058918.0865707397 0 -1058918.0865707397 10848980.298305511 0 0 0 0 -25334083.500451505 -4084975.2734303474 0 -4084975.2734303474 3090748.7044448853 0 0 0 0 -15056435.398441553 -8976968.0403506756 0 -8976968.0403506756 4261363.1282119751 0 0 0 0 -16821026.730855819 -22266237.080142826 0 -22266237.080142826 11538463.196678162 0 0 0 0 -14047830.87614274 -12949884.753044128 0 -12949884.753044128 2470590.1226291656 0 0 0 0 -16893588.186023951 -13594445.799337387 0 -13594445.799337387 5779678.5473976135 0 0 0 0 -8774143.3586380482 -6411835.637550354 0 -6411835.637550354 -10380554.623779297 0 0 0 0 -1580103.5095796585 -7066396.8432426453 0 -7066396.8432426453 -17035719.287715912 0 0 0 0 31686525.750945807 45201732.192371368 0 45201732.192371368 -7468181.3086414337 0 0 0 0 26666983.922002316 30926822.880096048 0 30926822.880096048 -8126847.7614135742 0 0 0 0 24674203.139854431 18549932.104563713 0 18549932.104563713 446528.60785865784 0 0 0 0 27008845.460160673 36920125.947812691 0 36920125.947812691 14710316.787665367 0 0 0 0 318938.98531488329 -287199.76572311076 0 -287199.76572311076 -1821192.020985961 0 0 0 0 29262986.759640932 48491394.754654646 0 48491394.754654646 12195720.461390495 0 0 0 0 77982732.786989212 -164094103.49222755 0 -164094103.49222755 60547095.496940136 0 0 0 0 1746200.893255949 -10255423.211639404 0 -10255423.211639404 -14388882.375610352 0 0 0 0 4178677.9724721909 -10660475.797477722 0 -10660475.797477722 -18549279.278989792 0 0 0 0 -1905173.4726674994 113453.51128569792 0 113453.51128569792 -7375798.6390783042 0 0 0 0 130509.12203919888 -12136560.680395126 0 -12136560.680395126 -16956050.602651596 0 0 0 0 -42985069.60508728 -30903561.215263367 0 -30903561.215263367 -81250401.691864014 0 0 0 0 1850736.4635005733 -568683.69492532383 0 -568683.69492532383 -6669926.9805377461 0 0 0 0 -6011296.5178260803 -9060518.6964359283 0 -9060518.6964359283 -13913716.861501694 0 0 0 0 -1690927.5618385673 -2439849.5472998619 0 -2439849.5472998619 -11722878.045410156 0 0 0 0 2743144.8502521515 -9725093.2563114166 0 -9725093.2563114166 -15545976.663862228 0 0 0 0 10129805.877164125 -6807387.1045627594 0 -6807387.1045627594 -14176621.646874309 0 0 0 0 6017894.6308243275 -13175334.175683975 0 -13175334.175683975 -12727452.400669098 0 0 0 0 4360523.8783347607 -18897278.729845047 0 -18897278.729845047 -5048903.804058075 0 0 0 0 -3504959.0658406019 -12022786.543562889 0 -12022786.543562889 -6258048.5912055969 0 0 0 0 17585092.957442284 -29114719.797578812 0 -29114719.797578812 -1008467.0258560181 0 0 0 0 9513491.0344085693 -7043833.0003700256 0 -7043833.0003700256 -12748787.166769028 0 0 0 0 19889483.766547918 -7739560.330083847 0 -7739560.330083847 -15543238.844531059 0 0 0 0 20809617.992516756 3488695.4602813721 0 3488695.4602813721 -5869413.8645172119 0 0 0 0 1842757.1761810209 -1682663.4059363389 0 -1682663.4059363389 -12235234.018316159 0 0 0 0 14878970.52956149 -2970134.5443849564 0 -2970134.5443849564 -14429142.074771881 0 0 0 0 -1572090.2584729744 3216833.8678461639 0 3216833.8678461639 -9277624.5390889365 0 0 0 0 6921627.9507195354 -1437975.6807861328 0 -1437975.6807861328 -20088074.266242981 0 0 0 0 -2283115.2802598043 296374.93252798903 0 296374.93252798903 -8628597.9839677084 0 0 0 0 12057333.425926208 4377982.2009449005 0 4377982.2009449005 -3289221.9432868958 0 0 0 0 -4050181.3255574405 -4797901.2808914185 0 -4797901.2808914185 -13289996.114887238 0 0 0 0 -11564655.486105382 3251263.3239097595 0 3251263.3239097595 -6787449.8434906006 0 0 0 0 11070807.201133966 663707.30461883545 0 663707.30461883545 -22827884.015167236 0 0 0 0 6219958.1050610542 3600093.2306251526 0 3600093.2306251526 -15783411.39812088 0 0 0 0 8759290.1420619488 2301175.6686325073 0 2301175.6686325073 -15142747.999866486 0 0 0 0 9154690.8223867416 -1308802.9840660095 0 -1308802.9840660095 -21635793.268730164 0 0 0 0 8422662.201790452 -2744394.0669441223 0 -2744394.0669441223 -22287844.153373718 0 0 0 0 -15896932.968431473 64764320.222908974 0 64764320.222908974 262788339.08121777 0 0 0 0 48343199.826672554 42331762.313796043 0 42331762.313796043 150306720.35744572 0 0 0 0 31302881.269589424 63957919.191179276 0 63957919.191179276 48749096.025937557 0 0 0 0 14005035.165970802 115737429.01653004 0 115737429.01653004 88535097.414843559 0 0 0 0 21659695.127907813 55064035.127890348 0 55064035.127890348 133889803.33436966 0 0 0 0 5050823.3527050018 130512196.86873102 0 130512196.86873102 29979957.513525963 0 0 0 0 -239363485.15518594 -21044899.673712254 0 -21044899.673712254 507688394.20293617 0 0 0 0 -144659314.52989149 44914828.056371689 0 44914828.056371689 175570994.9522329 0 0 0 0 75754728.169746399 -6853943.9117803574 0 -6853943.9117803574 171645057.40240276 0 0 0 0 33239993.549430847 112837365.89621449 0 112837365.89621449 179652689.20241451 0 0 0 0 -126113645.59241234 168537432.63373411 0 168537432.63373411 -239229077.51454926 0 0 0 0 -396217.57561986498 -109747.50069431076 0 -109747.50069431076 -186364.9543979062 0 0 0 0 -271515831.13509095 706375060.81168854 0 706375060.81168854 -753846096.32641411 0 0 0 0 -137509258.38908648 115899516.1774559 0 115899516.1774559 -354837299.21347189 0 0 0 0 -1063065.4757871802 -260055.35739206802 0 -260055.35739206802 -534046.27974244603 0 0 0 0 -51874069.415194035 119397762.4268589 0 119397762.4268589 -292312938.24269104 0 0 0 0 -61351661.9289428 134194908.44897842 0 134194908.44897842 -224395062.18404388 0 0 0 0 70643571.270348549 82077206.993182182 0 82077206.993182182 -260321614.16659927 0 0 0 0 -164188.3749340612 -68735.439330373891 0 -68735.439330373891 89814.385244110599 0 0 0 0 -65689848.191666752 131474892.07043481 0 131474892.07043481 -119346337.02062607 0 0 0 0 -49782334.942557544 38662289.322168589 0 38662289.322168589 -30560436.763607979 0 0 0 0 -1380703.9229682728 248503.52057304 0 248503.52057304 -3270.5192685824586 0 0 0 0 -94097796.516507745 87920016.145931721 0 87920016.145931721 -58437940.219731331 0 0 0 0 3027343.5915253162 5624093.087905407 0 5624093.087905407 -13139349.831233978 0 0 0 0 -25981528.268226624 2678102.6283388138 0 2678102.6283388138 850855.37343025208 0 0 0 0 -47534.360197067261 -1292075.2703771591 0 -1292075.2703771591 755320.34227561951 0 0 0 0 -1301895.0875763376 99535.483739317395 0 99535.483739317395 -1494582.8978819652 0 0 0 0 27786297.653590918 88124151.824941993 0 88124151.824941993 93058592.240063667 0 0 0 0 16548388.459681511 86061307.773921967 0 86061307.773921967 94641221.513397694 0 0 0 0 62617725.745601177 19911418.895531654 0 19911418.895531654 20280985.272640705 0 0 0 0 50443817.33096981 60170135.806013107 0 60170135.806013107 -24407748.610147953 0 0 0 0 -19837411.287318707 -4494603.7441501617 0 -4494603.7441501617 2455490.4658718109 0 0 0 0 -19859622.73240757 120612020.06286812 0 120612020.06286812 -42804997.69510293 0 0 0 0 70274470.520679951 62103206.602369308 0 62103206.602369308 -10533617.860156059 0 0 0 0 -1782040.4453079531 458931.46135330596 0 458931.46135330596 -3492935.5390458042 0 0 0 0 58247625.878512383 45804507.640828609 0 45804507.640828609 -25178127.073832989 0 0 0 0 33554921.203484535 43939645.124797821 0 43939645.124797821 -11486677.4397856 0 0 0 0 40334381.345563889 24739972.506066799 0 24739972.506066799 -45955781.955888748 0 0 0 0 39154264.332864761 33812332.886909485 0 33812332.886909485 -15986226.16547966 0 0 0 0 51748053.504461288 13168360.635618687 0 13168360.635618687 -60492704.121131897 0 0 0 0 43495255.089953899 15672809.872611523 0 15672809.872611523 -59516408.869643211 0 0 0 0 35550377.713322163 -17375974.542204857 0 -17375974.542204857 -128868224.30409288 0 0 0 0 27316901.114407539 45524612.09320879 0 45524612.09320879 -80631161.620060444 0 0 0 0 46738147.36249885 25124719.2761316 0 25124719.2761316 -60426971.660596848 0 0 0 0 19222608.823384285 104955235.64132452 0 104955235.64132452 1018878.6398267746 0 0 0 0 19532257.805749778 47588100.34641882 0 47588100.34641882 -30973080.417742729 0 0 0 0 -64140549.730928421 99778747.319714546 0 99778747.319714546 -63478742.640758514 0 0 0 0 -62202205.890183926 97422376.528674126 0 97422376.528674126 -162439816.62331486 0 0 0 0 -34098748.972026825 60054681.22885704 0 60054681.22885704 -190211037.21099138 0 0 0 0 -24231973.953789234 -45598667.303565025 0 -45598667.303565025 -154728260.5861907 0 0 0 0 9429869.6044398546 5440459.0497462749 0 5440459.0497462749 -124400554.13179207 0 0 0 0 -116612794.8144058 36883331.735554695 0 36883331.735554695 -137677814.91472626 0 0 0 0 -85274035.629892826 -75990724.681311131 0 -75990724.681311131 -33529402.98391819 0 0 0 0 -12932735.669767141 -58101657.278031111 0 -58101657.278031111 -177069913.86414433 0 0 0 0 6530148.4694538116 -32451510.607069492 0 -32451510.607069492 -81293200.842448711 0 0 0 0 -8757598.5066168308 -35324051.412520647 0 -35324051.412520647 -78180167.766485214 0 0 0 0 -31201658.817689419 -54265954.139359236 0 -54265954.139359236 -66776596.983067513 0 0 0 0 -52898087.183670521 -39638714.129978299 0 -39638714.129978299 -38483860.418809891 0 0 0 0 -56064992.130688667 -44205983.89074707 0 -44205983.89074707 -32402494.156588189 0 0 0 0 -36665825.267417669 -38064575.81418848 0 -38064575.81418848 -38461482.871359468 0 0 0 0 -36832393.885628492 -36797690.131266236 0 -36797690.131266236 -37074598.803566933 0 0 0 0 -5598385.0396065712 -29000426.424936771 0 -29000426.424936771 -47440786.530798197 0 0 0 0 149805023.07590294 97349488.640615463 0 97349488.640615463 13943103.309137344 0 0 0 0 135610314.64570141 166500126.09171057 0 166500126.09171057 81129490.588905334 0 0 0 0 -3538452.2707409207 2548565.7413809979 0 2548565.7413809979 -4340260.0153459711 0 0 0 0 -218693.50634527206 -18595231.284849882 0 -18595231.284849882 -32256016.45217856 0 0 0 0 323105.95037746429 -20063580.032509565 0 -20063580.032509565 -34963118.161902905 0 0 0 0 -17594583.687533379 -21104736.753929615 0 -21104736.753929615 -33278573.942638874 0 0 0 0 -15398121.381369114 -25831271.46123004 0 -25831271.46123004 -34558209.096283913 0 0 0 0 11299682.050220013 -15944706.579913616 0 -15944706.579913616 -44992927.259205222 0 0 0 0 5462320.1819782257 -24292051.063869953 0 -24292051.063869953 -48028678.165886402 0 0 0 0 3190230.5677317381 -16799936.716997623 0 -16799936.716997623 -38163962.490537643 0 0 0 0 20926834.867515564 -8958832.7667365074 0 -8958832.7667365074 -41498336.020537376 0 0 0 0 10823121.784574509 -14492964.615310371 0 -14492964.615310371 -43389922.097043991 0 0 0 0 28168628.948541641 1888306.9610261917 0 1888306.9610261917 -43525342.043196678 0 0 0 0 22358485.96579361 -12791173.224600792 0 -12791173.224600792 -61907584.697107315 0 0 0 0 30346920.989681244 -1839093.3224143982 0 -1839093.3224143982 -49569222.492318153 0 0 0 0 19977648.415960312 -12080206.124622822 0 -12080206.124622822 -57950701.453002095 0 0 0 0 -4283195.9289717674 -30679213.489569187 0 -30679213.489569187 -55441117.176446915 0 0 0 0 33096203.141345024 -11222054.532004356 0 -11222054.532004356 -79380661.49587965 0 0 0 0 4174428.9973267913 -21070417.924911261 0 -21070417.924911261 -60179314.759233475 0 0 0 0 43167512.01677537 7988767.8633294106 0 7988767.8633294106 -56010354.939661026 0 0 0 0 34944856.004908562 7400566.280110836 0 7400566.280110836 -51470358.766600609 0 0 0 0 34251227.467071533 12593520.045895576 0 12593520.045895576 -39717035.152515411 0 0 0 0 35847724.104012489 19649662.674833298 0 19649662.674833298 -33740107.437210083 0 0 0 0 33323345.705468416 14510318.413293302 0 14510318.413293302 -29689916.738580704 0 0 0 0 33350274.488588333 9915755.7103438377 0 9915755.7103438377 -38475896.194588661 0 0 0 0 30603489.579427719 14222008.476057053 0 14222008.476057053 -22739833.932220936 0 0 0 0 32201974.235687256 17857637.088919163 0 17857637.088919163 -24513174.133264542 0 0 0 0 33708134.762806177 25099872.295588255 0 25099872.295588255 -11815277.836719513 0 0 0 0 25007353.487122536 15799033.908094168 0 15799033.908094168 -11185030.494538307 0 0 0 0 30895885.550704479 7464816.6694149971 0 7464816.6694149971 -21918230.276566982 0 0 0 0 25434786.666616559 14605788.912254095 0 14605788.912254095 -13607085.047559738 0 0 0 0 10053239.280067444 6540285.0873222351 0 6540285.0873222351 -16282964.928520203 0 0 0 0 30635222.256792545 9391800.9677656889 0 9391800.9677656889 -28188891.914596558 0 0 0 0 29074812.678938866 6345728.8325886726 0 6345728.8325886726 -31547286.429649353 0 0 0 0 30965022.916470528 4872881.3843455315 0 4872881.3843455315 -37510646.888319254 0 0 0 0 26620310.58390069 2080687.9879796505 0 2080687.9879796505 -37399055.082626343 0 0 0 0 14732216.863326311 10345197.20475769 0 10345197.20475769 -11184014.344577789 0 0 0 0 8499783.4070769548 6341292.8486347198 0 6341292.8486347198 -12709064.656257629 0 0 0 0 6427022.6647279263 -1584822.2345180511 0 -1584822.2345180511 -37967338.262487411 0 0 0 0 14380919.02143836 4972430.0755739212 0 4972430.0755739212 -8316717.7980499268 0 0 0 0 1191308.8042980451 1770046.644632051 0 1770046.644632051 -10318883.083016232 0 0 0 0 4058400.3818585118 -5890575.4894938897 0 -5890575.4894938897 -12789139.069010727 0 0 0 0 2809009.3381947572 -1260187.2234697635 0 -1260187.2234697635 -21718049.858068552 0 0 0 0 100434494.40550375 76707033.218154907 0 76707033.218154907 -10738527.624893188 0 0 0 0 -4590306.2797771692 -61900133.799917221 0 -61900133.799917221 -2600166.7591018677 0 0 0 0 541809.92685112427 -1882627.9322519898 0 -1882627.9322519898 -22869276.690054238 0 0 0 0 -27687198.139298439 6993509.7179260254 0 6993509.7179260254 96276190.600212097 0 0 0 0 -34606608.349597454 -75279912.388832092 0 -75279912.388832092 -117534094.68629456 0 0 0 0 6622523.2574524879 2540106.5991668701 0 2540106.5991668701 -4966897.2751426697 0 0 0 0 246345.59097976354 -534540.84198043682 0 -534540.84198043682 -3927886.701383071 0 0 0 0 9583813.9917140007 -87592527.722849846 0 -87592527.722849846 -104380757.62394714 0 0 0 0 666502.97790950933 -673580.00286121108 0 -673580.00286121108 -2549831.5247428678 0 0 0 0 4572749.1332087517 10813282.068855286 0 10813282.068855286 -24121038.977954865 0 0 0 0 -39628557.464445233 -73083387.81701088 0 -73083387.81701088 1642902.8026428223 0 0 0 0 -2840394.1975831129 -3566866.6997873783 0 -3566866.6997873783 -20149222.831802368 0 0 0 0 58944187.998369694 39895295.538139343 0 39895295.538139343 3681215.9845123291 0 0 0 0 -279748.90384013113 1605611.2335448861 0 1605611.2335448861 -16463199.613632202 0 0 0 0 436832.29578763153 319797.74101084843 0 319797.74101084843 -1831902.8401597291 0 0 0 0 33550550.931616783 7746061.996887207 0 7746061.996887207 -26443060.530742645 0 0 0 0 -266409.7538626343 2380846.2842351794 0 2380846.2842351794 -19800005.557159424 0 0 0 0 44004511.912473202 -16286295.992485046 0 -16286295.992485046 -61165341.325393677 0 0 0 0 48935184.851542473 -7241434.1843643188 0 -7241434.1843643188 -49595855.891517639 0 0 0 0 161792661.24202442 -11190360.657173157 0 -11190360.657173157 -65975364.266876221 0 0 0 0 145953803.72670066 -134578303.12781525 0 -134578303.12781525 -67066111.098571777 0 0 0 0 29706907.818668365 -101667968.40615082 0 -101667968.40615082 -33675923.293502808 0 0 0 0 1726790.4219768411 -1314883.2789628634 0 -1314883.2789628634 -25446292.029238652 0 0 0 0 -20634021.566087723 -33114816.122060776 0 -33114816.122060776 -27830480.645149231 0 0 0 0 19121786.617539883 7161410.7027740479 0 7161410.7027740479 -53812612.479904175 0 0 0 0 40555406.856274366 -12552065.988246918 0 -12552065.988246918 -62759046.507247925 0 0 0 0 -956513.6157605648 -20688083.389862061 0 -20688083.389862061 -49862878.384773254 0 0 0 0 37744863.080644131 -19097534.919933319 0 -19097534.919933319 -76788051.199104309 0 0 0 0 58444192.60714817 -4035790.4460601807 0 -4035790.4460601807 -73769865.911919594 0 0 0 0 22154303.292495251 -9335718.7886645794 0 -9335718.7886645794 -39644505.441515446 0 0 0 0 20521970.744018555 -5848282.6130104065 0 -5848282.6130104065 -31932959.699742556 0 0 0 0 23311419.541760921 -4477897.409737587 0 -4477897.409737587 -24267815.964344203 0 0 0 0 39089753.121952057 -2840736.9041647911 0 -2840736.9041647911 -35968091.654094219 0 0 0 0 16374528.633853912 -7087929.8031630516 0 -7087929.8031630516 -32525233.274554729 0 0 0 0 9683900.9000046253 -8236097.6338536441 0 -8236097.6338536441 -26994887.143387318 0 0 0 0 6033055.967828393 -19113552.090519428 0 -19113552.090519428 -37568225.172152042 0 0 0 0 20486586.32547617 -11115553.753805161 0 -11115553.753805161 -40700353.684646666 0 0 0 0 5939587.7644814355 -2416622.3906992758 0 -2416622.3906992758 -17120143.43027408 0 0 0 0 -19061756.907464027 17284830.741718292 0 17284830.741718292 -21747659.077336311 0 0 0 0 8396917.8240978718 12992598.486854553 0 12992598.486854553 -11942723.636367798 0 0 0 0 -19280038.069572449 -18367360.046144485 0 -18367360.046144485 4036620.8002700806 0 0 0 0 404590.64337700675 1583273.6580924857 0 1583273.6580924857 -4324972.9689489566 0 0 0 0 20705739.666471958 -15005590.00201416 0 -15005590.00201416 5060052.2932052612 0 0 0 0 4184705.0331043382 -3378795.918223423 0 -3378795.918223423 -28128407.522980016 0 0 0 0 49816598.509997845 23386933.77154541 0 23386933.77154541 -45640634.846710205 0 0 0 0 9748747.2206274271 2242126.8821524382 0 2242126.8821524382 -21748458.497711182 0 0 0 0 24109893.606905222 -7450093.1427688599 0 -7450093.1427688599 -41775577.556594849 0 0 0 0 24983865.944225296 12262684.578027248 0 12262684.578027248 -27537329.471000671 0 0 0 0 7594236.7471599579 2055374.9554519653 0 2055374.9554519653 -28506958.875456333 0 0 0 0 7649698.9686849117 -2189833.8960790634 0 -2189833.8960790634 -29057662.552505493 0 0 0 0 11468621.408462286 6032605.0995616913 0 6032605.0995616913 -31794628.605354309 0 0 0 0 13078802.114751816 -1703589.0744724274 0 -1703589.0744724274 -27964424.089673996 0 0 0 0 8718583.4350763187 -1088346.9936939012 0 -1088346.9936939012 -24718427.627824537 0 0 0 0 9196603.6991109848 2098614.973236084 0 2098614.973236084 -21631970.702661514 0 0 0 0 7203220.6261726618 -1653333.1045484543 0 -1653333.1045484543 -22344226.304988861 0 0 0 0 14723513.331522942 523779.02364182472 0 523779.02364182472 -17163914.63177681 0 0 0 0 -493891.86668115854 27395790.849983245 0 27395790.849983245 -25356543.011732101 0 0 0 0 8559332.6414608955 14864538.069354057 0 14864538.069354057 -14630395.019269943 0 0 0 0 5718867.4766011238 245465.9488735199 0 245465.9488735199 -7623554.916097641 0 0 0 0 -604185.74917888641 -7572098.0407333374 0 -7572098.0407333374 -11356388.781425476 0 0 0 0 -104261.25170474809 876378.9400204703 0 876378.9400204703 -58378.180957021192 0 0 0 0 4190771.8855154514 27008924.343082428 0 27008924.343082428 -71099765.677722931 0 0 0 0 144502.52768564437 734876.8174636662 0 734876.8174636662 -855561.98884460703 0 0 0 0 -33310735.88407135 42744115.390579224 0 42744115.390579224 -26819433.268829346 0 0 0 0 4338002.3671138752 -1486401.6950340886 0 -1486401.6950340886 -20156258.085696757 0 0 0 0 25105255.022936344 -4226033.6767177582 0 -4226033.6767177582 -26349647.354890823 0 0 0 0 17337372.957273483 -12857327.039892197 0 -12857327.039892197 -35910282.928870201 0 0 0 0 8858253.1607913971 -5222534.7333831787 0 -5222534.7333831787 -16607831.712240577 0 0 0 0 1010013.345051527 -12822252.578634262 0 -12822252.578634262 -16223232.346359253 0 0 0 0 11534401.076858521 -3771063.4894351959 0 -3771063.4894351959 -10160167.16061306 0 0 0 0 13023803.503212452 125686.6984872818 0 125686.6984872818 -13089246.518817902 0 0 0 0 11153400.986221373 923818.21146965027 0 923818.21146965027 -5181148.4795017242 0 0 0 0 11188297.031383991 -1951814.6468372345 0 -1951814.6468372345 -15076082.427347183 0 0 0 0 6807065.327244428 -5012265.1844390761 0 -5012265.1844390761 -14098681.545435041 0 0 0 0 7803195.9848985597 1522783.743642807 0 1522783.743642807 -11499310.667041779 0 0 0 0 15462562.981336117 -1066128.3925743103 0 -1066128.3925743103 -4418530.3910064697 0 0 0 0 4003758.8062182781 -1058511.2947007183 0 -1058511.2947007183 -7101152.3290063934 0 0 0 0 -1411098.3545111201 7255999.2198024495 0 7255999.2198024495 -399067.79075838998 0 0 0 0 8270873.5415963177 -6761411.279128042 0 -6761411.279128042 -14944083.872437252 0 0 0 0 28197089.128757477 9603557.3240089417 0 9603557.3240089417 -26025232.603643537 0 0 0 0 4031055.159464112 4754697.3730534986 0 4754697.3730534986 -16695359.134240368 0 0 0 0 37495417.692594528 11944076.141936302 0 11944076.141936302 -25696402.965786695 0 0 0 0 1145869.5125154015 8030969.7349345051 0 8030969.7349345051 -17469333.946200896 0 0 0 0 38928853.404004097 13258761.856979609 0 13258761.856979609 -34662439.987855911 0 0 0 0 84805299.74341774 44900892.51885128 0 44900892.51885128 -17400526.193354607 0 0 0 0 57847293.564311028 6904237.2604417801 0 6904237.2604417801 -34515958.893456459 0 0 0 0 36127399.149045944 306000.72021484375 0 306000.72021484375 -33438645.628232002 0 0 0 0 28851629.978142738 -11765956.875336647 0 -11765956.875336647 -37779915.892516136 0 0 0 0 58949683.602785408 -14676832.104233354 0 -14676832.104233354 -56170554.741191864 0 0 0 0 -23535734.503594398 -1859759.499270916 0 -1859759.499270916 -21568405.113212585 0 0 0 0 7965316.8143224716 -36662902.863409042 0 -36662902.863409042 -48092716.275872707 0 0 0 0 43982929.229501724 -23177649.056824684 0 -23177649.056824684 -59299618.99250555 0 0 0 0 -65766630.99120307 -86500428.858742952 0 -86500428.858742952 -77009493.383123398 0 0 0 0 42465482.052179337 -13324454.076938629 0 -13324454.076938629 -50134141.230933666 0 0 0 0 85667179.209997177 -12872442.374820709 0 -12872442.374820709 -77458511.353366852 0 0 0 0 160964989.7553215 41117313.711806297 0 41117313.711806297 -64173189.594438553 0 0 0 0 70629259.725449085 26842055.768018246 0 26842055.768018246 12413219.587217331 0 0 0 0 91593885.385809898 25915069.282688618 0 25915069.282688618 -180686158.94474506 0 0 0 0 -96800030.189100266 41713893.265099406 0 41713893.265099406 -9960343.8547782898 0 0 0 0 90522067.019795418 17834777.153248787 0 17834777.153248787 -30535396.20207119 0 0 0 0 49923688.916207314 86865809.488630295 0 86865809.488630295 86686867.807836115 0 0 0 0 158782527.94311094 98425627.36212945 0 98425627.36212945 -35500000.052714348 0 0 0 0 -16371892.207715988 -23979748.477848291 0 -23979748.477848291 -32347748.033331871 0 0 0 0 171478023.84016609 74285535.064796925 0 74285535.064796925 3389496.9134540558 0 0 0 0 -2728428.4911808036 1867914.7299268437 0 1867914.7299268437 -8564599.2291415911 0 0 0 0 -16234932.518687725 -19296547.891436338 0 -19296547.891436338 -32767034.470200539 0 0 0 0 5787692.623216629 177437.74633312225 0 177437.74633312225 -12315237.809697151 0 0 0 0 489388.23594872653 -1793160.9646215285 0 -1793160.9646215285 -11027566.642072123 0 0 0 0 -513827.38144137198 6445850.5256166067 0 6445850.5256166067 -10943315.382761175 0 0 0 0 -1028669.6174402237 -14481269.243449092 0 -14481269.243449092 -35220692.753928661 0 0 0 0 58891079.676578522 46131912.333032608 0 46131912.333032608 -15477246.486938477 0 0 0 0 117318867.88798809 120346229.4443152 0 120346229.4443152 78662936.236570358 0 0 0 0 480949.00900822133 735912.15436107479 0 735912.15436107479 -2068641.9016958938 0 0 0 0 -19638452.933037758 52957791.488040924 0 52957791.488040924 38662355.611671448 0 0 0 0 61378792.677747726 18711936.724304199 0 18711936.724304199 -91387272.405693054 0 0 0 0 -34060124.049468994 -23399809.841178894 0 -23399809.841178894 167831410.4985733 0 0 0 0 -36998181.867321968 -8720241.8863830566 0 -8720241.8863830566 91608134.258827209 0 0 0 0 41013441.374051094 -51928273.319385529 0 -51928273.319385529 -116017480.6423111 0 0 0 0 -28876453.114034653 -82081690.220832825 0 -82081690.220832825 -1560529.459197998 0 0 0 0 23208788.564562798 26435810.174987793 0 26435810.174987793 -46765290.490592957 0 0 0 0 2100886.914474614 753175.97607417032 0 753175.97607417032 -2244118.0962474868 0 0 0 0 94548895.903182983 12205656.033088684 0 12205656.033088684 -89665099.314713478 0 0 0 0 632225.1162829008 485446.90771207213 0 485446.90771207213 -674818.18823610479 0 0 0 0 -38788432.082989693 70869331.077636719 0 70869331.077636719 -74049743.868721008 0 0 0 0 -205088703.2452774 76293529.310424805 0 76293529.310424805 52825029.600013733 0 0 0 0 23874774.934272766 -94438859.897529602 0 -94438859.897529602 -132137341.36410522 0 0 0 0 -58216413.279344559 -120493334.57646942 0 -120493334.57646942 -91090026.879730225 0 0 0 0 691270.25748887332 927960.45796703175 0 927960.45796703175 412641.92911764979 0 0 0 0 108694777.24120522 -137298931.79959869 0 -137298931.79959869 -85919824.522060394 0 0 0 0 144715405.59393311 80034403.393096924 0 80034403.393096924 -171993686.69610596 0 0 0 0 8013046.2237042878 510767.66298988461 0 510767.66298988461 -11795065.061580637 0 0 0 0 -40234776.498066187 1166130.0494356155 0 1166130.0494356155 67809581.51121521 0 0 0 0 111140632.25772667 27641504.109062195 0 27641504.109062195 -5857868.1195983887 0 0 0 0 -52162300.825178146 7504696.0207977295 0 7504696.0207977295 -7982380.7725715637 0 0 0 0 66766871.133546829 -110910067.52802277 0 -110910067.52802277 27652736.001571655 0 0 0 0 90398639.917516708 -74042986.926683426 0 -74042986.926683426 -146170897.86802673 0 0 0 0 -37819081.298596382 -39869045.780437469 0 -39869045.780437469 -11575121.374237061 0 0 0 0 -2064151.5235137939 14279627.372505188 0 14279627.372505188 -72154596.436805725 0 0 0 0 2483067.6402313095 -12952172.175334506 0 -12952172.175334506 -49882.917441463098 0 0 0 0 -100490.48909378052 -56699723.156166077 0 -56699723.156166077 -33044855.480010986 0 0 0 0 420887.03754806519 -55303686.023643494 0 -55303686.023643494 -73749547.143600464 0 0 0 0 6195960.7634233907 -12128387.866335914 0 -12128387.866335914 866359.13479166478 0 0 0 0 18090917.553279877 -65605566.515880585 0 -65605566.515880585 -99562890.590492249 0 0 0 0 54461458.464170456 -7673822.2278785706 0 -7673822.2278785706 -126940484.63090515 0 0 0 0 -5335975.6746225357 -40043161.041400909 0 -40043161.041400909 -74638035.664352417 0 0 0 0 9135324.2537411079 -12216684.343068033 0 -12216684.343068033 -85830.594848576933 0 0 0 0 55247033.930027008 -38070950.114700317 0 -38070950.114700317 -77341273.046844482 0 0 0 0 45279424.125494003 -22628563.872680664 0 -22628563.872680664 -65585726.651290894 0 0 0 0 92349605.130783081 -52790298.457893372 0 -52790298.457893372 -67585025.813476562 0 0 0 0 69294208.714660645 -13179758.781478882 0 -13179758.781478882 -76475065.497009277 0 0 0 0 71058853.209890842 -26068332.522997856 0 -26068332.522997856 -28003621.065948486 0 0 0 0 75663464.093334198 -63484844.384147644 0 -63484844.384147644 -16074515.567659378 0 0 0 0 91868124.000720978 -45952681.815063477 0 -45952681.815063477 -88082651.734893799 0 0 0 0 -62469290.963176727 67924289.340019226 0 67924289.340019226 -54951003.231719971 0 0 0 0 -59663988.052650928 32235822.551199913 0 32235822.551199913 -30430806.037139893 0 0 0 0 -8338.8310416620225 1407326.4414425679 0 1407326.4414425679 -3069172.9520224258 0 0 0 0 -14489028.337757111 -8625362.4388961792 0 -8625362.4388961792 -62312596.744812012 0 0 0 0 -27627994.403354645 94043696.500637054 0 94043696.500637054 -147990841.19812012 0 0 0 0 2014682.5957069397 27398258.265808105 0 27398258.265808105 -101111349.24550629 0 0 0 0 21801074.169487 -12591246.659545898 0 -12591246.659545898 -164828668.53682137 0 0 0 0 31032206.858081818 -29183669.856399536 0 -29183669.856399536 -136001302.87159729 0 0 0 0 3457445.2388219833 -612392.49500274658 0 -612392.49500274658 -23757290.646461487 0 0 0 0 6446779.552746865 -549060.0447505787 0 -549060.0447505787 -15493319.621422827 0 0 0 0 19546302.450166702 963458.80123138428 0 963458.80123138428 -6303149.8323850632 0 0 0 0 71187909.41872406 17491991.200469971 0 17491991.200469971 -67017351.005493164 0 0 0 0 6377172.5494124154 -5956863.2407648405 0 -5956863.2407648405 -18222627.34893322 0 0 0 0 2110287.5966949463 -6689762.2053985596 0 -6689762.2053985596 -46142595.912471771 0 0 0 0 65282151.005199432 10662965.089828491 0 10662965.089828491 -66731323.723846436 0 0 0 0 62478877.87197113 -29715972.395179749 0 -29715972.395179749 -64176372.033554077 0 0 0 0 22953746.19643116 -4563122.8645057678 0 -4563122.8645057678 -8100804.4456329346 0 0 0 0 6295569.5798576642 9836158.6599149164 0 9836158.6599149164 -23091562.738858938 0 0 0 0 23529335.667620659 -1311276.0030059814 0 -1311276.0030059814 517728.05261993408 0 0 0 0 26235080.323234558 -6530536.3945465088 0 -6530536.3945465088 -57117524.473720551 0 0 0 0 50444984.110671997 29517902.853652954 0 29517902.853652954 -33463749.711303711 0 0 0 0 3161969.9387054443 39068334.385452271 0 39068334.385452271 -72603368.977874756 0 0 0 0 13805575.523391724 3298756.8309173584 0 3298756.8309173584 -51041810.210662842 0 0 0 0 21353298.103338242 -16092247.210514069 0 -16092247.210514069 -17522388.784667969 0 0 0 0 8382539.7908985373 9914.182621512562 0 9914.182621512562 -24402251.013992473 0 0 0 0 7797362.6734198146 2963506.5471170582 0 2963506.5471170582 -30786524.40658316 0 0 0 0 7351234.9680302758 -488866.06728655053 0 -488866.06728655053 -16652984.812783357 0 0 0 0 6023040.8035618067 5279460.9327716827 0 5279460.9327716827 -21782937.417098999 0 0 0 0 43386833.211836815 17469963.592533112 0 17469963.592533112 -33467481.903869629 0 0 0 0 19501472.063250065 12107030.808620453 0 12107030.808620453 -3678211.3233642578 0 0 0 0 254014.25113463565 -1194003.0030593476 0 -1194003.0030593476 264002.99973870814 0 0 0 0 -22614796.513652802 18070172.378196716 0 18070172.378196716 -19537591.6667099 0 0 0 0 186820.01324195601 479303.44693295658 0 479303.44693295658 -485559.55781621486 0 0 0 0 -87112620.979548454 -31623083.298697472 0 -31623083.298697472 -35467114.614624023 0 0 0 0 5801825.8489788473 98461.883275475353 0 98461.883275475353 -9257288.9791332912 0 0 0 0 -109625608.12634277 1604238.8451538086 0 1604238.8451538086 -20909888.223922729 0 0 0 0 5025206.0857729912 -6921792.2640075684 0 -6921792.2640075684 -33192518.44183445 0 0 0 0 86794251.9147892 -74082687.104858398 0 -74082687.104858398 -44658009.534194946 0 0 0 0 -2150026.7939825282 -6581990.1848773956 0 -6581990.1848773956 -26541358.50680542 0 0 0 0 22757119.617066383 43481437.04101944 0 43481437.04101944 -47286580.54208374 0 0 0 0 8128803.2104605269 -1861554.1923445165 0 -1861554.1923445165 -27131907.318603516 0 0 0 0 3668196.3200904364 -3825768.8565518358 0 -3825768.8565518358 -16976627.125734184 0 0 0 0 27530292.161481857 28773156.22819519 0 28773156.22819519 -48460191.314956665 0 0 0 0 -34360479.007596016 -41247441.636604309 0 -41247441.636604309 19793576.819595337 0 0 0 0 22647721.407325745 -3836548.2729454041 0 -3836548.2729454041 -61978105.271194458 0 0 0 0 12512147.083294965 -10083001.940465968 0 -10083001.940465968 -4718978.6093201693 0 0 0 0 37231114.09828949 -43120214.703414917 0 -43120214.703414917 -65010325.290370941 0 0 0 0 54152212.036312103 17931836.813232422 0 17931836.813232422 -15279190.231578827 0 0 0 0 -8811615.7518844604 -53077297.849487305 0 -53077297.849487305 -31984635.880783081 0 0 0 0 3868877.4461620972 480670.28551667184 0 480670.28551667184 -4719090.6463896241 0 0 0 0 17392765.169294834 -7747244.5910835266 0 -7747244.5910835266 -67924279.900367737 0 0 0 0 -24172496.698106766 -9069244.3243408203 0 -9069244.3243408203 44103305.494804382 0 0 0 0 -1829651.3562993109 613572.64450836182 0 613572.64450836182 -45927618.74596405 0 0 0 0 4630832.7065421939 -10426199.827594757 0 -10426199.827594757 -43431787.16293335 0 0 0 0 14371467.366500854 -15034951.006744385 0 -15034951.006744385 -57781718.107810974 0 0 0 0 16232574.859279633 14995918.758674622 0 14995918.758674622 -59829793.631225586 0 0 0 0 2145650.1261511482 -19322805.754653931 0 -19322805.754653931 1825553.5788192749 0 0 0 0 40240790.085192665 -22785022.630447865 0 -22785022.630447865 -42173468.50302124 0 0 0 0 -48260.37159217149 -8165826.811756134 0 -8165826.811756134 -23802654.103497505 0 0 0 0 2576725.2715642601 -14414442.615470886 0 -14414442.615470886 -23890661.498397827 0 0 0 0 25058345.231657505 -12520626.001443863 0 -12520626.001443863 -20891715.235450745 0 0 0 0 19016478.434267282 -1357774.6976127625 0 -1357774.6976127625 -39621299.580015182 0 0 0 0 413707.14754651603 571283.89182604477 0 571283.89182604477 -2557440.0859384891 0 0 0 0 30504543.315474033 -14812914.862297058 0 -14812914.862297058 -40845612.014480591 0 0 0 0 2547613.2580699921 -10267918.370307922 0 -10267918.370307922 -18096279.975841522 0 0 0 0 5869221.7867949605 29264183.46679306 0 29264183.46679306 -33695834.958360672 0 0 0 0 1774289.1939844105 1293208.5134691522 0 1293208.5134691522 -3476572.7213733234 0 0 0 0 -667332.2933011353 -12314623.632004261 0 -12314623.632004261 -19161980.060043335 0 0 0 0 1488923.044875145 -8057277.4149551392 0 -8057277.4149551392 -16731480.605724335 0 0 0 0 1497703.2552599907 -7279190.4988021851 0 -7279190.4988021851 -27179033.873626709 0 0 0 0 3464977.4345664978 2455341.9265441895 0 2455341.9265441895 -29295915.983779907 0 0 0 0 -204252.70943212509 -9723531.9618110657 0 -9723531.9618110657 -15773993.980506897 0 0 0 0 713506.53588246321 348004.55757110938 0 348004.55757110938 -8324862.8546729498 0 0 0 0 2815789.2018071231 -4111686.2418364412 0 -4111686.2418364412 -16632605.554304965 0 0 0 0 14082660.426712846 -1519799.7880499363 0 -1519799.7880499363 -16376036.6640625 0 0 0 0 -34737838.818473816 6066933.1718215942 0 6066933.1718215942 53642513.838592529 0 0 0 0 1240596.0534853016 606434.78051353991 0 606434.78051353991 -5729193.1890950184 0 0 0 0 1881064.8426485211 -1630519.2945165634 0 -1630519.2945165634 -909179.04907226562 0 0 0 0 882800.5205155937 -2423586.2712618411 0 -2423586.2712618411 -7214245.189312607 0 0 0 0 1086179.4075112592 -3472294.6684765378 0 -3472294.6684765378 -9444639.4324177578 0 0 0 0 1599486.6644285088 977552.63062090799 0 977552.63062090799 -13706562.670343278 0 0 0 0 33469087.236341715 -33475740.412574768 0 -33475740.412574768 38998070.657913208 0 0 0 0 3888673.5128170252 -7352078.893863678 0 -7352078.893863678 -22618247.503671646 0 0 0 0 24474827.466098309 -61565994.526050568 0 -61565994.526050568 -141620944.74864197 0 0 0 0 -27280.993174832416 -2514631.0141911842 0 -2514631.0141911842 147314.39939312637 0 0 0 0 -45222118.557161808 51346166.691627502 0 51346166.691627502 82882474.851745605 0 0 0 0 166164976.82216382 -211078455.28075409 0 -211078455.28075409 -249029146.42327881 0 0 0 0 25062858.054301739 26400405.981628418 0 26400405.981628418 -15535886.493278503 0 0 0 0 42784218.571749806 21007152.975540161 0 21007152.975540161 -7943109.2638702393 0 0 0 0 35532057.624412775 -6672931.7622375488 0 -6672931.7622375488 -18136163.804328918 0 0 0 0 -523380.2260327551 -5179218.8346512932 0 -5179218.8346512932 -12693132.551719066 0 0 0 0 7322731.3298577666 -15846886.249148905 0 -15846886.249148905 -15288072.248847961 0 0 0 0 16840087.391972542 -9507605.5587501526 0 -9507605.5587501526 -18083193.526524663 0 0 0 0 16978747.899187922 3614776.8942451477 0 3614776.8942451477 -21270139.374298096 0 0 0 0 17704587.469727755 6087492.2443389893 0 6087492.2443389893 -17832160.082878113 0 0 0 0 18547876.366865635 4768573.2658996582 0 4768573.2658996582 -16962331.945083618 0 0 0 0 328758.91904002428 3230051.0635433197 0 3230051.0635433197 -19021043.773460388 0 0 0 0 13836732.369510412 -4173595.5360088348 0 -4173595.5360088348 -23754244.140144348 0 0 0 0 8741675.1971583366 -5785571.2752380371 0 -5785571.2752380371 -9871433.8748016357 0 0 0 0 14228189.212682009 -1925393.3356437683 0 -1925393.3356437683 -9716716.8555192947 0 0 0 0 -2042069.666053772 -10380236.655143738 0 -10380236.655143738 -10042589.639022827 0 0 0 0 36076863.057561874 -5592854.325340271 0 -5592854.325340271 -25931478.216873169 0 0 0 0 28418256.223075867 6757097.6847229004 0 6757097.6847229004 -12398655.428512573 0 0 0 0 1056583.5743285473 166317.38220065832 0 166317.38220065832 -1020116.6601034179 0 0 0 0 -41167085.612318039 -38850116.039150238 0 -38850116.039150238 -26514561.86138916 0 0 0 0 -29486023.594738007 -50037964.817687988 0 -50037964.817687988 -43379633.486772537 0 0 0 0 13209614.051494598 -9120094.7821884155 0 -9120094.7821884155 -17410476.60597229 0 0 0 0 10676005.385778427 -211292.53275299072 0 -211292.53275299072 -11253480.779006958 0 0 0 0 -2077744.3128147125 -3767548.6620178223 0 -3767548.6620178223 -9757080.8853302002 0 0 0 0 24415427.879499435 -8660315.4353179932 0 -8660315.4353179932 -19695452.49848175 0 0 0 0 6797768.9871369209 -3715027.2632819898 0 -3715027.2632819898 -12435877.92046646 0 0 0 0 25523148.326328278 -5029465.6450805664 0 -5029465.6450805664 -18951239.834213257 0 0 0 0 -10373828.755757332 -28862553.19235611 0 -28862553.19235611 -16174308.919242859 0 0 0 0 7614751.3730143346 -2492862.5110078249 0 -2492862.5110078249 -11069090.515708968 0 0 0 0 21171972.007118225 14344578.739299774 0 14344578.739299774 -17645103.355244815 0 0 0 0 19854199.66810739 12615865.533317566 0 12615865.533317566 3694751.7121429443 0 0 0 0 -371749.02702910593 -606735.09662993252 0 -606735.09662993252 -710102.0185895972 0 0 0 0 -25101782.730982542 -23274400.580949783 0 -23274400.580949783 -74612727.858276367 0 0 0 0 -7808013.3058719635 -33317508.878791809 0 -33317508.878791809 -86417116.837291718 0 0 0 0 -12244350.937768936 -8818341.523273468 0 -8818341.523273468 -12192087.779876709 0 0 0 0 14824861.575654984 5722080.453994751 0 5722080.453994751 -45946994.369758606 0 0 0 0 37527098.481953532 12373590.444585323 0 12373590.444585323 -45699527.276473999 0 0 0 0 3128925.3122793389 892059.06999839842 0 892059.06999839842 -1061351.9396651909 0 0 0 0 7458804.3114182949 2074278.3330764771 0 2074278.3330764771 -38076971.249290466 0 0 0 0 11363468.267532349 6804394.4260864258 0 6804394.4260864258 1748137.5538024902 0 0 0 0 8657731.47328116 626575.05650113896 0 626575.05650113896 -11126477.162476134 0 0 0 0 10063244.572904587 3043071.2736282349 0 3043071.2736282349 9183.2366485595703 0 0 0 0 1356208.3487246092 217469.37483173236 0 217469.37483173236 -784744.65516971052 0 0 0 0 -3440728.1613302231 -19821725.927150726 0 -19821725.927150726 -41331595.557617188 0 0 0 0 1055405.529468406 183084.34846150503 0 183084.34846150503 -1038166.2852552831 0 0 0 0 -19469275.475815296 -40493854.845470428 0 -40493854.845470428 -35526182.686767578 0 0 0 0 31480906.613298416 15763178.089599609 0 15763178.089599609 -21076512.408706665 0 0 0 0 22319657.103923798 67062482.121810913 0 67062482.121810913 -32537978.781723022 0 0 0 0 15053714.185090065 -18908942.163890839 0 -18908942.163890839 -72328406.987388611 0 0 0 0 127225435.46297455 -62161613.476554871 0 -62161613.476554871 -56550840.688041687 0 0 0 0 50923756.442440152 58990703.635707855 0 58990703.635707855 -72411729.030090332 0 0 0 0 1796036.722200538 286904.75153011084 0 286904.75153011084 -1743377.6789162531 0 0 0 0 35177667.412338257 -60344041.68548584 0 -60344041.68548584 -42171251.969161987 0 0 0 0 -5411266.7313401699 -16648476.140872002 0 -16648476.140872002 -41975140.783355713 0 0 0 0 6563302.6440997124 -41560984.740856171 0 -41560984.740856171 19183790.197402954 0 0 0 0 -12857925.963922501 -5249365.6013183594 0 -5249365.6013183594 -48470390.437113762 0 0 0 0 1134640.9416595111 -17396.037148263305 0 -17396.037148263305 -1933455.8238972351 0 0 0 0 -29819197.614706039 6558600.890296936 0 6558600.890296936 -81010286.295532227 0 0 0 0 93857353.465930462 -125299677.54347229 0 -125299677.54347229 -288280499.37863159 0 0 0 0 -357714023.18984985 -173895692.12660217 0 -173895692.12660217 -160993655.63558197 0 0 0 0 -860668567.68056011 -345446617.68702316 0 -345446617.68702316 100992413.20598221 0 0 0 0 -459809759.06264949 -757544079.52997208 0 -757544079.52997208 -707613345.4329834 0 0 0 0 -47780055.577776909 -98987347.496292114 0 -98987347.496292114 -246725448.22958374 0 0 0 0 -19174230.463983536 -11525127.33430481 0 -11525127.33430481 33344642.506095886 0 0 0 0 -12471957.262719154 -81518080.596372604 0 -81518080.596372604 4269564.8778076172 0 0 0 0 -29336309.839389801 -136927136.82711029 0 -136927136.82711029 -168799556.50717163 0 0 0 0 44725556.546463013 -82876673.229888916 0 -82876673.229888916 -220891454.84036255 0 0 0 0 2290183.196738434 -1113932.60878966 0 -1113932.60878966 -5162808.9479457662 0 0 0 0 -25968552.640953064 -27596728.234268188 0 -27596728.234268188 -25752471.320434093 0 0 0 0 -144104232.09942245 -24864906.362472534 0 -24864906.362472534 -78523910.872299194 0 0 0 0 45504269.843648314 -71602368.792330742 0 -71602368.792330742 -180131273.26322937 0 0 0 0 10066972.352310181 -221667003.33847046 0 -221667003.33847046 -227159166.29763031 0 0 0 0 4292900.6282424927 -20294889.445053101 0 -20294889.445053101 -42459422.266619205 0 0 0 0 2612877.6912723435 -3693894.4796421044 0 -3693894.4796421044 -9330270.3731912896 0 0 0 0 1836742.0900688171 -14037698.934204102 0 -14037698.934204102 -32785866.899658203 0 0 0 0 18781436.51720047 -10967578.453414917 0 -10967578.453414917 -41893697.393630981 0 0 0 0 16965705.203524113 -3588249.2242603302 0 -3588249.2242603302 -30677167.870544434 0 0 0 0 -6626228.8310470581 -36398731.139076233 0 -36398731.139076233 -42332621.154864311 0 0 0 0 18574979.754823208 -8757753.7043628693 0 -8757753.7043628693 -39073371.242675781 0 0 0 0 -17585359.060760498 -29516894.296142578 0 -29516894.296142578 -71577439.66595459 0 0 0 0 -35050124.055328369 -64473732.713928223 0 -64473732.713928223 -91630626.163651019 0 0 0 0 -6706887.2095603943 -24841629.696395874 0 -24841629.696395874 -91679472.657073975 0 0 0 0 51061284.815824509 -92147250.51789093 0 -92147250.51789093 -177403696.8347168 0 0 0 0 -137998923.55950546 -103172045.8702774 0 -103172045.8702774 -72573573.37902832 0 0 0 0 -64279757.164722443 -56088901.255264282 0 -56088901.255264282 -59082385.634277344 0 0 0 0 -125911098.20624161 -36143827.166374207 0 -36143827.166374207 -26522361.85899353 0 0 0 0 -59794257.632463455 -68928832.669437408 0 -68928832.669437408 -67282479.702758789 0 0 0 0 -48310596.679969788 -56090225.479202271 0 -56090225.479202271 -54212333.683380127 0 0 0 0 -19440550.052093506 -48654973.579971313 0 -48654973.579971313 -76035209.280761719 0 0 0 0 -266934.14228338352 -2091034.8247351446 0 -2091034.8247351446 -1047146.6273795292 0 0 0 0 43009210.988463402 -14098258.062320709 0 -14098258.062320709 -28593134.434814453 0 0 0 0 -225042883.79517937 -193194776.12020111 0 -193194776.12020111 -65716185.792633057 0 0 0 0 32358616.714982986 -64238086.739723206 0 -64238086.739723206 -179858020.66682315 0 0 0 0 -171893629.29081726 -60994504.605072021 0 -60994504.605072021 -25392311.470550537 0 0 0 0 -4848229.768579483 -17087371.561103821 0 -17087371.561103821 -8774222.3224411011 0 0 0 0 -1315571.3691421947 -5718500.6670754859 0 -5718500.6670754859 -2907201.2414694726 0 0 0 0 -18414511.220311642 -14249600.077012062 0 -14249600.077012062 5588614.6518249512 0 0 0 0 1065562.0879797619 -2794696.0100666415 0 -2794696.0100666415 -4244006.587231867 0 0 0 0 -34610015.76010704 -27495161.755413055 0 -27495161.755413055 -23778957.383766174 0 0 0 0 -53284501.782769561 -46855774.70232439 0 -46855774.70232439 -29164433.003128052 0 0 0 0 -27741476.933876038 -46370993.106445312 0 -46370993.106445312 -50979822.848056793 0 0 0 0 -52454730.370563507 -18518113.513450623 0 -18518113.513450623 -24525607.156686783 0 0 0 0 -28165468.340343475 -33211791.738174438 0 -33211791.738174438 -24807979.2056427 0 0 0 0 -2689686.3528769808 -4060845.9982254095 0 -4060845.9982254095 -2604082.9051317051 0 0 0 0 -25594655.433328629 -13904247.757457733 0 -13904247.757457733 -6822815.550989151 0 0 0 0 -44140975.957809448 -29843381.604827881 0 -29843381.604827881 -8448025.915512085 0 0 0 0 -17261652.089614868 -11678654.085575104 0 -11678654.085575104 -7124169.1804828644 0 0 0 0 -15547128.043693542 -23807282.969379425 0 -23807282.969379425 -15528183.561042786 0 0 0 0 -1223629019.1434326 -1268354036.8988914 0 -1268354036.8988914 -1119448729.5781085 0 0 0 0 -103162.92446648236 -222921.61423132196 0 -222921.61423132196 -2825042.6670390218 0 0 0 0 -1323174644.4584959 -1073056182.1091967 0 -1073056182.1091967 -961040108.07810974 0 0 0 0 -880893952.32946563 -912349201.63813782 0 -912349201.63813782 -1013421058.575676 0 0 0 0 -21073551.062805176 4913779.8471679688 0 4913779.8471679688 -6728631.5458068848 0 0 0 0 -7980628.6235594749 -10844805.151750565 0 -10844805.151750565 -22875077.154006958 0 0 0 0 -40605352.886236191 -11328750.317832947 0 -11328750.317832947 -4925387.7591247559 0 0 0 0 870854.05077657197 -894391.83790441044 0 -894391.83790441044 -1813274.2982051894 0 0 0 0 -36626428.32957077 -31541313.615921021 0 -31541313.615921021 -28532476.248306274 0 0 0 0 10125101.257984877 -5380027.3205986023 0 -5380027.3205986023 -28697165.954925537 0 0 0 0 10713408.950403094 -3281848.6037979126 0 -3281848.6037979126 -23310411.04750061 0 0 0 0 15222408.837783396 -2809973.1800308228 0 -2809973.1800308228 -25297770.903564453 0 0 0 0 10749006.980169654 1390608.1258277893 0 1390608.1258277893 -20747344.484214783 0 0 0 0 3024308.5381139517 -3770194.2652244568 0 -3770194.2652244568 -18588480.180545807 0 0 0 0 6107069.4127159119 -2857692.6239204407 0 -2857692.6239204407 -24182845.788825989 0 0 0 0 7087080.8852928877 -3068361.5531578064 0 -3068361.5531578064 -28606651.689025879 0 0 0 0 840727.25428152084 -2098280.8666229248 0 -2098280.8666229248 -28722612.305459976 0 0 0 0 -1706677.1449918747 -4914243.3061714172 0 -4914243.3061714172 -25406710.445087433 0 0 0 0 4562280.3728847802 -441339.02255719993 0 -441339.02255719993 -13939324.635436475 0 0 0 0 1064070.8558306694 -6298540.7692565918 0 -6298540.7692565918 -28477827.65512085 0 0 0 0 -99955.866476027935 -635810.58271875232 0 -635810.58271875232 -2108545.2163280305 0 0 0 0 818246.17869800329 -6814586.090883255 0 -6814586.090883255 -24049727.536315918 0 0 0 0 3726033.3970499248 -2785602.0241427775 0 -2785602.0241427775 -14937053.371366173 0 0 0 0 2868252.7390154302 -2841236.836640358 0 -2841236.836640358 -23767642.499084473 0 0 0 0 -2105770.2259502411 -11332289.851570129 0 -11332289.851570129 -24187884.763793945 0 0 0 0 7676912.9417992486 -6350303.8418282159 0 -6350303.8418282159 -15756938.709680647 0 0 0 0 -10412863.288722992 -11689061.537231445 0 -11689061.537231445 -26590680.694627762 0 0 0 0 -9509391.473815918 -15173017.345672607 0 -15173017.345672607 -28721876.111663818 0 0 0 0 -6136204.1787567139 -8531472.3727722168 0 -8531472.3727722168 -26102465.15133667 0 0 0 0 2874164.2087459564 -12962753.945529938 0 -12962753.945529938 -34818097.668395996 0 0 0 0 4039758.3091049194 -1844189.4212493896 0 -1844189.4212493896 -6096907.572052002 0 0 0 0 -3340814.244354248 -42135384.231872559 0 -42135384.231872559 -77963629.437637329 0 0 0 0 -3340814.244354248 -42135384.232025146 0 -42135384.232025146 -77963629.437644958 0 0 0 0 -3340814.2443389893 -42135384.232025146 0 -42135384.232025146 -77963629.437698364 0 0 0 0 4263072.5631907359 -6348875.7716926057 0 -6348875.7716926057 -12883574.455762878 0 0 0 0 -4364129.1172943115 -23210927.788093567 0 -23210927.788093567 -43816318.286895752 0 0 0 0 7402026.378490407 -1846878.4997895099 0 -1846878.4997895099 -13970744.289976329 0 0 0 0 -9722046.2074050903 -35787628.971954346 0 -35787628.971954346 -55648517.886428833 0 0 0 0 4221317.2867584229 -33350716.731887817 0 -33350716.731887817 -69176851.774414062 0 0 0 0 -20816937.948936462 -46277776.967597961 0 -46277776.967597961 -65283905.983062744 0 0 0 0 -30056416.222301483 -38722136.582701683 0 -38722136.582701683 -27813329.52986145 0 0 0 0 -15691898.642414093 -33367945.753723145 0 -33367945.753723145 -36640010.132911682 0 0 0 0 -27555581.28188324 -47140074.629837036 0 -47140074.629837036 -52395146.864376068 0 0 0 0 -21456564.716026306 -26242848.602261543 0 -26242848.602261543 -19040089.870552063 0 0 0 0 -20723471.610668182 -27272164.266899109 0 -27272164.266899109 -23718213.90807724 0 0 0 0 -19636331.327762604 -26995464.153865814 0 -26995464.153865814 -34943804.436914444 0 0 0 0 -169272.65278089046 -8152844.8665390015 0 -8152844.8665390015 -29744322.528343201 0 0 0 0 7154199.4650977692 -5552444.8336759843 0 -5552444.8336759843 -20389561.758063558 0 0 0 0 -15295040.788173676 -29290631.826260567 0 -29290631.826260567 -34153919.787864685 0 0 0 0 -15559564.628177643 -31431080.934631348 0 -31431080.934631348 -46850722.857498169 0 0 0 0 2512900.946138382 -13184745.429151535 0 -13184745.429151535 -23985649.202545166 0 0 0 0 2024067.8052953482 -14843595.790618896 0 -14843595.790618896 -29108859.62651062 0 0 0 0 7244862.3715028763 -6966744.6488075256 0 -6966744.6488075256 -37464597.13923645 0 0 0 0 7979916.6746362448 -4186129.6205568314 0 -4186129.6205568314 -26953962.372146606 0 0 0 0 7853363.8019551039 -5721655.5775718689 0 -5721655.5775718689 -16564860.289962769 0 0 0 0 6048356.1348882914 -6312904.7335777283 0 -6312904.7335777283 -16125042.823194504 0 0 0 0 6158035.6147651672 -8437274.0947303772 0 -8437274.0947303772 -21689212.315494537 0 0 0 0 31009319.158504844 -7236270.194858551 0 -7236270.194858551 -33363398.745578766 0 0 0 0 -2783336.5529569043 -4905060.5343996026 0 -4905060.5343996026 -9627051.9864127785 0 0 0 0 -556674.86162241548 59082898.629016638 0 59082898.629016638 55277300.217319489 0 0 0 0 5968473.5683255196 -8090686.9760971069 0 -8090686.9760971069 -13439745.996253967 0 0 0 0 393958.1747521162 -22817969.66214788 0 -22817969.66214788 -17236214.045238495 0 0 0 0 1928508.930467007 -5455443.543749528 0 -5455443.543749528 -15195602.013933362 0 0 0 0 -23049334.155790329 -24407810.735363007 0 -24407810.735363007 -22302953.107940674 0 0 0 0 5545590.3401866984 -10039527.678277329 0 -10039527.678277329 -19615100.797552053 0 0 0 0 -12703075.261065181 -13483860.185885927 0 -13483860.185885927 -10864423.532680115 0 0 0 0 -12322048.033144185 -42447245.188781738 0 -42447245.188781738 5851720.1613693237 0 0 0 0 -19776388.172016144 -23151196.947143555 0 -23151196.947143555 -23505427.207450867 0 0 0 0 -17930491.884151459 -16465782.217052937 0 -16465782.217052937 -16209733.598526001 0 0 0 0 -4428244.9956930988 -5270146.6898257378 0 -5270146.6898257378 -5900171.1336104572 0 0 0 0 19885573.198812008 14780910.821424484 0 14780910.821424484 12519972.011623383 0 0 0 0 -5062298.5035610199 -5135554.5944652557 0 -5135554.5944652557 -7767914.9337387085 0 0 0 0 -2966670.6060962677 -7658715.4716415405 0 -7658715.4716415405 -12009770.752052307 0 0 0 0 -9374137.5151403751 -4284231.7669792883 0 -4284231.7669792883 -667079.75899545569 0 0 0 0 -490878.19327906513 743130.34225026518 0 743130.34225026518 677839.34527528286 0 0 0 0 125537799.95965192 -251297370.24973488 0 -251297370.24973488 -2233608600.3011627 0 0 0 0 -447129206.92554784 -15122967.184474945 0 -15122967.184474945 1217794625.8252449 0 0 0 0 -190622662.70611477 -183322906.74419403 0 -183322906.74419403 -2229635168.4993515 0 0 0 0 -732492637.38361168 -1190683182.2667618 0 -1190683182.2667618 -3465815678.5597343 0 0 0 0 88456704.199565947 -1105305561.4120464 0 -1105305561.4120464 -3880694973.5670891 0 0 0 0 479718977.68732357 -1224764446.8394718 0 -1224764446.8394718 -5027221054.1404419 0 0 0 0 -345677044.58038944 -1287758491.4362144 0 -1287758491.4362144 -1827340174.5215454 0 0 0 0 -146994981.63628989 265737128.36546421 0 265737128.36546421 -1730815597.4097214 0 0 0 0 -5850283.4397768155 -10817759.48443222 0 -10817759.48443222 -17829528.215355873 0 0 0 0 64318233.791755155 -90125270.266345978 0 -90125270.266345978 9241183.9790039062 0 0 0 0 -3061985.2187646683 -1618460.3355884291 0 -1618460.3355884291 -9077637.7265560292 0 0 0 0 -568715.30958755 -2005718.4603916649 0 -2005718.4603916649 -3071104.9868096951 0 0 0 0 84785124.468779325 -69935322.09709549 0 -69935322.09709549 13457466.550460815 0 0 0 0 75359080.744593292 -116204397.41179371 0 -116204397.41179371 -88259647.492073059 0 0 0 0 -221091687.50893611 -147213132.89032173 0 -147213132.89032173 32576023.570262909 0 0 0 0 294423898.24340868 303726421.63764572 0 303726421.63764572 -144264009.98814011 0 0 0 0 -460729864.98536736 -1773261044.5221543 0 -1773261044.5221543 -3462501058.5104942 0 0 0 0 -1097458.6533791996 -1791280.5955166165 0 -1791280.5955166165 -6936957.0141149499 0 0 0 0 253216706.1623275 680671222.85181427 0 680671222.85181427 -3445077354.9599986 0 0 0 0 -342504474.90936732 -797992850.03877831 0 -797992850.03877831 -1425659168.9403496 0 0 0 0 -316000839.23635656 104831624.38102007 0 104831624.38102007 54994005.533000946 0 0 0 0 -1123742292.7974937 -1266337398.3467216 0 -1266337398.3467216 -1411934336.6257706 0 0 0 0 -1095030932.7285159 -1550372432.1351395 0 -1550372432.1351395 -1663037812.251545 0 0 0 0 -840698225.57441068 -1172107946.6510677 0 -1172107946.6510677 -1283689356.0033417 0 0 0 0 -1183261343.6308656 -1194777147.8510971 0 -1194777147.8510971 -1235099722.5061646 0 0 0 0 -827737347.03075433 -1192063684.1456776 0 -1192063684.1456776 -1549586356.6496429 0 0 0 0 -1201275331.0889025 -1217343589.8477097 0 -1217343589.8477097 -1121698212.6117175 0 0 0 0 -912337335.41934228 -733917361.68277931 0 -733917361.68277931 -782509735.2982254 0 0 0 0 -2000320.9666203763 -1285255.1611932833 0 -1285255.1611932833 -6854248.8203481212 0 0 0 0 -2051260.9853715897 -10188077.137943268 0 -10188077.137943268 -12701480.854888916 0 0 0 0 -1103608.1575022093 -8875809.023089109 0 -8875809.023089109 -9214161.2187340036 0 0 0 0 -2822150.9708414609 -7249306.2835570909 0 -7249306.2835570909 -6590953.5654759333 0 0 0 0 76200.365550441318 -3138654.2300021909 0 -3138654.2300021909 -13606926.049511246 0 0 0 0 -18670575.622171879 -19012743.343330383 0 -19012743.343330383 203611138.0834198 0 0 0 0 -873044699.03870177 -733999726.28026295 0 -733999726.28026295 -793811419.86716461 0 0 0 0 -1720083471.2563348 -1308650025.7114449 0 -1308650025.7114449 -773962916.42855763 0 0 0 0 -1613297148.6652222 -1783935834.1943474 0 -1783935834.1943474 -1519004038.7495174 0 0 0 0 -1738938049.6116118 -2208848098.0529041 0 -2208848098.0529041 -2851126435.9407425 0 0 0 0 -1973319720.0777497 -1892204430.5887756 0 -1892204430.5887756 -2724623476.7019958 0 0 0 0 -4125234647.7321482 -3174845079.9743176 0 -3174845079.9743176 -2606177469.1497879 0 0 0 0 189404636.69390297 496620655.5308876 0 496620655.5308876 -2193144011.6324005 0 0 0 0 -138835.58793225919 -1058962.6864661302 0 -1058962.6864661302 -5071721.6399354599 0 0 0 0 -314891623.86529255 -538362190.58268642 0 -538362190.58268642 464829693.32901764 0 0 0 0 -2917727552.012836 -1558528626.7008018 0 -1558528626.7008018 -451048136.1554203 0 0 0 0 -2018815811.2691929 -2213271060.9416428 0 -2213271060.9416428 -4803823277.4769058 0 0 0 0 -2964604147.0577478 -2293630766.2734604 0 -2293630766.2734604 -3580412586.7129097 0 0 0 0 -2925663058.4715962 -840846136.5057925 0 -840846136.5057925 -4031259069.5389709 0 0 0 0 -2023784458.8425553 -1562935972.5347672 0 -1562935972.5347672 -3464223265.0469322 0 0 0 0 -1029322971.9552135 -1486767360.9182701 0 -1486767360.9182701 -3907177593.6476746 0 0 0 0 -341604589.53045094 -1474342085.9872475 0 -1474342085.9872475 -3466835799.1595802 0 0 0 0 -1011360092.992806 -1329048580.6858664 0 -1329048580.6858664 -2788944438.5933228 0 0 0 0 -675869479.0817529 -1314580211.125576 0 -1314580211.125576 -1867168322.8654518 0 0 0 0 -933457945.73298454 -1843553900.7804031 0 -1843553900.7804031 -2791036108.4806976 0 0 0 0 -537082704.86696529 -1416653021.5017223 0 -1416653021.5017223 -2253172304.9431534 0 0 0 0 49161049.214712203 -870918778.25380707 0 -870918778.25380707 -2544792309.8413124 0 0 0 0 388358335.02576816 -968134811.58006287 0 -968134811.58006287 -3457163631.6318817 0 0 0 0 848198438.57102716 -176240475.91235065 0 -176240475.91235065 -2095396962.1429062 0 0 0 0 351310521.5535152 -951125162.81905746 0 -951125162.81905746 -2212243886.9415913 0 0 0 0 -216114114.82880777 -1046616602.1664505 0 -1046616602.1664505 -1866047801.8060837 0 0 0 0 -222729788.7182754 -939276919.23924637 0 -939276919.23924637 -1812240680.8597412 0 0 0 0 14392392.797260366 -752556451.89910889 0 -752556451.89910889 -1692315433.1247864 0 0 0 0 -498114371.78674668 -942494371.88136673 0 -942494371.88136673 -1374250408.4237442 0 0 0 0 -493103487.59123808 -895607482.51673889 0 -895607482.51673889 -1392612812.6190834 0 0 0 0 285294326.90445042 -271889383.31785583 0 -271889383.31785583 -1885942833.4917812 0 0 0 0 206110608.22922492 -14746576.887149602 0 -14746576.887149602 -1245108333.5011749 0 0 0 0 46899343.972887874 -613689590.22463703 0 -613689590.22463703 -1567803555.9322815 0 0 0 0 -140233919.21933651 -549330897.81376266 0 -549330897.81376266 -1523839863.2268085 0 0 0 0 470225298.6692667 -512982759.7834444 0 -512982759.7834444 -1998037983.0693283 0 0 0 0 172090432.53909636 -460736987.22616196 0 -460736987.22616196 -1933311817.3156204 0 0 0 0 109312546.81040621 -587070419.62743378 0 -587070419.62743378 -1973236096.9389038 0 0 0 0 -384228006.09734774 -455693890.41740417 0 -455693890.41740417 -1898016953.8692169 0 0 0 0 3048685.9273048756 28367.053304184228 0 28367.053304184228 -5263485.3637244664 0 0 0 0 -736970539.72612882 -1784765008.2156525 0 -1784765008.2156525 -3463850957.5952988 0 0 0 0 84664366.786924541 -624264538.3279705 0 -624264538.3279705 -2070491717.6585999 0 0 0 0 82238197.348381042 -589776099.09825516 0 -589776099.09825516 -1706625833.577713 0 0 0 0 516121013.88651407 332544549.97388268 0 332544549.97388268 -673776445.14473724 0 0 0 0 2571636.0712996032 -68359.305570121855 0 -68359.305570121855 -5742879.8384313136 0 0 0 0 75831794.995458633 -852114535.2997818 0 -852114535.2997818 -2393921358.5881844 0 0 0 0 1292446708.8850195 -462538440.30000305 0 -462538440.30000305 -3464305073.035511 0 0 0 0 31036113.389777064 -876682369.11955643 0 -876682369.11955643 -1816218226.6280212 0 0 0 0 629232304.62916946 -548835344.44411659 0 -548835344.44411659 -2149932827.0325432 0 0 0 0 429895237.09647429 -58423221.66250515 0 -58423221.66250515 -3294548162.1889801 0 0 0 0 -80935268.970513105 68463816.432701111 0 68463816.432701111 -2591596022.1331482 0 0 0 0 691460290.54143715 780926405.53784561 0 780926405.53784561 -3632602722.7881317 0 0 0 0 1590933641.1150103 -518555184.59441376 0 -518555184.59441376 -2359209344.0896034 0 0 0 0 770197.80865138886 -897953.20201419666 0 -897953.20201419666 -1802841.2656860892 0 0 0 0 184069361.18948364 -38218260.797698975 0 -38218260.797698975 -1742025033.408802 0 0 0 0 785627224.36120033 149711894.58146667 0 149711894.58146667 -2838480444.7287292 0 0 0 0 1075503478.1619301 -40148542.954071045 0 -40148542.954071045 -2792389032.6912231 0 0 0 0 124005413.78934193 488464297.96762085 0 488464297.96762085 -2075998290.4894562 0 0 0 0 198500707.30661678 142125268.18465424 0 142125268.18465424 -1381910373.7840958 0 0 0 0 -598104675.71081138 725298415.65912628 0 725298415.65912628 -2081344959.064476 0 0 0 0 -487381800.7974205 -1582354387.9756432 0 -1582354387.9756432 -3049080413.5830536 0 0 0 0 350509310.1788125 -1918831680.2423058 0 -1918831680.2423058 -4082753723.3559113 0 0 0 0 1565491.1954749238 -32677.687433227897 0 -32677.687433227897 -2382458.0935698636 0 0 0 0 173452642.26022434 -1281693461.5254898 0 -1281693461.5254898 -3199626392.4781494 0 0 0 0 1648516917.2902269 -719834720.32155609 0 -719834720.32155609 -1872705741.2631836 0 0 0 0 1476466063.078773 789125038.04664612 0 789125038.04664612 -1375552771.3299217 0 0 0 0 1340925252.2230091 -265058442.88282776 0 -265058442.88282776 -3017041399.9398041 0 0 0 0 1267254925.3323879 -15413932.886688232 0 -15413932.886688232 -2508597448.2312927 0 0 0 0 1233482896.827507 -698710166.581604 0 -698710166.581604 -4117428818.1648197 0 0 0 0 1093012964.0232239 -640391169.26419067 0 -640391169.26419067 -3429325008.8913956 0 0 0 0 1255411093.4726834 -186809610.795187 0 -186809610.795187 -3403546565.8350525 0 0 0 0 547026054.21156168 -613027738.54203224 0 -613027738.54203224 -2253108984.3521118 0 0 0 0 638549180.62237072 -869851092.73155594 0 -869851092.73155594 -2926721218.5894165 0 0 0 0 1228728492.9001579 -324227960.47012329 0 -324227960.47012329 -2858389169.2886047 0 0 0 0 834616205.93033981 -409732914.13548279 0 -409732914.13548279 -2798956885.7597275 0 0 0 0 827061206.34398556 -524556405.7333374 0 -524556405.7333374 -2324436100.5444336 0 0 0 0 956582677.53795815 -128310510.94332123 0 -128310510.94332123 -2392394770.789093 0 0 0 0 661404534.17030907 -295451167.84121704 0 -295451167.84121704 -2235590793.9502106 0 0 0 0 649385804.29042244 -390151938.7180481 0 -390151938.7180481 -2350008216.6218719 0 0 0 0 487141656.38285303 -471124621.99385452 0 -471124621.99385452 -1601434946.0754395 0 0 0 0 513776137.25323582 -621622466.02472687 0 -621622466.02472687 -2252974774.6194458 0 0 0 0 209129230.48517871 -330391755.6232338 0 -330391755.6232338 -1189807039.1657562 0 0 0 0 190525639.88208556 -620712753.98998094 0 -620712753.98998094 -1959836803.0216522 0 0 0 0 212707848.60235691 -639499793.52748871 0 -639499793.52748871 -1949425182.8094063 0 0 0 0 299914773.6558857 -619319616.75897026 0 -619319616.75897026 -23020260.680503845 0 0 0 0 735205132.02330589 -482468052.89552307 0 -482468052.89552307 -1244807534.8546734 0 0 0 0 413248020.3556881 -238042579.86967468 0 -238042579.86967468 -1558986969.0709562 0 0 0 0 314418755.39916432 -413071258.87011623 0 -413071258.87011623 -1151839047.0787048 0 0 0 0 39098351.7948246 2620882.5778427124 0 2620882.5778427124 -83748140.064308167 0 0 0 0 1537981.9592810539 -1394512.047310371 0 -1394512.047310371 -2656365.4941690452 0 0 0 0 -98792682.520843744 17817029.203557968 0 17817029.203557968 656724392.54923248 0 0 0 0 141569268.14553177 -220098467.19052505 0 -220098467.19052505 -163183976.84370422 0 0 0 0 -157691352.16459131 -240553676.93513894 0 -240553676.93513894 -191663308.3274765 0 0 0 0 -167462796.86283362 633067731.63288498 0 633067731.63288498 -958117540.65891647 0 0 0 0 -112865361.11497545 197403058.7991333 0 197403058.7991333 -397656721.9100647 0 0 0 0 -210314971.88525486 32741271.353599548 0 32741271.353599548 254442718.46048737 0 0 0 0 4142892.5782388104 -5972422.4603587799 0 -5972422.4603587799 -8594374.4847776257 0 0 0 0 136152490.73171425 18199828.357261658 0 18199828.357261658 -18505951.036132812 0 0 0 0 -3159578.5277955849 -11493451.121126989 0 -11493451.121126989 -15376609.304988474 0 0 0 0 127612063.24133556 -107333432.19989967 0 -107333432.19989967 -144338547.9758606 0 0 0 0 -9596294.3944375515 -10096771.223981857 0 -10096771.223981857 -2886039.6813812256 0 0 0 0 935669.28385909088 -4136037.2087565996 0 -4136037.2087565996 -8167315.2400354203 0 0 0 0 -11629843.51378417 -22912258.514198303 0 -22912258.514198303 -12977273.825500488 0 0 0 0 -5430896.3306932449 -11905272.232879639 0 -11905272.232879639 -9196233.2172851562 0 0 0 0 -3951760.1423668861 -19061128.908447266 0 -19061128.908447266 -29213244.792358398 0 0 0 0 -4567061.2616118286 -13807557.210898289 0 -13807557.210898289 -15503171.824656934 0 0 0 0 5163707.0104923248 -43910105.422966003 0 -43910105.422966003 -32997319.738540649 0 0 0 0 6400919.5991917904 2076304.5851612538 0 2076304.5851612538 -8846555.0556125306 0 0 0 0 -358361602.86490107 -670034242.53787994 0 -670034242.53787994 -1168552185.5418396 0 0 0 0 -6170016.4883556366 -32043432.808776855 0 -32043432.808776855 -38857367.38218689 0 0 0 0 -196434523.71950769 -485255558.6709404 0 -485255558.6709404 -1126883566.344986 0 0 0 0 190413.10890891869 92966.048265814781 0 92966.048265814781 -390600.40092480183 0 0 0 0 130887279.82596397 -512704531.6008606 0 -512704531.6008606 -2033074708.0374756 0 0 0 0 104209686.85518956 -59009329.092318535 0 -59009329.092318535 -28035158.533828735 0 0 0 0 -11048014.870880127 -15476930.715423584 0 -15476930.715423584 4882923.0935592651 0 0 0 0 -3210768.6141747739 -1932515.4218217321 0 -1932515.4218217321 -5659447.2360897101 0 0 0 0 -348685452.48925734 -580105409.20004272 0 -580105409.20004272 -1529671471.5740089 0 0 0 0 -306790169.32576752 -756856946.44403076 0 -756856946.44403076 -1879211190.7685394 0 0 0 0 -273501468.45718193 -889801692.89401245 0 -889801692.89401245 -1776825183.3529663 0 0 0 0 -509810804.72928071 -728916228.65908051 0 -728916228.65908051 -1377549883.5256424 0 0 0 0 177031816.08366495 -427513545.06255531 0 -427513545.06255531 599356320.83197021 0 0 0 0 -278317311.60620022 -1152593148.0392799 0 -1152593148.0392799 -2634090923.159874 0 0 0 0 -592888.40416292334 -375216.98728921264 0 -375216.98728921264 -1997419.1769660339 0 0 0 0 -504666206.62472183 -819307096.88798141 0 -819307096.88798141 -695880776.51869202 0 0 0 0 -324873981.04125142 -487326185.40688324 0 -487326185.40688324 -599300921.43125916 0 0 0 0 -726450891.43885577 -1119486845.767643 0 -1119486845.767643 -1007623747.3925323 0 0 0 0 -293030742.36475706 -718501050.12950897 0 -718501050.12950897 -1318808621.9374428 0 0 0 0 -375811696.72345364 -782759894.29881287 0 -782759894.29881287 -832540823.65742111 0 0 0 0 -293532817.8825587 -504819448.68167114 0 -504819448.68167114 -433645498.40641785 0 0 0 0 -223885976.19344139 -503949039.65873718 0 -503949039.65873718 -469528367.98174286 0 0 0 0 -575959901.02225351 -809497005.26222229 0 -809497005.26222229 -539270519.4565773 0 0 0 0 -458708462.20696127 -883129883.88465118 0 -883129883.88465118 -722818071.36638069 0 0 0 0 -445475401.28787136 -777380719.18845129 0 -777380719.18845129 -697243565.56251526 0 0 0 0 -657104032.2045269 -674428798.79629135 0 -674428798.79629135 -741110679.58660889 0 0 0 0 -670154829.62588501 -901210096.95353317 0 -901210096.95353317 -753195990.88194275 0 0 0 0 -458094935.00683713 -927910163.86133194 0 -927910163.86133194 -935298613.16238403 0 0 0 0 -289104926.08990741 -589410945.01290512 0 -589410945.01290512 -1007125384.6014328 0 0 0 0 -115728937.99864411 -452396813.81624031 0 -452396813.81624031 -1149647522.1284637 0 0 0 0 489634061.62907338 276652908.77378368 0 276652908.77378368 -197593324.37535095 0 0 0 0 43612620.441268921 -132635920.84114075 0 -132635920.84114075 -782430297.30949402 0 0 0 0 49636836.004350662 -419205829.68769836 0 -419205829.68769836 -1192741998.1999722 0 0 0 0 -414345636.80849552 -778856611.94599152 0 -778856611.94599152 404685139.16387177 0 0 0 0 -403187356.76877618 -832419818.99752808 0 -832419818.99752808 -800241548.14767838 0 0 0 0 -416910055.29747844 -899031489.39645195 0 -899031489.39645195 -323011363.05340576 0 0 0 0 314476579.0434171 237786742.9949894 0 237786742.9949894 -3462719205.011076 0 0 0 0 51497.514410533622 9979789.2966365814 0 9979789.2966365814 -2069851176.2410355 0 0 0 0 13864898.806961453 -122463232.94633675 0 -122463232.94633675 -883905805.38791275 0 0 0 0 -10156003.167098681 -5795510.095585227 0 -5795510.095585227 -426936289.85961914 0 0 0 0 -70288232.480966687 -414243477.04647541 0 -414243477.04647541 -4034764292.8542938 0 0 0 0 -202950494.04690719 1356173936.4194412 0 1356173936.4194412 -3978666767.157135 0 0 0 0 77859.662137459294 -851768.80251528323 0 -851768.80251528323 -1875896.4296082333 0 0 0 0 1032636985.1771513 341536698.58571243 0 341536698.58571243 -3026896207.2333069 0 0 0 0 -563872.37450617808 -1881329.625697203 0 -1881329.625697203 -3180906.479957249 0 0 0 0 415507460.83257687 43223298.061389923 0 43223298.061389923 -1867457154.03125 0 0 0 0 -11090791.897794921 -43132370.937704682 0 -43132370.937704682 -1187667605.3855591 0 0 0 0 7198306.9112101197 -20393480.482940674 0 -20393480.482940674 -1225438463.1502457 0 0 0 0 -15753332.26790899 381343021.5772934 0 381343021.5772934 -1955216049.4143372 0 0 0 0 -769298.90114537813 -899555.64615067095 0 -899555.64615067095 -1339157.7356784828 0 0 0 0 231679025.1194208 -41602907.543441772 0 -41602907.543441772 -3820853039.0618515 0 0 0 0 -103335091.68040395 -2002101481.3510895 0 -2002101481.3510895 -101158060.01766205 0 0 0 0 -210379457.06531209 -954991866.8809433 0 -954991866.8809433 -1582899422.7482529 0 0 0 0 -797832891.4271307 -1229738008.4870071 0 -1229738008.4870071 -942509187.96481323 0 0 0 0 -161172698.83784819 170423302.93026733 0 170423302.93026733 -788535551.7639389 0 0 0 0 -139012236.29579163 -1757557552.0498886 0 -1757557552.0498886 -2577276215.340126 0 0 0 0 -875115261.08693051 235410543.77909088 0 235410543.77909088 -3279834469.3450012 0 0 0 0 118140242.18055022 -747424088.56592178 0 -747424088.56592178 -3172744383.9877625 0 0 0 0 -66755679.437128425 -144518803.7545929 0 -144518803.7545929 -826644632.97133636 0 0 0 0 -810623490.82348979 -461883356.63090479 0 -461883356.63090479 -4056468964.690155 0 0 0 0 101123372.171039 -36688031.901493073 0 -36688031.901493073 -3155876316.3825226 0 0 0 0 -902672405.0932411 954272963.70981598 0 954272963.70981598 -3528615120.6275482 0 0 0 0 -64797257.771684945 251901048.79489517 0 251901048.79489517 -3465188043.7438707 0 0 0 0 -1135504.2401725212 -857745.09833874553 0 -857745.09833874553 -1670516.5226025861 0 0 0 0 329146142.73712778 596698728.52540588 0 596698728.52540588 -3219687286.410759 0 0 0 0 73124855.998962402 758305046.92982864 0 758305046.92982864 -2447851555.7100067 0 0 0 0 -303589.26574877079 -1913187.0884197056 0 -1913187.0884197056 -3331635.8734876178 0 0 0 0 -3634665005.0113173 -417454034.73957825 0 -417454034.73957825 -1809369566.5436096 0 0 0 0 44130899.753610134 2658728446.9453621 0 2658728446.9453621 -4433867642.1104355 0 0 0 0 -1302007.7453510987 -2745547.4547289386 0 -2745547.4547289386 -4486855.8181362748 0 0 0 0 -437863500.81077909 -551268122.62698746 0 -551268122.62698746 182142535.08686829 0 0 0 0 -680533213.69885683 -1623799242.1407623 0 -1623799242.1407623 -609672042.00032043 0 0 0 0 163691081.53094292 37676063.272068024 0 37676063.272068024 -1438873668.8888712 0 0 0 0 -238227984.92534637 418627405.13952255 0 418627405.13952255 -1441919528.2825546 0 0 0 0 584008277.06115437 -206915912.20266724 0 -206915912.20266724 -81448229.722000122 0 0 0 0 -2690575.4344516932 -7611463.4711566865 0 -7611463.4711566865 -11578287.205093227 0 0 0 0 196180226.77947617 532913905.2273941 0 532913905.2273941 -215534061.48563194 0 0 0 0 -554322061.83117843 104106004.19222641 0 104106004.19222641 101845165.6953125 0 0 0 0 29005557.620558262 287167592.01396942 0 287167592.01396942 -144178032.65971375 0 0 0 0 66984227.628767252 -16731986.866014481 0 -16731986.866014481 -180656451.46313477 0 0 0 0 103957296.03227043 78596637.590072632 0 78596637.590072632 -75146950.046684265 0 0 0 0 86470857.445558548 79037040.982666016 0 79037040.982666016 -66686350.382933617 0 0 0 0 -78575130.620620728 -234195935.722229 0 -234195935.722229 -679908490.07873535 0 0 0 0 1690926.5287904739 -50719509.825576782 0 -50719509.825576782 -75525853.223114014 0 0 0 0 6722838.6713877823 4873693.7617363818 0 4873693.7617363818 -7603495.0623521656 0 0 0 0 18178336.996667862 -19326359.286949158 0 -19326359.286949158 -56331971.156677246 0 0 0 0 3555515.5213184217 5421752.759681806 0 5421752.759681806 -1536405.8792326674 0 0 0 0 211723275.41104412 -177020349.16545105 0 -177020349.16545105 -175985052.88056946 0 0 0 0 1455624.0814564973 2562191.183907032 0 2562191.183907032 -2570263.2652359009 0 0 0 0 48190221.008049965 74132135.4609375 0 74132135.4609375 -245128873.57499695 0 0 0 0 -48031143.951448441 -16573196.730049133 0 -16573196.730049133 90251077.793762207 0 0 0 0 -7631987.4186797142 174302073.49734116 0 174302073.49734116 248214889.41146851 0 0 0 0 703851.94623808749 -491691.39846129343 0 -491691.39846129343 -2719957.254394725 0 0 0 0 1816447.9051138328 1680263.7116748439 0 1680263.7116748439 374563.46909867227 0 0 0 0 -175213868.50871992 -98950728.404846191 0 -98950728.404846191 454999803.05186462 0 0 0 0 166718191.47234726 160989128.55089951 0 160989128.55089951 118198770.27481079 0 0 0 0 3019051.1786181498 5843184.8502724031 0 5843184.8502724031 -983093.09802181274 0 0 0 0 77048972.699050903 19088937.820266724 0 19088937.820266724 -46870175.096054077 0 0 0 0 167661766.69430399 -94915180.759635925 0 -94915180.759635925 31846815.07484436 0 0 0 0 190087263.36020541 -76784521.121311188 0 -76784521.121311188 -270542663.65512085 0 0 0 0 3843000.6288043703 3523321.2665764801 0 3523321.2665764801 -586793.52694153041 0 0 0 0 29808445.230131194 65991136.465221405 0 65991136.465221405 242506642.2540741 0 0 0 0 -218310223.94335747 117253034.85610962 0 117253034.85610962 234121557.4339447 0 0 0 0 50342809.218465686 -76066275.714477539 0 -76066275.714477539 -70440356.084915161 0 0 0 0 -308105146.54581571 -421395610.14912367 0 -421395610.14912367 -262459291.60220337 0 0 0 0 61016804.16003418 213786691.41942596 0 213786691.41942596 126448790.45977783 0 0 0 0 -351039068.00385356 87776825.89201355 0 87776825.89201355 193804744.81972885 0 0 0 0 449045884.49684775 -7251474.4307146072 0 -7251474.4307146072 -914538400.40438843 0 0 0 0 773555.28247471619 -769079.67320287041 0 -769079.67320287041 -334825.57247075438 0 0 0 0 -144742981.98621625 -360413733.48565292 0 -360413733.48565292 -264339766.65292358 0 0 0 0 -662729393.39211416 -884715652.39305496 0 -884715652.39305496 -1372945379.01474 0 0 0 0 -992181543.06682014 -918190069.84067535 0 -918190069.84067535 -1323199577.3076324 0 0 0 0 30781274.823379159 -32482264.042633057 0 -32482264.042633057 -993376912.09078217 0 0 0 0 78995000.847099602 -86076911.800842285 0 -86076911.800842285 -823544777.86503601 0 0 0 0 -93095389.674599111 -405808085.12322998 0 -405808085.12322998 -1254982283.3580322 0 0 0 0 168672003.05037475 -338100049.79246521 0 -338100049.79246521 -1505575860.1889343 0 0 0 0 397430397.24951148 -458959125.73847961 0 -458959125.73847961 -1451519865.2353516 0 0 0 0 673513144.01823306 -342156052.94377136 0 -342156052.94377136 -1272368095.8616028 0 0 0 0 54878117.612817109 -567011960.80680084 0 -567011960.80680084 -1097793787.1220398 0 0 0 0 234917319.7882652 278627377.03874207 0 278627377.03874207 310696871.64094543 0 0 0 0 -108509873.19457611 -330995156.19258118 0 -330995156.19258118 -754245635.32493591 0 0 0 0 329943268.39984834 336322155.49189377 0 336322155.49189377 -234959098.80828857 0 0 0 0 -142385087.32715374 -259666465.11225891 0 -259666465.11225891 270918724.68321228 0 0 0 0 -5099854.8033275604 -59583852.196014404 0 -59583852.196014404 223390322.97702026 0 0 0 0 -155052767.53263569 -248137707.01597595 0 -248137707.01597595 320918445.81008911 0 0 0 0 1315080.030696789 839628.89703406766 0 839628.89703406766 -283504.06897770986 0 0 0 0 -271168777.31052423 -472495539.51880646 0 -472495539.51880646 -359067304.91204834 0 0 0 0 194351905.78235149 75914183.338394165 0 75914183.338394165 -673478660.37326431 0 0 0 0 192130666.64583397 108491410.73175049 0 108491410.73175049 -73971270.230117798 0 0 0 0 992892162.29004288 75312095.212135315 0 75312095.212135315 -1106797409.6441345 0 0 0 0 -536161064.77448279 125006404.589077 0 125006404.589077 213747874.1769104 0 0 0 0 278454.65425542323 -410831.51834657486 0 -410831.51834657486 -2833694.6418049708 0 0 0 0 319335720.98960185 243765366.84052277 0 243765366.84052277 223307659.13667297 0 0 0 0 107134.06715886512 -17724.532465741388 0 -17724.532465741388 -1298243.8015577346 0 0 0 0 -182297938.36368284 -479202027.22583055 0 -479202027.22583055 -363189811.1503067 0 0 0 0 142936386.81686097 -94722425.509094238 0 -94722425.509094238 -236977337.5759716 0 0 0 0 -32054199.004852198 -148283287.39315796 0 -148283287.39315796 -737233459.90742493 0 0 0 0 -228677.33720444911 -109680331.8296833 0 -109680331.8296833 243990.09228515625 0 0 0 0 111244542.96915099 15033173.773105621 0 15033173.773105621 -388625570.00048065 0 0 0 0 115804149.7102851 -219017307.80366898 0 -219017307.80366898 -263173032.01477814 0 0 0 0 422345013.16821414 69027674.603965759 0 69027674.603965759 -114145760.02645111 0 0 0 0 76512321.931490391 -12754398.597896576 0 -12754398.597896576 -44467656.807815552 0 0 0 0 225670850.67362213 -156536143.50254822 0 -156536143.50254822 -29619213.268295288 0 0 0 0 99908824.619700223 -243467195.14530408 0 -243467195.14530408 43465104.420959473 0 0 0 0 154052697.81760168 48079178.383331299 0 48079178.383331299 -118623714.09464264 0 0 0 0 -391518659.38127762 -373358299.56874847 0 -373358299.56874847 325461500.8056488 0 0 0 0 204799.29678932013 -798025.8701243957 0 -798025.8701243957 -2211146.1723514348 0 0 0 0 306160879.27047229 741441496.83312607 0 741441496.83312607 -462020940.95068359 0 0 0 0 203617.24800837258 -353085.60638842033 0 -353085.60638842033 -2871154.3859155178 0 0 0 0 -15821368.44878912 280914929.09075165 0 280914929.09075165 -199199745.95114136 0 0 0 0 611855462.14970136 355628945.4477272 0 355628945.4477272 -522747290.24726868 0 0 0 0 -125017366.40688944 111263731.32145691 0 111263731.32145691 595012308.17223358 0 0 0 0 289615610.72376108 328078557.31769562 0 328078557.31769562 -42774750.790725708 0 0 0 0 704326876.46414936 -426366079.7396431 0 -426366079.7396431 -332343367.61486816 0 0 0 0 1298247115.0453436 -276778192.12471199 0 -276778192.12471199 -564736124.94537354 0 0 0 0 346480.51355612907 -1407799.9344657455 0 -1407799.9344657455 -6301259.9461697564 0 0 0 0 48479.741484732614 -376285.04635682469 0 -376285.04635682469 -675280.73967418075 0 0 0 0 -725898008.28341603 -301555648.44192505 0 -301555648.44192505 214136144.07397461 0 0 0 0 -4737152.6215714216 -706220096.31563187 0 -706220096.31563187 49117082.390441895 0 0 0 0 -15727945.663141727 36042506.84211731 0 36042506.84211731 -725494802.58143616 0 0 0 0 36503140.788584948 329989434.05874634 0 329989434.05874634 159253284.98725986 0 0 0 0 -864146184.35999966 -1090599116.6893768 0 -1090599116.6893768 -11191589.594268799 0 0 0 0 -862985156.9555912 -732461205.63291931 0 -732461205.63291931 395911874.5331192 0 0 0 0 -630558140.55924988 -1083377073.3881226 0 -1083377073.3881226 -663158961.76320648 0 0 0 0 -572754855.51279163 -935569873.4319458 0 -935569873.4319458 -303750553.57073975 0 0 0 0 -774277166.43779087 -1455300650.3377686 0 -1455300650.3377686 -880625078.73432922 0 0 0 0 -694768089.60830164 -968940745.29133415 0 -968940745.29133415 -839841635.779953 0 0 0 0 -552472714.01590347 -722692456.7824707 0 -722692456.7824707 -1008076002.8963776 0 0 0 0 -437526684.25770473 -799556353.34723949 0 -799556353.34723949 -960816217.75787354 0 0 0 0 -693714241.12323284 -529454027.95665741 0 -529454027.95665741 -887038852.02017212 0 0 0 0 -1133636767.9881668 -732539918.4885788 0 -732539918.4885788 -417971156.93053436 0 0 0 0 -1036239666.2572627 -223927316.95729828 0 -223927316.95729828 -1148264235.9681549 0 0 0 0 -470891110.43412352 -274887023.42323303 0 -274887023.42323303 -1346839056.6074371 0 0 0 0 -92728442.507682323 -620388212.2873764 0 -620388212.2873764 -1223878991.3536911 0 0 0 0 -235427171.20607567 459949344.77287292 0 459949344.77287292 -549099841.20818329 0 0 0 0 12654640.708075762 270258338.16923904 0 270258338.16923904 -433128408.1343689 0 0 0 0 69797422.386135101 121354114.33877945 0 121354114.33877945 91954343.583328247 0 0 0 0 -300165841.45905924 281880808.63473511 0 281880808.63473511 -280500514.75810242 0 0 0 0 -121210.76233610138 1501037.3448586091 0 1501037.3448586091 -476691.11706288159 0 0 0 0 -428839455.16782475 373129116.5699234 0 373129116.5699234 -306650659.06156921 0 0 0 0 -455560404.02742636 -606366432.70832729 0 -606366432.70832729 -942251279.2331543 0 0 0 0 925895.57564729697 1635893.3668126566 0 1635893.3668126566 -2372310.9354743361 0 0 0 0 -496877767.35399914 -548368444.03086853 0 -548368444.03086853 -471443688.92462158 0 0 0 0 -179411695.68006039 -507703860.23640442 0 -507703860.23640442 -1125304280.915205 0 0 0 0 -345237397.56665707 -619265253.50296021 0 -619265253.50296021 -1090564399.5508881 0 0 0 0 -218260165.00086427 -648161802.84512901 0 -648161802.84512901 -1085116994.1425171 0 0 0 0 -442822694.58568764 -252317307.36193085 0 -252317307.36193085 -81823261.013587952 0 0 0 0 3109897.5208047125 3795009.3131924234 0 3795009.3131924234 -2393373.0634712279 0 0 0 0 -170115264.65400887 55932234.747055054 0 55932234.747055054 -68491633.579147816 0 0 0 0 -39728809.659830809 -476034296.88610077 0 -476034296.88610077 -824611962.71780396 0 0 0 0 -231384521.91915655 -358580568.27039337 0 -358580568.27039337 -572464878.93687439 0 0 0 0 -83691664.700553894 -494957866.21549988 0 -494957866.21549988 -715648412.1268158 0 0 0 0 110198765.98764753 -257291002.20113373 0 -257291002.20113373 -581449747.56375122 0 0 0 0 191648203.99363327 -461487383.13192749 0 -461487383.13192749 -153697961.421875 0 0 0 0 296510.75256039505 -160276.98463001475 0 -160276.98463001475 -435800.89675698429 0 0 0 0 -170334927.84784508 -476796849.75968933 0 -476796849.75968933 -634266171.17033386 0 0 0 0 -114527572.07596588 -568760997.4743042 0 -568760997.4743042 -823814580.17263794 0 0 0 0 -226197806.29974747 -542277760.30581665 0 -542277760.30581665 -676619323.91949463 0 0 0 0 -238930101.22919178 -500859352.27300262 0 -500859352.27300262 -769967097.36807251 0 0 0 0 -160532533.68064499 -489964652.48710632 0 -489964652.48710632 -889239528.03804016 0 0 0 0 -191592762.37419671 -671706508.1457386 0 -671706508.1457386 -1014903774.5894928 0 0 0 0 -238870201.8893404 -464433189.84126282 0 -464433189.84126282 -813952705.12654114 0 0 0 0 -224941391.02388239 -579489182.06022644 0 -579489182.06022644 -1118214676.2542801 0 0 0 0 -445111439.64057875 -688714740.96294403 0 -688714740.96294403 -1153121970.6819611 0 0 0 0 -228182406.68146777 -571772028.68083954 0 -571772028.68083954 -1354283047.1596832 0 0 0 0 -394545584.97288036 -713922078.64492798 0 -713922078.64492798 -1406036273.5918198 0 0 0 0 -618325206.17251205 -477248165.76384735 0 -477248165.76384735 -1267848477.0902557 0 0 0 0 -355425889.52517617 -546288094.6662178 0 -546288094.6662178 -1252427276.9723816 0 0 0 0 -340837553.86211777 -478653757.18022156 0 -478653757.18022156 -1128810136.4139557 0 0 0 0 -980388813.81899881 -874138949.50804138 0 -874138949.50804138 -1247239689.9068298 0 0 0 0 -397801767.5175066 -626107343.09997559 0 -626107343.09997559 -1149635898.2911072 0 0 0 0 265868.83474720572 -23099.21911291033 0 -23099.21911291033 -1200825.4938133061 0 0 0 0 -257374679.23146057 24781305.607124329 0 24781305.607124329 709677298.76136017 0 0 0 0 -92063537.118852139 -922957104.08265305 0 -922957104.08265305 -2427269845.4703979 0 0 0 0 -910991.76254202565 -210843.79050269723 0 -210843.79050269723 -329985.81530576944 0 0 0 0 -2473590.2145518959 -40780793.134849548 0 -40780793.134849548 -261544127.81517029 0 0 0 0 -495470983.62560654 -533140381.18726349 0 -533140381.18726349 192080778.46039581 0 0 0 0 -445990719.73945069 -824433873.17725372 0 -824433873.17725372 -891102655.53134918 0 0 0 0 -477230376.98001957 -701509468.922966 0 -701509468.922966 -543297728.84346008 0 0 0 0 267071.29423135094 715182.77537310496 0 715182.77537310496 -965558.51499929279 0 0 0 0 5325905.2034907341 -189721224.18002319 0 -189721224.18002319 -570898498.09346008 0 0 0 0 -225561673.22483277 -138642434.61480331 0 -138642434.61480331 -258132425.49308777 0 0 0 0 -19899752.922850206 -78549656.173632622 0 -78549656.173632622 -102401686.57046509 0 0 0 0 -1568317.4351800531 26560906.554993629 0 26560906.554993629 -87238849.422836304 0 0 0 0 44490842.654641032 77183425.438343048 0 77183425.438343048 45753931.878974915 0 0 0 0 218798580.39807653 -26239058.954978943 0 -26239058.954978943 -123758347.13828659 0 0 0 0 59266092.683107495 -104321470.79512787 0 -104321470.79512787 -224903845.14611816 0 0 0 0 -159587712.86586952 13224693.660968781 0 13224693.660968781 -15695284.447225571 0 0 0 0 -81203985.399527311 -135593465.43441391 0 -135593465.43441391 50994684.519538879 0 0 0 0 -507624329.67476368 57264910.696205139 0 57264910.696205139 74824295.128997803 0 0 0 0 -481140731.64444542 11771114.41784668 0 11771114.41784668 -298628848.94406128 0 0 0 0 -137894.35215111799 336646.85102843121 0 336646.85102843121 -417043.22948463261 0 0 0 0 -189964168.45909703 16512295.756961823 0 16512295.756961823 -133255230.4618988 0 0 0 0 -342434080.40217781 63114443.409210205 0 63114443.409210205 -737265108.47369385 0 0 0 0 -401909036.32387209 -82538362.504966736 0 -82538362.504966736 -623505001.1723175 0 0 0 0 -146431725.58824682 -124644970.57847595 0 -124644970.57847595 -1622199267.7094421 0 0 0 0 -184806214.79791546 -578765847.4601059 0 -578765847.4601059 -2199366791.073761 0 0 0 0 -640873510.19662476 -803321394.64373779 0 -803321394.64373779 -1751502271.8490601 0 0 0 0 -223165723.74815941 -707224092.79508972 0 -707224092.79508972 -1196368960.253067 0 0 0 0 -255784569.77847672 -199528648.4145813 0 -199528648.4145813 -1425650935.2089691 0 0 0 0 -240619098.79611921 -490538112.28507996 0 -490538112.28507996 -471451845.63663483 0 0 0 0 48184244.10308671 -568992876.28614807 0 -568992876.28614807 -1022960921.8017273 0 0 0 0 -206134829.24481776 -668197248.31972027 0 -668197248.31972027 -804193976.14553833 0 0 0 0 -424321448.42125702 -947496220.30796814 0 -947496220.30796814 -994393229.78786469 0 0 0 0 -269394447.49878216 -734598331.51218414 0 -734598331.51218414 -940729888.49809265 0 0 0 0 -385032347.28866529 -1035559981.7296143 0 -1035559981.7296143 -854809395.65927124 0 0 0 0 -453975195.37069607 -1141073128.7168274 0 -1141073128.7168274 -1016240865.0960846 0 0 0 0 -434564194.33528471 -1179596707.9908829 0 -1179596707.9908829 -1243841715.1920853 0 0 0 0 -506037611.04197454 -1324669301.2618642 0 -1324669301.2618642 -1487004724.1116333 0 0 0 0 -176553740.57486922 -852396387.64626503 0 -852396387.64626503 -1533129361.2516785 0 0 0 0 805677292.84600902 263550244.54496384 0 263550244.54496384 -1188588363.9676361 0 0 0 0 67190.016041961731 -958343.18795271055 0 -958343.18795271055 -3449676.6556629837 0 0 0 0 -953506979.27113152 -1418127262.1628609 0 -1418127262.1628609 -845910418.03857422 0 0 0 0 290827077.44736934 -391467483.37527084 0 -391467483.37527084 -1958072689.3919983 0 0 0 0 -502320899.05518401 -1203687885.9920311 0 -1203687885.9920311 -2501967014.2668152 0 0 0 0 131655744.71144575 95807829.791732788 0 95807829.791732788 -741965701.96321106 0 0 0 0 503585982.08677506 71758377.683662415 0 71758377.683662415 -1640581430.0108948 0 0 0 0 -407864923.5440501 -783112115.66625404 0 -783112115.66625404 -1140072089.0940247 0 0 0 0 253758962.01969731 -414687713.14135742 0 -414687713.14135742 -1637632067.2284546 0 0 0 0 17280494.418592453 -390965707.08760071 0 -390965707.08760071 -1501276715.6210861 0 0 0 0 -372338337.72452879 -852639179.04823303 0 -852639179.04823303 -1752047049.8418522 0 0 0 0 -193278468.7131207 -972460014.54368782 0 -972460014.54368782 -2189649474.493927 0 0 0 0 -2024431016.2071781 -626331720.42105103 0 -626331720.42105103 -1761473219.8138428 0 0 0 0 -1631153390.4396009 -100671318.64971924 0 -100671318.64971924 -2177390980.1572952 0 0 0 0 -34447.917337820982 -262934.80335619021 0 -262934.80335619021 -1386934.287295036 0 0 0 0 -336765880.25512731 134283326.50268412 0 134283326.50268412 -53673940.667358398 0 0 0 0 -1007073178.0533894 -1013638006.2155228 0 -1013638006.2155228 -959875903.98864746 0 0 0 0 -69773506.364583731 144815970.74683762 0 144815970.74683762 -696085401.48779297 0 0 0 0 -471843852.65082884 -182707828.17060089 0 -182707828.17060089 307636610.7547226 0 0 0 0 116574285.6992712 -18238950.93296814 0 -18238950.93296814 -104461475.028512 0 0 0 0 -734979739.61496758 -546521590.03353882 0 -546521590.03353882 -229293844.2032299 0 0 0 0 -227585367.96054304 -746023272.01501083 0 -746023272.01501083 -1132470912.5418091 0 0 0 0 -52721970.175337769 -512063905.72459126 0 -512063905.72459126 -753999209.8560791 0 0 0 0 -81442056.009088457 -418371769.07340622 0 -418371769.07340622 -403041081.39599609 0 0 0 0 541490.59969656507 -223168617.06969947 0 -223168617.06969947 -752648586.34420776 0 0 0 0 109675687.56113565 -271368513.58477783 0 -271368513.58477783 -957519045.37421799 0 0 0 0 113174501.32091767 -312645918.48583221 0 -312645918.48583221 -1215225334.5723114 0 0 0 0 -30711418.351130605 -38536414.360778809 0 -38536414.360778809 141621454.55683899 0 0 0 0 -110317.44038209267 -462303.86125228181 0 -462303.86125228181 -263777.22654637322 0 0 0 0 -4966032.0322849406 -1422590.3428955153 0 -1422590.3428955153 13895.33967676945 0 0 0 0 -371774215.37295532 -222232917.35249329 0 -222232917.35249329 -243457725.63209534 0 0 0 0 -7543910.4731864929 326669.13733673096 0 326669.13733673096 -13549669.144107819 0 0 0 0 -12091229.567761421 6324277.6648254395 0 6324277.6648254395 -6614060.6271438599 0 0 0 0 -13000863.334992409 2575277.3183822632 0 2575277.3183822632 8081420.2769012451 0 0 0 0 -12534159.554194927 2000457.6834926605 0 2000457.6834926605 -2681557.154586792 0 0 0 0 -9579265.2840595245 -946613.5968208313 0 -946613.5968208313 -6831533.8831176758 0 0 0 0 -814924.97264260217 -5063614.3214371409 0 -5063614.3214371409 -4944403.1737667546 0 0 0 0 17457073.739518773 -9387456.0555381775 0 -9387456.0555381775 -7308498.8347167969 0 0 0 0 -4502077.3812813759 -365492.77796936035 0 -365492.77796936035 562988.92167663574 0 0 0 0 -7401107.2870769501 -11507231.630592346 0 -11507231.630592346 -10069657.564178467 0 0 0 0 -11626745.704240203 -12253430.838615417 0 -12253430.838615417 1722155.4911193848 0 0 0 0 -4508040.6164886951 -7762748.8036193848 0 -7762748.8036193848 2475332.9946289062 0 0 0 0 -11674442.161876202 -10485462.652580261 0 -10485462.652580261 6203949.1112670898 0 0 0 0 505609.39774080366 -15153187.350494385 0 -15153187.350494385 1784226.6801147461 0 0 0 0 13464953.279177174 -3107225.3979034424 0 -3107225.3979034424 -3577520.8278503418 0 0 0 0 -7416092.2195265293 -1902476.0798797607 0 -1902476.0798797607 -1353664.2762298584 0 0 0 0 -4000600.5969696045 -6063419.4911270142 0 -6063419.4911270142 -1416257.0396080017 0 0 0 0 -14653869.713067532 -4289204.0584106445 0 -4289204.0584106445 -1648054.4074325562 0 0 0 0 35419849.191006184 5153586.3825378418 0 5153586.3825378418 -17138845.845504761 0 0 0 0 -16709787.376404762 37798763.158401489 0 37798763.158401489 -33829284.213378906 0 0 0 0 -65860539.575034618 30419871.803451538 0 30419871.803451538 -33948050.981972456 0 0 0 0 28882980.593005121 -38033163.156455994 0 -38033163.156455994 -3446028.3509674072 0 0 0 0 36867672.123956084 1770009.0310821533 0 1770009.0310821533 -8111774.8315734863 0 0 0 0 -9597249.4782435894 -19565307.991226196 0 -19565307.991226196 -117437.1231842041 0 0 0 0 -8701711.0232284069 -14429036.885421753 0 -14429036.885421753 8264461.7405014038 0 0 0 0 -39191309.584524155 -14382010.663482666 0 -14382010.663482666 19371937.196380615 0 0 0 0 -26456423.098742485 9260472.4815597534 0 9260472.4815597534 -117404334.67993164 0 0 0 0 -51803059.502503008 39089053.474832535 0 39089053.474832535 -29830770.032012939 0 0 0 0 -45636559.823467128 -14680597.875389099 0 -14680597.875389099 88896523.389678955 0 0 0 0 16191529.606463909 103308857.65313721 0 103308857.65313721 -107779882.22235107 0 0 0 0 -90870594.776999533 -78558845.982162476 0 -78558845.982162476 -251200173.62850189 0 0 0 0 -68811642.176202238 41698425.935988426 0 41698425.935988426 -130879352.02818298 0 0 0 0 71211417.380749702 -106683620.44036102 0 -106683620.44036102 -548751328.71061707 0 0 0 0 13594249.669441223 56368426.138339996 0 56368426.138339996 -110027848.58460999 0 0 0 0 -29801142.293191433 -55856670.129562378 0 -55856670.129562378 -344575731.89221954 0 0 0 0 -69381196.547118664 -4826450.5820922852 0 -4826450.5820922852 -68153548.035671234 0 0 0 0 -99179443.713216305 -218748869.30896759 0 -218748869.30896759 -388312051.50954437 0 0 0 0 -152114000.71050572 -227995533.76548767 0 -227995533.76548767 -30590567.075454712 0 0 0 0 -197914486.03880787 -235160709.20095634 0 -235160709.20095634 -236823012.71437073 0 0 0 0 -123657152.76207101 -383259648.20154953 0 -383259648.20154953 -741531271.17433167 0 0 0 0 -255482632.06962332 -472563907.81699061 0 -472563907.81699061 -817026168.00575256 0 0 0 0 -242436316.31303191 -247919301.97290802 0 -247919301.97290802 -462001326.20941162 0 0 0 0 -1250428.8608149502 -1803979.9054984124 0 -1803979.9054984124 534618.95470868051 0 0 0 0 -7824321.5360959768 47786474.530311584 0 47786474.530311584 -248778280.75437927 0 0 0 0 -129910058.89638805 -314174850.33938599 0 -314174850.33938599 -344024008.73790359 0 0 0 0 -249208534.00390521 -514442476.7498126 0 -514442476.7498126 -897074077.58774567 0 0 0 0 -198358786.1517725 -177774444.83867645 0 -177774444.83867645 -524248780.22001648 0 0 0 0 -378201041.59215069 -359769130.15589142 0 -359769130.15589142 -906776049.06654358 0 0 0 0 -562037763.26177561 -696743452.29221439 0 -696743452.29221439 -889085521.66262054 0 0 0 0 -264197971.96888065 -580342058.96276093 0 -580342058.96276093 -1377997071.4083586 0 0 0 0 -311522540.47266984 -852422649.51840353 0 -852422649.51840353 -1167544594.0126801 0 0 0 0 224567.80641184584 -276012.81866353005 0 -276012.81866353005 -823784.51963674277 0 0 0 0 -133127366.09066963 -631321664.62018585 0 -631321664.62018585 -1168643435.0296173 0 0 0 0 -435028785.46626163 -699918451.42089844 0 -699918451.42089844 -1000005707.1112251 0 0 0 0 -21955477.513325214 -214812003.34031296 0 -214812003.34031296 -595120495.41239166 0 0 0 0 -273863834.93381572 -546440875.01956558 0 -546440875.01956558 -883399509.66378784 0 0 0 0 -243234306.58169556 -565477996.79363251 0 -565477996.79363251 -1167857939.6617928 0 0 0 0 -248716501.93584394 -675513741.89051056 0 -675513741.89051056 -1000566679.333786 0 0 0 0 -107185372.22946405 -354452508.57557297 0 -354452508.57557297 -895437470.34169006 0 0 0 0 -428762631.02624249 -694987782.83674622 0 -694987782.83674622 -1056805268.876483 0 0 0 0 -272977457.8433032 -585106257.6587677 0 -585106257.6587677 -1084181618.4722748 0 0 0 0 -308764475.79144239 -575364933.17252922 0 -575364933.17252922 -1116116551.0964966 0 0 0 0 -265566962.95538521 -787888962.02841187 0 -787888962.02841187 -1283215844.7296982 0 0 0 0 -317801794.97519588 -572515439.43738556 0 -572515439.43738556 -1298060237.4639378 0 0 0 0 323242.12301409268 -368696.5473462902 0 -368696.5473462902 -1685449.760558594 0 0 0 0 -331695044.52129459 -844812559.20541382 0 -844812559.20541382 -1275553146.8999634 0 0 0 0 -324629537.76210785 -641102703.00301361 0 -641102703.00301361 -1307004544.439743 0 0 0 0 -367542480.73285681 -528011375.12363148 0 -528011375.12363148 -1100766102.8190765 0 0 0 0 -298505581.16612577 -574705525.86714935 0 -574705525.86714935 -1312118188.2930298 0 0 0 0 -2809749.1017993968 -998520.53025525808 0 -998520.53025525808 -270992.56389631331 0 0 0 0 -95730149.056773186 -56529673.383346558 0 -56529673.383346558 259895421.62062836 0 0 0 0 -4191469.5252147838 -1291405.1225827783 0 -1291405.1225827783 -75029.876599319279 0 0 0 0 -205940642.6155529 -270360852.97536469 0 -270360852.97536469 -631911216.54082489 0 0 0 0 -37988503.928811073 -463227829.26570129 0 -463227829.26570129 -1264760262.549942 0 0 0 0 -22531508.566049099 -46728886.554943085 0 -46728886.554943085 180311822.55805969 0 0 0 0 91460234.364110947 -37888873.664207458 0 -37888873.664207458 -16248563.417854309 0 0 0 0 -17171460.613960743 9162624.6321640015 0 9162624.6321640015 50741455.942634583 0 0 0 0 13127265.497712612 -56009216.088489532 0 -56009216.088489532 45928978.434143066 0 0 0 0 89117621.204794288 -52252160.839790344 0 -52252160.839790344 -43822101.751220703 0 0 0 0 100063209.99819639 -67621825.193941116 0 -67621825.193941116 -194923358.8753891 0 0 0 0 698002.16538446816 343706.94918230176 0 343706.94918230176 -503799.93997711316 0 0 0 0 163797912.46204948 -66086415.56061554 0 -66086415.56061554 -65593026.362312317 0 0 0 0 24922788.050970078 -2837362.5602722168 0 -2837362.5602722168 -66580063.483104706 0 0 0 0 115286836.24848938 53349491.490753174 0 53349491.490753174 -32816543.237960815 0 0 0 0 58729978.778458297 -163627537.69636154 0 -163627537.69636154 -124492680.66221619 0 0 0 0 134056085.05331755 56578874.36844635 0 56578874.36844635 -3752237.5564727783 0 0 0 0 -86700319.5597229 -85242982.778808594 0 -85242982.778808594 239932170.6240387 0 0 0 0 -64838335.07375145 -112812226.46613312 0 -112812226.46613312 155527318.70385742 0 0 0 0 -57702245.64253509 -45364432.266460419 0 -45364432.266460419 -17243880.604415894 0 0 0 0 33381987.150292873 21918970.062538147 0 21918970.062538147 -124310127.504776 0 0 0 0 -15954688.456234217 -74513995.286437988 0 -74513995.286437988 -217518547.20507431 0 0 0 0 1005500.5912544662 618246.70776806027 0 618246.70776806027 -962302.34304048121 0 0 0 0 -18884158.831203461 16418863.844009399 0 16418863.844009399 -72046123.272926331 0 0 0 0 -14503179.41919291 -15255986.666191101 0 -15255986.666191101 136311673.95497131 0 0 0 0 26319200.778360903 68290840.115707397 0 68290840.115707397 -134888411.08596039 0 0 0 0 3436460.4193139086 -1120276.0299392045 0 -1120276.0299392045 -86462.568953715265 0 0 0 0 -11079167.838739753 1108468.7364768982 0 1108468.7364768982 -48387494.421134949 0 0 0 0 -17454170.706494808 47822912.492904663 0 47822912.492904663 -31728766.427734375 0 0 0 0 542698.10914711468 -93182.010254878551 0 -93182.010254878551 -662228.90228739381 0 0 0 0 -20513885.723937035 27575025.827552795 0 27575025.827552795 57816691.732204437 0 0 0 0 32952899.924334526 134809356.97751617 0 134809356.97751617 7349777.1718978882 0 0 0 0 134985663.29531342 -124389208.20337677 0 -124389208.20337677 -180893299.34438324 0 0 0 0 -26489791.06942749 18265633.286697388 0 18265633.286697388 232430178.33765411 0 0 0 0 5699228.1515488867 -2147268.8868702166 0 -2147268.8868702166 -470303.27928963676 0 0 0 0 20578053.059183121 -51381920.956886292 0 -51381920.956886292 -113241266.06656647 0 0 0 0 -33281410.187911987 370055.96835327148 0 370055.96835327148 176565143.90124512 0 0 0 0 7637475.805075746 -3377298.8486064039 0 -3377298.8486064039 -1462902.2179246284 0 0 0 0 7841531.3176279068 -18730561.097251892 0 -18730561.097251892 115871347.8540802 0 0 0 0 8689622.8716888428 -26327483.759140015 0 -26327483.759140015 -49928719.586700439 0 0 0 0 4581935.8079051971 -20676579.247108459 0 -20676579.247108459 -41744088.128005981 0 0 0 0 -9284482.7336626053 -33611702.807243347 0 -33611702.807243347 -15978952.533538818 0 0 0 0 8226552.7116613388 -20272558.15802002 0 -20272558.15802002 -41702508.214599609 0 0 0 0 5486173.1943616867 -19214617.192337036 0 -19214617.192337036 -19408835.06942749 0 0 0 0 -53075487.787594318 -71443179.455729485 0 -71443179.455729485 -8068337.4782867432 0 0 0 0 -10074238.10195446 9480813.4127502441 0 9480813.4127502441 38579964.514053345 0 0 0 0 1215703.8159149438 -822972.5734138228 0 -822972.5734138228 -1783590.349050913 0 0 0 0 27617349.506836832 -33548828.519148588 0 -33548828.519148588 -41707883.307861328 0 0 0 0 -8670870.7441692352 -17704551.78396225 0 -17704551.78396225 -18108445.346603394 0 0 0 0 -9086721.1308083534 -5522364.468460083 0 -5522364.468460083 18196797.796638489 0 0 0 0 1207253.632273281 -2513061.2819256969 0 -2513061.2819256969 -2901506.6889005527 0 0 0 0 3889600.5405101776 -3356830.1505889893 0 -3356830.1505889893 -15547286.221374512 0 0 0 0 -10540601.514550209 -8651900.047580719 0 -8651900.047580719 -4075376.2044525146 0 0 0 0 -15460910.396221161 -7087375.5930175781 0 -7087375.5930175781 1774458.910194397 0 0 0 0 -15900586.411124706 -6216402.6909599304 0 -6216402.6909599304 13570710.059326172 0 0 0 0 -11324054.816073895 -18579384.251056671 0 -18579384.251056671 1231528.5384063721 0 0 0 0 -8352918.8576202393 -17226325.977653503 0 -17226325.977653503 -17307649.559738159 0 0 0 0 -1921591.8779704571 1938985.741394043 0 1938985.741394043 760326.0333480835 0 0 0 0 2009230.260940359 -1274937.2935286723 0 -1274937.2935286723 -6855190.4352291711 0 0 0 0 -6815909.9551782049 -2466899.0755615234 0 -2466899.0755615234 2230266.9762420654 0 0 0 0 -293206.32575303072 -754631.15958094969 0 -754631.15958094969 394108.35930158198 0 0 0 0 4813016.365844965 -3001855.4072799683 0 -3001855.4072799683 -6971975.4468154907 0 0 0 0 -85364.954165986142 -4740648.9679953856 0 -4740648.9679953856 -4491848.8162568361 0 0 0 0 882567.95804540068 -12721492.968254089 0 -12721492.968254089 -7236218.4156646729 0 0 0 0 5585375.5042704307 -2822347.4801900079 0 -2822347.4801900079 -6684952.2368612513 0 0 0 0 -3928170.2300143805 -5291207.347012125 0 -5291207.347012125 -4725727.7566288859 0 0 0 0 5919136.9830319881 -7447059.539100647 0 -7447059.539100647 -25000209.186126709 0 0 0 0 -16444854.498710632 -2058648.0384979248 0 -2058648.0384979248 -11081666.686134338 0 0 0 0 -2966885.8354558945 -3495908.9715499878 0 -3495908.9715499878 -17775601.811180115 0 0 0 0 -1142942.7013963407 -2213659.3121184474 0 -2213659.3121184474 623626.75837916881 0 0 0 0 -251188.92648894619 -963250.27074103802 0 -963250.27074103802 -1394965.8571198583 0 0 0 0 6770693.1160323471 143585.36269316077 0 143585.36269316077 -10738998.647674225 0 0 0 0 2830866.695327282 -401016.26078796387 0 -401016.26078796387 -4280041.0035934448 0 0 0 0 -47117713.849359989 -23485450.521300316 0 -23485450.521300316 -17368795.838829041 0 0 0 0 9035294.4093619604 -12988165.710019222 0 -12988165.710019222 -13462826.368346386 0 0 0 0 -15065239.793203354 -1241805.4389572144 0 -1241805.4389572144 -20924381.160885811 0 0 0 0 -39541960.457321167 -14375959.249176025 0 -14375959.249176025 -42913957.353294373 0 0 0 0 3665627.7843968868 -32523830.004302979 0 -32523830.004302979 20586482.968994141 0 0 0 0 9147724.2060074173 -5677293.1460599378 0 -5677293.1460599378 -3606602.6541484408 0 0 0 0 -33760589.471990585 -19451044.329971313 0 -19451044.329971313 115313302.22973633 0 0 0 0 8574858.9633622169 -16440785.780647278 0 -16440785.780647278 -49239321.449249268 0 0 0 0 17480204.957733154 -143239102.59780884 0 -143239102.59780884 -120900884.21646118 0 0 0 0 4299441.7880058289 -36492937.810119629 0 -36492937.810119629 65501146.624897003 0 0 0 0 2413957.5071771606 -3576429.5554726524 0 -3576429.5554726524 1816318.8444003686 0 0 0 0 49035580.278630733 -73550695.179031372 0 -73550695.179031372 89519752.030151367 0 0 0 0 -71514558.465068817 -49374299.28742981 0 -49374299.28742981 -9840516.405380249 0 0 0 0 -22234996.359678268 -64220880.882362366 0 -64220880.882362366 100478875.24497223 0 0 0 0 -36083618.440690041 -63737905.365505219 0 -63737905.365505219 79533186.700454712 0 0 0 0 -19317259.807220459 -48576792.015274048 0 -48576792.015274048 87118698.324440002 0 0 0 0 251050319.26962662 -284782785.5920372 0 -284782785.5920372 104304181.64447021 0 0 0 0 -313639586.76192474 -167319690.19904709 0 -167319690.19904709 157818478.96122742 0 0 0 0 -184524973.40411186 86286013.344718933 0 86286013.344718933 -23224223.673965454 0 0 0 0 -169690639.2875948 36301109.379203796 0 36301109.379203796 76015303.285720825 0 0 0 0 -162236717.31905651 73471985.220695496 0 73471985.220695496 -40850701.862503052 0 0 0 0 -179331763.76559448 -236777662.05910492 0 -236777662.05910492 149903457.14620972 0 0 0 0 -493927216.70161247 -20411819.909889221 0 -20411819.909889221 128006635.7778616 0 0 0 0 21663982.097233772 96254037.553375244 0 96254037.553375244 -169488147.26187134 0 0 0 0 -208313317.67595482 140516912.53665161 0 140516912.53665161 -79996531.211986542 0 0 0 0 -75828529.472029686 226298256.6931076 0 226298256.6931076 -313518791.16267395 0 0 0 0 -107500838.51981401 91234329.714061737 0 91234329.714061737 -32446850.501617432 0 0 0 0 -79230712.20593071 55797378.234855652 0 55797378.234855652 -62585442.474550247 0 0 0 0 22514390.019245237 88689808.840973854 0 88689808.840973854 -228073372.30456543 0 0 0 0 -42535394.264293194 -13115877.385124207 0 -13115877.385124207 64025464.058135986 0 0 0 0 -14473741.028014183 40026241.074911118 0 40026241.074911118 -45608313.680984497 0 0 0 0 -50448161.166772842 24165109.007125854 0 24165109.007125854 -22349908.421007156 0 0 0 0 -85868382.621359825 -32792316.088485718 0 -32792316.088485718 91282131.467071533 0 0 0 0 -46061157.23416996 -37387129.817512512 0 -37387129.817512512 115156766.39009094 0 0 0 0 -20258640.262182236 -38189588.947973728 0 -38189588.947973728 88662429.636260986 0 0 0 0 -17379550.746750832 6832541.9708271027 0 6832541.9708271027 71160880.601104736 0 0 0 0 -5297853.0949287415 -31610100.88092041 0 -31610100.88092041 125876284.21009064 0 0 0 0 17901086.539852142 35035398.218057632 0 35035398.218057632 106009410.43319702 0 0 0 0 30185948.615978956 -20621658.872463226 0 -20621658.872463226 86807995.759857178 0 0 0 0 11105459.623124123 37553254.379738808 0 37553254.379738808 34931517.855499268 0 0 0 0 7112751.3831214905 -41106621.663833618 0 -41106621.663833618 -17100159.696510315 0 0 0 0 -10100673.232201576 -26647770.468612671 0 -26647770.468612671 79827801.277679443 0 0 0 0 35521358.52762413 -66286521.390201569 0 -66286521.390201569 22547540.476478577 0 0 0 0 -16076623.468370914 20099082.084754944 0 20099082.084754944 254610588.84878349 0 0 0 0 71533898.896186739 106125472.0130825 0 106125472.0130825 -285457295.94108582 0 0 0 0 7900902.6748869419 -29190244.90259552 0 -29190244.90259552 17400490.549768448 0 0 0 0 65441222.47808218 -10836015.374996185 0 -10836015.374996185 -118488288.09764099 0 0 0 0 34319596.292798042 -48292000.747436523 0 -48292000.747436523 -102717214.66362762 0 0 0 0 -44087477.375426292 97001342.565990448 0 97001342.565990448 -763038166.45939636 0 0 0 0 494364.66522532399 -356493.18720849603 0 -356493.18720849603 -725527.44888006896 0 0 0 0 -3187132.7608299255 223517560.02126312 0 223517560.02126312 -729329817.92489624 0 0 0 0 19163056.024741381 39775491.380561829 0 39775491.380561829 -140725700.09559631 0 0 0 0 13540193.497396469 -13978223.118225098 0 -13978223.118225098 -93141366.7746315 0 0 0 0 61258242.475829124 -75063363.187614441 0 -75063363.187614441 -291017196.01410675 0 0 0 0 86444449.042308807 100329121.18375397 0 100329121.18375397 -465594511.61614227 0 0 0 0 86992154.806980133 58714871.574394226 0 58714871.574394226 -304284639.62979126 0 0 0 0 30854471.352929592 90165257.523849487 0 90165257.523849487 -287439232.36527252 0 0 0 0 1305942.8731813431 176071006.31019592 0 176071006.31019592 -363384027.01744843 0 0 0 0 2399650.2921581594 114920.5453886725 0 114920.5453886725 -509576.05204611272 0 0 0 0 150620714.44617057 244651783.92593956 0 244651783.92593956 -258104133.02355957 0 0 0 0 45019801.945751905 69669448.320703506 0 69669448.320703506 -374858851.88830566 0 0 0 0 -64534078.817932129 -5429739.0456848145 0 -5429739.0456848145 94076793.669010162 0 0 0 0 120124438.99314475 180628372.97303391 0 180628372.97303391 -62708060.300735474 0 0 0 0 895938.93716952158 556568.51402049139 0 556568.51402049139 -691862.03416913934 0 0 0 0 74276583.019234657 135314006.96897888 0 135314006.96897888 -960727603.41218567 0 0 0 0 -271322599.80354786 -49724288.053543091 0 -49724288.053543091 340954643.16441536 0 0 0 0 305878.08657032857 -24484.288712043315 0 -24484.288712043315 -315996.55636013672 0 0 0 0 69619217.253617883 181753601.33251381 0 181753601.33251381 -950497241.94860077 0 0 0 0 7971033.3312301636 -97746993.195716858 0 -97746993.195716858 -141551294.8802948 0 0 0 0 2172501.1427708548 91070.59676329419 0 91070.59676329419 -426961.12303167209 0 0 0 0 32947611.728423119 4238951.622177124 0 4238951.622177124 -217230693.04550934 0 0 0 0 -21938108.517778397 -53522319.531360626 0 -53522319.531360626 19462014.175765991 0 0 0 0 -5817283.6413955688 -114910805.12550354 0 -114910805.12550354 4069744.1106109619 0 0 0 0 -23994277.610490799 3878605.6337738037 0 3878605.6337738037 88507841.719890594 0 0 0 0 -57531.493168973364 -620233.98289582133 0 -620233.98289582133 172883.6504406333 0 0 0 0 193557575.12794685 28438211.207305908 0 28438211.207305908 -11059502.86302948 0 0 0 0 803038.4310233891 -12153221.230198383 0 -12153221.230198383 4911639.8621520996 0 0 0 0 -14889568.864422798 -22297632.89307785 0 -22297632.89307785 6031567.2809200287 0 0 0 0 -10424489.488290787 -17581425.336593628 0 -17581425.336593628 2384014.8795318604 0 0 0 0 -88888394.321258128 175599380.29234838 0 175599380.29234838 -36684397.295333862 0 0 0 0 1084094.3229387645 -31535.883175481111 0 -31535.883175481111 -294183.77380976081 0 0 0 0 -62176712.860847473 2194414.3745727539 0 2194414.3745727539 60779603.883781433 0 0 0 0 197063869.02617645 177532109.32957458 0 177532109.32957458 -300062184.33925247 0 0 0 0 55342637.687603951 59979541.558130264 0 59979541.558130264 -83078893.310440063 0 0 0 0 174064674.70091534 -66861440.030170441 0 -66861440.030170441 -2379476.8678894043 0 0 0 0 60506519.521270752 88919582.147224426 0 88919582.147224426 5072367.2332839966 0 0 0 0 113083770.47705936 -185972911.85879898 0 -185972911.85879898 -239543242.27239227 0 0 0 0 127155341.68884245 90196263.048320174 0 90196263.048320174 -119052755.04162598 0 0 0 0 -89090287.301464081 103114771.30787659 0 103114771.30787659 -157574922.44482613 0 0 0 0 -136640163.9399147 -245350815.88142014 0 -245350815.88142014 -132592981.79414368 0 0 0 0 -272889441.88344002 -158315430.46194458 0 -158315430.46194458 -117527977.70254612 0 0 0 0 -301831480.0225172 -267752722.19657898 0 -267752722.19657898 -124532393.38474035 0 0 0 0 96462993.765865564 -2722160.044380188 0 -2722160.044380188 -157088675.33696365 0 0 0 0 -298158074.0247364 -271940209.43530273 0 -271940209.43530273 -171365761.01715088 0 0 0 0 -6307258.6654277733 5896400.671156846 0 5896400.671156846 -4386327.7889172509 0 0 0 0 2822208.8292835108 -352110.7544279471 0 -352110.7544279471 -2946235.2967619225 0 0 0 0 -254001524.4788723 -154701001.26572037 0 -154701001.26572037 188292177.34331512 0 0 0 0 -1181946419.5597029 176783329.59247208 0 176783329.59247208 102543810.08534241 0 0 0 0 -603510623.76038551 -270378163.50291824 0 -270378163.50291824 -36434887.265792847 0 0 0 0 -3005815.6065302533 2221554.1966213696 0 2221554.1966213696 -879745.63186701387 0 0 0 0 -431515931.4470377 -459407308.28934479 0 -459407308.28934479 -634285775.27503967 0 0 0 0 -271255428.38412285 -168354851.41345215 0 -168354851.41345215 -239189510.80443573 0 0 0 0 -107181993.58994484 -25448916.037902832 0 -25448916.037902832 -1070711710.4549942 0 0 0 0 -506011172.28340244 600073768.3868103 0 600073768.3868103 -849855453.68849945 0 0 0 0 -1379580414.4745512 256090477.09233856 0 256090477.09233856 -96064104.852981567 0 0 0 0 -416741879.11146069 -66520812.432203293 0 -66520812.432203293 -37436373.154144287 0 0 0 0 -584194920.42251611 343898370.64352226 0 343898370.64352226 -192022366.19802856 0 0 0 0 -73809206.265864372 172862209.34972382 0 172862209.34972382 -463037398.24124908 0 0 0 0 -62218123.208548546 250152232.33082581 0 250152232.33082581 -413737375.02384949 0 0 0 0 95695442.190507889 105918674.36263275 0 105918674.36263275 -349050672.9180069 0 0 0 0 99754489.729691505 152535947.24305725 0 152535947.24305725 -358263655.49904251 0 0 0 0 233280522.82588777 169217262.65379727 0 169217262.65379727 -481001939.4491272 0 0 0 0 228470779.48884678 -50521295.793231964 0 -50521295.793231964 -296523590.17112732 0 0 0 0 -400918.88399369054 -212487482.57978991 0 -212487482.57978991 -456182735.62841797 0 0 0 0 -52666.975935433409 -681304.16841625422 0 -681304.16841625422 -1916181.9548597746 0 0 0 0 -45837042.694199115 -27690598.559692383 0 -27690598.559692383 169641794.0348587 0 0 0 0 99736273.056194708 -125736036.078704 0 -125736036.078704 -849927295.57279968 0 0 0 0 97671358.613118589 -9991782.8645629883 0 -9991782.8645629883 -1115143981.2104111 0 0 0 0 -97746986.305220485 -313159950.93408585 0 -313159950.93408585 -466358268.97086334 0 0 0 0 -124871812.34136222 -219451153.01729441 0 -219451153.01729441 8519709.5522155762 0 0 0 0 319441043.13712406 231821698.09222412 0 231821698.09222412 -312071684.26197433 0 0 0 0 20243.957536142087 -127018.81706211157 0 -127018.81706211157 -1197999.106918782 0 0 0 0 -93226892.871129632 -415682678.27060699 0 -415682678.27060699 -398983735.02578735 0 0 0 0 -168686074.23540258 -170903645.78018951 0 -170903645.78018951 42669610.955307007 0 0 0 0 61512.900860089227 -358870.53194971755 0 -358870.53194971755 -2574890.9438282698 0 0 0 0 -277958094.18402839 -88799336.186721802 0 -88799336.186721802 -161857.86352539062 0 0 0 0 -368572713.1183207 -189909319.59605026 0 -189909319.59605026 -133700031.98368835 0 0 0 0 -283158032.36853123 -31856289.955276489 0 -31856289.955276489 -40082531.649978638 0 0 0 0 -94137420.48581934 5858884.736907959 0 5858884.736907959 -578347019.39360046 0 0 0 0 -38854326.111582756 12839310.467514038 0 12839310.467514038 -742302102.18881226 0 0 0 0 -86556107.765231133 -27686875.461669922 0 -27686875.461669922 -649533435.57327271 0 0 0 0 -87414083.745774791 -76973228.150261402 0 -76973228.150261402 -808788710.03460693 0 0 0 0 44774691.632039547 -86096685.488876343 0 -86096685.488876343 -1128098991.2687683 0 0 0 0 -487652098.21511853 -434063635.88600922 0 -434063635.88600922 -625316782.42762756 0 0 0 0 -132051339.96779346 -87574818.740852356 0 -87574818.740852356 -826230586.11239624 0 0 0 0 -442802.30782876769 -926102.45031304657 0 -926102.45031304657 -2318590.0069396477 0 0 0 0 -4062743.4367518425 -17422476.446472168 0 -17422476.446472168 110547080.43380737 0 0 0 0 44302730.529501796 184660077.88472748 0 184660077.88472748 -938949324.35098267 0 0 0 0 -278289.76914525032 -20966144.157226562 0 -20966144.157226562 113230720.11761475 0 0 0 0 -266630.43900460005 -20926035.240444183 0 -20926035.240444183 37875137.891448975 0 0 0 0 -79740957.816164494 89668393.890350342 0 89668393.890350342 -566048768.59155273 0 0 0 0 -447013.6260982895 -992655.1697916016 0 -992655.1697916016 -3241645.7092824224 0 0 0 0 8949745.4970333576 -26422449.050079346 0 -26422449.050079346 25122722.946716309 0 0 0 0 497255.53247261047 59272605.473602295 0 59272605.473602295 -653916271.35084534 0 0 0 0 117788936.13941956 22206678.619628906 0 22206678.619628906 -713056399.65332031 0 0 0 0 -33223154.2800107 84550950.574356079 0 84550950.574356079 -648066227.15063477 0 0 0 0 -32156660.091844082 108657455.2130127 0 108657455.2130127 -672804616.87472534 0 0 0 0 -8945042.1287097931 104009926.82897949 0 104009926.82897949 -711280391.30523682 0 0 0 0 6221265.4616851807 95941436.242706299 0 95941436.242706299 -683498363.16534424 0 0 0 0 -31846739.466197014 85204834.943572998 0 85204834.943572998 -860782969.34830475 0 0 0 0 -51044403.340586185 201424432.75022888 0 201424432.75022888 -631893249.24078369 0 0 0 0 8637273.2891805172 146428603.43501282 0 146428603.43501282 -745314911.95405579 0 0 0 0 779462.6305679474 1297728.8105946593 0 1297728.8105946593 -1742563.7216523755 0 0 0 0 -2804236.312623024 137738579.6461792 0 137738579.6461792 -655533631.32809448 0 0 0 0 -9247492.592045784 95926879.227996826 0 95926879.227996826 -641447771.96024323 0 0 0 0 -5824164.7002439499 113288874.62728882 0 113288874.62728882 -668925396.76418304 0 0 0 0 -29736593.722510815 115690249.02897644 0 115690249.02897644 -638427390.81985474 0 0 0 0 -29833482.778476238 89159687.654602051 0 89159687.654602051 -683976330.85159302 0 0 0 0 -27686570.212257504 100438502.78834915 0 100438502.78834915 -661724632.57080078 0 0 0 0 -32926443.836390495 119445464.34869385 0 119445464.34869385 -679789831.08834839 0 0 0 0 -29129914.181908131 100042832.35559082 0 100042832.35559082 -673140696.42953491 0 0 0 0 -32043838.632059097 110496805.46310425 0 110496805.46310425 -721171965.52655029 0 0 0 0 -21039718.352285385 106154415.68139648 0 106154415.68139648 -687296440.03662109 0 0 0 0 65266209.884853363 81444402.806396484 0 81444402.806396484 -724707094.8526001 0 0 0 0 -20536095.896369934 112979748.24108887 0 112979748.24108887 -706836997.33789062 0 0 0 0 -108665437.38038635 163658338.59088135 0 163658338.59088135 -749617547.7399292 0 0 0 0 3084384.7523412704 171185831.71054077 0 171185831.71054077 -803479569.14245605 0 0 0 0 -66940322.798130035 98331285.486938477 0 98331285.486938477 -711358118.55279541 0 0 0 0 20264.256502909993 29561.536599744111 0 29561.536599744111 -48648.233549959958 0 0 0 0 -150327152.45158386 278176083.23687744 0 278176083.23687744 -850029552.16479492 0 0 0 0 2419685.5200176239 114068742.62753296 0 114068742.62753296 -721445620.17504883 0 0 0 0 -28978791.793325424 174896487.14541626 0 174896487.14541626 -707546296.84409714 0 0 0 0 12943052.887801647 137343335.54544067 0 137343335.54544067 -700634701.42541885 0 0 0 0 -92117369.769174099 56659821.568634033 0 56659821.568634033 -682417713.12413025 0 0 0 0 -68774439.17884922 166223600.87141418 0 166223600.87141418 -667768866.21321106 0 0 0 0 -54033207.866488576 105267658.77432632 0 105267658.77432632 -469461756.65869141 0 0 0 0 -35269252.531186581 139745248.33786774 0 139745248.33786774 -569084625.01443481 0 0 0 0 -43436323.565956593 135287762.75952148 0 135287762.75952148 -639305764.63510132 0 0 0 0 15635080.359845161 139313157.99491882 0 139313157.99491882 -639793377.6771698 0 0 0 0 36377534.727373779 103225061.90230942 0 103225061.90230942 -561521046.8046875 0 0 0 0 19774819.006590441 6580539.9919977188 0 6580539.9919977188 -467187030.12635803 0 0 0 0 -54021116.123023748 107296745.56511688 0 107296745.56511688 -451320708.61422729 0 0 0 0 -118024159.90831375 -73715508.150001526 0 -73715508.150001526 -360837793.87371063 0 0 0 0 -42449543.622417212 40429256.226509094 0 40429256.226509094 -650380265.79818726 0 0 0 0 -56854091.675717831 59087481.353149414 0 59087481.353149414 -612103531.08970642 0 0 0 0 -116379796.42723513 -85414347.107147217 0 -85414347.107147217 -584425887.20430517 0 0 0 0 -270850211.24458116 -99495756.638972759 0 -99495756.638972759 2115313.7834014893 0 0 0 0 -289701342.45605516 -53033809.406059265 0 -53033809.406059265 116433849.65589523 0 0 0 0 -229059680.01668239 -69697804.787254333 0 -69697804.787254333 20614695.848373413 0 0 0 0 -64807771.706940174 94424275.053031921 0 94424275.053031921 -174281927.78980255 0 0 0 0 164557319.73950237 319864886.80901337 0 319864886.80901337 -301002990.75056458 0 0 0 0 35940668.687669784 -143877560.77713299 0 -143877560.77713299 -101596404.0688858 0 0 0 0 275388.28037496656 -128898.65508022159 0 -128898.65508022159 -369002.88157146797 0 0 0 0 -53233807.074000776 -180846733.28952789 0 -180846733.28952789 324094803.20437622 0 0 0 0 1107004.978367958 -313632.71537354589 0 -313632.71537354589 21783.429452309385 0 0 0 0 -28413675.470042378 24465698.814502716 0 24465698.814502716 431523319.52987671 0 0 0 0 56075698.605388165 -222015051.11377716 0 -222015051.11377716 23153804.445251465 0 0 0 0 -9004586.0674965382 -47034153.922042847 0 -47034153.922042847 -261915591.80373383 0 0 0 0 699011.18054829026 -450282.11942712963 0 -450282.11942712963 -993732.57667671889 0 0 0 0 -91122921.166172504 139734089.64483643 0 139734089.64483643 -183507761.0249939 0 0 0 0 73856240.329458237 166588399.29959488 0 166588399.29959488 -488227583.03366089 0 0 0 0 -24211546.421554923 76993064.340019226 0 76993064.340019226 -535880189.55717468 0 0 0 0 -15283347.795981884 168636986.45968628 0 168636986.45968628 -601952604.91854858 0 0 0 0 27659659.205443263 118441091.4567337 0 118441091.4567337 -726025854.13500977 0 0 0 0 -9415777.1513001919 31056319.367233276 0 31056319.367233276 -779168449.7902298 0 0 0 0 -87397348.849161983 209547662.16044617 0 209547662.16044617 -451618165.80226135 0 0 0 0 -43397199.531084538 25125487.275405884 0 25125487.275405884 -704395326.13531494 0 0 0 0 -54565079.042438507 223852645.33631897 0 223852645.33631897 -718197651.9382782 0 0 0 0 868223.75128390943 -70237.252433598042 0 -70237.252433598042 -217800.97569789737 0 0 0 0 -119364668.4194622 -44076420.873939514 0 -44076420.873939514 74405754.631530762 0 0 0 0 123891742.59272003 -74723462.179031372 0 -74723462.179031372 -8563537.0386505127 0 0 0 0 68505032.685895681 152986120.52396393 0 152986120.52396393 -881326814.81010437 0 0 0 0 1244685.57540419 1197340.7402516119 0 1197340.7402516119 -1031106.2489892337 0 0 0 0 462579965.06125641 103258130.91653442 0 103258130.91653442 66785974.823711395 0 0 0 0 295704215.04628754 18874944.662742615 0 18874944.662742615 -71065728.234634399 0 0 0 0 145909251.20367122 337150113.3631897 0 337150113.3631897 114715240.76220703 0 0 0 0 72951369.676403046 18640395.486785889 0 18640395.486785889 -69382204.041219711 0 0 0 0 42245407.841782808 7373127.3235855103 0 7373127.3235855103 -49859873.986061096 0 0 0 0 100948544.98303533 -23491059.422401428 0 -23491059.422401428 -65233060.178848267 0 0 0 0 14523828.708639145 -49458786.838630676 0 -49458786.838630676 -13814302.017410278 0 0 0 0 -18602089.091843605 6143745.9145278931 0 6143745.9145278931 -73404126.727798462 0 0 0 0 -1791048.7877063751 -65885745.950023651 0 -65885745.950023651 -66702241.192657471 0 0 0 0 20455410.586375237 -34289565.224895477 0 -34289565.224895477 -21879872.369094849 0 0 0 0 5884509.9869556427 -28611556.558746338 0 -28611556.558746338 -22445032.818522453 0 0 0 0 32383558.288584709 -34613049.054649353 0 -34613049.054649353 -65815470.930756092 0 0 0 0 21215262.410376072 -13135021.976051331 0 -13135021.976051331 -8676643.7818145752 0 0 0 0 619972.72778129578 -15933631.207221985 0 -15933631.207221985 1798939.7781066895 0 0 0 0 22401963.68528986 -13672903.950321198 0 -13672903.950321198 -27189628.291196108 0 0 0 0 13700885.467107832 -5134594.9300546646 0 -5134594.9300546646 -8408074.3077087402 0 0 0 0 1950373.0689882603 -1549117.0013829246 0 -1549117.0013829246 -8118720.0558718741 0 0 0 0 48279646.47580111 -6777091.6204452515 0 -6777091.6204452515 -26819577.47593689 0 0 0 0 13286966.071138859 -1850460.8534393311 0 -1850460.8534393311 -28929022.532592773 0 0 0 0 -2861097.8605633974 -6749325.015953064 0 -6749325.015953064 -14155529.667938232 0 0 0 0 -4890253.4887382984 -6305470.7918281555 0 -6305470.7918281555 -1439137.7875671387 0 0 0 0 5267164.1045165062 -10201425.653137207 0 -10201425.653137207 -3601348.1307868958 0 0 0 0 1152965.6734872514 -2134411.2354891151 0 -2134411.2354891151 -2082413.1274998859 0 0 0 0 47495901.949510336 -847759.76559448242 0 -847759.76559448242 -12637812.982009888 0 0 0 0 26256197.460366488 -7956961.9688949585 0 -7956961.9688949585 -9592633.676361084 0 0 0 0 11543136.914915442 98545029.429374695 0 98545029.429374695 -5369498.3171386719 0 0 0 0 2052074.4513021905 -1429683.6536015328 0 -1429683.6536015328 -8107699.4324097186 0 0 0 0 -20047969.392814636 17241960.116195679 0 17241960.116195679 -14487926.59753418 0 0 0 0 816538.08420185163 -555989.93591530621 0 -555989.93591530621 -1582497.2659065872 0 0 0 0 -175216921.2371788 -72439953.735153198 0 -72439953.735153198 -40988558.816482544 0 0 0 0 -177928339.67733002 -26710248.512557983 0 -26710248.512557983 -3022918.7280349731 0 0 0 0 -173831860.73642254 60564425.524490356 0 60564425.524490356 12216876.543586731 0 0 0 0 61148836.703075409 180903112.34341431 0 180903112.34341431 22447798.340881348 0 0 0 0 -143519291.84354591 172689959.50682068 0 172689959.50682068 233028325.72877502 0 0 0 0 -284322618.93586731 20453234.808853149 0 20453234.808853149 153842547.07313538 0 0 0 0 976215.02667818428 -2168250.9330417048 0 -2168250.9330417048 -6085703.7572067454 0 0 0 0 1829249.2767081261 -3656317.7525978088 0 -3656317.7525978088 -15488992.592498779 0 0 0 0 9545748.5279474258 -4551261.5435638428 0 -4551261.5435638428 -164897.64614868164 0 0 0 0 11569493.716144592 -17407176.920501709 0 -17407176.920501709 11842593.841125488 0 0 0 0 21980319.076358318 -30410697.640701294 0 -30410697.640701294 -1390721.0185852051 0 0 0 0 35570374.968728065 -38521564.627807617 0 -38521564.627807617 -7838050.004535675 0 0 0 0 35022193.703394413 -33737709.229858398 0 -33737709.229858398 -5004381.6003723145 0 0 0 0 33206944.69608283 -20919763.668731689 0 -20919763.668731689 -6660697.6366558075 0 0 0 0 19298231.818043232 -19419778.000701904 0 -19419778.000701904 -6800220.358291626 0 0 0 0 11348579.958544254 -18848625.394668579 0 -18848625.394668579 16702652.688293457 0 0 0 0 12099739.322295189 -26844069.880462646 0 -26844069.880462646 25178893.200927734 0 0 0 0 22856455.735291958 -27307255.330856323 0 -27307255.330856323 9551100.9876708984 0 0 0 0 9959118.5542814732 -33360156.876190186 0 -33360156.876190186 14814904.171447754 0 0 0 0 25009263.044295788 -39556688.248794556 0 -39556688.248794556 15033845.812255859 0 0 0 0 19447697.540103197 -65260097.23274231 0 -65260097.23274231 45077751.578231812 0 0 0 0 15251540.660284042 -49858795.697509766 0 -49858795.697509766 38844057.376760483 0 0 0 0 15522942.861886907 -47526375.559497833 0 -47526375.559497833 -3247375.3174285889 0 0 0 0 21944816.7382195 -52868507.22063446 0 -52868507.22063446 9931864.947052002 0 0 0 0 22089412.296450138 -44404484.079071045 0 -44404484.079071045 3039649.9210357666 0 0 0 0 24638501.891478777 -46759277.918289185 0 -46759277.918289185 -5265973.5875244141 0 0 0 0 17307071.935465217 -55471417.160797119 0 -55471417.160797119 -7225550.2065124512 0 0 0 0 31684413.856716394 -48679592.986984253 0 -48679592.986984253 -26857556.442687988 0 0 0 0 8504920.398311615 -51451574.756561279 0 -51451574.756561279 -20667303.502746582 0 0 0 0 45138806.445563674 -35098073.208953857 0 -35098073.208953857 -26316643.721862793 0 0 0 0 42831016.837961912 -12033894.182937622 0 -12033894.182937622 -34374638.158187866 0 0 0 0 45298445.644328237 -24115246.369925261 0 -24115246.369925261 -19134027.179962158 0 0 0 0 32269193.318506002 -24162141.965545654 0 -24162141.965545654 -16524360.425506592 0 0 0 0 123934050.5472945 46683995.06842041 0 46683995.06842041 -3801355.1066665649 0 0 0 0 -195147.37847682298 -806070.1232400313 0 -806070.1232400313 -307481.87292719632 0 0 0 0 2136784.4797139168 -38454455.41078186 0 -38454455.41078186 -176661055.13273621 0 0 0 0 -31928764.655779362 -15699656.962097168 0 -15699656.962097168 -16870104.041908264 0 0 0 0 -277621.32433172601 -151128.30340538919 0 -151128.30340538919 65311.330452077091 0 0 0 0 53578444.557576656 246251738.4672699 0 246251738.4672699 -4179161.5075101852 0 0 0 0 11738696.017794549 -4288956.8140869141 0 -4288956.8140869141 23617026.10472393 0 0 0 0 104632772.47315052 -32676302.297886848 0 -32676302.297886848 -80625932.582901001 0 0 0 0 -88380809.436660707 -40684906.947105408 0 -40684906.947105408 -77280436.046806335 0 0 0 0 16125613.556581676 22202575.945878983 0 22202575.945878983 -219693046.5955658 0 0 0 0 -198973755.64157242 147886086.53691101 0 147886086.53691101 -141215905.2982254 0 0 0 0 -222594231.01670074 369260560.37106323 0 369260560.37106323 -444159098.09278297 0 0 0 0 186740.60314972344 189743.74682185054 0 189743.74682185054 -1197912.69646056 0 0 0 0 -37623727.894523643 67685541.954900742 0 67685541.954900742 -362367095.73303223 0 0 0 0 -1419845.3043358885 -58041645.309616089 0 -58041645.309616089 -120922491.10983276 0 0 0 0 -54896024.228595853 36529343.350105286 0 36529343.350105286 -124102213.79672861 0 0 0 0 -55325.127005933835 -48277002.089981079 0 -48277002.089981079 -46426877.996337891 0 0 0 0 -107965.26199868467 -64676.121122322977 0 -64676.121122322977 91221.311103783548 0 0 0 0 -35018025.85244894 -48620534.934043884 0 -48620534.934043884 -13592292.177398682 0 0 0 0 7359500.5272092801 -27602916.020429134 0 -27602916.020429134 -81337656.541717529 0 0 0 0 -81528.209573074113 -45785.548118710518 0 -45785.548118710518 99804.443144693971 0 0 0 0 8367117.6176138297 -36130158.817298889 0 -36130158.817298889 -11618426.366485596 0 0 0 0 -14608729.275823191 -65420670.36530304 0 -65420670.36530304 83364196.5666008 0 0 0 0 -29913180.730196822 15663939.450781822 0 15663939.450781822 78680489.125427246 0 0 0 0 58271.591925327746 -42503533.85874939 0 -42503533.85874939 70634569.60848999 0 0 0 0 11134428.148427451 10271331.366226196 0 10271331.366226196 -23130176.01940918 0 0 0 0 -633031.89151021838 53766381.916152954 0 53766381.916152954 -62144961.730587006 0 0 0 0 -135092.34499303269 307850.73029343411 0 307850.73029343411 -827466.1529392451 0 0 0 0 -21987608.005424768 23425577.22454834 0 23425577.22454834 -57221462.064727783 0 0 0 0 -1379125.8276667744 6344009.8275909424 0 6344009.8275909424 -16097264.507839203 0 0 0 0 5100888.2092716396 3704090.6815338135 0 3704090.6815338135 -17202368.326534271 0 0 0 0 30564.863688388916 -588.33073474466801 0 -588.33073474466801 -62604.502949476242 0 0 0 0 2778300.1197154745 -1186979.4228057861 0 -1186979.4228057861 -8503480.2864227295 0 0 0 0 5029152.4135573655 2525015.3146820068 0 2525015.3146820068 -2411114.4155883789 0 0 0 0 -4806617.5699132532 21152208.739624023 0 21152208.739624023 -30783146.824691772 0 0 0 0 47571.86647880626 5368.9507214352489 0 5368.9507214352489 -87393.463500924408 0 0 0 0 -80008.197259054024 -20861959.610679626 0 -20861959.610679626 -25740985.835926056 0 0 0 0 7561096.9585784748 -4275234.5054244995 0 -4275234.5054244995 11408846.636392593 0 0 0 0 -33417.897516773308 -21660332.969098229 0 -21660332.969098229 -15712411.524597168 0 0 0 0 26369.013990367795 -17131808.971164443 0 -17131808.971164443 17601092.379959106 0 0 0 0 8539279.3377883211 -26401058.362116098 0 -26401058.362116098 13036433.925491333 0 0 0 0 117356.88638738617 -217032.52637927234 0 -217032.52637927234 -1994906.4357414618 0 0 0 0 -118375436.04769623 120348285.04835224 0 120348285.04835224 -234393569.01522827 0 0 0 0 -114165311.43140662 330733250.46257019 0 330733250.46257019 -329979757.05883789 0 0 0 0 18061112.61336863 117732504.4506073 0 117732504.4506073 -304480511.00773621 0 0 0 0 -70514187.960158587 144414427.68671417 0 144414427.68671417 -223449712.85235023 0 0 0 0 -73025723.672836423 132895333.81634903 0 132895333.81634903 -257520359.14899445 0 0 0 0 -270598.98027218785 -724531.03648897633 0 -724531.03648897633 -3049923.3310265392 0 0 0 0 15240823.037907854 -2218442.2177429199 0 -2218442.2177429199 -8007683.4056091309 0 0 0 0 14767846.458502099 -19348041.395202637 0 -19348041.395202637 4684440.1517944336 0 0 0 0 -685783.31941875815 905167.59701538086 0 905167.59701538086 -5956486.7508850098 0 0 0 0 8775054.4523962736 2553606.062171936 0 2553606.062171936 -19023795.437011719 0 0 0 0 294464.75332796574 -5157671.6127929688 0 -5157671.6127929688 -24202188.893936157 0 0 0 0 -1490067.1859428883 -1944419.8462600708 0 -1944419.8462600708 387046.50259590149 0 0 0 0 12802434.127419382 -9047945.8918113708 0 -9047945.8918113708 -12380164.584320068 0 0 0 0 -13306285.538578272 76844593.571193695 0 76844593.571193695 -173645531.20772552 0 0 0 0 -959874.93574382958 -999319.06064294279 0 -999319.06064294279 -4275729.8122435957 0 0 0 0 -23230190.548959732 86780153.958770752 0 86780153.958770752 -143241812.14622498 0 0 0 0 -55344840.356119633 91898892.077606201 0 91898892.077606201 -176532671.41874123 0 0 0 0 59294.144325262867 -376116.60972162336 0 -376116.60972162336 -603238.26845370419 0 0 0 0 -63506673.979206264 168344654.16350555 0 168344654.16350555 -362296601.6190033 0 0 0 0 -24937353.813926101 32722998.327737808 0 32722998.327737808 46506026.963699341 0 0 0 0 11857246.392146111 5502467.9932250977 0 5502467.9932250977 -50128161.05632782 0 0 0 0 12197350.954723477 9779656.7101044655 0 9779656.7101044655 -10740522.726486206 0 0 0 0 52850.818353779148 -731067.8858807534 0 -731067.8858807534 -1811779.1628380883 0 0 0 0 5036753.2836313248 9191198.4855880737 0 9191198.4855880737 -2630422.712890625 0 0 0 0 -11750736.283461809 130630215.37784958 0 130630215.37784958 -239597952.70381165 0 0 0 0 3549258.6786518097 401205.10976409912 0 401205.10976409912 -9174928.208404541 0 0 0 0 -113963361.74748707 49680848.496658325 0 49680848.496658325 -32005440.393549919 0 0 0 0 -135958.92037330614 -1033352.0798972175 0 -1033352.0798972175 -3475526.9873280367 0 0 0 0 18992.429213047028 2238018.9029808044 0 2238018.9029808044 -10128349.040206909 0 0 0 0 4704893.3195848465 1545615.0037155151 0 1545615.0037155151 -11958824.758743286 0 0 0 0 4180500.1088585854 -13574029.073661804 0 -13574029.073661804 2664026.3111457825 0 0 0 0 3905681.7505807877 -286786.22029876709 0 -286786.22029876709 -10304756.78527832 0 0 0 0 1986210.6736819255 -1871387.9382103272 0 -1871387.9382103272 -7885571.5953009576 0 0 0 0 3749570.7560123801 -10509486.799956322 0 -10509486.799956322 4329043.3918457031 0 0 0 0 -12790727.539411545 2996279.1288948059 0 2996279.1288948059 -3001385.2159729004 0 0 0 0 105323379.45959091 -55574080.158630371 0 -55574080.158630371 434002442.11456299 0 0 0 0 4577201.740530327 -763307.71132387966 0 -763307.71132387966 -9043294.8556198403 0 0 0 0 162207915.59040403 -131919333.80429649 0 -131919333.80429649 -165181558.47021484 0 0 0 0 260731.02941360977 -638145.24731101841 0 -638145.24731101841 -1029885.7555303574 0 0 0 0 77748881.334299147 201632894.60436058 0 201632894.60436058 -75212844.739227295 0 0 0 0 -362305937.23740911 -265328164.5929327 0 -265328164.5929327 -140622947.90966797 0 0 0 0 -89135324.418818086 -247616878.12022376 0 -247616878.12022376 -158608948.1227417 0 0 0 0 47857189.742936611 118668287.56780338 0 118668287.56780338 -592157436.78868103 0 0 0 0 -452994049.62275887 307017927.76429749 0 307017927.76429749 -131104587.71635056 0 0 0 0 -71372836.80763945 296874214.97945416 0 296874214.97945416 -135751554.88171387 0 0 0 0 -11011388.861967564 122768488.79113007 0 122768488.79113007 -218513793.02810669 0 0 0 0 30900507.438383102 99950221.860855103 0 99950221.860855103 -219849647.06157303 0 0 0 0 46887307.931067228 127531251.20588112 0 127531251.20588112 -315183326.18913269 0 0 0 0 -13229793.895070076 -109260349.36915588 0 -109260349.36915588 -221586775.10725403 0 0 0 0 -1318243.043377928 536847.47459762543 0 536847.47459762543 -75605.314666263759 0 0 0 0 -312722518.89584875 207905081.37643051 0 207905081.37643051 -71132115.963302612 0 0 0 0 -11797822.406655312 -116365014.06147766 0 -116365014.06147766 -470940668.81458282 0 0 0 0 -68580207.072477341 -37325138.216796875 0 -37325138.216796875 19425178.270294189 0 0 0 0 -9423725.1880502701 261071.20405578613 0 261071.20405578613 -45948628.553207397 0 0 0 0 -33031618.943479538 -22338032.306427002 0 -22338032.306427002 -65071463.592666626 0 0 0 0 -10526860.554491043 18861750.715644836 0 18861750.715644836 -35480490.069442749 0 0 0 0 -6943692.7972202301 11775797.805416107 0 11775797.805416107 -6047937.0040740967 0 0 0 0 -3319767.1179073593 1228791.174785845 0 1228791.174785845 -644914.49549707025 0 0 0 0 -1949645.0141307265 3551227.6690611243 0 3551227.6690611243 -8107150.9184951484 0 0 0 0 -1328454.3539514542 3239365.6042938232 0 3239365.6042938232 -12111241.450653076 0 0 0 0 -22158740.883966446 19808406.637830734 0 19808406.637830734 32963855.670959473 0 0 0 0 -28114318.116552353 -1703338.1509017944 0 -1703338.1509017944 -7551189.9166116714 0 0 0 0 655991.79764226079 3828992.3174762726 0 3828992.3174762726 -18767016.876968384 0 0 0 0 148566.23461508751 4081643.7168006897 0 4081643.7168006897 -18798776.650482178 0 0 0 0 334179.55369257031 -2764982.3332728557 0 -2764982.3332728557 -17573279.267404437 0 0 0 0 341263.41812127829 850143.56336975098 0 850143.56336975098 -34666938.317611694 0 0 0 0 2980533.0448474586 373013.52766418457 0 373013.52766418457 -29803833.104827881 0 0 0 0 -985457.06912952662 -1003744.3575744629 0 -1003744.3575744629 -20934921.980834961 0 0 0 0 -2242551.1490373611 6069172.989692688 0 6069172.989692688 -13914111.420654297 0 0 0 0 -3557974.8543829918 4464882.1011886597 0 4464882.1011886597 -12132354.593902588 0 0 0 0 473439.55513421458 -1768020.8871212639 0 -1768020.8871212639 -12072610.051810391 0 0 0 0 2000242.9415721297 -6260611.9582901001 0 -6260611.9582901001 -27757682.572509766 0 0 0 0 -1118843.0494910479 -14507502.780082703 0 -14507502.780082703 -42087973.822906494 0 0 0 0 3550266.7238904834 9301483.3332481384 0 9301483.3332481384 -34733757.499771118 0 0 0 0 595950.17921481584 686770.71481716633 0 686770.71481716633 -5300148.206729807 0 0 0 0 5114822.201669842 -3517289.9467315674 0 -3517289.9467315674 -14683312.467849731 0 0 0 0 -4509467.7777694017 9717020.7283706665 0 9717020.7283706665 -19140989.666351318 0 0 0 0 1306298.6611763458 -1136245.7947805598 0 -1136245.7947805598 -2280080.5114093125 0 0 0 0 1981693.6145597547 5179376.3767642975 0 5179376.3767642975 -15251344.980682373 0 0 0 0 -1759995.4597312212 4981299.7090072632 0 4981299.7090072632 -14178766.50151825 0 0 0 0 -1362966.1436832759 3105893.0947397612 0 3105893.0947397612 -8894139.2913330346 0 0 0 0 -925623.68005239964 4945889.900182724 0 4945889.900182724 -13508156.900085449 0 0 0 0 933720.52129817009 3163076.6037826538 0 3163076.6037826538 -12711439.893203735 0 0 0 0 -18969655.840854645 -19451443.924331665 0 -19451443.924331665 -58814677.214111328 0 0 0 0 -1487067.325667589 -735057.91796045005 0 -735057.91796045005 -6450639.660731554 0 0 0 0 5630760.1911585331 -1848868.1336364746 0 -1848868.1336364746 -11370190.413986206 0 0 0 0 5365345.9374877941 3415396.2299060822 0 3415396.2299060822 -17133582.021987915 0 0 0 0 -1405644.4036111832 2985767.7351608276 0 2985767.7351608276 -12116743.284559488 0 0 0 0 5214408.7667296529 394071.96553039551 0 394071.96553039551 -23429781.252975464 0 0 0 0 -7605878.0497360379 21822668.088603973 0 21822668.088603973 -45125881.142242432 0 0 0 0 7023111.133967855 2306012.6630773544 0 2306012.6630773544 -24381921.642074585 0 0 0 0 -151769.58954965038 583178.3510982357 0 583178.3510982357 -2384423.9514092505 0 0 0 0 -1655240.8665585518 13105374.59462738 0 13105374.59462738 -27645984.891704559 0 0 0 0 4364615.3404925913 -8525837.5852355957 0 -8525837.5852355957 -7025499.0375061035 0 0 0 0 3715481.6083497601 6136748.5709552765 0 6136748.5709552765 -27462408.476608276 0 0 0 0 7468375.437035948 2548724.1764297485 0 2548724.1764297485 -41323016.424530029 0 0 0 0 4847382.509919785 2941538.2640304565 0 2941538.2640304565 -28665032.64894104 0 0 0 0 -10842.95324215819 -80972.998220227659 0 -80972.998220227659 -87796.092412985861 0 0 0 0 7781273.6938345935 5386132.3159790039 0 5386132.3159790039 -48014754.933059692 0 0 0 0 -1643821.6067335252 -1349413.7800941467 0 -1349413.7800941467 -25915818.942359924 0 0 0 0 3861850.9719749577 13086346.647132874 0 13086346.647132874 -67145078.171989441 0 0 0 0 -6247.546841978723 554355.55800247192 0 554355.55800247192 -18826958.649658203 0 0 0 0 -5722854.8231499307 -2766614.6645126343 0 -2766614.6645126343 -6397586.4882354736 0 0 0 0 -72.048775649856907 -30201.738135341555 0 -30201.738135341555 -38359.994116194546 0 0 0 0 7840063.824916929 -5473257.8641052246 0 -5473257.8641052246 -38841269.368041992 0 0 0 0 -6240.8925145861176 7886900.9186973572 0 7886900.9186973572 -55981825.26940918 0 0 0 0 -2528344.2650021124 -10362126.074692249 0 -10362126.074692249 -23857657.256881714 0 0 0 0 2126090.1788367629 3631107.0878295898 0 3631107.0878295898 -11919702.692310333 0 0 0 0 -138840.02530514821 -12379100.354122162 0 -12379100.354122162 5942202.5681610107 0 0 0 0 -2549472.8971976787 16906699.420013428 0 16906699.420013428 -59483958.829528809 0 0 0 0 -189183.32009318721 383555.26496546343 0 383555.26496546343 -1259663.2794186249 0 0 0 0 -4938.2618016527404 -9441327.360359991 0 -9441327.360359991 11603681.609329224 0 0 0 0 88583369.878519058 31157784.371089935 0 31157784.371089935 -73533215.316282272 0 0 0 0 -31361657.740315437 4380647.6613674164 0 4380647.6613674164 16884920.183746338 0 0 0 0 91371133.800041616 113361792.02277863 0 113361792.02277863 -6360290.3539276123 0 0 0 0 -9010213.3348588478 12399311.736941483 0 12399311.736941483 -12953176.645337924 0 0 0 0 -8824965.3923988342 -12533943.334644318 0 -12533943.334644318 9822036.9493989944 0 0 0 0 40930885.897212029 -37062957.117530823 0 -37062957.117530823 -123186818.83859253 0 0 0 0 42629735.467012405 -24722758.805950165 0 -24722758.805950165 -143625494.96630478 0 0 0 0 1183511.1555633545 -21115517.92124176 0 -21115517.92124176 -47104384.683761597 0 0 0 0 -12323327.596037388 10498831.238018036 0 10498831.238018036 -97595961.171379089 0 0 0 0 -1214685.7798672612 -2022429.8781270571 0 -2022429.8781270571 -63602.395320154727 0 0 0 0 -17427074.755760133 -27271982.58959794 0 -27271982.58959794 -205368144.90667725 0 0 0 0 -178279615.75542307 33367827.82185936 0 33367827.82185936 2014828.6125564575 0 0 0 0 -77628370.512878895 84471960.827331543 0 84471960.827331543 -121725165.06476212 0 0 0 0 -72079138.148441076 -33671968.835508347 0 -33671968.835508347 23398819.161216736 0 0 0 0 -166446200.25560427 67902960.174873352 0 67902960.174873352 -401023.0122385025 0 0 0 0 -244235136.40285277 235982507.64490366 0 235982507.64490366 -129137356.22637177 0 0 0 0 -146196821.91049194 66291937.802722931 0 66291937.802722931 -39149761.661277771 0 0 0 0 -267505524.72851789 106709773.62854385 0 106709773.62854385 69554276.92011261 0 0 0 0 -185326922.92514133 -72667705.59000206 0 -72667705.59000206 -113603590.17706299 0 0 0 0 -227924207.23149014 -220643131.50821686 0 -220643131.50821686 -169768762.73155212 0 0 0 0 -7851967.0059648361 9042455.7559857629 0 9042455.7559857629 -8696522.1259734258 0 0 0 0 59659093.612529755 108942191.32664299 0 108942191.32664299 18414078.786560059 0 0 0 0 -181753752.09163523 -698310.63988685608 0 -698310.63988685608 -36184431.982711792 0 0 0 0 37087280.814331055 -46837649.021881104 0 -46837649.021881104 -170871560.02384186 0 0 0 0 48282302.604399443 11078171.99942255 0 11078171.99942255 -40919998.998916626 0 0 0 0 269545993.06046772 15566872.574764252 0 15566872.574764252 -82359326.093917847 0 0 0 0 -83228261.825780869 -101001037.20645142 0 -101001037.20645142 201621849.06812286 0 0 0 0 -32170426.867013931 -93567015.132598877 0 -93567015.132598877 -157083153.15584183 0 0 0 0 1260310.986463916 -2423903.7790719457 0 -2423903.7790719457 -1420324.0732545704 0 0 0 0 35132391.295013428 -6001393.6936340332 0 -6001393.6936340332 -6502746.1000671387 0 0 0 0 37824651.54129982 -9523849.7413711548 0 -9523849.7413711548 -17598273.722366333 0 0 0 0 31047992.403474808 -16910773.533054352 0 -16910773.533054352 -12800082.177185059 0 0 0 0 147393532.6712842 -120056301.04697609 0 -120056301.04697609 60533095.833984375 0 0 0 0 650650.26735264063 9420.6713337637484 0 9420.6713337637484 -664837.92846231442 0 0 0 0 2070440.3914193604 -838009.008809641 0 -838009.008809641 -2528341.1008363944 0 0 0 0 32322052.320327759 -12217017.400039673 0 -12217017.400039673 -3664083.4938468933 0 0 0 0 28526683.269512177 3536888.1505432129 0 3536888.1505432129 -8303158.6592674255 0 0 0 0 60992.664072343148 -2537709.6170901619 0 -2537709.6170901619 -4968446.7390673459 0 0 0 0 22555788.997282028 54057854.17464447 0 54057854.17464447 72263032.206003189 0 0 0 0 -5464915.8558940887 15900416.058547974 0 15900416.058547974 25189431.463569641 0 0 0 0 3407211.6586828232 20940579.796478271 0 20940579.796478271 21605032.778640747 0 0 0 0 -32781207.531480789 -88204772.571243286 0 -88204772.571243286 -67438147.247383118 0 0 0 0 131236645.24169922 -54190782.535842896 0 -54190782.535842896 -148802413.95007324 0 0 0 0 -8897876.065120697 -150760125.67480469 0 -150760125.67480469 -141635092.76153564 0 0 0 0 -24495987.574680328 -208198787.62185669 0 -208198787.62185669 -289615577.05627441 0 0 0 0 53187.56098635355 -827577.80005330406 0 -827577.80005330406 -1982347.1374039873 0 0 0 0 -25470393.189180374 324281283.23554993 0 324281283.23554993 -346019257.58571243 0 0 0 0 -54023976.054263115 395616509.93918419 0 395616509.93918419 -499524330.20336914 0 0 0 0 -282416307.90309811 -228062501.26166534 0 -228062501.26166534 -25334226.036895752 0 0 0 0 437993778.27584743 -26074457.06035614 0 -26074457.06035614 -111871740.85775757 0 0 0 0 76539220.194116592 -78212985.996284485 0 -78212985.996284485 -101243720.47600174 0 0 0 0 69059755.585941315 -112549206.63602448 0 -112549206.63602448 -201136203.16026306 0 0 0 0 155337192.95728302 -73821809.974838257 0 -73821809.974838257 -385433349.6060791 0 0 0 0 -10511036.361756343 16685886.643676829 0 16685886.643676829 -16111972.735412642 0 0 0 0 136754408.5318861 -63172226.198307037 0 -63172226.198307037 -206036415.15498352 0 0 0 0 5845900.9599459618 1046998.2691534795 0 1046998.2691534795 -9572106.5398967676 0 0 0 0 51927843.705002785 36212291.590774536 0 36212291.590774536 -2424052.5045394897 0 0 0 0 59622234.019001007 33833218.058849335 0 33833218.058849335 -62747030.373069763 0 0 0 0 -5539601.7298218813 11091791.590004545 0 11091791.590004545 -8079624.2895740829 0 0 0 0 115718912.39726782 -40495867.788471222 0 -40495867.788471222 -185655008.83241272 0 0 0 0 75454066.378356934 38636500.409362793 0 38636500.409362793 -34868855.614456177 0 0 0 0 -948908.77539372444 3409072.5319519043 0 3409072.5319519043 -575716.0926361084 0 0 0 0 -13376915.307645321 7106280.5194187164 0 7106280.5194187164 -14803050.280670166 0 0 0 0 267105.16660773382 3657840.6612275653 0 3657840.6612275653 -11290636.155700415 0 0 0 0 -4540563.9466152191 15675452.113567352 0 15675452.113567352 -25962900.834907532 0 0 0 0 -4432895.1089880392 5021982.8377176085 0 5021982.8377176085 -9063547.5183013901 0 0 0 0 16295646.685167313 33808744.051662445 0 33808744.051662445 -24824462.094427109 0 0 0 0 59204014.634868145 -28430077.8606987 0 -28430077.8606987 -36785891.936637878 0 0 0 0 261087022.12668419 2251023.0333328247 0 2251023.0333328247 -701738240.53036499 0 0 0 0 61000557.636846542 -22859013.859924316 0 -22859013.859924316 -80382813.506645203 0 0 0 0 -111920291.37754154 89246203.012413025 0 89246203.012413025 -110744409.41697693 0 0 0 0 -224901850.41706848 122763392.68406677 0 122763392.68406677 571558770.177948 0 0 0 0 -184603688.51958084 489809781.42782593 0 489809781.42782593 54616006.436340332 0 0 0 0 -362797351.26410675 -603075745.62210083 0 -603075745.62210083 -74566883.727841496 0 0 0 0 780076251.12266541 48951381.924255371 0 48951381.924255371 -131558647.14279175 0 0 0 0 187252408.32012177 -232463736.6879425 0 -232463736.6879425 1326753108.9925079 0 0 0 0 176930.05560030229 227388.28507506847 0 227388.28507506847 -813962.89657869935 0 0 0 0 -1963828.1504821777 -619640010.94338989 0 -619640010.94338989 -74653417.091624975 0 0 0 0 -1358978831.6573143 202513089.73583984 0 202513089.73583984 -139263145.75671387 0 0 0 0 177521089.39234734 34298563.061294556 0 34298563.061294556 -1283260320.8105469 0 0 0 0 167657339.85432816 82982488.064285278 0 82982488.064285278 -207065810.28067017 0 0 0 0 59099728.387676239 199343582.0230484 0 199343582.0230484 479615476.88637543 0 0 0 0 2004536.241160037 1852913.1912167445 0 1852913.1912167445 -13901228.449797999 0 0 0 0 3031929.7807426453 4674292.7118530273 0 4674292.7118530273 -33170439.534713745 0 0 0 0 6607651.8409194946 31319397.011123657 0 31319397.011123657 -37469137.369335175 0 0 0 0 -6414563.2533302307 31473804.552764893 0 31473804.552764893 -32455454.329864502 0 0 0 0 -7357974.2908593137 13226538.699023617 0 13226538.699023617 -22463848.511351392 0 0 0 0 9982820.1955966949 33646918.721694946 0 33646918.721694946 -72830419.150787354 0 0 0 0 1896315.5376935005 -1578532.249830246 0 -1578532.249830246 -64361586.392700195 0 0 0 0 -18008291.387069702 45417170.9034729 0 45417170.9034729 -26664360.973075867 0 0 0 0 17728366.394640923 8412680.0078430176 0 8412680.0078430176 -131632740.20854187 0 0 0 0 1752455.1587572778 2613881.3530911803 0 2613881.3530911803 -5815849.809834294 0 0 0 0 -8612787.2456912994 54938110.618080139 0 54938110.618080139 -86564736.841949463 0 0 0 0 -8300966.0467071533 24244860.239135742 0 24244860.239135742 -42458068.9815979 0 0 0 0 -3341510.8149607629 4654884.038624499 0 4654884.038624499 -10551287.043427087 0 0 0 0 -10088827.229131699 14744872.162475586 0 14744872.162475586 -15051417.878387451 0 0 0 0 -15687198.230594635 19885254.166809082 0 19885254.166809082 -11873804.693054199 0 0 0 0 366156.15860891342 3304615.5587863922 0 3304615.5587863922 -18356751.535919189 0 0 0 0 -14567770.505332947 36855840.159408569 0 36855840.159408569 -39518817.090675354 0 0 0 0 -6961242.6624641418 21558866.30380249 0 21558866.30380249 -25478566.540121078 0 0 0 0 826111.56811690773 7537810.935163293 0 7537810.935163293 -17232080.146283448 0 0 0 0 708924.27253675461 10969613.125728607 0 10969613.125728607 -23859829.089752197 0 0 0 0 -3796647.6480939193 4298301.0204222202 0 4298301.0204222202 -17801670.93218568 0 0 0 0 12429598.373416901 16779229.126327515 0 16779229.126327515 -24588910.09513855 0 0 0 0 394068.44744741637 2705455.1574407648 0 2705455.1574407648 -2222935.8070723936 0 0 0 0 -34628.095624905312 8286004.0034393892 0 8286004.0034393892 -19035251.937127374 0 0 0 0 2630827.6340212822 8269926.7210845947 0 8269926.7210845947 -13508851.506111145 0 0 0 0 6207517.5922646523 2791886.4347114563 0 2791886.4347114563 -14974569.428283691 0 0 0 0 -514614.25552582741 3558714.9158325195 0 3558714.9158325195 -18262717.940673828 0 0 0 0 102246.17393302917 8370413.5398025513 0 8370413.5398025513 -26595448.273223877 0 0 0 0 -2631368.2555357888 510754.7057443466 0 510754.7057443466 -18570432.398446746 0 0 0 0 578700.51152866334 1577035.4061135724 0 1577035.4061135724 -5809951.8257742487 0 0 0 0 -8106156.2175645828 21924912.670713425 0 21924912.670713425 -36629079.229972839 0 0 0 0 -10954266.817043304 20173192.253744125 0 20173192.253744125 -28072564.156455994 0 0 0 0 -5523093.3618602753 13347045.570056915 0 13347045.570056915 -24664585.796606064 0 0 0 0 -2718484.0521583557 15446332.782384872 0 15446332.782384872 -25181752.860046387 0 0 0 0 -5395462.5570316315 14275429.502822876 0 14275429.502822876 -24253881.63344574 0 0 0 0 -1366763.5509490967 8801243.5967636108 0 8801243.5967636108 -19311664.021400452 0 0 0 0 5013037.8620786667 5301643.230298996 0 5301643.230298996 -22839647.647262573 0 0 0 0 -4672206.8881235123 14031523.7258358 0 14031523.7258358 -23369070.80506897 0 0 0 0 -10182967.252834558 17517532.759993553 0 17517532.759993553 -26373491.690200806 0 0 0 0 -5167269.8262500763 12321461.803577423 0 12321461.803577423 -27765857.93384552 0 0 0 0 -4427113.2485027313 30694413.290740967 0 30694413.290740967 -41957316.490402222 0 0 0 0 -12732171.788332939 14385551.474918365 0 14385551.474918365 -29760079.656021118 0 0 0 0 71026418.577555656 10264591.595161438 0 10264591.595161438 -40627279.426336288 0 0 0 0 438832.55550036673 322765.39327210933 0 322765.39327210933 -1981360.8848689105 0 0 0 0 45656405.925528765 -58747686.39780426 0 -58747686.39780426 12943671.813280106 0 0 0 0 45407269.918561935 -34438619.848861694 0 -34438619.848861694 -31742272.124198914 0 0 0 0 42931394.982386589 -39482132.038608551 0 -39482132.038608551 -35822112.847557068 0 0 0 0 50562531.263624191 -36136012.228538513 0 -36136012.228538513 -43250773.56464386 0 0 0 0 23019339.340894341 -17482651.970690727 0 -17482651.970690727 -23855694.85735321 0 0 0 0 -107763293.78010023 -8446696.6844358444 0 -8446696.6844358444 23688770.321678162 0 0 0 0 22456.570636065211 -2790068.1062806994 0 -2790068.1062806994 -2561196.565073045 0 0 0 0 1238615.9773328924 952182.18743501883 0 952182.18743501883 -3643607.7197478339 0 0 0 0 -1731983458.9243469 560458690.64216614 0 560458690.64216614 -152258036.03369141 0 0 0 0 -29771686.033412457 -111558471.64986801 0 -111558471.64986801 36599121.974098206 0 0 0 0 171979627.85129642 -35144950.155738831 0 -35144950.155738831 -43537454.655329227 0 0 0 0 -144544989.11287403 22558990.770431519 0 22558990.770431519 -25838762.559326172 0 0 0 0 -176594698.74836397 -6361824.1372413635 0 -6361824.1372413635 221475506.38385201 0 0 0 0 -350555788.59146976 295188755.87653732 0 295188755.87653732 -112015016.35498428 0 0 0 0 2061287826.6005387 158943592.67448425 0 158943592.67448425 -1049149704.8025513 0 0 0 0 -108433301.64904737 14999606.795150757 0 14999606.795150757 -81250941.817199707 0 0 0 0 -105541436.38105011 33658098.038412094 0 33658098.038412094 -22741390.214683533 0 0 0 0 -74445733.379155159 45765976.63728714 0 45765976.63728714 -84698502.94103241 0 0 0 0 -132441167.37579012 63098690.961890221 0 63098690.961890221 -13351651.119003296 0 0 0 0 -11320005.935765505 17314739.812480927 0 17314739.812480927 15115878.137763977 0 0 0 0 -151548622.38687038 111159986.22345924 0 111159986.22345924 -85854392.469309092 0 0 0 0 2151772.5544972983 566452.81068706419 0 566452.81068706419 -9306235.3088432625 0 0 0 0 16883607.913482666 -32066203.951217651 0 -32066203.951217651 -3054605.5643310547 0 0 0 0 -65785866.690191269 55936294.296123505 0 55936294.296123505 -50175526.608985893 0 0 0 0 -3050469.8940906525 108106427.68903351 0 108106427.68903351 -50035939.650856018 0 0 0 0 -24627713.134662628 102363721.82415009 0 102363721.82415009 -2199247.6546411514 0 0 0 0 -39929928.439981461 150679539.87326431 0 150679539.87326431 15153671.520492554 0 0 0 0 -8756081.4561023712 119139493.60487938 0 119139493.60487938 26110054.306060791 0 0 0 0 -23678708.201714993 113626588.50604832 0 113626588.50604832 39886886.449378967 0 0 0 0 12886410.162254333 77645706.061658859 0 77645706.061658859 -6787853.6209335327 0 0 0 0 -29824984.630737305 80979158.947372437 0 80979158.947372437 14442484.616100311 0 0 0 0 -45749253.664237976 116231834.30093765 0 116231834.30093765 -7197307.5757293701 0 0 0 0 -27358464.133119583 59590427.543693542 0 59590427.543693542 -35145925.484688759 0 0 0 0 -5069330.2772827148 99702267.98673439 0 99702267.98673439 78085758.764652252 0 0 0 0 89424632.271987915 65488644.001554489 0 65488644.001554489 22390519.801582336 0 0 0 0 19779309.382382393 102831846.05741167 0 102831846.05741167 12100009.267860413 0 0 0 0 109478037.60329437 88096956.605461121 0 88096956.605461121 6011078.7703895569 0 0 0 0 105379345.5666213 124898228.74410844 0 124898228.74410844 30152603.17590332 0 0 0 0 106628633.11210251 105851045.09600449 0 105851045.09600449 -27180936.013438463 0 0 0 0 58156938.999092102 105122515.96903419 0 105122515.96903419 1849653.1197891235 0 0 0 0 45237484.26398468 66435203.100349426 0 66435203.100349426 -2776671.2454853058 0 0 0 0 19256006.022964478 94098710.676483154 0 94098710.676483154 -25811191.992050171 0 0 0 0 -3662319.0341720581 55018433.974220276 0 55018433.974220276 -32727854.219543457 0 0 0 0 115665889.07013321 100824837.85690689 0 100824837.85690689 -26733535.858428955 0 0 0 0 30422477.984107018 121369553.91618633 0 121369553.91618633 12173013.651977539 0 0 0 0 -100109146.18143654 61477873.491849899 0 61477873.491849899 -44473979.169700623 0 0 0 0 -69934512.408731222 76770255.688076019 0 76770255.688076019 -22240287.801635742 0 0 0 0 -38407720.231279373 72985402.313728333 0 72985402.313728333 -6457337.6820144653 0 0 0 0 -34972919.675748825 40443243.069034576 0 40443243.069034576 -45865856.246141434 0 0 0 0 -69261821.359407425 22639132.192989349 0 22639132.192989349 -72590839.738199234 0 0 0 0 -158525147.04526567 9318735.5399084091 0 9318735.5399084091 -46169504.661590576 0 0 0 0 -67016682.222890854 48471824.509754181 0 48471824.509754181 -45566040.983612061 0 0 0 0 -57638156.575986862 34415706.189411163 0 34415706.189411163 -61739809.800579071 0 0 0 0 -57704421.505056381 53920769.20998764 0 53920769.20998764 -23473175.934127808 0 0 0 0 -19497453.825908661 35868722.657485962 0 35868722.657485962 -62970720.98330307 0 0 0 0 3025821.7126347236 -270260.10177478287 0 -270260.10177478287 -2946915.8601664603 0 0 0 0 -37028288.584840775 64535311.553720474 0 64535311.553720474 14823652.661407471 0 0 0 0 105478675.94973755 101350074.51050949 0 101350074.51050949 -195494638.95099449 0 0 0 0 5239999.7429687679 -433101.32309295796 0 -433101.32309295796 -5153700.2028846219 0 0 0 0 -86628828.266000986 201870438.40541744 0 201870438.40541744 -222928101.27133179 0 0 0 0 102221408.03638077 96961119.824047089 0 96961119.824047089 -201454986.44896317 0 0 0 0 -62917269.971481323 69284057.515094757 0 69284057.515094757 -137549380.98290253 0 0 0 0 101671842.97523117 14821829.374313354 0 14821829.374313354 -151550934.98324585 0 0 0 0 18918035.616371155 175474059.88541031 0 175474059.88541031 -305257237.17395782 0 0 0 0 -101807864.94791031 141384947.00998688 0 141384947.00998688 -204197294.03739071 0 0 0 0 -139556246.98682213 260632415.82749176 0 260632415.82749176 -77789935.632087708 0 0 0 0 5010884.1307642413 -510587.38725955412 0 -510587.38725955412 -5129510.2522850074 0 0 0 0 -147611014.41221476 71304289.7890625 0 71304289.7890625 -51878702.14490509 0 0 0 0 262612539.29216576 46162762.964883804 0 46162762.964883804 -86962180.217147827 0 0 0 0 312332404.4382019 -65677034.184379578 0 -65677034.184379578 -39303619.899002075 0 0 0 0 -1824319.3615390658 4721263.6967045702 0 4721263.6967045702 -5954525.317678608 0 0 0 0 -67651524.226539612 59043202.471069336 0 59043202.471069336 -61182874.924102783 0 0 0 0 4455038.1130695343 9462334.8928623199 0 9462334.8928623199 -15625568.699142456 0 0 0 0 -7690233.137915466 22759855.806045353 0 22759855.806045353 -23505050.178088214 0 0 0 0 9900057.0014648438 7983594.4649353027 0 7983594.4649353027 -5134684.1636352539 0 0 0 0 16369931.320394099 12692285.634532303 0 12692285.634532303 -19847587.590614319 0 0 0 0 -30336750.999099731 89262814.102279663 0 89262814.102279663 -107090652.81420898 0 0 0 0 -4967238.5795116909 25707428.913446106 0 25707428.913446106 -19756364.041724082 0 0 0 0 3031951.6150680277 -1256667.7524892502 0 -1256667.7524892502 -2406706.9190875292 0 0 0 0 37138032.795120239 78345417.914710999 0 78345417.914710999 -26031831.307022095 0 0 0 0 19406063.647680283 15970552.008869171 0 15970552.008869171 -1420678.4787826538 0 0 0 0 -110941432.07982635 68952144.412281036 0 68952144.412281036 10848024.802825928 0 0 0 0 20599678.144931793 22003886.264276505 0 22003886.264276505 -13526790.353885651 0 0 0 0 1450346.6884382535 5855785.021825837 0 5855785.021825837 -11267507.915277213 0 0 0 0 -3547855.5513374764 17502824.579735629 0 17502824.579735629 -10475521.376269542 0 0 0 0 177392630.42814636 -10233027.655029297 0 -10233027.655029297 -17725606.312644958 0 0 0 0 193437638.92031479 -34353819.674728394 0 -34353819.674728394 -119546085.69250679 0 0 0 0 162996333.8276577 22018425.886728287 0 22018425.886728287 -139959649.2403183 0 0 0 0 175755826.31873703 48379460.386363983 0 48379460.386363983 -85798226.144212723 0 0 0 0 193943355.87990189 17896462.89144516 0 17896462.89144516 -52709319.276176453 0 0 0 0 198455389.35174561 65711899.008579254 0 65711899.008579254 -107626288.18325806 0 0 0 0 139525428.21772766 84872348.557735443 0 84872348.557735443 -59777705.86504364 0 0 0 0 112032610.23613358 146154561.7591629 0 146154561.7591629 -121398971.88401318 0 0 0 0 141453298.87537766 95871821.918491364 0 95871821.918491364 -42427959.452659607 0 0 0 0 134599620.29303741 77457589.806110382 0 77457589.806110382 -39280059.334335327 0 0 0 0 132787712.25915909 41190596.261283875 0 41190596.261283875 -26528528.338718414 0 0 0 0 192272841.15644836 3587584.6717185974 0 3587584.6717185974 -36879912.552567124 0 0 0 0 159282794.5998497 30378296.685684204 0 30378296.685684204 -53017202.939590454 0 0 0 0 10071116.265922546 6592730.7689533234 0 6592730.7689533234 -17279420.387588501 0 0 0 0 1734631.0874136239 12198558.658298887 0 12198558.658298887 -20251974.669884957 0 0 0 0 8874875.6951835155 15077666.868071556 0 15077666.868071556 -21201316.619235992 0 0 0 0 -4863614.6545333862 11348476.686090469 0 11348476.686090469 -15314555.163342476 0 0 0 0 -44837.34342953749 -109766.48002955876 0 -109766.48002955876 123733.19013663847 0 0 0 0 3705827.679233551 4726964.6300830841 0 4726964.6300830841 -12198708.859077454 0 0 0 0 13873548.379223913 11650851.005111367 0 11650851.005111367 -11175233.548446655 0 0 0 0 75552743.211345673 58506430.188581467 0 58506430.188581467 -13523798.644287109 0 0 0 0 -5577996.1913045011 18635205.253187221 0 18635205.253187221 -17015646.302158944 0 0 0 0 96635712.869226456 80192703.168197632 0 80192703.168197632 -17747665.325195312 0 0 0 0 98009309.331357956 75601222.735020638 0 75601222.735020638 -2776245.7170257568 0 0 0 0 83539414.872016907 70139840.177135468 0 70139840.177135468 -2394883.0452064276 0 0 0 0 611544657.58878326 -16983791.827299774 0 -16983791.827299774 735394464.64811134 0 0 0 0 -1201580.5001438244 3442251.9243647102 0 3442251.9243647102 146077.09039749717 0 0 0 0 -136413846.84050179 -174137398.92854071 0 -174137398.92854071 669541133.46042633 0 0 0 0 102163124.58599351 424305666.14809787 0 424305666.14809787 319780993.11213779 0 0 0 0 -1138323.8691438977 10853761.754453329 0 10853761.754453329 -21352456.150193181 0 0 0 0 31468051.231884956 23840026.234830856 0 23840026.234830856 198369431.63675785 0 0 0 0 117788015.13748932 100281863.20956421 0 100281863.20956421 -41532326.314759254 0 0 0 0 121569291.87591934 90493828.813148499 0 90493828.813148499 -25112165.706047058 0 0 0 0 119262839.36038971 80917914.964759827 0 80917914.964759827 -29488273.892299652 0 0 0 0 114834110.41120148 95826445.629043579 0 95826445.629043579 -23379600.623727798 0 0 0 0 109833807.58695221 96228055.02513504 0 96228055.02513504 1258376.2188835144 0 0 0 0 110137254.51440048 96980167.963653564 0 96980167.963653564 -4776929.1291732788 0 0 0 0 128592227.99819183 115054568.11430359 0 115054568.11430359 -2329260.7590045929 0 0 0 0 91701829.324962616 109644761.61057281 0 109644761.61057281 53953418.296821594 0 0 0 0 81771374.18662262 85175445.618450165 0 85175445.618450165 17229868.043773651 0 0 0 0 139318231.43380451 144472823.65277624 0 144472823.65277624 52687788.684078217 0 0 0 0 -15711810.649895728 17264106.188102439 0 17264106.188102439 -14943746.134015255 0 0 0 0 675560795.64524078 547713059.19717884 0 547713059.19717884 -498122935.29274845 0 0 0 0 113391014.52243042 95021568.78591156 0 95021568.78591156 75157143.024366379 0 0 0 0 -1296557399.4167814 -150975942.62729168 0 -150975942.62729168 219238435.88284373 0 0 0 0 122400196.35317183 254856185.39290428 0 254856185.39290428 310752655.79066563 0 0 0 0 331049278.07702065 -175299530.70728397 0 -175299530.70728397 413490122.40820503 0 0 0 0 -380340782.14913511 -63088428.204492331 0 -63088428.204492331 450333624.57747269 0 0 0 0 475447268.61984277 247244531.14201283 0 247244531.14201283 238920148.53357697 0 0 0 0 -20742439.618808195 23149211.309034701 0 23149211.309034701 -17371488.822129019 0 0 0 0 -914806826.83297443 814203255.70947647 0 814203255.70947647 697715254.60483384 0 0 0 0 -217205202.09529495 925795881.83506966 0 925795881.83506966 601460447.81990814 0 0 0 0 602425183.18265116 -419518447.85780823 0 -419518447.85780823 -1462209909.7201939 0 0 0 0 73121202.457473278 -234887893.62887335 0 -234887893.62887335 -1124850221.8688169 0 0 0 0 17138708.692279339 17601013.941618204 0 17601013.941618204 -157554582.42727661 0 0 0 0 173808623.36101532 -79600037.779361725 0 -79600037.779361725 -225128280.2245903 0 0 0 0 -239386145.70889163 -427188469.77260208 0 -427188469.77260208 232347197.43442249 0 0 0 0 -3893779.3395786285 -65521861.011171341 0 -65521861.011171341 -13782062.225708246 0 0 0 0 10747425.199615479 -132599435.47599602 0 -132599435.47599602 212761567.58606339 0 0 0 0 -13172153.670374393 -58845077.431112051 0 -58845077.431112051 59650277.263091087 0 0 0 0 -13112082.534883499 -30722034.837347984 0 -30722034.837347984 -24508915.910144806 0 0 0 0 94353574.971621513 -28363487.347276688 0 -28363487.347276688 -187217910.94837093 0 0 0 0 7827110.4358882904 -59136765.215181828 0 -59136765.215181828 -64218869.297979355 0 0 0 0 26792249.534820557 -11273172.349797726 0 -11273172.349797726 16419950.138406754 0 0 0 0 23246385.950359344 -23639075.13739872 0 -23639075.13739872 -13341236.610225677 0 0 0 0 35241072.33952713 2874219.0198559761 0 2874219.0198559761 -26950281.91458416 0 0 0 0 15221782.385725975 -979163.71729373932 0 -979163.71729373932 19658206.616649628 0 0 0 0 14674856.593938828 15764188.125235081 0 15764188.125235081 -17704577.086027145 0 0 0 0 186485.91009272356 1258393.4274578849 0 1258393.4274578849 -1941384.2271398925 0 0 0 0 989203.34887504578 -35953929.084357262 0 -35953929.084357262 32085643.699872494 0 0 0 0 10107047.998054504 -42773734.131750107 0 -42773734.131750107 22765050.639392495 0 0 0 0 534408.16671562195 -60297866.743463516 0 -60297866.743463516 -8893215.1219881773 0 0 0 0 -43628828.526760101 -49561544.144661903 0 -49561544.144661903 -35668045.409076691 0 0 0 0 -3278328.7536506653 -17437809.257685661 0 -17437809.257685661 39059757.250850677 0 0 0 0 -32898754.850702286 62948504.940312624 0 62948504.940312624 33181272.994219661 0 0 0 0 722250.66538608645 2562785.6571485638 0 2562785.6571485638 -12071832.245877054 0 0 0 0 14863915.59427166 -5867342.0664372444 0 -5867342.0664372444 -35834129.884224415 0 0 0 0 1292700.5400025817 -615622.01001017448 0 -615622.01001017448 -2118972.7391633843 0 0 0 0 -6098205.6127815247 9133099.3842508197 0 9133099.3842508197 -8563200.3781195283 0 0 0 0 -39937223.268331528 1341088.2068679333 0 1341088.2068679333 3889842.5696382523 0 0 0 0 20904946.641780853 28909892.002001435 0 28909892.002001435 -12712951.193506002 0 0 0 0 -5319103.3652701378 15789127.003370058 0 15789127.003370058 -10873125.379291654 0 0 0 0 -18651515.771679401 2801869.6187378168 0 2801869.6187378168 5052838.5551118851 0 0 0 0 -6562913.2880809568 5936662.6975357849 0 5936662.6975357849 5542915.8189575644 0 0 0 0 15784131.685443163 9774971.6057631597 0 9774971.6057631597 -14288066.245087624 0 0 0 0 -59471251.334535599 19871211.887710571 0 19871211.887710571 23095719.083621025 0 0 0 0 -614476.94718383392 4241031.120183602 0 4241031.120183602 -5694107.5691840854 0 0 0 0 -10157882.033597946 18764230.924847126 0 18764230.924847126 4198830.9549007416 0 0 0 0 7398738.2006816864 970969.53000235558 0 970969.53000235558 2900345.5349507332 0 0 0 0 3155737.4392623901 12515131.051507473 0 12515131.051507473 -16897731.282531738 0 0 0 0 -7344244.8706780681 11942037.348854523 0 11942037.348854523 -14933202.462628627 0 0 0 0 -21854993.830036163 48975285.142865658 0 48975285.142865658 19961884.737074971 0 0 0 0 -50463185.14289093 41673209.027583599 0 41673209.027583599 21896385.500162125 0 0 0 0 -30777225.343219757 -157570179.50827813 0 -157570179.50827813 200149625.05152273 0 0 0 0 -1894046.9688770259 1638662.6860921639 0 1638662.6860921639 1655723.9657601621 0 0 0 0 24355744.822895765 61070110.890704513 0 61070110.890704513 10434831.940278053 0 0 0 0 -98982852.210416794 -148041932.12353516 0 -148041932.12353516 319823080.97296977 0 0 0 0 5076366.0770597458 55533847.464174032 0 55533847.464174032 96101235.859676123 0 0 0 0 -5277067.7970600128 21794900.676502705 0 21794900.676502705 42035500.723091125 0 0 0 0 -17032812.45734024 -10629465.23880434 0 -10629465.23880434 96043927.928564072 0 0 0 0 12705559.094987869 17950533.963839054 0 17950533.963839054 2346164.4707641602 0 0 0 0 -3703079.1983084679 17598666.218152821 0 17598666.218152821 9120521.8797140121 0 0 0 0 -83786348.168822289 -8863812.1611948013 0 -8863812.1611948013 -18465812.403755188 0 0 0 0 -153115253.74363995 -186360300.76270127 0 -186360300.76270127 -145080597.62718964 0 0 0 0 -362207559.72109795 -160938575.60351753 0 -160938575.60351753 -36597106.074927807 0 0 0 0 -251164705.61143875 -224491301.16326904 0 -224491301.16326904 -62468042.376686096 0 0 0 0 -258835210.78890419 -116756755.10780716 0 -116756755.10780716 16080396.151090622 0 0 0 0 -33569304.476167679 16178450.456421852 0 16178450.456421852 94023082.588326454 0 0 0 0 -31521262.398926079 -37895367.474265456 0 -37895367.474265456 18419893.563304901 0 0 0 0 30054.543109455146 177153.61644684151 0 177153.61644684151 -939615.21800994501 0 0 0 0 -210149800.36881256 -206875598.55212879 0 -206875598.55212879 -180657523.93697739 0 0 0 0 -266470586.30160236 -386807746.64505625 0 -386807746.64505625 -334612313.49614716 0 0 0 0 9980656.8317909241 -12815617.38792038 0 -12815617.38792038 31992738.481060028 0 0 0 0 37741216.322999001 -29723306.283793449 0 -29723306.283793449 -2582694.7713241577 0 0 0 0 -73573.474505975842 389269.68338759569 0 389269.68338759569 -2750674.8979309034 0 0 0 0 -666364.65674777585 1340385.6129086874 0 1340385.6129086874 -7762096.2824453618 0 0 0 0 11476507.720212936 -50688583.841469765 0 -50688583.841469765 -13720258.812244415 0 0 0 0 40994800.466123581 1917619.8971939087 0 1917619.8971939087 -9036167.482570529 0 0 0 0 100132300.63965362 -7582408.1429281235 0 -7582408.1429281235 -66656554.635620117 0 0 0 0 50228349.559928894 -7102568.4477491379 0 -7102568.4477491379 -11263970.089237213 0 0 0 0 5652078.048186779 -44543487.727440357 0 -44543487.727440357 -149523867.76048279 0 0 0 0 40338616.740450859 21760540.541409492 0 21760540.541409492 -80593896.230518341 0 0 0 0 -2131345.678650856 -60859850.357954025 0 -60859850.357954025 -67177148.037528992 0 0 0 0 -22536895.692481041 -33761222.94438076 0 -33761222.94438076 -84580371.614788055 0 0 0 0 -120246069.1200819 -70553697.093162537 0 -70553697.093162537 -73708958.057987213 0 0 0 0 -98193426.11722517 -146482745.21087694 0 -146482745.21087694 -218844236.65914536 0 0 0 0 -301262251.60344124 -241342522.30283737 0 -241342522.30283737 -66621786.220266342 0 0 0 0 -23845373.319399834 59588164.045166016 0 59588164.045166016 -64095308.100481033 0 0 0 0 -238494669.59922028 -294340354.73534775 0 -294340354.73534775 -366761392.37867355 0 0 0 0 -17460325.385965347 24613826.984367371 0 24613826.984367371 -243480421.43834686 0 0 0 0 -571727373.79154778 -144987379.63772583 0 -144987379.63772583 -103205275.03239441 0 0 0 0 -271898921.13408375 -129036810.87634468 0 -129036810.87634468 -45440335.856844902 0 0 0 0 -301387854.22877312 21513739.368770599 0 21513739.368770599 -426908795.75286865 0 0 0 0 -244185933.85876656 -132613097.20682716 0 -132613097.20682716 -103877109.08402634 0 0 0 0 -3902410.2904720306 -5750718.5607719421 0 -5750718.5607719421 9251378.47605896 0 0 0 0 706836.52084695268 -288726.48304309719 0 -288726.48304309719 -1778995.2975235879 0 0 0 0 -34623204.719327927 24223708.587999344 0 24223708.587999344 -50277679.638729095 0 0 0 0 -44236117.039972305 -22540435.048274994 0 -22540435.048274994 2314071.6926517487 0 0 0 0 -46885440.297298282 35651600.513234258 0 35651600.513234258 792627.74602127075 0 0 0 0 -59900358.143458366 -19225944.979589462 0 -19225944.979589462 -46355138.486232758 0 0 0 0 -19121368.547017097 9998350.0225963593 0 9998350.0225963593 30149266.319164276 0 0 0 0 12617782.716907501 11069313.754881859 0 11069313.754881859 9255549.6715297699 0 0 0 0 15886497.491848946 26672556.948687553 0 26672556.948687553 -749526.45805835724 0 0 0 0 37041434.502584457 84009105.164146423 0 84009105.164146423 35287152.785716534 0 0 0 0 2158146.3504570718 2784108.3616566807 0 2784108.3616566807 -11961379.533533484 0 0 0 0 27692347.367769241 3573126.023393631 0 3573126.023393631 -3662092.2741470337 0 0 0 0 3158074.6763931569 1953348.7105724397 0 1953348.7105724397 -13828444.137945758 0 0 0 0 87447851.298961639 77083496.287248611 0 77083496.287248611 -22974650.188748121 0 0 0 0 7510376.1656856537 16262121.509543419 0 16262121.509543419 3673235.8700375557 0 0 0 0 3589847.4281902313 923255.33578038216 0 923255.33578038216 -3145655.7809057236 0 0 0 0 18629540.914540291 13016982.295627356 0 13016982.295627356 -9094553.5479383469 0 0 0 0 -5036313.6528663635 7841127.6966722012 0 7841127.6966722012 -4308204.7725839615 0 0 0 0 -6003082.2757515907 12444129.234294295 0 12444129.234294295 -5736981.2612361908 0 0 0 0 -3005951.7299540043 3524994.9166550636 0 3524994.9166550636 -20544008.517772675 0 0 0 0 116226.43351044692 777900.33314689994 0 777900.33314689994 -1793426.6025972907 0 0 0 0 -1922609.930015564 1878323.7435753345 0 1878323.7435753345 -25779416.069680214 0 0 0 0 3940242.2248062799 -1600014.1499791481 0 -1600014.1499791481 -8403794.0440478716 0 0 0 0 2977184.2069244385 -5713977.0149502754 0 -5713977.0149502754 -18747046.255337715 0 0 0 0 17426771.098050117 -11326359.058664799 0 -11326359.058664799 -28525073.996789932 0 0 0 0 12420630.176694393 3575218.4063103199 0 3575218.4063103199 -12125476.357315063 0 0 0 0 9789465.9841213226 6697805.144438982 0 6697805.144438982 -817951.9823589325 0 0 0 0 10381491.635240555 11819682.288879871 0 11819682.288879871 -27385016.907020092 0 0 0 0 2113533.059148456 3024038.8067438323 0 3024038.8067438323 -11321907.036059063 0 0 0 0 25722087.534008503 39864514.63849926 0 39864514.63849926 29738023.626264572 0 0 0 0 23095711.0992589 13222305.661094666 0 13222305.661094666 -12952153.084037304 0 0 0 0 5113979.6682677269 8069510.2294151783 0 8069510.2294151783 -8817155.3158321381 0 0 0 0 15555732.79408741 6339332.0954380035 0 6339332.0954380035 -12503887.932778358 0 0 0 0 1808317.6062259674 10566950.225414276 0 10566950.225414276 12189220.751553297 0 0 0 0 10436585.778297663 23555357.651291847 0 23555357.651291847 10688621.718025208 0 0 0 0 -1464406.9844150171 2076855.7696646014 0 2076855.7696646014 1145367.1566945016 0 0 0 0 -11127463.134704113 -9308364.382825613 0 -9308364.382825613 -20263355.667472839 0 0 0 0 -9582396.3226242065 -2433752.4349555969 0 -2433752.4349555969 -15786707.667842865 0 0 0 0 5803400.2690734863 -4708861.7438812256 0 -4708861.7438812256 -26766547.86995697 0 0 0 0 1440317.1002750397 11436652.66091156 0 11436652.66091156 -25786455.038825989 0 0 0 0 8131191.6666221619 3719219.822769165 0 3719219.822769165 -19531788.781861305 0 0 0 0 -3945322.1629108507 8926122.8515539374 0 8926122.8515539374 -18053741.501413208 0 0 0 0 -4145379.9011887256 10895852.016275765 0 10895852.016275765 -15104584.319567489 0 0 0 0 -1666263.097700119 3647131.9248561859 0 3647131.9248561859 -18453410.544838905 0 0 0 0 -6916512.2305450439 18465860.516533375 0 18465860.516533375 -15412344.40007782 0 0 0 0 -4784767.7410202026 10041656.187309265 0 10041656.187309265 -9549095.3429412842 0 0 0 0 -6137693.3156104796 14719645.953932311 0 14719645.953932311 -9149787.0026850179 0 0 0 0 -1289491.079718479 7930312.8131804038 0 7930312.8131804038 -5595357.1693898253 0 0 0 0 -300622.86461547483 1562137.2262585694 0 1562137.2262585694 -7174737.023717978 0 0 0 0 -2134712.5895104408 6796535.6914823055 0 6796535.6914823055 -4635840.7054977417 0 0 0 0 6153894.3150672913 5822145.8749389648 0 5822145.8749389648 -1590865.8760375977 0 0 0 0 -2419079.5566291809 7462008.8821356297 0 7462008.8821356297 -13942420.611892343 0 0 0 0 2293867.4973373413 12289672.94423008 0 12289672.94423008 -9568326.5939457417 0 0 0 0 566764.4225063324 14203390.487064838 0 14203390.487064838 -11109277.984243542 0 0 0 0 -304950.03410993179 6494099.0738556711 0 6494099.0738556711 -3053178.1890233066 0 0 0 0 2466661.3612613678 9616975.433329463 0 9616975.433329463 -7587485.300031662 0 0 0 0 -339913.31739044189 7654214.7597178221 0 7654214.7597178221 -8925517.8101941347 0 0 0 0 2305784.8148460388 6427707.8375136852 0 6427707.8375136852 -4935243.5435237885 0 0 0 0 7287377.68400383 8658084.6669712067 0 8658084.6669712067 -3958840.7614622116 0 0 0 0 2438822.2804470062 10382940.530958414 0 10382940.530958414 -9320645.0321526527 0 0 0 0 -2006863.7667638091 5413960.7259352123 0 5413960.7259352123 -9304995.7520445418 0 0 0 0 -57547041.520795822 32090767.521017075 0 32090767.521017075 14883442.104888916 0 0 0 0 40488348.726294041 -4186070.155356884 0 -4186070.155356884 -8989075.8527240753 0 0 0 0 182196889.23980713 145750915.43138123 0 145750915.43138123 -181624896.24589539 0 0 0 0 12205442.400268555 5060352.5137786865 0 5060352.5137786865 -15037054.240049362 0 0 0 0 -416382.43184767291 3575837.0060580759 0 3575837.0060580759 -7746606.5141305914 0 0 0 0 6999993.2008810043 7400721.8797652721 0 7400721.8797652721 -1065070.5337982178 0 0 0 0 -162543.05624919012 6274676.734338671 0 6274676.734338671 -6452009.9177638823 0 0 0 0 3923990.7811505646 2658963.0951275602 0 2658963.0951275602 -20404254.528847132 0 0 0 0 818530.2876739502 6434172.7196807861 0 6434172.7196807861 -13406597.169311523 0 0 0 0 12930939.727546737 -4129011.9693273222 0 -4129011.9693273222 -30322379.665497161 0 0 0 0 817832.53094914835 -281575.16432526102 0 -281575.16432526102 -14350919.941568971 0 0 0 0 12696475.78058815 3767784.3701648712 0 3767784.3701648712 -14319578.068872452 0 0 0 0 13210183.987738609 3984498.1002912521 0 3984498.1002912521 -14920627.48774147 0 0 0 0 11003233.136731148 5221888.8637666702 0 5221888.8637666702 -14698695.828969002 0 0 0 0 2067289.291028067 7204168.4030214557 0 7204168.4030214557 -16366676.854125118 0 0 0 0 11955706.252189159 5891341.5417830944 0 5891341.5417830944 -15287052.036373138 0 0 0 0 -10927122.411117554 4729523.9909610748 0 4729523.9909610748 -16335348.952674866 0 0 0 0 2530034.86328125 3179761.8037071228 0 3179761.8037071228 -26965537.815189362 0 0 0 0 -2968980.0336621031 7664783.2179970685 0 7664783.2179970685 -11376323.307282113 0 0 0 0 -1342325.7746162415 -10325028.217180252 0 -10325028.217180252 -29961737.607185364 0 0 0 0 -203557348.28266907 58214565.048812866 0 58214565.048812866 -47598286.603633881 0 0 0 0 13149696.310844421 6990449.3792495728 0 6990449.3792495728 -26181418.713283539 0 0 0 0 537430.02178821713 8665802.2926713303 0 8665802.2926713303 -11852914.625988081 0 0 0 0 -701852.725233078 11881407.901553631 0 11881407.901553631 -17747350.778030396 0 0 0 0 18640684.479347229 7057772.7360649109 0 7057772.7360649109 -20096647.556686401 0 0 0 0 40146092.896894455 24866905.021305084 0 24866905.021305084 -19130485.161911011 0 0 0 0 -1822344.0429781731 7306398.1931030191 0 7306398.1931030191 -9341070.8170425594 0 0 0 0 6697672.2004051208 14330824.960668564 0 14330824.960668564 -4898814.4193687439 0 0 0 0 17972882.946325302 14320707.469356537 0 14320707.469356537 -7852084.0299530029 0 0 0 0 8111395.9692440033 9739598.7386798859 0 9739598.7386798859 -8698845.5038909912 0 0 0 0 39310121.032585144 -6837192.7110118866 0 -6837192.7110118866 -104635331.82543945 0 0 0 0 12491339.2775383 40649269.870014191 0 40649269.870014191 -826123.75150299072 0 0 0 0 16961927.388710022 25763435.533699036 0 25763435.533699036 8157776.0165634155 0 0 0 0 9399085.6061348915 4512048.8348798752 0 4512048.8348798752 -25418510.661621094 0 0 0 0 13972554.966687202 4773685.9529361725 0 4773685.9529361725 -14193650.617380142 0 0 0 0 1997626.8693995168 5463835.4240394076 0 5463835.4240394076 -17619791.613107186 0 0 0 0 -30560209.968963623 -2142422.4651451111 0 -2142422.4651451111 -17647895.886375427 0 0 0 0 15231720.015960693 4951838.6817512512 0 4951838.6817512512 -16162146.478908539 0 0 0 0 13926218.907363892 2761152.0439958572 0 2761152.0439958572 -12946276.55928421 0 0 0 0 1361067.8210965118 452503.69388480857 0 452503.69388480857 -16732657.806390904 0 0 0 0 26109259.136372566 3025100.6330404282 0 3025100.6330404282 -19329058.372940063 0 0 0 0 43146530.489843488 -21311763.506470442 0 -21311763.506470442 -44108831.295562744 0 0 0 0 19840589.527368546 125008.19096565247 0 125008.19096565247 -14204816.678067684 0 0 0 0 18028090.865729332 6076918.8833703995 0 6076918.8833703995 -18641680.016414642 0 0 0 0 205827921.57182312 356836857.82267761 0 356836857.82267761 -207397036.1081543 0 0 0 0 24189850.066446304 61970503.29933548 0 61970503.29933548 221943340.44967651 0 0 0 0 2945998.0652046483 4880318.6605780032 0 4880318.6605780032 -19444204.099873975 0 0 0 0 24034965.198696136 -21808625.458007812 0 -21808625.458007812 -5374109.4284057617 0 0 0 0 14206474.621491432 2902624.8341732025 0 2902624.8341732025 -16030731.089385986 0 0 0 0 18594938.828456879 1347113.5151596069 0 1347113.5151596069 -19545171.643000841 0 0 0 0 19927820.585085392 4894023.520878315 0 4894023.520878315 -14134141.319171906 0 0 0 0 20842589.877717972 -1004828.2723274231 0 -1004828.2723274231 -15181743.302915573 0 0 0 0 27845784.283685684 16948065.536902905 0 16948065.536902905 -33750998.04752636 0 0 0 0 2904214.3409571429 2199150.195839745 0 2199150.195839745 -19054579.376472495 0 0 0 0 22871050.350417137 -1720111.45058918 0 -1720111.45058918 -20488892.655164719 0 0 0 0 24358258.079275608 -4186812.5316171646 0 -4186812.5316171646 -16438232.749416351 0 0 0 0 34272202.484558105 -37756767.239486694 0 -37756767.239486694 -14935595.596557617 0 0 0 0 53206731.723205566 -42766930.92086792 0 -42766930.92086792 -33772340.572291374 0 0 0 0 19677113.248715401 3145643.3323609829 0 3145643.3323609829 -24159575.473537445 0 0 0 0 27451923.147651672 2470367.7303581238 0 2470367.7303581238 -23895489.602561951 0 0 0 0 19653989.192642212 -1952177.9576225281 0 -1952177.9576225281 -24232435.708636701 0 0 0 0 16746450.549255371 -19865055.789993286 0 -19865055.789993286 -40006837.972700119 0 0 0 0 6924309.3529815674 -9396674.0172080994 0 -9396674.0172080994 2294466.058380127 0 0 0 0 4860770.4121627808 -19307777.082305908 0 -19307777.082305908 8304357.2684383392 0 0 0 0 46848426.811923981 -21343058.473331451 0 -21343058.473331451 -40922638.543106079 0 0 0 0 11082098.173095703 20914575.10357666 0 20914575.10357666 -34027259.525039673 0 0 0 0 70932831.467803955 43380891.588134766 0 43380891.588134766 -39348946.266906738 0 0 0 0 72609164.127574921 -11169697.233118057 0 -11169697.233118057 -23839346.167709351 0 0 0 0 1974835.5209152121 -1533303.6909152139 0 -1533303.6909152139 -2263904.5634106323 0 0 0 0 -778443.63553619385 12268638.330062866 0 12268638.330062866 -12353975.199028015 0 0 0 0 4376074.6200839914 1861132.782913113 0 1861132.782913113 -17144511.608202804 0 0 0 0 6509626.8880076408 9868142.8543881178 0 9868142.8543881178 -14753185.304359436 0 0 0 0 6778409.6026916504 7162512.1963672638 0 7162512.1963672638 -12996688.333641052 0 0 0 0 6359298.1279650927 6313182.6692268848 0 6313182.6692268848 -14033944.093231201 0 0 0 0 -2166332.2477125516 7903138.7972406093 0 7903138.7972406093 -9236973.0594734251 0 0 0 0 30213004.110590935 -8644691.9744281769 0 -8644691.9744281769 -8509278.9321899414 0 0 0 0 7633436.0310058594 41047752.071567535 0 41047752.071567535 128547182.70073318 0 0 0 0 1370147.7473045122 765096.94780565333 0 765096.94780565333 -2963258.8540324084 0 0 0 0 46513148.165297508 -8370779.2042045593 0 -8370779.2042045593 -9680328.7334442139 0 0 0 0 83508.697019645479 517618.26495247334 0 517618.26495247334 -5652481.1124301124 0 0 0 0 -1031077.6261911392 5611149.2774391174 0 5611149.2774391174 -15801289.186998367 0 0 0 0 625281.50294332951 1377166.7848844212 0 1377166.7848844212 -5099224.5087319445 0 0 0 0 14189177.51705265 -9436138.7638883591 0 -9436138.7638883591 -28702099.109431267 0 0 0 0 1832587.0317840576 9637071.2036583424 0 9637071.2036583424 -24321944.637005806 0 0 0 0 2187335.5792986732 3073945.1092845732 0 3073945.1092845732 -10895294.71431528 0 0 0 0 12378461.120707512 788208.52340078354 0 788208.52340078354 -16980529.029821396 0 0 0 0 26529582.159766197 -7645535.3143796921 0 -7645535.3143796921 -13405584.469206333 0 0 0 0 27485480.793875694 14792605.916578293 0 14792605.916578293 -36353666.485307693 0 0 0 0 -687202.59202766418 16110410.480300426 0 16110410.480300426 -18340885.885439873 0 0 0 0 -1211575.9250049591 32027723.133811951 0 32027723.133811951 -39624018.103735924 0 0 0 0 -59030971.827502251 -34466633.891925335 0 -34466633.891925335 30632574.638271332 0 0 0 0 -650786.01452340279 989969.71022945503 0 989969.71022945503 -2027554.7538712854 0 0 0 0 7124727.8558363914 5088638.3680257797 0 5088638.3680257797 19004452.760128021 0 0 0 0 27769446.033096313 -15363494.139931202 0 -15363494.139931202 -51713231.714383125 0 0 0 0 300686.43988227844 -56513351.70800209 0 -56513351.70800209 -40690454.400505066 0 0 0 0 -717540.73150539398 3382177.8558249474 0 3382177.8558249474 -12022059.22811079 0 0 0 0 856501.02453772258 -466305.40340874903 0 -466305.40340874903 -2149905.7847544579 0 0 0 0 -13123220.613817215 -10739661.804589272 0 -10739661.804589272 -13930896.782891273 0 0 0 0 36508668.136007309 1202287.7673921585 0 1202287.7673921585 -17510254.664769888 0 0 0 0 38469586.43256855 -10594043.476241112 0 -10594043.476241112 2546408.7898521423 0 0 0 0 19701139.060281754 -17365030.893379211 0 -17365030.893379211 37313111.361036301 0 0 0 0 14858874.300329208 24714172.877576828 0 24714172.877576828 -96372259.970098495 0 0 0 0 -8171192.7608642578 7753154.6673970222 0 7753154.6673970222 -23354344.165903091 0 0 0 0 -398861.23966303095 523888.31157552637 0 523888.31157552637 -399237.25373731391 0 0 0 0 -14739905.135428429 -3412163.679066658 0 -3412163.679066658 27452142.357775688 0 0 0 0 4840204.771446228 -3898447.8771505356 0 -3898447.8771505356 -74290343.161472321 0 0 0 0 6725811.5934228897 7442806.0211987495 0 7442806.0211987495 -23376701.153564453 0 0 0 0 9551427.7223892212 4281255.0227370262 0 4281255.0227370262 -21652554.431007385 0 0 0 0 9312589.0880804062 1703968.2721862793 0 1703968.2721862793 -54953564.610647202 0 0 0 0 1545023.1223869324 4008739.4632158279 0 4008739.4632158279 -24311199.926465988 0 0 0 0 3396111.640443325 -2440.3468537330627 0 -2440.3468537330627 -44992473.498512268 0 0 0 0 1362041.9461154938 5830510.6011295319 0 5830510.6011295319 -30648617.706020355 0 0 0 0 4354841.6283589303 -25459816.452712715 0 -25459816.452712715 -16208349.344427109 0 0 0 0 120386.79159259796 27720331.487071514 0 27720331.487071514 -61751159.923238754 0 0 0 0 -482160.39406214049 638110.59210946737 0 638110.59210946737 -758803.89462915016 0 0 0 0 2829728.781545639 16217280.103469849 0 16217280.103469849 -60708159.615540504 0 0 0 0 -7481795.8593006134 27894715.994731903 0 27894715.994731903 -53680594.836187363 0 0 0 0 -4777029.5756998062 9266423.7930073738 0 9266423.7930073738 -35490553.703941345 0 0 0 0 -2248931.5761470795 8969979.4585723877 0 8969979.4585723877 -44342030.517087936 0 0 0 0 6075587.0613956451 1122053.5408978462 0 1122053.5408978462 -39980098.310516357 0 0 0 0 -410042.02488422394 2891331.097599268 0 2891331.097599268 -38591757.902658463 0 0 0 0 2057574.4031391144 5925394.3855781555 0 5925394.3855781555 -40276609.043273926 0 0 0 0 1775104.8598365784 5483475.6321430206 0 5483475.6321430206 -36844341.924217224 0 0 0 0 1846390.6149282455 4984272.9810152054 0 4984272.9810152054 -36930793.371774673 0 0 0 0 4265419.61095047 4335629.0189790726 0 4335629.0189790726 -38122881.023099899 0 0 0 0 4688339.5367698669 2386756.7654733658 0 2386756.7654733658 -34019919.171882629 0 0 0 0 -90887.745591163635 7564626.3498649597 0 7564626.3498649597 -34888163.408565044 0 0 0 0 -13914613.661070824 16947592.244395018 0 16947592.244395018 -18065273.466279984 0 0 0 0 -821140.98452949524 8263084.0526161194 0 8263084.0526161194 -24764571.445211411 0 0 0 0 111104.13814520836 4245680.7402222157 0 4245680.7402222157 -20504858.837646484 0 0 0 0 88275228.451986313 81416855.503822327 0 81416855.503822327 -79459567.527287483 0 0 0 0 135617589.79368234 -43361289.351322651 0 -43361289.351322651 -43132363.244466782 0 0 0 0 1261008.5470643044 14399311.174082518 0 14399311.174082518 -35683577.875572205 0 0 0 0 -1839394.7894115448 4666030.0627098083 0 4666030.0627098083 -25263150.190864563 0 0 0 0 5338440.9048518771 670014.25647534849 0 670014.25647534849 -10127447.867850998 0 0 0 0 3815233.4496229524 1499434.2701162891 0 1499434.2701162891 -7909620.2320512822 0 0 0 0 333585.19603919983 3785979.3980064392 0 3785979.3980064392 -36331993.685091972 0 0 0 0 7690270.0260028839 6514556.2926464081 0 6514556.2926464081 -37900419.959867477 0 0 0 0 33990948.886023521 -40514227.669594765 0 -40514227.669594765 38312878.479782581 0 0 0 0 5126280.7259229114 96314.534034015553 0 96314.534034015553 -11953285.019925117 0 0 0 0 18861147.965637207 -15254877.838550568 0 -15254877.838550568 -3848233.7256374359 0 0 0 0 2583439.2664186954 1459444.845051527 0 1459444.845051527 -11799046.747249842 0 0 0 0 2768452.4606799455 6970103.6702199262 0 6970103.6702199262 -9904450.6464350708 0 0 0 0 1638245.7545385361 12431571.303436279 0 12431571.303436279 -18919668.391418457 0 0 0 0 1574311.2232847214 3156000.3920848966 0 3156000.3920848966 -12168562.93086341 0 0 0 0 7854191.2947494704 -1583444.2324339021 0 -1583444.2324339021 -10835836.102173906 0 0 0 0 9326801.2337493896 13630329.48783493 0 13630329.48783493 -29416262.574687481 0 0 0 0 6355807.5558509827 9913610.7462520599 0 9913610.7462520599 -26747472.656072617 0 0 0 0 1574995.0993492291 3172062.0012994315 0 3172062.0012994315 -12566681.970237922 0 0 0 0 795525.35522079468 3915222.8443689346 0 3915222.8443689346 -10082579.642840862 0 0 0 0 6749809.8666718006 2961074.6032289267 0 2961074.6032289267 -13897784.958922863 0 0 0 0 3380015.4294260461 2593022.6460505622 0 2593022.6460505622 -16831195.006805032 0 0 0 0 2197798.432506728 7000922.9362976141 0 7000922.9362976141 -10915261.270852048 0 0 0 0 6356478.7508347034 9549217.8132435083 0 9549217.8132435083 -15675762.864479065 0 0 0 0 2852545.7497389317 588775.41371417046 0 588775.41371417046 -10314419.2499547 0 0 0 0 6315394.5057973266 1880509.2043113708 0 1880509.2043113708 -7382512.6123104095 0 0 0 0 6926980.0632823706 -1315850.8023138046 0 -1315850.8023138046 -9653619.5579037666 0 0 0 0 4256415.1589337438 1928629.4160436839 0 1928629.4160436839 -13717318.612636933 0 0 0 0 39828331.237092972 -12274158.165841103 0 -12274158.165841103 -23573578.820937157 0 0 0 0 39282609.110542297 -10235105.906299591 0 -10235105.906299591 -30796364.005281448 0 0 0 0 34291555.897127628 -19177989.828722954 0 -19177989.828722954 -4078176.1579265594 0 0 0 0 32507430.14081192 -12459999.48967886 0 -12459999.48967886 -22671278.039239883 0 0 0 0 44891810.570743144 -6338474.6539688706 0 -6338474.6539688706 -35080118.999277115 0 0 0 0 42707781.528414726 -26610435.043037415 0 -26610435.043037415 -25791692.680927277 0 0 0 0 37993588.98609066 -14223242.547987938 0 -14223242.547987938 -38928636.929611206 0 0 0 0 15177376.95647049 9245470.6568088531 0 9245470.6568088531 -17352221.719923973 0 0 0 0 6975228.9269189835 -6298464.7122211456 0 -6298464.7122211456 -29076738.601297379 0 0 0 0 36369887.899208069 -2496237.1275787354 0 -2496237.1275787354 -36439571.172814608 0 0 0 0 59115960.060125351 36786869.693124771 0 36786869.693124771 -30578970.389440536 0 0 0 0 6584326.9458651934 2233187.0143348202 0 2233187.0143348202 -25712783.100687377 0 0 0 0 6913263.3765786923 10670.135428223759 0 10670.135428223759 -16581263.46478809 0 0 0 0 7420202.2696208954 2577841.2423191071 0 2577841.2423191071 -11530817.036577702 0 0 0 0 15673839.623617172 1802491.2033920288 0 1802491.2033920288 -23497805.860336304 0 0 0 0 -9797100.6585814953 14233498.484712124 0 14233498.484712124 -26646864.347183228 0 0 0 0 2941241.0368491448 10341027.703672249 0 10341027.703672249 -21070855.902191136 0 0 0 0 -17408218.88401413 11638601.979820251 0 11638601.979820251 -19878899.563739777 0 0 0 0 23341.507834622636 94491.208457734436 0 94491.208457734436 -1484312.5403464455 0 0 0 0 9441119.1702824235 -47204424.501452923 0 -47204424.501452923 -22641624.438102722 0 0 0 0 1465749.8496659761 -560662.64685547724 0 -560662.64685547724 -1973388.7052121051 0 0 0 0 11086031.751452506 21836702.065975308 0 21836702.065975308 -60505646.994354248 0 0 0 0 2465285.2224082947 -7299809.7892990112 0 -7299809.7892990112 -89118865.10193634 0 0 0 0 15356249.972717285 -8104053.982257843 0 -8104053.982257843 13779247.752792358 0 0 0 0 27311038.454376221 1442906.4225883484 0 1442906.4225883484 -87163967.492935181 0 0 0 0 7998246.6594762802 21402184.460224152 0 21402184.460224152 -87590214.401603699 0 0 0 0 596477.31364452839 -959242.28762007412 0 -959242.28762007412 1223269.6921669096 0 0 0 0 8278275.1996603012 9119383.5562925339 0 9119383.5562925339 -11500016.976436615 0 0 0 0 12351429.893936157 14405621.29838562 0 14405621.29838562 -71417772.286941528 0 0 0 0 5295063.5997974286 2783409.560458072 0 2783409.560458072 -21770888.108083572 0 0 0 0 3503603.6835451126 2470214.0331707001 0 2470214.0331707001 -12322611.173051834 0 0 0 0 4189686.7867887104 6864032.4818322724 0 6864032.4818322724 -26384395.371837497 0 0 0 0 18797363.57452774 10602801.182078362 0 10602801.182078362 -24367455.472616196 0 0 0 0 -7181501.6388244629 11110792.719108582 0 11110792.719108582 -8634034.6405124664 0 0 0 0 793051.91190517507 1606758.4834237099 0 1606758.4834237099 -2320947.5878816256 0 0 0 0 2081311.3620597811 11567242.476838792 0 11567242.476838792 -9162330.0092916302 0 0 0 0 4238509.8523027124 1226965.83299001 0 1226965.83299001 -11744144.037238441 0 0 0 0 12831323.166671753 4851345.8290014267 0 4851345.8290014267 -15049995.520744324 0 0 0 0 10446977.155010283 387436.48874998093 0 387436.48874998093 -12833177.21065712 0 0 0 0 8823146.2108802795 1999782.5394515991 0 1999782.5394515991 -15610934.173102856 0 0 0 0 4057283.5649003983 4037686.9907417297 0 4037686.9907417297 -11530946.665775299 0 0 0 0 2366321.4979308671 1975879.2939406172 0 1975879.2939406172 -10552351.75874765 0 0 0 0 6939380.7846026421 5729539.9226827621 0 5729539.9226827621 -11887858.34217453 0 0 0 0 14208089.196083128 148764.33614516258 0 148764.33614516258 -11101624.817462921 0 0 0 0 3106629.8114303662 372464.57663567155 0 372464.57663567155 -8538015.4922599867 0 0 0 0 19016799.095405012 -783539.72281527519 0 -783539.72281527519 -15865725.494525909 0 0 0 0 3224662.0626992085 1233810.0096319867 0 1233810.0096319867 -16843890.614583552 0 0 0 0 11041028.180092335 -5164063.97315979 0 -5164063.97315979 -13812266.674773693 0 0 0 0 20197658.09623003 -1130823.3392435312 0 -1130823.3392435312 -14385170.233840942 0 0 0 0 6355952.997002814 -3879555.4466291759 0 -3879555.4466291759 -15781066.423740754 0 0 0 0 13510346.437011033 1842335.5703650713 0 1842335.5703650713 -24035740.154945374 0 0 0 0 15490009.914337158 4275655.5923309326 0 4275655.5923309326 -23493643.764038086 0 0 0 0 13161835.542693138 4048169.2974624634 0 4048169.2974624634 -22572492.156581879 0 0 0 0 11790053.877851486 1176251.9344787598 0 1176251.9344787598 -23203907.520904541 0 0 0 0 12711264.094477654 1610921.6568470001 0 1610921.6568470001 -29946231.656211853 0 0 0 0 8073859.4842567444 -2028099.7157287598 0 -2028099.7157287598 -23414936.850505829 0 0 0 0 38193539.71736908 -14223743.25030899 0 -14223743.25030899 -10115495.723890305 0 0 0 0 6971513.0402565002 -3201582.5946350098 0 -3201582.5946350098 -24461120.48733902 0 0 0 0 6683821.6655084044 -6337915.1625117064 0 -6337915.1625117064 -16659288.9403047 0 0 0 0 35267823.020921707 -7052937.4214324951 0 -7052937.4214324951 -5347351.1348266602 0 0 0 0 5177055.60431174 2094511.3019015931 0 2094511.3019015931 -16906468.88904845 0 0 0 0 -783221.68961729668 5350838.361746408 0 5350838.361746408 -10895369.845526025 0 0 0 0 18502526.349697113 12837770.214630127 0 12837770.214630127 -32386610.638778687 0 0 0 0 -7588244.8682632446 39562001.440139771 0 39562001.440139771 -41377219.790957451 0 0 0 0 5874936.2341690063 35856375.425270081 0 35856375.425270081 -60285469.429962158 0 0 0 0 -11802141.29384613 15123466.167938232 0 15123466.167938232 -32165408.229919434 0 0 0 0 -37706819.378887177 22047699.015083313 0 22047699.015083313 -32911208.661727905 0 0 0 0 1458971.5909645609 -6153854.0426428365 0 -6153854.0426428365 1484488.6878262833 0 0 0 0 6532698.0579669978 3168989.0646062717 0 3168989.0646062717 -27244910.583657786 0 0 0 0 90329471.452461243 -9246415.6328430176 0 -9246415.6328430176 -31570642.047943115 0 0 0 0 21734905.775960922 21735216.318798065 0 21735216.318798065 -29080813.659042358 0 0 0 0 -56190920.310777664 43134775.323184967 0 43134775.323184967 -46062480.620651245 0 0 0 0 4767516.5945964623 14076298.43717071 0 14076298.43717071 -44002756.069601797 0 0 0 0 1402939.8231246285 10207029.308029074 0 10207029.308029074 -25418703.829713583 0 0 0 0 51052634.809829712 -68271459.270935059 0 -68271459.270935059 530088460.93457031 0 0 0 0 53038801.585384369 -3060368.1631622314 0 -3060368.1631622314 -41716215.539395332 0 0 0 0 -11207658.845748663 30679166.196652412 0 30679166.196652412 -28007194.036514282 0 0 0 0 31168363.515773773 117249960.68783569 0 117249960.68783569 -854646896.453125 0 0 0 0 14715560.538578033 18031595.735969543 0 18031595.735969543 -61943365.642608643 0 0 0 0 -13998799.156242371 45949059.518348694 0 45949059.518348694 -89014661.679824829 0 0 0 0 19739153.562450409 -48178243.381736755 0 -48178243.381736755 -100701876.48906422 0 0 0 0 765847.25763499737 -12715758.108292341 0 -12715758.108292341 -24083282.962722778 0 0 0 0 2745030.7062480077 1654946.3419140503 0 1654946.3419140503 -7764665.6243665665 0 0 0 0 7085352.6499471664 33953426.98233223 0 33953426.98233223 -53375419.677268982 0 0 0 0 6555154.9958105562 4018544.1260023341 0 4018544.1260023341 -28609543.956728451 0 0 0 0 21795174.347434998 41013012.671806335 0 41013012.671806335 25742316.406829834 0 0 0 0 889898.18229115009 -15028989.683416605 0 -15028989.683416605 -39297953.669937134 0 0 0 0 10480533.76543045 -10336733.487854004 0 -10336733.487854004 -37802100.904403687 0 0 0 0 37271220.721046448 35789795.299789429 0 35789795.299789429 -61489865.1120224 0 0 0 0 65702353.565712929 23039781.931803226 0 23039781.931803226 -63925576.031997681 0 0 0 0 64890363.695368528 29141450.636897087 0 29141450.636897087 -56021415.952423096 0 0 0 0 98470556.581298828 36016216.900688171 0 36016216.900688171 -63804791.107727051 0 0 0 0 31047972.449733734 30148868.327018738 0 30148868.327018738 -52813459.327262878 0 0 0 0 61379631.067825317 21158325.789268494 0 21158325.789268494 -50540832.154632568 0 0 0 0 34184127.025413513 25698773.271820068 0 25698773.271820068 -58101317.936904907 0 0 0 0 21568935.325123787 22666299.726612091 0 22666299.726612091 -34844933.221862793 0 0 0 0 50370990.171657562 -8781939.2534790039 0 -8781939.2534790039 -561877.53386306763 0 0 0 0 62622647.768950462 20365004.364725113 0 20365004.364725113 -62320512.410751343 0 0 0 0 61530078.995559692 1996406.8973464966 0 1996406.8973464966 -55991154.844352722 0 0 0 0 74842906.274501801 7470789.6949157715 0 7470789.6949157715 -54947099.249343872 0 0 0 0 79638547.53083086 -6297249.8651504517 0 -6297249.8651504517 -78110867.86517334 0 0 0 0 82695075.479103088 -6224803.1883087158 0 -6224803.1883087158 -80197063.623245239 0 0 0 0 90798959.965965271 -42912228.354560852 0 -42912228.354560852 -99078610.041557312 0 0 0 0 32127905.450702667 -48707366.817703247 0 -48707366.817703247 -78871673.024078369 0 0 0 0 33367316.201580644 -79397644.080234885 0 -79397644.080234885 -57559858.05506897 0 0 0 0 216744556.29944611 -96629097.326187134 0 -96629097.326187134 -117056297.97325897 0 0 0 0 134107981.24764919 -30794568.137187958 0 -30794568.137187958 -98254821.771392822 0 0 0 0 98281278.243213177 -114970744.85129356 0 -114970744.85129356 -116521818.31922913 0 0 0 0 112622316.73445892 -13967740.451187134 0 -13967740.451187134 -108034546.27395535 0 0 0 0 123977215.72941208 999486.7265663147 0 999486.7265663147 -88305962.012878418 0 0 0 0 -12480279.970756531 -99542050.599952698 0 -99542050.599952698 -17741798.713111877 0 0 0 0 -40858624.059138298 -70688033.973854065 0 -70688033.973854065 -33412287.469436646 0 0 0 0 -12274576.44437027 -102556267.85293579 0 -102556267.85293579 -69289045.464653015 0 0 0 0 -356460234.03923035 -138124727.20445251 0 -138124727.20445251 33346431.870986938 0 0 0 0 1163517.4406897151 -68693.977723312099 0 -68693.977723312099 -32330.952713891864 0 0 0 0 -218669167.684021 -345070779.59723663 0 -345070779.59723663 298547824.32521057 0 0 0 0 40694041.152746201 -277708259.9329071 0 -277708259.9329071 24852495.401054382 0 0 0 0 236931539.97774506 -380568100.77838898 0 -380568100.77838898 4666125.2809867859 0 0 0 0 199003691.7457695 -102056031.24298859 0 -102056031.24298859 216143472.17636299 0 0 0 0 230862917.60185051 -299326182.4523201 0 -299326182.4523201 -270865409.7950592 0 0 0 0 118376488.09861374 63314809.886631012 0 63314809.886631012 -42745972.617919922 0 0 0 0 227502563.81490326 6688772.3990097046 0 6688772.3990097046 -107621918.9712038 0 0 0 0 169502256.94145012 -59211986.557044983 0 -59211986.557044983 -146427704.74703979 0 0 0 0 550848259.18353271 198209.26304626465 0 198209.26304626465 -138718042.09388351 0 0 0 0 624564548.88180161 250677005.98444366 0 250677005.98444366 -23551913.343971252 0 0 0 0 914564833.22769928 -159640074.18917847 0 -159640074.18917847 -254185628.72086143 0 0 0 0 164334228.80739594 100953226.45236969 0 100953226.45236969 -71923044.790267944 0 0 0 0 120158803.42112732 54851429.431739807 0 54851429.431739807 -43190946.596598625 0 0 0 0 337865234.36945343 -687204963.40351105 0 -687204963.40351105 805053832.55018234 0 0 0 0 110061887.2829628 177503552.1855278 0 177503552.1855278 120344635.59640503 0 0 0 0 3516604.4831902981 -1040779.0886799768 0 -1040779.0886799768 -1710066.6922510639 0 0 0 0 870514593.44149351 -1079978452.3978825 0 -1079978452.3978825 -914135270.05085754 0 0 0 0 434418145.15494156 -110473259.02877045 0 -110473259.02877045 85650545.849887848 0 0 0 0 3169544.0673881648 3052974.574744978 0 3052974.574744978 -2851691.0739872083 0 0 0 0 847058243.64845276 -107102650.22506523 0 -107102650.22506523 -365607426.49703979 0 0 0 0 461480462.68935966 -145305980.32374191 0 -145305980.32374191 -9273631.1309661865 0 0 0 0 162224658.64089203 -145992368.39567566 0 -145992368.39567566 157042750.79376221 0 0 0 0 -335924060.97399902 -496646216.05955124 0 -496646216.05955124 43391923.880935669 0 0 0 0 152466977.90351486 -172195123.94417572 0 -172195123.94417572 -216489107.19649506 0 0 0 0 1569551.0807224652 1460360.2775489772 0 1460360.2775489772 -1191917.5623861402 0 0 0 0 603149205.174963 -532603018.20140457 0 -532603018.20140457 -83136567.131729126 0 0 0 0 637123922.64099503 254898513.04541016 0 254898513.04541016 1641267077.1944885 0 0 0 0 77106147.755149841 -385374791.44605255 0 -385374791.44605255 295273977.15110779 0 0 0 0 148723402.01135445 -11821338.581962585 0 -11821338.581962585 -133843226.98226929 0 0 0 0 626171350.78893566 182094125.50148392 0 182094125.50148392 -174799850.61753845 0 0 0 0 -631293730.86518478 -580619834.14498138 0 -580619834.14498138 -417978306.22341919 0 0 0 0 146438949.74831772 150267411.12706757 0 150267411.12706757 -1125425133.2710342 0 0 0 0 -592862157.69629669 820725224.69639587 0 820725224.69639587 -595744702.30567932 0 0 0 0 13090042.088850021 369794941.05513 0 369794941.05513 -260730241.60877228 0 0 0 0 -20734912.201619148 330562713.13860321 0 330562713.13860321 -130394454.98927307 0 0 0 0 588313952.57227325 -163865623.13706589 0 -163865623.13706589 -266575338.71081543 0 0 0 0 -312998560.86128497 383583648.81773806 0 383583648.81773806 -142770915.48377228 0 0 0 0 385709044.57528591 -220089470.0913868 0 -220089470.0913868 16889521.515068054 0 0 0 0 1972529.280888713 1987900.0313779311 0 1987900.0313779311 -2005431.5654926747 0 0 0 0 133621418.10070801 273085493.69618416 0 273085493.69618416 -286307120.53705597 0 0 0 0 185241120.43212891 6049665.7579460144 0 6049665.7579460144 -187459228.09951782 0 0 0 0 295873404.19531631 -97425693.881500244 0 -97425693.881500244 -122135073.75518036 0 0 0 0 180342647.82068253 -147066483.38829803 0 -147066483.38829803 28803956.180671692 0 0 0 0 214888887.59323692 -81014794.003328323 0 -81014794.003328323 -62120225.637870789 0 0 0 0 115177299.74118805 -74069548.736171722 0 -74069548.736171722 -47465124.722503662 0 0 0 0 124548840.01243258 -12928911.555820465 0 -12928911.555820465 -46144363.114227295 0 0 0 0 171752315.84404373 -22706637.166042328 0 -22706637.166042328 -44391632.733451843 0 0 0 0 16123971.278957367 8563680.2231674194 0 8563680.2231674194 -10846322.539161682 0 0 0 0 1603624.3988222303 13479802.424025977 0 13479802.424025977 -14015882.889700294 0 0 0 0 13271426.096843719 10709851.665885925 0 10709851.665885925 -10246284.020225525 0 0 0 0 38529338.150234222 -4582058.6632347107 0 -4582058.6632347107 -4455182.9102058411 0 0 0 0 12320452.141901195 3380485.4396970049 0 3380485.4396970049 -9005472.5955756903 0 0 0 0 70670291.247573853 -4632679.6765213013 0 -4632679.6765213013 -17563424.422409058 0 0 0 0 16171454.049713135 -950490.52879333496 0 -950490.52879333496 -14866322.124359131 0 0 0 0 14931358.707427979 7014698.0252723694 0 7014698.0252723694 -14010008.870300293 0 0 0 0 17320568.556739807 12582556.045085907 0 12582556.045085907 -18995351.45199585 0 0 0 0 -89632.392089426517 281170.44557292759 0 281170.44557292759 -780024.47661080956 0 0 0 0 6710545.6639669714 -655494.06835511327 0 -655494.06835511327 -17538303.653583892 0 0 0 0 6433978.6899213344 3272605.7555014752 0 3272605.7555014752 -22000030.166835517 0 0 0 0 12852565.473531723 1455590.1111984253 0 1455590.1111984253 -16357675.916641235 0 0 0 0 4058931.0497322083 -2368892.1714668274 0 -2368892.1714668274 -36324230.024856567 0 0 0 0 9403494.2365932465 3321254.5473403931 0 3321254.5473403931 -30539601.734003067 0 0 0 0 -695201.11609649658 5920213.0968399048 0 5920213.0968399048 -44791880.325504303 0 0 0 0 32810556.237133026 5058790.8593902588 0 5058790.8593902588 -103693326.99410248 0 0 0 0 8963022.9756597821 -547101.72387215495 0 -547101.72387215495 -4825379.6886570044 0 0 0 0 -26786734.414658546 -47445253.503543854 0 -47445253.503543854 -31024746.988418579 0 0 0 0 181575483.58401012 -111429075.88117027 0 -111429075.88117027 62476541.189323425 0 0 0 0 39384795.29492569 -58232608.703598022 0 -58232608.703598022 61975149.199483871 0 0 0 0 
</DataArray>
<DataArray type="Float64" Name="cross_section_updated" format="ascii">
1 1 0.04923876598516029 1 1 1 1 0.049240409821962615 1 1 1 1 1 1 1 1 1 1 1 1 0.047097776063703634 1 1 1 1 0.047092284166499007 1 1 1 1 1 1 1 0.047099177820269761 1 1 1 1 1 1 1 1 0.043875297424982779 1 1 1 1 1 1 1 1 1 1 1 0.043340279903332168 0.050969680175377688 1 1 1 1 1 1 1 1 0.03692384483311615 1 1 1 1 1 1 1 1 1 1 1 1 1 1 1 1 1 1 1 1 1 1 0.040534155670384812 1 1 1 1 1 1 1 1 1 1 1 0.047318590117761329 1 1 1 0.048895789821844962 1 1 1 1 1 1 1 1 1 1 1 1 1 1 1 1 1 1 1 1 1 1 1 1 1 1 1 1 1 1 1 1 1 1 1 1 1 1 1 1 1 1 1 1 1 0.050173506385087233 1 0.046910989751266362 1 1 1 1 1 1 1 1 1 1 1 1 1 1 1 1 1 1 1 1 1 1 1 1 1 1 0.048307869007284655 1 1 0.049751695965063986 1 0.049083442271734917 1 1 1 1 1 1 1 1 1 1 1 1 1 1 0.050599783212386854 1 0.042197784792785707 1 1 1 1 1 1 1 0.044112243623690588 1 0.042018371194451044 1 1 1 1 1 1 0.051122840976732906 1 1 0.037916024937482022 1 1 1 1 1 1 0.038122320984748673 0.028621220146133691 1 1 0.050026561260174379 1 0.03754254131165035 1 0.049789809508537161 0.043384634600447829 1 1 1 0.03472502655872655 1 1 1 1 1 1 1 1 1 1 1 1 1 0.021098467689104429 1 1 1 1 1 1 1 0.013655330455006611 1 1 1 1 1 1 1 0.0068809074483186447 1 1 1 1 0.048648945610096257 1 1 1 1 1 1 0.049838772006378429 1 1 1 0.046152287320002462 1 1 1 1 1 1 1 0.044055066084958003 1 1 1 1 1 1 0.049914350730177505 1 1 1 1 1 1 0.049061614675783148 1 1 1 1 1 1 1 0.050211576408293643 1 1 1 1 1 1 1 1 1 1 1 1 1 1 1 1 1 1 1 1 1 0.050889160036720976 0.049905939244890236 1 1 1 1 1 0.05305956268413152 1 1 1 1 1 1 1 0.03906586483784863 1 0.061728165232770402 1 1 1 0.03851997996572986 1 1 1 0.049589979319123803 1 0.049972311777962214 1 1 1 1 1 1 1 0.02512267734413573 1 1 1 1 1 1 1 0.0017756595078375487 1 1 1 0.050043997807939958 1 1 1 1 1 1 1 1 1 1 1 1 1 1 1 1 1 1 1 1 1 1 1 1 1 1 1 1 1 1 1 1 0.019700069997341058 1 1 1 1 1 1 1 1 1 1 1 1 1 1 1 1 1 1 1 1 1 1 1 1 1 1 1 1 1 1 1 1 0.050051214083513998 1 1 1 1 1 1 1 1 1 1 1 1 1 1 1 1 1 1 1 1 0.050055024344680163 1 1 1 1 1 1 1 0.04990289266747288 1 1 1 1 1 0.049764941183830305 1 1 0.049993370122090597 1 0.049071027471252783 1 1 1 1 0.048059595254557413 1 1 0.046995259000470961 1 1 1 1 1 1 0.046473015972232988 1 1 1 1 1 1 1 1 1 1 1 1 1 1 1 1 1 1 1 0.047484127806036655 1 1 1 1 1 1 1 1 1 1 1 0.049320928084585124 0.047947763275057488 1 1 1 1 1 1 1 1 1 1 1 1 1 1 1 1 1 1 1 1 1 0.050087756799016371 1 0.050061385254925331 0.050485643303967709 1 1 0.049397195274567374 1 1 1 1 1 1 1 1 1 1 1 1 1 0.051257600089133395 1 1 1 1 1 1 1 0.05088685812364073 0.050860572778251095 1 1 1 1 1 1 1 1 0.049329301077576465 0.049617553624785427 1 1 1 0.050202063140673291 1 1 1 1 1 1 1 1 1 1 1 1 1 1 1 1 1 1 1 1 1 1 1 1 1 1 1 1 1 1 1 1 1 1 1 0.050018965856630439 1 1 0.049882780263964366 1 1 1 1 0.049703552481990786 1 1 1 0.050053553988457414 1 1 1 0.050030643985210517 1 1 0.050022929617301704 1 1 1 1 1 1 1 1 1 1 1 1 1 1 1 1 1 1 1 1 1 0.049856923166019106 1 1 1 0.049888746110749616 1 1 1 1 1 0.049829139064261285 1 1 1 1 1 1 0.049969916739759458 1 1 1 1 1 1 1 1 1 1 1 1 1 1 1 1 1 1 0.049938092622684956 1 1 1 1 1 1 1 1 1 1 1 1 1 1 1 1 1 1 1 1 1 0.04982077221802643 1 1 1 1 1 1 1 1 1 1 1 1 1 1 1 0.049846292901839465 1 1 1 1 1 1 1 1 1 1 1 1 1 1 1 1 1 1 0.041878640666001096 1 1 1 1 1 1 1 0.04986977157825187 1 1 1 1 1 1 1 1 1 1 1 1 1 1 1 1 1 1 1 1 1 0.048220421682662537 1 1 1 1 1 1 1 1 1 0.044887165550042102 1 1 1 1 1 1 1 1 0.014544227245680497 1 1 1 1 1 1 1 1 1 1 1 1 1 1 1 1 1 1 1 0.017640620420067536 1 1 1 1 1 0.0096683154495928927 1 1 1 0.050112158523868348 1 1 1 1 1 1 0.053426489152792384 1 1 1 1 1 1 1 1 1 1 0.048386622099575886 1 1 1 1 1 1 1 1 1 1 1 1 0.050596132269279219 1 0.044859090226987079 1 1 1 1 1 1 1 0.017740262528770891 1 0.045299375682007509 1 1 1 1 1 1 1 1 1 1 1 1 1 1 1 1 1 1 1 1 1 1 1 1 1 1 1 1 1 1 1 1 1 1 1 1 1 1 1 1 1 1 1 1 1 0.047369392087850536 0.046418657131990879 1 1 0.050146269886655596 1 1 1 1 1 1 1 1 1 1 1 1 1 1 1 1 0.051549847158640916 1 1 1 1 0.01568414734641755 1 1 0.04957855232009805 1 1 1 1 1 1 0.02035003746070356 1 0.023483020541165037 1 1 0.050093591479698787 1 1 1 1 1 1 1 1 1 1 0.050495400340567251 1 1 1 1 1 0.046218413706174716 0.049960329886314665 1 1 1 1 0.037632165899066761 1 1 0.036464780387533063 1 0.039058787798337991 1 1 1 1 1 0.047174640670953241 1 1 0.049989110902737166 1 1 1 1 1 1 1 1 1 1 1 1 0.048540871738571571 1 1 1 1 1 1 1 1 1 1 1 1 1 1 1 0.048748190167853908 1 0.04999769057373335 1 0.047121939391944832 0.047169999150844348 1 0.047642274332330356 1 1 0.049970269227678075 1 1 1 1 1 1 0.055835951431600916 1 0.050150605301335041 1 1 0.056777985936345095 1 1 1 0.035971400244600028 1 1 0.049964128118301393 1 1 1 1 1 0.042968129132009897 1 1 0.046895115449389742 1 1 1 1 1 0.049554033126715143 1 0.038581265105228912 1 1 0.037103724025886922 1 1 0.044769930052215842 1 1 1 1 1 1 1 1 0.046300766318270944 1 1 1 1 1 1 1 1 1 1 0.047756881419583702 1 1 1 1 0.051201310978427395 1 1 0.054318207257534938 1 1 1 1 1 0.039623671498893565 1 1 1 1 1 0.050004399929653533 1 0.050190138926641426 1 1 1 1 1 1 0.049484292262354179 1 1 1 1 1 1 1 1 0.041304249818683289 0.04388487190283006 0.049120399421745321 1 1 1 1 0.042118374035055917 1 0.049828096345363934 1 1 1 0.035352559447544771 0.049974819558218503 1 1 1 0.048065798127943093 1 1 1 0.043978117233082689 1 0.050012741514771628 1 0.048335050649674402 0.038859693588208274 1 0.049999893487395863 1 1 1 1 0.043376426217216144 1 1 1 0.049589195894370663 1 0.047844873448318843 1 0.038636085250320751 1 1 1 1 1 1 1 0.049797193435866895 1 1 1 1 0.038192873027039415 1 1 1 1 1 1 1 1 0.050009644206425799 1 0.049335337704870183 0.048943027803624056 1 1 1 0.048814238564828707 1 1 1 1 0.049012666520763387 0.047281581140012352 1 1 0.038268524870587226 0.049896522866408374 1 1 1 1 1 0.049959780584481972 1 1 1 1 1 1 1 1 0.04995999561764327 1 0.049923970503601908 1 1 1 1 1 1 1 1 1 1 1 1 1 1 1 1 1 0.049965617882576537 1 1 1 1 1 1 1 1 1 1 1 1 1 1 1 1 1 1 1 1 1 1 1 1 1 0.050032118895308286 1 0.049889817024751738 1 1 1 1 1 0.050002328340693722 0.049991692891113992 1 1 1 1 0.048594663172664157 0.050367919107646653 1 0.051230825024278906 1 1 0.048648379505885152 1 1 0.049736817282503488 1 1 1 1 0.049158298142329207 0.050040705896806793 1 1 1 1 1 1 1 1 0.050002847015446411 1 1 0.050011772086056484 1 1 1 0.049962771609467806 1 1 0.049992869718931902 1 1 1 1 1 1 0.050065245574501815 1 1 1 1 1 1 0.049535577816960059 1 1 1 1 1 0.050236998765755408 1 1 0.049389264883510801 0.049332916997093253 1 1 0.048823070355339768 1 1 0.049994875586659188 1 1 1 1 1 1 1 1 1 1 1 1 0.050173551455904811 1 0.047325360536771374 1 1 0.048700422390311658 1 1 1 1 1 1 0.050006114905728483 1 1 1 0.049705827089382218 0.049597123473492967 0.049997218035565102 1 1 1 0.041817880489416814 0.050977370465596347 1 0.04790144426842223 0.046610392144125892 1 1 0.049497272954845913 1 1 0.049612797682791705 1 0.049516282781563795 1 0.050899518038697966 1 1 1 0.048135844488435942 0.049687178340270366 1 1 0.047574990975677946 0.051146994006394456 0.050359125787067464 0.050114022545137811 1 1 1 0.050627406758965141 0.048500774104207008 1 1 0.04975238183014874 0.049645715059584927 0.048682228942235881 1 0.052219125357469004 0.048367011045534376 1 1 0.044690860402592902 1 0.049203780418912692 0.047408875323654884 1 0.045681001729951445 1 1 0.050379602149318456 1 0.047633830874667243 0.049951896769203273 1 1 1 1 0.049619769952800014 0.049055820696108407 1 1 0.050026008787174794 1 1 1 0.049726108056517768 1 1 1 1 1 1 1 1 1 1 1 1 1 1 1 1 1 1 1 1 1 1 1 1 1 1 1 1 1 1 1 1 1 1 1 1 1 1 1 1 1 1 1 1 1 1 1 1 1 1 1 1 1 1 1 1 1 1 0.044953051772344516 1 0.048696795009351347 1 1 1 1 1 1 1 1 1 1 1 1 1 1 0.045985799283981013 1 1 1 1 1 1 1 1 1 1 0.048139495271299314 1 1 1 1 1 1 1 1 1 1 1 1 1 1 1 1 1 1 1 1 1 1 1 1 1 1 1 1 1 1 1 1 1 1 1 1 1 1 1 1 1 1 1 1 1 1 0.050134549372167707 1 1 1 0.050553592672225714 1 0.049250068225180479 1 1 1 1 1 0.048050450142171484 1 0.047534333530224841 1 1 1 1 1 1 1 1 1 1 1 1 1 1 1 1 1 1 1 1 1 1 1 1 1 0.049035283851172867 1 1 1 1 1 1 0.041612316956240951 1 0.047072146818637368 1 1 1 0.034284449769036267 1 1 0.036971584605375155 1 1 1 1 1 1 1 1 1 1 1 1 1 1 1 1 1 1 1 1 1 1 1 1 1 1 1 1 1 1 1 1 1 1 1 1 1 0.052542416820068334 1 0.044787787706553249 1 1 1 1 1 1 1 1 1 1 0.050074654503790506 1 1 1 1 1 1 1 1 1 1 1 1 1 1 1 1 1 0.0433302234034314 1 1 1 0.05000973806844719 0.045772640910559048 1 0.050471674057255521 1 1 1 1 1 1 1 1 0.048027042468809136 1 1 1 1 0.048607863156633242 1 1 1 1 1 1 1 0.049968340590828622 1 1 0.032629986925557644 1 0.038114539487887664 1 1 0.04986049442969015 1 1 0.058222476905235541 0.050024283565595684 1 1 1 1 1 1 1 1 1 1 1 1 1 1 1 0.032882137907560754 1 0.053743137461525099 1 1 1 0.044307713637645074 1 0.052039622457346134 1 1 1 1 1 1 1 1 1 1 1 1 0.050220444264439182 1 0.048267086652335561 1 1 1 1 1 1 1 1 0.050244092294025766 1 1 0.050134645383106649 1 1 1 0.044326564578953113 0.046120046114773244 1 1 1 1 1 1 1 1 1 1 1 1 1 1 1 1 1 1 1 1 1 0.049805674196460377 1 1 1 1 1 0.050003041583720445 1 0.050346468869469974 1 1 1 1 0.049559961902468044 1 1 0.045881280180754096 1 1 1 1 1 0.043627764940208966 1 1 1 1 0.039294450189333224 1 1 1 1 1 1 1 0.048986642754446856 1 1 1 0.04733918480785386 1 1 1 1 1 1 1 1 1 1 1 0.048291283553688655 1 1 1 1 1 1 1 1 0.050083658996088312 1 1 1 1 1 1 0.050162144878346367 1 1 1 1 1 1 0.050048931724222666 1 1 1 1 1 1 1 1 1 1 1 0.051046290729228519 1 1 1 0.05009665728309904 1 1 1 0.045978617542244915 1 0.04626940903039084 1 1 1 1 1 1 0.049970445841964604 1 1 1 1 1 1 1 1 1 1 1 1 1 1 1 0.04661018051259895 1 1 1 1 1 0.044656046007290368 1 1 1 1 1 1 1 1 0.047805920507163167 1 1 1 1 1 1 1 1 1 1 1 1 1 1 1 1 0.05050898365836444 1 1 1 1 0.048900016085399858 1 1 1 1 1 1 1 1 1 1 1 1 1 1 1 1 1 1 1 1 1 1 1 1 1 1 0.045214055794722693 1 1 1 0.050023797202561997 1 0.049353769254742511 1 1 1 1 0.047660933083763055 1 0.049067590135316093 1 1 1 1 1 0.049581269262763232 1 1 1 1 1 1 1 1 1 0.043886572750054802 1 1 1 1 1 1 1 1 1 1 1 1 1 1 1 1 1 1 1 1 1 1 1 1 0.051297259429255629 0.048952792903329087 1 1 1 1 1 0.050007937636113026 1 1 1 0.050540889944372301 1 1 1 0.05162375588930556 1 1 0.047046716089116758 1 0.050326424713955799 1 1 1 1 0.050281979216048621 1 1 1 1 0.050439836716395112 0.050009356932336768 1 1 1 1 1 1 1 1 1 1 1 1 0.050039802500967283 1 1 1 1 0.049999197491335974 1 1 1 1 1 0.049039101126996498 1 1 0.049668470704670745 1 1 1 1 1 1 1 1 1 1 1 1 1 1 1 1 0.050005698814174993 1 1 0.049735040748330996 1 1 1 0.049497206756116817 1 1 1 1 1 1 1 1 1 1 1 0.049762166007785824 1 1 1 1 1 1 1 1 1 1 1 1 1 1 1 1 0.049882630957745484 1 1 0.043236399233170318 1 0.046017505743360387 1 1 0.046067426482188471 1 0.049633951072072122 1 0.046725103575171421 1 1 1 1 1 1 1 1 1 1 1 1 1 0.047909059604184769 1 0.047988112001502797 0.050046404491061861 1 1 0.048329661988166218 0.049794849344975238 1 1 0.050001150982674582 0.049734958487977952 1 1 1 0.048384474313429369 1 0.049068884227516159 1 1 0.047869771524223136 1 1 1 1 0.047768772685928718 0.049952281598088247 1 0.044272909453946567 1 1 0.050130093566293547 0.049981973952468339 1 1 0.049629923015718919 1 1 1 0.049419110234478675 1 1 1 0.047984134371589271 0.045542419606000167 0.049686394683310597 1 1 0.050393096951517599 1 0.039868915309140315 0.049992534920047391 1 1 1 1 1 1 1 1 1 1 1 0.049380423981256319 0.048768814982934103 1 0.04864001792774534 1 0.048994551646460396 1 0.049972996982531472 1 1 1 0.049977696071344717 1 1 1 1 1 0.049522537708181817 1 1 1 1 1 1 1 1 1 1 1 1 1 1 1 1 1 1 1 1 1 1 1 1 0.048197783515072194 1 1 1 1 1 1 1 1 1 1 1 1 1 1 1 1 1 1 0.046780455344336246 1 1 1 1 1 1 1 1 1 1 1 0.047067634031152779 1 1 1 1 1 0.048415103465035803 1 1 1 1 1 1 1 1 1 1 1 1 1 1 0.048642077768641205 1 1 1 1 1 1 1 1 1 1 1 1 1 1 0.050971896491948221 1 0.044065313689740385 1 1 1 1 0.046176189435729119 1 1 1 1 1 1 1 1 1 1 1 1 0.051148917796569507 1 0.050030899596724736 1 1 1 1 0.050597983925676784 1 1 1 1 1 1 1 0.044326107508143968 1 1 1 1 1 1 1 0.049996023019548218 1 1 1 0.051877169801482444 1 0.050000258285735955 1 1 1 1 1 1 1 1 1 0.05075654758913855 1 1 1 1 1 1 1 1 1 1 1 1 1 1 1 1 1 1 1 1 1 1 1 1 1 1 1 1 1 1 1 1 1 1 1 1 1 1 1 1 1 1 1 0.050062040078333939 1 1 0.051023518443795143 1 1 1 1 1 1 1 1 1 1 0.050019455572471491 1 1 1 1 1 0.049701824230323835 1 1 0.050346915609781676 1 1 1 1 1 1 0.051526996560078267 1 1 1 1 0.049992082714805874 1 1 0.050984143736620913 1 0.050528198545671144 1 1 1 1 1 1 1 1 1 1 1 0.050211321696295441 1 0.051047228186033848 1 1 1 1 0.050048783464498377 1 1 1 1 1 1 1 1 1 1 1 1 1 1 1 1 1 1 1 1 1 0.047515722694134017 1 1 1 1 0.049052234049299329 1 1 1 1 1 1 1 0.05039222692004313 1 1 1 1 1 0.046416629825001443 1 1 1 0.048019997530035018 1 1 1 0.0477498093095838 1 1 0.049068429331648053 1 1 1 0.049861605479997656 1 1 0.04996861259751828 1 1 1 1 1 1 1 1 1 1 1 1 1 1 1 1 1 1 1 1 1 1 1 1 1 1 1 1 1 1 1 0.049005411970280223 1 1 1 1 1 1 1 1 1 1 1 0.048304897450082783 1 1 1 1 1 1 1 1 1 1 1 1 1 1 1 0.045047238150897076 0.048717096237138491 1 1 1 0.04812385723981235 1 1 1 1 0.047157948694504966 1 1 0.047989674845335464 1 1 1 1 1 1 1 1 1 1 1 1 1 0.0456919952004088 0.048352198855015655 1 1 1 1 1 1 1 1 1 1 1 0.038987879289240926 1 1 0.04521640794327255 1 1 1 1 1 1 1 1 1 1 1 1 1 1 1 1 1 1 1 0.042420956846759998 1 1 1 0.04989295241890615 1 1 1 1 1 0.051867302581623864 1 1 1 1 1 1 1 1 1 1 1 1 1 1 1 1 1 1 1 1 0.047108753329592641 1 1 0.048497970118992768 1 1 1 1 1 1 1 1 1 1 1 1 1 1 1 1 1 1 1 0.046392870740085773 1 1 1 1 1 1 1 1 1 1 1 1 1 1 1 1 1 1 1 1 1 1 1 1 1 1 1 1 1 1 1 1 0.049746252426725791 1 1 1 1 1 1 0.03987242721512519 1 1 1 1 1 0.040059095415368715 1 1 1 1 0.040781237526866229 1 1 1 1 1 1 1 1 1 1 1 1 1 1 1 1 1 1 1 1 1 1 0.042491490398761191 1 1 1 1 1 1 1 0.046814421135766976 1 1 0.046765979470090119 1 1 0.05033579075591476 1 1 1 1 1 1 0.048422933469201165 1 1 1 1 1 1 1 1 1 1 0.057455044120416909 1 0.040562014987974043 1 1 1 1 1 1 1 1 0.050081476075871934 1 1 0.058409559588743942 1 1 1 0.041659135294784877 1 1 1 0.043479575884034789 1 1 1 0.049883258763188484 0.049196590467276743 1 1 0.052894880928695424 1 1 0.052873523689828859 1 1 0.04983915293204657 1 1 1 1 1 1 1 1 1 0.049839194025985571 1 1 1 0.052662252766490988 1 1 1 0.052795697324334631 1 1 1 0.049986001930981641 1 0.049966076723522941 1 1 0.050917443527842145 1 1 1 1 1 1 1 1 0.051904941907405494 1 1 0.051357242458397553 1 1 1 1 1 1 1 1 1 1 1 1 1 0.052005380235796587 1 0.050015948039878196 1 1 1 0.051549143249176185 0.047909540545531065 1 0.050869942207349375 1 1 1 1 0.049978212553094849 1 0.048089679909787665 1 1 1 1 1 1 1 1 1 0.049428856469768606 1 1 1 1 1 1 1 1 1 1 1 1 1 1 1 1 1 1 1 1 1 1 1 1 1 1 1 1 0.050493714411307775 1 1 1 1 1 1 0.04931198265276808 1 1 1 1 1 1 0.049478143327712935 1 1 1 1 1 1 0.04981430928851089 1 1 1 0.04998369780490048 1 1 1 0.050033598730719948 1 1 0.053211543660663899 1 1 1 1 1 1 0.049566538188135403 1 1 1 0.05570236010541349 0.046488675841078728 1 1 1 1 1 1 1 1 1 1 1 1 1 1 1 1 1 0.047754804190622696 1 1 1 1 1 1 1 0.049930410268245143 1 1 1 1 1 0.051947769319856556 1 1 1 1 1 0.05011609141648822 1 1 0.041373918566367476 1 1 1 1 0.049962744249212522 1 1 1 1 1 1 0.028728439750914193 1 0.052423987462411746 1 0.028529710810721434 0.053325614847003364 1 0.050873989107873906 1 1 1 0.047581597937552636 1 1 1 1 1 0.044168778046159915 1 1 1 0.048738170753305304 1 1 1 1 0.046576177915732424 0.05070587798649711 0.044448015066482952 1 1 1 1 0.049857465772361553 0.048960177515154232 1 0.047889635672249735 1 1 1 1 1 1 0.049991226671755894 1 0.054387268301297059 1 1 0.050086728956148116 1 1 1 0.052963333512399527 1 1 0.047032193497713884 1 1 1 1 1 1 1 1 1 1 1 1 0.049678017994266459 1 1 1 1 0.054150411700129547 1 1 1 1 0.054539930756443929 1 1 1 1 1 1 1 1 1 0.04903742536110714 0.051083591875690185 0.042526672319113439 1 1 1 0.049999305320381313 0.049978267385902456 1 1 0.049706115023854525 1 0.05135445331674858 1 1 1 1 1 1 1 0.035540713691844014 1 1 1 1 1 1 1 1 1 1 1 1 1 1 1 1 0.049869296970340142 1 1 1 1 1 1 1 1 1 0.04961480947395433 1 1 0.055322275955040898 1 0.047674775464517496 1 0.049886255127930483 1 1 0.036548822135129028 1 1 1 0.049997271273872768 0.048277840509191185 1 1 0.050543154244892925 1 1 1 0.035921403964019563 1 1 1 1 0.050190789669941983 1 1 1 1 1 1 1 1 1 1 1 0.048025116758208877 0.049964924896319492 1 1 1 1 1 1 1 1 1 1 1 1 1 1 1 1 1 1 1 1 1 1 1 1 1 1 1 1 1 1 1 1 0.049913972551884331 1 1 1 1 1 1 1 1 1 1 1 1 1 1 1 1 1 1 1 0.041791226844259344 1 1 1 1 1 1 0.049969596680372708 0.046862369099868149 1 1 0.047812381883377636 0.047848129013364715 1 1 1 0.047392383427945051 1 1 1 1 1 1 1 1 1 1 1 1 1 1 1 1 1 1 1 1 1 1 1 0.044783234465084927 1 0.047167417269997347 1 0.048251837710822823 1 1 1 1 1 1 0.053977505524628253 1 0.04853217967878129 0.047475220385159458 1 1 0.030260403735777579 1 1 1 1 1 1 0.050021893952574975 0.02779528272845657 1 1 0.048332102450168939 0.051063993774896663 1 1 0.053511720446233722 0.050007791490191217 1 1 1 1 1 1 1 1 0.053680561762308933 1 1 1 1 1 0.051549943996186842 1 1 0.027746812140955042 1 1 1 0.050060128273562154 1 1 1 1 1 1 1 1 1 1 1 1 1 1 1 1 1 1 1 1 1 1 1 1 1 1 1 1 1 1 1 1 1 1 0.049493931123884193 1 1 0.058535948405176792 1 0.036592878092617999 0.053886254012412031 1 1 1 1 1 1 1 1 1 0.038302989987401052 1 1 1 1 1 0.040055874879057839 1 1 1 1 1 1 1 0.049726698949319192 1 1 1 1 1 1 1 1 0.04916952329896121 1 1 1 1 1 0.048647923316166013 1 1 1 1 1 1 1 1 1 1 1 1 1 1 1 1 1 1 1 1 1 1 1 1 1 1 1 1 1 1 0.049956241169698032 0.049849100418045272 1 1 1 1 1 1 1 0.049328608002165583 1 1 1 0.04993803236102156 1 0.049569383598910201 1 1 1 1 1 1 1 1 1 1 1 1 1 1 1 1 1 1 1 1 1 0.049864567069988402 1 1 1 1 1 1 0.049848310438569819 1 1 1 1 1 1 1 0.049992052511036007 1 1 0.049963296721519716 1 1 1 1 1 1 0.050507321742134376 1 1 1 0.047630369606749559 1 1 0.045919846957677354 0.050713006333686639 1 1 1 1 1 1 1 1 1 1 1 1 1 1 1 1 1 1 1 1 1 1 1 1 1 1 1 1 0.049648148613566034 1 1 1 1 1 1 1 1 1 1 1 1 1 1 1 1 1 1 1 0.056281141830832375 1 1 1 0.052592781861835698 0.049946855009156486 1 1 1 1 1 0.04997555050445418 1 1 1 0.049824174924949796 1 1 1 1 1 0.04972753651470159 1 1 1 1 1 1 1 1 1 1 1 1 1 1 1 1 1 1 1 1 1 0.049934424418573223 1 1 1 1 1 1 0.05015890670124136 1 1 1 1 1 1 1 1 1 1 1 1 0.049941280468473404 1 1 1 1 0.047608561559510799 1 0.04994119027980333 1 1 1 1 1 1 1 1 1 1 1 1 1 0.050704849369847357 1 1 1 1 1 0.052254996288875116 1 1 1 1 1 1 0.047615120015736187 1 1 1 1 1 1 1 1 1 1 1 1 0.047511856359979288 1 1 0.04342826299708135 1 1 0.051047667418687125 1 1 0.050279807454325767 1 1 1 1 1 1 1 1 1 1 0.03957944370716094 1 1 1 1 1 1 1 1 0.049961921504386844 1 1 1 0.050015233571877718 1 1 1 0.049162371859263594 1 1 0.036141771603600201 1 1 1 0.046497522773802771 1 1 1 1 1 0.036279286133940603 1 0.05000178555199964 1 1 1 1 0.050024206816629849 0.039809028690965753 1 1 1 0.050492256265462498 1 1 1 1 0.050109656843977446 1 1 1 1 1 1 1 1 1 1 1 1 1 1 1 0.049729195184451791 1 1 0.037318070318205054 0.039833901205019062 1 1 1 1 0.04122467870763178 1 1 1 1 1 1 0.048220547791927131 1 1 1 1 1 1 0.049417235267248137 1 1 1 1 1 1 1 1 0.050397751409579236 1 1 1 1 1 1 1 1 1 1 0.049599240210420489 1 1 0.0502443029814022 1 1 0.047890621190193154 1 1 1 1 1 0.04438848590969241 0.050037236994815291 1 1 0.050000219202255836 0.048877564900563594 1 0.047904779657892929 1 0.051000680886907665 1 0.049764636987650393 0.05088925059869133 1 1 0.049733287055355256 1 0.04655678817984002 1 0.051146800922882846 1 0.049170190591233086 1 0.047557575268538398 1 1 0.049979121327177779 1 0.043833773933334305 1 0.044113879656528868 1 1 1 1 1 1 0.039026156540889936 1 1 1 0.049975034900512534 1 1 1 1 1 1 1 1 1 0.04841030433991414 1 1 0.040299425216438298 1 0.049503102098091632 1 0.051608222768048648 1 1 1 0.053450789816175182 0.049054688887814737 1 1 1 1 1 1 1 1 1 1 1 0.049881277653189456 1 1 1 1 1 0.050037658674197481 1 1 1 1 1 1 1 1 1 1 1 1 1 1 1 1 1 0.050037032694785918 1 1 1 1 1 1 0.04635331012055368 1 1 1 0.046466110088275211 1 1 0.04931999005171276 1 1 1 0.052563099994333895 1 0.047192156624767737 0.049192954408233507 1 1 1 1 1 1 1 1 1 0.051939294558486553 1 1 1 1 1 1 1 0.049920877445210801 1 0.049953134924878392 1 0.049976998793840634 1 1 1 1 1 1 1 1 1 1 1 1 1 1 1 1 1 1 1 1 1 1 1 1 1 1 1 1 1 1 1 1 1 1 1 1 1 0.043782124877925085 1 1 0.043690962332610821 0.052921466262037913 1 1 1 1 0.053507040130118255 1 1 1 1 1 0.043772361496137224 1 1 0.050012410835771744 0.032753568725293211 1 1 1 1 1 1 0.04280475102424397 1 0.049991882467061502 1 1 0.053098790239350192 0.050046563457624725 1 0.044669449815390061 1 1 1 0.049264763595429237 1 1 1 1 0.049079540291547652 1 1 1 0.05167106062257671 1 1 0.043311451537759837 0.050072688212600608 1 1 1 0.048259542337857175 1 1 1 1 0.049772503587524761 1 1 0.049443051785137894 1 1 1 0.046699665024740634 1 1 0.047579753460305088 1 1 1 0.041429305654256843 1 0.041425082313121246 1 1 0.050727503509113508 1 1 0.04576341010154035 0.050018861592460162 1 1 0.044257500413580626 1 0.050039287722669266 0.046037779295200212 1 1 1 1 0.034824087076282782 1 1 1 1 0.032282264212214751 1 1 1 1 1 1 1 1 1 1 1 1 0.050614389675921911 1 1 1 1 0.050001061820204147 1 0.043463573542717342 1 1 1 1 1 0.042432424098392089 0.050001682656176438 0.049978896122831247 1 1 1 1 1 1 1 1 0.044893188077326909 1 1 1 1 1 1 0.051488092990788589 1 1 1 1 0.05332689726961376 1 1 1 1 1 1 1 1 1 1 1 1 1 1 1 1 1 1 0.048791971178187128 1 0.029870638753709752 1 1 0.051903583442083151 0.035950929687737429 1 0.041531148587943434 1 1 0.049242897367315581 1 0.050239128992783294 1 0.050731390948037233 1 0.049667739591497756 1 1 1 1 0.049901044029825689 1 1 1 0.04914204060960841 1 1 1 1 1 1 1 1 1 1 1 1 1 1 1 1 1 1 1 1 1 1 1 1 1 0.049859595961772446 1 1 1 1 1 0.04339557932393933 1 1 1 1 1 1 1 1 1 1 1 0.049685616556271364 1 1 1 1 1 0.049950805447166576 1 1 0.052406041331841159 0.040904772821110172 1 1 1 0.047166044358923118 1 1 0.049929996143302027 0.046951307031183658 1 0.042290114271800808 1 1 1 1 1 1 1 1 1 1 1 1 1 1 1 1 0.049663036293033952 1 1 1 1 0.04997504892422084 1 1 1 1 1 1 1 1 0.049824461859986437 0.049843858594502022 1 1 0.049990787738292831 1 1 1 1 1 1 1 1 1 0.049881564874027132 0.049895614950924587 1 1 0.050000161314649613 1 1 1 0.050007978744700379 1 1 1 1 1 1 1 1 1 1 1 1 1 1 1 1 1 1 1 1 1 1 1 1 1 1 0.049903262026402079 1 1 1 1 1 1 1 1 1 1 1 1 1 1 1 1 1 1 1 1 0.052153290823280685 1 1 1 0.045564388651341867 0.0499994359188922 1 1 1 0.055227048551527019 1 1 0.050220383474073829 1 1 1 1 1 0.049338738336330103 1 0.046587354339749643 1 1 1 1 1 1 1 1 0.05086255002770021 1 1 1 0.051467323848481496 1 1 0.050460114051722772 1 0.049999326928050931 1 1 1 0.047288355686783218 1 1 1 0.042400200542613148 1 1 1 1 1 1 1 1 1 1 1 1 1 1 1 1 1 0.03952917500026723 1 1 1 1 1 1 1 1 1 0.048351321679046461 1 1 1 1 1 1 1 1 0.038696035421763884 1 1 1 1 1 1 1 1 1 1 1 1 1 0.05001195387067349 1 1 1 0.05076658111933674 1 1 1 1 1 1 1 1 1 1 1 1 1 1 1 1 1 1 1 0.045554403677255002 1 1 1 0.048618284154822299 1 0.049978003864206769 1 1 1 0.051605121734644974 1 1 1 0.05001490484025127 0.043321118056794221 1 1 1 1 1 1 1 1 1 1 1 1 1 1 1 1 1 1 1 1 1 1 0.049318267852630097 1 1 1 1 0.048532667764707244 1 1 1 1 0.049214399912077163 1 1 1 1 1 1 1 0.047399358351795803 1 1 1 1 0.048287626689578131 1 1 1 1 1 1 0.049389331852338084 1 1 1 1 1 1 0.049687200933890813 1 1 1 0.049861361760597175 1 1 1 1 1 1 1 1 1 0.049478226495756672 1 1 1 1 1 1 0.04870161541517086 1 1 1 1 1 1 1 1 1 1 1 0.05000306500184655 1 1 0.053335053794005771 1 1 1 1 1 0.049777839642440702 1 1 0.047866991478242651 1 1 1 1 1 1 1 0.052594342827391616 0.0410401486603863 1 1 1 1 0.03876224688869874 1 1 1 1 1 1 0.050002284962722868 1 1 1 1 1 1 1 1 1 1 0.051760637997618153 1 1 1 1 1 1 1 1 1 1 1 1 0.051415925730270443 1 0.049932589403571377 1 1 1 0.061616843638328381 1 1 0.02977075993122795 1 1 1 1 0.060771795754152404 1 1 1 1 1 0.029142512675335401 1 1 1 1 1 1 1 1 0.030612079678675713 1 1 1 1 0.050950942462960981 1 1 1 1 1 1 1 0.050326994110194569 1 1 1 1 1 1 1 1 1 1 0.050803343635856903 1 1 1 0.049424978735672115 1 0.049444124172152104 1 1 1 1 1 1 0.050725825361987539 1 0.048150891631954511 1 0.049930799418484363 1 1 1 1 0.050953951981562322 1 1 1 1 1 1 1 1 1 1 1 1 1 1 0.04929481783510286 1 0.062808160953831363 1 1 1 1 1 1 1 0.050212742943994401 1 1 1 1 1 1 1 1 1 1 1 1 1 0.059531832455323966 1 1 1 1 0.056027041078189906 1 1 1 1 1 1 1 1 1 1 1 1 1 1 1 1 1 1 1 1 1 1 1 1 0.050270637929586685 1 1 1 1 0.034846527708036493 1 1 1 0.04999041298851914 1 1 0.049991710397843878 1 1 0.050006303113364389 1 1 1 1 1 1 1 1 1 1 1 1 1 1 1 0.050000180751781739 1 1 0.050017826242019628 1 1 1 1 1 1 1 0.051296315146600033 1 1 1 1 1 0.051570756931060911 1 1 1 0.045917508643834537 1 1 1 0.044623760793930226 1 1 1 1 1 1 1 0.044974944908198096 1 1 1 0.050375952282057504 1 0.048793438083764434 0.049878279493068625 1 1 1 1 1 0.049854927840217861 1 1 1 1 1 1 1 1 1 1 0.045142833671780645 1 1 1 1 1 1 1 1 1 1 1 1 1 1 1 1 1 1 1 1 1 1 1 1 1 1 1 1 1 1 1 1 1 1 1 1 1 0.04999958459395424 1 1 1 1 1 1 1 1 1 1 1 1 1 1 1 1 0.050008641065213903 1 1 1 1 1 1 1 1 1 0.04999959050088789 1 1 1 1 1 1 1 0.05000233795184951 1 1 1 1 1 1 1 1 1 1 1 1 1 1 1 1 1 1 1 1 1 0.047425004995947637 1 1 1 1 1 1 1 1 1 1 1 1 1 1 1 1 1 0.047095502571571413 1 1 1 1 1 1 1 1 1 1 1 1 1 1 1 1 1 1 1 1 1 1 1 1 1 1 1 1 1 1 1 1 1 1 1 1 1 1 1 1 1 1 1 1 1 1 0.047773890108883652 1 1 1 1 1 1 1 1 1 1 1 1 1 0.047127926937074842 1 0.050028290691979199 1 1 1 1 1 0.050092191926585303 1 1 1 1 1 0.049522544010876447 0.049325794947913705 1 1 1 1 1 1 1 1 1 1 1 1 1 1 1 1 1 0.050311631990004616 0.047183222114213962 1 1 1 1 1 1 0.049820126026856607 1 0.047311206163080419 1 1 1 1 1 1 1 1 1 0.048106504650291163 1 1 1 1 1 1 1 1 1 1 1 1 1 1 1 1 1 1 1 0.049043362979126912 1 1 1 1 1 0.050304406100542577 1 0.050681757841036019 1 1 1 1 1 1 1 0.050797799518419888 1 1 1 0.050377351740493445 1 1 1 0.052640271411163814 1 1 0.052542120043202183 1 1 1 0.035895785196571557 1 1 0.03983951338201553 1 0.032702313961958031 1 0.032319338881107648 1 1 0.04159440413022459 1 1 1 1 1 1 1 1 1 1 1 1 1 1 1 1 1 1 1 1 1 0.049928469172753377 1 0.032266471201083259 1 1 1 1 1 1 1 0.032354112390053716 1 1 1 1 1 1 1 1 1 1 1 1 1 1 1 1 1 1 1 0.04978983093335055 1 1 1 0.04963904682268154 1 1 1 1 1 1 1 1 1 1 0.048161721147232724 1 1 1 1 0.046080443065185155 1 1 0.049323172707296151 1 1 1 1 1 0.045294592831027616 1 1 1 1 0.050968218218696432 1 0.048530162427109516 1 1 0.034589012906106692 1 1 1 1 1 1 1 0.036181145070264542 1 1 0.048558988343882635 1 0.038961173119805223 1 1 1 1 1 1 1 1 1 1 1 1 1 1 1 1 1 1 0.048404154373717929 1 1 1 1 1 1 1 0.049966420058844614 1 1 1 1 0.048225485059934244 1 1 1 1 1 1 1 1 1 0.049684125884614613 1 1 1 1 0.046322876291670367 1 1 1 1 1 1 1 1 1 1 1 1 0.050514729038593095 1 1 1 1 1 1 1 1 1 0.04154490109472847 1 1 1 1 1 1 1 1 1 1 1 1 0.045857826412875412 1 1 0.048995634591032892 1 1 1 1 1 1 1 1 1 0.049657896529669496 0.031690488403690736 0.040613212863935134 1 1 1 0.049997397795231158 1 1 1 1 1 1 0.039620130137963158 1 1 1 0.050151229922715722 0.050145100347109978 1 1 1 1 1 1 1 1 1 1 1 1 0.037493399449454227 1 1 1 0.049867074893630813 0.053362394626424219 1 1 1 1 1 0.052079491210508692 1 1 1 1 0.045392065241266627 1 1 1 1 0.049933743985548493 1 1 1 1 1 0.033918163788179148 0.046881722754795505 0.048716183108439261 1 1 1 0.051094301908650774 0.053316852128419204 1 1 1 1 1 1 1 1 1 0.035323881241040425 0.049939770994662694 1 1 1 0.049810461328184077 0.049849214260890319 1 1 1 1 1 1 1 1 1 1 1 1 1 1 1 1 1 0.0349246298552131 1 0.03456033073273021 1 1 1 1 0.039569432643664568 1 1 1 1 1 1 1 0.0397497398187735 1 1 1 1 1 1 1 0.034122158565169487 1 1 0.048806256324463407 1 0.04061956090020661 0.04760608785127704 1 1 1 0.048162509458736333 0.049990809138073015 1 1 1 0.050092872064854757 0.047612113724510498 1 1 1 1 1 1 1 1 1 1 0.048713860554750688 1 1 1 1 1 1 1 0.045392384414421012 1 1 1 1 0.046337967264981565 1 1 1 1 1 1 0.038494295628337137 1 1 1 1 0.04905246600600438 1 0.041754236527838912 1 1 1 1 1 1 1 1 1 1 1 1 1 1 0.040367506737821433 1 1 1 1 1 1 1 0.036931460587087225 1 1 1 1 0.049949653261887328 1 1 1 0.053146905428073155 1 1 1 1 1 1 1 1 1 1 1 1 1 1 1 1 1 1 1 1 1 1 0.051731745668780263 1 0.050505817094608468 1 1 0.050212786158054482 1 1 1 0.050708805612991334 1 1 0.050855957478976269 1 1 1 1 1 1 1 1 1 1 1 1 1 1 1 1 1 1 1 1 0.050139145758899974 0.051307834580636105 0.050982286009302893 1 1 1 1 1 1 1 1 1 1 1 1 1 0.047244418672428588 1 1 1 0.048262255913657612 1 1 0.048883779355303088 1 1 1 1 0.048981265296687289 1 1 0.044639746657468796 0.051213520823843242 1 1 1 1 0.050034717759366756 1 1 0.049814152829958137 1 0.049934414845905148 1 1 1 1 1 1 1 1 1 1 1 1 0.047168245470905756 1 1 1 1 1 1 1 0.049527216912573474 1 0.050373394945536262 1 1 1 1 0.048030758533669254 1 1 1 1 1 1 1 1 1 1 1 1 1 1 1 1 1 1 1 1 1 1 1 0.048877371982051901 1 1 1 0.05044243090581145 1 0.046822726063575237 1 1 1 0.052009401653018844 1 1 1 1 1 0.050035821702046804 1 1 0.045351593041668581 1 1 1 1 1 1 1 1 0.049201602409913871 1 1 1 1 1 0.049516583306871011 1 1 1 1 1 1 1 1 1 1 1 1 1 1 0.048029165395864132 1 1 1 1 0.048058008198344382 1 1 1 1 1 1 1 1 1 1 1 1 0.04989133768660043 1 1 1 1 0.049715110982376971 1 1 1 1 1 1 1 1 1 1 1 1 1 0.049750868337137266 1 1 0.049710369201621467 1 1 1 0.049172759607433614 1 1 1 1 1 1 1 1 1 1 1 1 1 0.049139890490802078 0.04749735690617761 1 0.052161026224084729 0.048518902274492064 1 1 1 0.051301509959650195 0.044737038395153368 1 0.053547045281586249 1 0.049009315675544327 1 0.04688987917097262 1 1 1 0.052403445305118687 1 0.049810055008822247 1 1 1 1 0.047549787843566352 1 1 1 1 1 1 0.049886712155948171 1 1 1 1 1 0.044300250228507379 1 1 0.05000101307208394 1 1 0.047337697369657081 1 1 0.049993660368356063 1 1 1 1 1 0.044473215673986495 1 0.043729396022538461 1 1 1 1 1 1 1 1 1 1 1 1 1 0.04963019831846549 1 1 0.049892303682519241 1 1 1 1 1 1 1 1 1 0.048616741878393002 1 1 1 1 1 1 1 1 1 0.049132761332787073 1 1 0.049600705313888563 1 0.050621360251111164 1 1 1 1 1 1 1 0.043094292821304905 1 1 1 1 1 1 1 0.04766293301393866 1 0.042440154609766356 1 1 0.042601877564651856 1 1 1 0.049834171917191701 1 1 1 1 0.049562719863125403 1 1 1 1 1 0.05000766121928385 1 1 1 1 1 1 1 1 1 1 1 1 1 1 1 1 1 1 1 1 1 0.049069354270110846 1 1 0.049027023166004442 1 1 1 0.049467408577798765 1 1 1 1 0.049672779878270568 1 1 1 1 1 1 1 1 1 1 1 1 1 1 1 1 1 1 1 1 1 1 1 0.048197000736944176 1 1 1 1 1 1 0.04506369328121855 1 1 1 1 1 1 1 1 1 1 1 1 1 0.050029213268001985 1 0.038293736872529335 1 1 0.051930595970473947 1 1 1 1 0.050678143063914251 0.048254872711239488 1 0.049119054638766445 1 0.049459455388936084 1 1 1 1 1 0.053006844935415957 1 1 0.025122709700210355 0.023884467603287732 1 1 1 1 1 0.060297831672178948 1 1 0.049998893391712783 1 1 1 1 1 1 1 1 0.039104808375113827 0.060662602574231499 1 1 1 0.04696112839689872 1 0.050017819448298272 1 1 1 1 1 0.051497020387581603 1 0.059557556178123743 1 1 1 1 1 0.050925068300080076 0.051185642792916014 1 1 1 1 0.049962141225549359 1 1 1 1 0.050331652859499025 1 1 1 1 1 1 1 1 1 1 1 1 1 1 1 1 1 0.049405233114318672 1 1 0.049778365086407282 1 1 1 0.04991721485179143 1 1 1 1 1 1 1 1 1 1 1 1 1 1 1 1 1 1 1 0.04956819228071118 1 1 1 1 1 1 1 1 1 1 1 1 1 1 0.050045973013916174 0.050140284813833799 1 1 1 0.049931047573257635 1 1 1 1 1 0.049392995575024863 1 1 1 1 1 1 1 1 1 1 1 0.04986525678275424 1 1 0.049948041930962826 1 1 1 1 1 1 1 1 1 1 0.039016339095844135 1 1 1 0.046363179848450814 1 0.047104055423781779 1 0.047996828917835008 1 1 1 0.04999474646668689 0.045564895749718934 1 0.038056766044776889 1 1 0.049389917711755091 1 1 0.048578121812133571 0.038078906378105584 1 1 1 0.045440790637007025 1 1 0.04748158536496408 1 0.044909423188894897 1 1 1 0.045936303491408842 1 1 0.045871939968987502 0.046943510536803047 1 0.04671476638378276 1 1 0.042029294468253361 1 0.048505227516728242 1 1 1 1 1 1 1 1 1 0.049584220688959173 1 1 1 1 1 0.050648986169599695 1 1 1 1 1 1 1 1 1 1 0.043886497698805489 1 1 1 1 0.047157739763474218 0.045767257047246927 1 1 0.050256289018972444 1 0.049024247793134558 1 1 1 1 1 0.053178315751093809 1 1 0.042355124223369373 1 0.049977212633444519 1 1 1 1 1 1 1 0.042197304909251158 1 1 1 1 1 1 1 1 1 0.050810823143067105 1 0.04998916462375616 1 0.050012301492423264 1 0.043325181961349747 1 1 1 1 0.049948670008427259 1 1 1 1 1 0.04986251658929379 0.047192325272548297 1 1 1 1 1 1 0.050170147700486466 1 1 1 1 1 0.04287109552435793 1 1 1 1 0.051462355475652352 1 1 0.046288098972400125 1 0.034681492919560131 1 1 1 0.046035401382295581 1 0.051286176579462196 1 1 0.049659458318453913 0.049998205565637624 0.051485595465982067 1 1 1 1 1 1 0.049996627063461467 0.047819981233676881 0.05056370510502424 1 1 1 1 0.049345269263196406 1 0.049994718731804381 1 0.048898820478724792 1 1 1 1 1 1 0.04999429786385183 1 1 1 1 1 1 1 1 1 1 1 1 1 1 1 1 1 1 1 1 1 1 1 1 1 1 1 1 1 1 1 1 1 1 1 1 1 1 1 1 1 1 1 1 1 1 1 1 1 0.048521250322178924 1 1 1 0.045478499826617044 0.050030805532502692 1 1 1 1 1 1 1 1 1 1 1 1 1 1 1 1 1 1 1 0.050617470367657361 1 1 1 1 1 1 1 0.050024738222335274 1 1 0.048448469097078652 1 1 0.047581163567173984 1 1 0.050237909691277914 1 0.046331694613530428 1 1 0.045110596432892947 1 1 1 0.049980964865340524 1 0.045327301928108063 1 0.049584981574244652 0.043905486564837927 1 1 1 0.043712011151972971 0.050056872046729949 1 1 0.044175601344071891 1 1 0.043709041568203627 1 1 1 1 1 1 1 1 1 1 1 1 0.042876435375912098 1 1 1 1 0.042985196343054581 1 1 1 1 0.044113255626614903 1 1 1 1 1 1 1 1 1 0.04990414792387339 1 0.049998356110829568 1 1 1 1 0.050946264490469559 1 1 1 0.05092747172727155 1 1 1 1 1 1 0.052128110334940726 1 1 0.049821516634096105 1 1 1 0.044168228535372667 1 1 1 1 1 1 1 0.052160284317379124 1 1 1 1 1 0.051066427319910013 1 1 1 1 1 1 1 1 1 1 1 1 1 1 1 0.05371057352232899 1 1 1 1 1 0.050680117774018936 1 1 0.048767573364338818 1 0.050900336806387086 1 1 1 1 0.050529849728972683 0.049851719113008029 1 1 0.045942186945713684 1 1 1 1 1 1 1 1 1 1 1 0.049896666333100935 1 0.048972237070990139 1 1 1 1 1 0.049688507109108555 1 1 1 0.049457285484984306 1 1 1 0.049251137793201311 1 1 1 1 1 1 1 1 1 1 1 1 1 0.03736855153510954 1 1 1 1 1 1 1 0.047451979799508999 1 0.047551223504532183 1 1 1 1 1 1 1 0.050165785578164687 0.046139250432384531 1 1 1 1 1 1 1 1 1 0.049520781360579677 1 1 1 1 1 1 0.043796246286890161 0.047529685660996926 0.050014955050123239 1 0.046224221112847338 1 1 1 1 1 1 0.042644644390441355 1 0.04984686025262406 1 0.0492037825208122 1 0.047988535216423156 1 1 1 1 1 1 0.048283765802595829 1 1 0.049956346894399851 1 1 1 1 0.049776735895542622 1 1 1 1 1 1 1 1 1 1 1 1 1 1 1 1 1 1 1 1 1 0.022959456657105581 1 0.050403843061543122 1 1 1 1 1 1 1 1 1 1 1 1 1 1 1 1 1 1 1 1 1 1 1 1 1 1 1 1 1 1 1 1 1 1 1 1 1 1 1 1 1 1 1 1 1 1 1 1 1 1 1 1 1 1 1 1 1 1 0.050187821004601854 1 1 1 1 1 1 1 1 1 1 1 1 1 1 1 1 1 1 1 1 1 1 1 0.049912278080277622 1 1 1 0.051303269675628337 1 0.049730511875809222 1 1 1 1 1 1 1 1 1 1 1 1 1 1 1 1 1 1 1 1 1 1 1 1 1 1 1 1 1 1 1 1 1 1 1 1 1 1 1 0.050638797160007812 1 0.050066381022712672 1 1 1 1 1 1 1 1 1 1 1 1 1 1 1 1 1 1 1 1 1 1 1 1 1 0.046275737931592328 1 1 1 1 1 1 1 1 1 1 1 1 1 1 1 1 1 1 1 1 1 1 1 1 1 1 1 1 1 1 1 1 1 1 1 1 1 1 1 1 1 1 1 1 1 1 1 1 1 1 1 1 1 1 1 1 1 1 1 1 1 1 1 1 1 1 1 1 1 0.042658700328921342 1 1 1 1 1 1 1 0.044293614746914803 1 1 0.050057646874245493 1 1 1 1 1 1 1 1 1 1 1 1 1 1 1 1 1 1 1 1 0.040320824038725653 1 1 1 1 1 1 1 1 1 1 1 1 1 1 1 1 1 1 1 1 1 1 1 1 1 1 1 1 1 1 1 1 0.049994659128603541 1 1 1 1 0.04897372598991627 1 0.05018802486707119 1 1 1 1 1 1 0.049904658879969546 1 1 0.049688236792982066 1 1 0.050193156456543597 0.049999534896814031 1 0.049998653905474609 1 1 1 0.049988062603988172 1 1 1 1 1 1 1 1 1 1 1 1 1 1 1 0.050280462526955061 1 1 1 1 1 1 1 1 0.050333935030182984 1 1 1 1 1 1 1 1 1 1 1 1 1 1 1 1 1 1 1 1 1 1 1 1 1 1 1 1 1 1 1 1 1 1 1 1 0.042182138453779154 1 1 1 1 1 1 1 0.054865885567491612 1 1 0.051073199309634235 1 0.041600057964598827 1 1 1 1 1 1 1 1 1 1 1 0.050000215787459973 0.050011733773522568 1 1 0.050470249925730633 1 1 0.050107717204267058 0.049963272280292015 1 1 1 1 0.04934586553627221 1 0.050982018289417855 1 1 0.049092260957360134 1 0.049873695613195927 0.050670897411921871 1 0.047232556582930518 1 0.042550333364226978 1 1 1 1 1 1 1 0.050062152028690458 1 0.049997107152105126 1 1 1 1 1 0.050036296732353394 1 1 1 0.042376742127526429 1 1 0.050366550156505097 1 0.052665795716236773 1 0.051499471089040863 0.047607996262570312 1 1 0.050134775001286325 1 1 1 1 1 1 0.048619319681756382 1 1 1 1 1 1 1 1 0.055661807707378427 0.050075156657692133 1 1 1 0.051326089834893424 1 1 1 1 0.043266081479431187 0.056998304759628332 1 0.054075082017393757 1 1 1 0.051325356820138578 1 1 1 1 1 1 1 1 1 1 1 1 1 1 1 1 0.057267636695180771 1 1 1 1 1 1 0.048438236005991016 1 0.045460220306677041 1 1 1 0.048661679395677733 0.043227603102193909 1 1 0.05002485571218683 1 0.049846870121691901 1 1 1 1 1 1 1 1 1 1 1 1 0.049950805252027733 0.050006575685505532 1 1 1 1 1 0.052556450678720001 1 1 1 1 1 1 1 0.050699868310840564 1 1 1 0.049998362848182654 1 0.04623034945087294 1 1 0.050011207684278983 1 1 1 1 1 1 1 1 1 0.054812508806600151 1 1 0.051764077635616031 1 1 1 1 1 1 1 1 1 1 1 0.049122772340514181 1 1 1 1 1 1 1 1 1 1 1 1 1 1 1 1 1 1 1 1 1 1 0.046466156884802975 1 1 1 1 1 1 1 1 1 1 1 0.039797573052551896 1 1 1 1 0.033607912283127379 1 1 1 1 1 1 1 1 1 1 1 0.049518077828036272 1 1 1 1 1 0.048455159982166082 1 0.050115235771989564 1 1 1 1 1 1 1 1 1 0.027699712729630011 1 1 0.022291626489580649 1 1 0.062065851034600723 1 1 1 1 0.046650441183448979 1 1 1 1 1 1 1 1 1 1 1 1 1 1 1 1 1 1 1 1 1 0.060180714807831007 1 1 0.04021061159932493 1 0.053592843114775149 1 1 1 1 1 1 1 1 1 0.042419595641278861 1 1 0.05367637227458312 0.045177746003264095 0.048195845573999821 1 1 1 0.048008160148082145 1 1 1 1 1 1 0.049156062365995845 0.049742534132427726 1 0.055763924654122124 1 1 0.055335898313549285 1 1 0.042480304503573957 1 1 1 1 0.042733604146179882 1 1 1 1 0.046099502757417643 1 1 1 1 1 1 1 1 1 1 1 0.047812348236813788 1 1 0.050296677767561138 1 0.045478482331775233 0.050151031005750885 1 1 0.050007432971725801 0.047390574664423514 0.051942849324056857 1 1 1 1 1 1 1 1 1 1 0.048814314945661852 1 1 1 1 1 1 1 1 1 0.041057662297858261 1 1 1 1 1 0.046772737631193162 1 1 1 1 1 1 1 1 1 1 0.049430459866847069 1 1 1 1 1 1 1 1 1 1 1 1 1 1 1 1 1 1 1 1 1 1 1 1 0.04228844508266269 0.050584735141068274 1 1 1 1 1 1 1 1 0.046856591850673049 1 1 1 1 1 1 1 1 1 1 1 1 1 1 1 1 0.049444954562434945 1 1 1 1 0.049684557577097513 1 1 1 0.04859709613205429 0.049344538164631101 1 1 1 1 1 1 0.04933739824780653 1 0.048953087165408499 1 1 1 0.047717446495104711 1 1 1 1 1 1 1 1 0.050568206073524635 1 0.050161436280494028 0.046899401254919204 1 1 1 1 1 1 1 1 1 1 1 1 0.049250412237800884 1 1 0.048748643613573853 1 0.04968288896600033 1 1 1 1 1 1 1 1 1 1 1 1 1 1 1 1 1 1 1 1 1 1 1 0.049567218854135578 1 1 1 1 1 0.025928632078326682 1 1 1 1 1 1 1 1 1 1 0.048945956597409856 1 1 1 0.049716474112068525 1 1 1 1 1 1 1 1 1 1 1 0.050189843097768617 0.031600232814171951 1 1 1 1 1 0.037024117646217887 1 1 1 0.050993612061775932 1 1 1 1 1 1 1 1 1 1 0.048277943082966103 1 1 1 1 1 1 1 0.049739400194508628 0.055935512388276001 1 0.030146900560922132 1 1 1 1 0.048541027306033303 1 1 1 1 1 0.04629210141627417 1 1 1 1 1 1 1 1 1 1 0.050016533088160696 1 1 1 1 1 1 1 1 1 1 0.042374525074054259 1 1 1 1 1 1 1 0.047572887149000848 1 1 1 1 1 1 1 1 1 1 1 1 1 1 1 1 1 1 1 1 0.049685194935931092 1 1 1 0.049336909345120659 1 1 1 1 1 1 1 1 1 1 1 1 1 0.050359658846091247 1 0.049783504550699187 0.045377708252402477 1 0.051284019527539838 0.039958982595248826 1 1 1 1 1 0.050002877387447547 1 1 1 1 1 1 1 0.047150375791189553 1 1 0.0403342670599105 1 1 0.051184427379581662 1 1 0.043554738801341156 1 1 0.049852151876520076 0.045558349736037909 0.051169902834287219 0.050358753299698696 1 1 0.047947107829249325 0.046196265277240335 1 1 0.039273188451541485 1 1 0.051320332285820884 1 1 1 1 0.045539164189872042 0.039031264660382245 0.050084385831596911 0.034309769719487959 1 1 1 0.050024110631066744 1 0.04800567500673987 1 0.041279042998567661 1 0.050196848662142517 0.039084905112779449 1 1 1 1 1 1 1 0.047785258142287325 1 1 0.02072735163410783 1 0.050215429301855366 1 1 0.037749751267246542 0.061075142646507173 1 1 1 1 1 1 1 1 1 1 1 1 1 1 1 1 1 0.050574458224225266 1 1 1 1 1 1 1 1 1 1 1 1 1 1 1 1 1 0.051630350497832038 1 1 1 1 1 1 1 1 1 1 1 1 1 1 0.049461187147386676 0.051588315104148144 1 1 1 1 0.050005852617803742 1 0.051225564845070778 1 1 1 0.048974445014985317 0.048259260138104269 1 0.049502705001912062 1 1 1 1 1 1 1 1 1 1 1 1 1 1 1 1 1 1 1 0.050852909222737289 1 0.050155168200549591 1 1 1 1 0.049832993369795367 1 1 1 1 1 1 1 1 1 1 1 1 1 1 1 1 1 1 1 1 0.050167667275512716 1 1 1 1 1 1 1 1 1 1 1 1 1 1 0.049741271185336826 1 1 1 1 1 1 1 1 1 1 1 1 1 1 1 1 1 1 1 1 1 1 1 1 1 1 1 1 1 1 1 1 1 1 1 1 1 1 1 1 1 1 1 1 1 1 1 1 1 1 1 1 1 1 1 1 1 1 1 1 1 1 0.046129732715174898 1 1 1 0.047292833699826259 1 1 0.048430432435630513 1 1 1 1 1 1 1 1 1 1 1 0.048862401264195748 1 1 1 1 0.051784649682767039 1 1 1 1 1 1 1 1 1 1 1 1 1 1 1 1 1 1 1 1 1 1 1 1 1 1 1 1 1 0.047938891346387402 1 1 1 1 0.047933481770938084 1 1 1 1 1 1 1 1 1 1 0.04483803768327474 1 1 0.037440611109608092 1 1 1 1 1 1 1 1 1 1 1 1 0.050058338448364909 1 1 1 1 1 1 1 1 0.034189972104252474 1 1 1 1 1 1 1 1 1 1 0.045960885971224136 1 0.048688371520907187 1 1 1 0.042411584480980466 1 1 1 0.050412903193824049 1 0.040143012239354119 1 0.045482623299938393 0.050071865987176029 1 1 1 1 1 0.045808693586959569 1 1 1 1 1 1 1 1 1 1 1 1 1 1 1 1 1 1 1 1 1 1 1 0.049066595905761512 1 1 0.03152412459183173 1 1 1 0.049519766964592218 1 0.032634213114427157 1 1 1 1 1 1 1 1 1 1 1 1 0.049857371557948164 1 1 1 1 1 1 1 1 1 1 1 1 1 1 1 1 1 1 1 0.044300660948998719 1 1 1 1 1 1 1 1 1 1 1 1 1 1 1 1 1 1 1 1 1 1 1 1 1 1 1 0.047540112552535353 1 1 1 1 1 1 1 1 1 1 1 1 1 1 1 1 1 1 0.043558746545205577 1 1 1 0.04433257318365097 1 1 1 0.048567878761444944 0.048853141377043205 1 1 1 1 1 0.047882008294267586 1 1 1 1 1 1 1 0.04556924590815311 0.045669383419981051 1 1 1 0.048034422843113933 1 0.048622380025234092 1 1 1 1 1 1 0.045022906774241186 0.048498039023536485 1 1 0.041262574585656339 0.043248492338466664 1 1 1 1 1 1 1 1 1 1 0.050021418773216933 1 1 1 1 1 1 0.049621354814650923 1 1 1 1 1 1 1 1 1 1 1 1 1 1 1 1 1 0.049953118352317263 1 1 1 1 0.046834236622526677 1 1 0.049856484215209738 1 1 1 1 1 1 1 1 1 1 1 0.041884169184102427 1 0.042800060991944951 1 0.043171203538223749 1 1 1 1 1 1 1 1 1 1 1 1 1 1 1 1 1 1 1 0.049667902705919059 1 1 0.049114831226976123 1 1 1 0.04999485918680166 1 1 0.048963438501178326 1 1 1 1 0.048835667649154944 1 1 1 1 1 1 1 0.047745676891144298 1 1 1 1 1 1 1 1 1 1 1 1 1 1 1 1 1 1 1 1 1 1 1 1 1 1 1 1 1 0.044828931954258473 1 1 1 1 1 1 1 1 1 1 1 1 1 1 1 1 1 1 1 1 1 1 1 1 1 1 1 1 1 1 1 1 1 1 1 1 1 0.041771617769331554 0.053593927230057944 0.046163542574944288 1 1 0.031775322848804341 1 1 1 0.049591724839456966 1 0.049936514616532569 1 1 1 1 1 0.050185462383198605 1 1 1 1 1 1 1 0.029760699815280515 1 1 1 1 1 1 1 1 1 1 1 1 1 1 0.054690709664701784 1 1 1 0.050111030092670823 1 0.027534908220370295 1 1 1 1 1 1 1 1 0.05609525297308747 1 1 1 1 1 1 1 0.050002140347599491 1 0.049971451521636942 1 0.033948722037775034 1 1 1 1 1 1 1 1 0.049270377994303768 1 1 0.044316299083241834 0.054244957515639208 0.050682818964441233 1 0.043395161417215417 1 0.035750532773083307 1 1 1 1 1 1 1 1 1 1 1 1 1 1 1 1 1 1 1 1 1 0.043586535285806798 1 1 0.050568621145710549 0.039588282561221398 1 1 1 0.050050878581286637 1 1 1 1 1 1 1 0.051558001455764009 1 0.050437999778793222 1 1 1 1 0.049767915302946011 1 1 0.054239524828602517 1 1 1 1 1 1 1 0.055462658110777191 1 1 0.058114923467240398 1 1 1 0.060376749467718316 1 1 1 1 1 1 1 1 1 0.049971180606858887 1 1 1 1 1 1 0.037699493957651362 1 1 0.034593881079369705 1 1 1 1 0.034389133550751488 1 1 1 1 1 1 0.055492181276357216 0.053856498031300576 0.036779692155782633 1 1 1 0.049938676288272074 1 0.050000299788635648 1 0.05452506481497451 1 1 1 1 1 1 0.036493980503546262 1 1 1 0.062275294039039066 1 1 1 0.052974551083494442 1 1 1 1 1 1 1 1 1 1 1 1 0.050071742879896547 1 1 1 0.049903140474662377 1 1 1 1 1 0.050199978565664619 0.036764520018295811 1 1 0.050601365269377654 1 0.044947726172608879 0.042474559611816412 0.05053340957360699 1 1 1 0.05009522853152272 1 1 1 1 1 0.039744310350580375 1 1 1 1 1 1 1 1 1 1 1 1 0.05004379781494124 1 1 1 1 1 1 0.04588343716066863 1 1 0.046072934116476248 1 1 0.049984148336914204 1 1 1 1 1 0.049969569032200352 1 1 0.054694075132125916 1 0.049980430608467526 1 0.050024400755407865 1 1 1 1 1 1 0.050068198570349096 1 1 1 1 0.050395701226177904 1 1 1 1 1 1 1 1 1 1 0.051286539322187144 1 1 1 1 1 0.052460995677381425 1 1 1 1 1 1 1 1 1 1 1 1 1 1 1 0.049756847118081274 1 1 1 1 1 0.049287467148911981 1 0.050892103337906405 1 1 1 1 1 0.051121748000073304 1 1 1 1 1 0.04921868131127502 1 1 1 1 1 0.05030337797443004 1 1 1 1 1 1 1 1 1 1 0.042420061083191872 1 0.049995257439971075 1 0.041872874436888412 1 1 0.045698494841940329 1 1 1 1 1 1 1 1 0.040255638548634891 1 0.053477546157408656 1 1 1 1 1 1 1 1 1 1 0.042208838144661559 1 1 1 1 1 1 1 1 1 1 0.046753040348106983 1 1 1 0.045657864850230351 1 0.045350476943992343 0.031880522742145111 1 1 1 0.050064537369620646 1 1 1 0.041197789827217987 0.050239671367032758 1 1 1 1 1 1 1 1 1 1 0.046900916323361748 0.050116761635087104 1 1 1 1 1 0.048651184459896656 1 1 1 1 1 1 1 1 1 1 0.04785660266890962 1 0.045298184433360242 0.052198040815294895 0.040384427612887741 1 1 1 1 1 1 1 1 0.046381766703868121 1 1 1 1 1 1 1 1 1 1 1 1 1 1 1 1 1 1 1 1 1 1 1 1 1 1 1 1 1 0.050382178124173567 1 1 1 1 0.05007373164785317 1 1 1 1 1 1 1 1 0.0502237190367502 1 1 1 1 1 1 1 1 0.050308512036518198 1 1 1 1 1 1 1 1 1 1 1 1 1 1 1 1 1 1 1 1 1 1 1 1 1 1 0.05154258469334231 1 1 1 1 1 1 0.054896799550424716 1 0.032623532516353686 1 1 0.051844307719352944 1 1 1 0.030354654513050722 1 0.053329413525073671 1 1 1 0.049936647606562856 1 1 1 0.048109620384306578 1 1 1 1 1 1 0.049602933405296382 1 1 1 1 1 1 1 1 1 1 1 1 1 1 1 1 1 1 1 1 1 1 1 1 1 1 1 0.049166933897563381 1 0.047869045330045747 1 1 1 1 0.048702111432482383 1 1 1 1 1 1 1 1 1 1 1 1 1 0.048797335455993643 1 1 0.049021054492743799 1 1 0.045283598071514886 1 1 1 1 1 0.037625347703159139 1 1 1 1 1 1 1 1 0.052479466475179246 1 0.055447562815513454 1 1 1 1 1 0.050586586114577399 0.050005901069209741 1 1 0.048195744415719111 1 1 1 0.054581448600984607 1 1 1 1 1 1 1 0.04988644250181945 1 1 1 1 1 1 1 1 1 1 1 1 1 1 1 1 0.051323954908617304 1 1 1 1 1 0.047755895687574365 1 0.048969910510420309 1 1 1 1 1 1 1 1 1 1 1 1 0.048254410329497024 1 0.047689674482117007 1 1 1 1 1 1 0.044823442572005753 0.049468425152342954 1 1 1 1 1 1 1 1 1 1 1 1 1 1 1 1 1 1 1 1 1 0.049261023800058451 1 1 0.047853689480548162 1 1 1 1 1 0.050574216331875366 1 1 1 1 1 1 0.050019958228691819 1 1 1 1 1 1 1 1 1 1 1 1 1 1 1 1 0.049973618412932193 1 1 0.049366044407329418 1 1 1 1 0.049686181941769478 1 1 1 1 1 1 1 1 1 1 1 0.049675958848785763 1 1 1 1 1 1 1 1 1 1 1 1 1 1 1 1 1 1 1 0.047133768089888763 1 1 1 1 1 1 1 1 1 1 1 1 0.049037234003249941 1 1 1 1 1 1 1 1 1 1 1 1 1 0.050057745991048022 0.046696658145874766 1 1 1 1 1 1 0.044818634454658501 1 1 1 1 1 1 1 1 1 1 1 1 1 1 1 1 1 1 1 1 1 1 1 1 1 1 1 1 1 1 1 1 1 1 1 0.049900973578506772 1 1 1 1 1 1 1 1 0.050178315631422138 1 1 1 1 1 1 1 1 1 1 1 1 0.050151934044354335 1 1 1 1 0.048184335607393533 1 0.047238410663140412 1 1 1 1 1 1 1 1 0.050234710630979167 1 1 1 1 1 1 1 1 1 1 0.050244933723962854 1 1 1 0.052948533489399485 1 1 0.050365425678479861 1 1 1 1 0.054961413050587077 1 1 0.056765492879973692 1 1 1 1 1 1 1 1 0.05110521080262382 1 1 1 0.051860529291166857 1 1 1 1 1 1 1 0.051416375883555174 1 0.049985837841437675 1 0.045270509500867043 1 0.0442205268313203 0.049519133150297004 1 1 1 0.049862585696659453 0.050068558403411435 0.047703204424886313 1 1 0.035420141045659312 1 1 1 0.058505783846937776 1 1 1 1 0.050086538079347612 1 1 1 1 1 1 1 1 1 1 1 1 1 1 1 1 1 1 1 1 1 1 1 1 1 1 1 1 1 1 1 1 1 1 1 1 1 1 0.049920879126632532 1 1 1 1 1 1 1 1 0.051705333397666878 1 1 1 1 0.050803526647785022 1 1 0.050229444851097996 1 1 0.051540468574933648 1 1 1 1 0.05054620718422289 1 1 1 1 1 0.050723157119790509 1 1 1 1 1 1 1 1 1 1 1 1 1 0.041555190239118439 0.049984733440150926 1 1 1 0.047050494964593279 1 1 1 1 1 1 1 1 1 1 1 1 1 1 0.049794114856206967 1 1 1 1 1 1 0.049136748516612754 1 1 0.048173982519862671 1 1 1 1 1 1 1 1 1 1 0.049434313907864735 1 1 1 1 1 0.049405092324675923 1 1 1 1 1 1 1 1 1 1 0.050849994111553505 1 1 1 1 1 1 1 1 1 1 1 1 1 1 1 0.049997043987062569 1 1 1 1 1 1 1 1 1 1 1 1 1 1 1 1 1 1 1 1 1 1 1 0.050009677652754991 1 0.050938076852411404 1 1 1 0.0499305567793875 1 1 1 1 1 1 1 1 1 0.050558292297057258 1 1 1 0.051202004104045365 1 1 1 1 1 1 1 1 1 1 1 1 1 1 1 1 0.044627238568701752 1 1 1 1 1 0.050993231036870118 1 1 1 0.044739699043109003 1 0.049912041735366015 1 1 1 1 1 1 0.04515803802790215 1 1 1 1 1 1 1 1 1 1 1 1 1 1 1 1 1 1 1 1 1 1 1 1 1 1 1 0.050413893472671271 1 1 0.050063211291242332 1 1 1 1 1 1 1 0.049795669558628256 1 1 1 1 0.050035727327753757 1 1 0.050035497111079782 1 1 1 1 1 1 0.04996819803588546 1 1 1 0.049983121558986737 1 1 1 0.049983078051298688 1 1 1 1 1 0.049154846647573608 1 1 1 1 1 0.048203519046743817 1 1 1 1 1 1 1 1 0.047244443500616573 1 1 0.049965392674861893 1 1 1 1 0.049876149387094636 1 1 1 1 0.049795691968581357 1 1 1 1 0.044542600365107085 1 1 1 0.045210625502770177 1 0.050080683708147833 1 1 1 1 1 1 1 1 1 1 0.049216364033128207 1 1 1 1 1 1 1 0.047875953685713582 0.049025868776083517 1 1 1 1 1 0.044887834037168096 1 1 1 1 1 0.04672386349926666 1 1 1 0.049793487071362656 1 1 0.049970985808078766 1 1 0.042587373837448247 1 1 1 0.0464369420246903 1 1 1 1 1 1 0.049842976784564952 1 1 1 1 1 0.049946339186089095 1 1 1 1 1 0.049982364300130477 1 1 1 1 1 1 0.049903323810906175 1 1 1 1 0.031451756297999664 1 1 1 1 1 0.049818451699262488 1 1 1 1 1 1 1 1 1 1 0.036516371709892206 1 1 1 1 1 1 1 0.051589868978365802 1 1 1 1 0.050502133671996255 0.051423037738714233 1 1 0.045347532179535618 1 1 1 1 1 1 1 0.048280352307987648 1 1 1 1 1 1 1 0.026166605026573 1 0.053586898150766726 1 1 0.041476873105880288 1 1 1 1 0.050412165339505044 1 0.040282639988309776 1 1 1 1 1 1 1 1 1 1 0.050098048976649559 1 1 1 1 1 0.049669778899137547 1 1 1 0.026314844189877281 1 1 1 1 0.050113836656696255 1 1 0.048412000778676939 1 1 1 1 1 0.042437463624652554 1 0.036440910052113251 1 0.0500057865739897 0.049628196224341704 1 1 1 1 0.039209455878282333 0.050262735529280025 1 1 1 1 1 1 1 1 1 1 1 1 1 0.050084159315571281 1 1 1 1 1 1 0.050915043438194099 0.048064591717179722 1 1 1 1 1 1 1 1 1 1 1 1 1 0.043997922333285769 1 1 1 1 1 1 1 1 1 1 1 1 1 1 1 1 1 1 1 1 1 1 1 1 1 1 1 1 1 1 1 1 1 0.050140629083989217 1 1 0.050253731134020541 1 1 1 1 1 1 1 0.050097835490182263 1 1 1 0.050145631949585052 1 1 0.053601201972723195 1 1 1 0.034542366595391574 0.049986313917570122 1 1 1 1 0.039517191366065123 0.041837182610537621 1 1 1 1 1 1 1 1 1 1 1 1 1 1 0.034032706929304338 1 1 0.049999869757185761 1 1 1 0.036656477384508071 1 1 1 1 0.050145585042308274 1 1 0.032743403045481262 1 1 1 1 1 1 1 1 1 1 1 0.024131077416596664 1 1 1 1 1 1 1 0.016467776595416442 1 1 1 1 1 1 1 1 1 1 1 1 1 1 1 1 1 1 0.05006552561717325 1 1 1 1 1 1 0.040573423763334414 1 0.049871290533757877 1 1 1 1 1 0.050667681959706203 1 1 0.050267371007935539 1 1 1 0.031791692362555864 1 1 1 0.050267982346154524 1 1 1 1 1 1 1 1 1 1 1 1 1 1 0.049747554418977664 1 1 1 1 0.049243348527231473 0.043920668823147435 1 1 1 1 1 1 1 1 1 1 1 1 1 1 1 1 1 1 1 0.049110675379361771 1 1 1 1 1 1 1 1 0.042793244705089967 1 0.042859932093412698 1 1 1 1 1 1 1 0.049990797518343351 1 0.049667158601382655 1 1 1 1 1 0.042898893509305855 1 1 1 1 1 1 0.049729355855956524 1 1 1 1 1 0.046770270157758642 0.049682597150437734 1 1 1 0.054968818523825784 0.042158785819406151 0.045888824786098729 1 1 1 1 1 0.047939014248198616 1 1 1 1 1 0.041317044253587634 1 1 1 1 0.044024992869431991 1 0.045232804345759901 0.05191714858816554 1 0.046966949840161462 0.038609454683519825 1 1 1 0.037377076242808421 1 1 1 0.0450032018764287 1 1 1 0.047651383918366888 1 1 1 0.03906386368180631 1 1 1 1 1 1 1 1 0.03629826050647518 1 1 1 0.03676265256218398 1 1 1 1 1 1 0.034823850139684642 1 1 1 1 1 1 0.035020288396731956 1 1 1 1 1 1 1 1 1 1 1 1 1 1 0.050057565036085903 1 0.047787578393025582 1 1 1 0.038655155032829513 1 1 0.050248198661309675 1 0.049803838607291914 1 0.050095580545550612 1 1 0.043087557302602254 1 1 1 1 1 1 0.049859382214170141 1 1 1 1 0.049897843702504621 1 1 1 1 1 1 0.049948987361849148 1 1 1 1 1 1 1 1 1 1 0.050017892196653341 1 1 1 1 1 1 1 1 1 1 1 1 1 1 1 1 1 1 1 0.054060129884629146 0.052157202238673955 1 1 1 0.043495649649677545 1 1 0.053760320321444219 1 1 0.043561728778940739 1 1 0.049764754115498695 1 1 0.052908419853893565 0.049072007347792476 1 1 1 1 0.043444088648774887 1 1 1 1 1 1 1 1 1 1 1 0.055248932133423301 0.044214392851913226 1 1 1 0.051606225572732665 1 0.049988391013859969 1 0.049949680743667596 1 1 1 1 1 0.049946452936228333 1 1 0.032878181505323539 1 0.054449234279722931 1 1 0.050012604526202015 0.04337954318581487 0.04076262440478233 1 1 1 1 0.04173157598398812 1 1 0.043255672418168342 1 0.036707373146893506 1 1 0.047442758381820521 1 1 1 1 1 1 1 1 0.036724237263919809 1 0.037422123322972164 0.04986058979888712 1 1 1 1 1 0.049782643013372721 0.028405172327982061 1 1 1 0.046818551026215655 0.049235718979456576 1 1 1 1 1 1 1 1 0.049986178255344307 1 0.027329488139208977 1 1 1 1 1 1 1 1 1 1 1 1 1 1 1 1 1 1 1 1 1 1 1 1 1 1 1 1 1 0.050008075159632279 1 1 1 1 1 1 1 1 1 1 1 1 1 1 1 0.052148365084643038 1 1 0.049901305102384511 1 1 1 1 1 0.050077970378838529 1 1 1 1 1 1 1 1 1 1 1 1 1 0.049823334723545998 1 1 1 1 1 1 1 1 1 0.038992885102461738 1 1 0.06003560917496531 1 1 1 1 0.050002031030314753 0.036075627058016195 0.048231392233311826 1 1 1 1 1 0.056248302806325007 1 1 1 
</DataArray>
</CellData>
</Piece>
</UnstructuredGrid>
</VTKFile>
